 vasp.6.4.2 20Jul23 (build Mar  2 2025 11:04:54) complex                         
 executed on              LinuxNV date 2026.06.25  20:43:22
 running    8 mpi-ranks, with    2 threads/rank, on    1 nodes
 distrk:  each k-point on    1 cores,    8 groups
 distr:  one band on NCORE=   1 cores,    1 groups
 OpenACC runtime initialized ...    8 GPUs detected


--------------------------------------------------------------------------------------------------------


 INCAR:
   AEXX = 0.25
   ALGO = All
   EDIFF = 1e-06
   ENCUT = 520.0
   HFSCREEN = 0.2
   ICHARG = 1
   ISMEAR = 0
   ISTART = 1
   KGAMMA = True
   KPAR = 8
   KSPACING = 0.3
   LCHARG = False
   LHFCALC = True
   LWAVE = False
   NELM = 200
   PREC = Accurate
   SIGMA = 0.05
   SYSTEM = GaP HSE06 SCF
   TIME = 0.4

 POTCAR:    PAW_PBE Ga_d 06Jul2010                
 POTCAR:    PAW_PBE P 06Sep2000                   
 POTCAR:    PAW_PBE Ga_d 06Jul2010                
   SHA256 =  a60ddf36e14f00ea098d9e3914b3745f1b7105e68786148f49ae384e44b4226c Ga_d/POTCAR           
   COPYR  = (c) Copyright 06Jul2010 Georg Kresse                                                    
   COPYR  = This file is part of the software VASP. Any use, copying, and all other rights are regul
   COPYR  = If you do not have a valid VASP license, you may not use, copy or distribute this file. 
   VRHFIN =Ga: s2p1                                                                                 
   LEXCH  = PE                                                                                      
   EATOM  =  2148.8298 eV,  157.9345 Ry                                                             
                                                                                                    
   TITEL  = PAW_PBE Ga_d 06Jul2010                                                                  
   LULTRA =        F    use ultrasoft PP ?                                                          
   IUNSCR =        1    unscreen: 0-lin 1-nonlin 2-no                                               
   RPACOR =    1.700    partial core radius                                                         
   POMASS =   69.723; ZVAL   =   13.000    mass and valenz                                          
   RCORE  =    2.300    outmost cutoff radius                                                       
   RWIGS  =    2.300; RWIGS  =    1.217    wigner-seitz radius (au A)                               
   ENMAX  =  282.691; ENMIN  =  212.018 eV                                                          
   ICORE  =        3    local potential                                                             
   LCOR   =        T    correct aug charges                                                         
   LPAW   =        T    paw PP                                                                      
   EAUG   =  490.690                                                                                
   DEXC   =    0.000                                                                                
   RMAX   =    2.341    core radius for proj-oper                                                   
   RAUG   =    1.300    factor for augmentation sphere                                              
   RDEP   =    2.413    radius for radial grids                                                     
   RDEPT  =    1.856    core radius for aug-charge                                                  
                                                                                                    
   Atomic configuration                                                                             
    9 entries                                                                                       
     n  l   j            E        occ.                                                              
     1  0  0.50    -10228.7831   2.0000                                                             
     2  0  0.50     -1262.1604   2.0000                                                             
     2  1  1.50     -1098.6333   6.0000                                                             
     3  0  0.50      -148.1110   2.0000                                                             
     3  1  1.50       -98.8436   6.0000                                                             
     3  2  2.50       -19.1549  10.0000                                                             
     4  0  0.50        -8.9483   2.0000                                                             
     4  1  0.50        -2.5791   1.0000                                                             
     4  3  2.50        -2.7416   0.0000                                                             
   Description                                                                                      
     l       E           TYP  RCUT    TYP  RCUT                                                     
     2    -19.1549037     23  2.300                                                                 
     2     -5.4423304     23  2.300                                                                 
     0     -8.9483111     23  2.300                                                                 
     0     68.0291300     23  2.300                                                                 
     1     -2.5790802     23  2.100                                                                 
     1     81.6349560     23  2.300                                                                 
     3      6.8029130     23  2.300                                                                 
  local pseudopotential read in
  partial core-charges read in
  partial kinetic energy density read in
  atomic valenz-charges read in
  non local Contribution for L=            2  read in
    real space projection operators read in
  non local Contribution for L=            2  read in
    real space projection operators read in
  non local Contribution for L=            0  read in
    real space projection operators read in
  non local Contribution for L=            0  read in
    real space projection operators read in
  non local Contribution for L=            1  read in
    real space projection operators read in
  non local Contribution for L=            1  read in
    real space projection operators read in
    PAW grid and wavefunctions read in
 
   number of l-projection  operators is LMAX  =            6
   number of lm-projection operators is LMMAX =           18
 
 POTCAR:    PAW_PBE P 06Sep2000                   
   SHA256 =  df60c54a93efe35c9e85ae94c010c75e9f6960a95d5595d7cdba4096d109af88 P/POTCAR              
   COPYR  = (c) Copyright 06Sep2000 Georg Kresse                                                    
   COPYR  = This file is part of the software VASP. Any use, copying, and all other rights are regul
   COPYR  = If you do not have a valid VASP license, you may not use, copy or distribute this file. 
   VRHFIN =P : s2p3                                                                                 
   LEXCH  = PE                                                                                      
   EATOM  =   176.0430 eV,   12.9388 Ry                                                             
                                                                                                    
   TITEL  = PAW_PBE P 06Sep2000                                                                     
   LULTRA =        F    use ultrasoft PP ?                                                          
   IUNSCR =        1    unscreen: 0-lin 1-nonlin 2-no                                               
   RPACOR =    1.500    partial core radius                                                         
   POMASS =   30.974; ZVAL   =    5.000    mass and valenz                                          
   RCORE  =    1.900    outmost cutoff radius                                                       
   RWIGS  =    2.330; RWIGS  =    1.233    wigner-seitz radius (au A)                               
   ENMAX  =  255.040; ENMIN  =  191.280 eV                                                          
   ICORE  =        2    local potential                                                             
   LCOR   =        T    correct aug charges                                                         
   LPAW   =        T    paw PP                                                                      
   EAUG   =  342.924                                                                                
   DEXC   =    0.000                                                                                
   RMAX   =    1.935    core radius for proj-oper                                                   
   RAUG   =    1.300    factor for augmentation sphere                                              
   RDEP   =    1.931    radius for radial grids                                                     
   RDEPT  =    1.794    core radius for aug-charge                                                  
                                                                                                    
   Atomic configuration                                                                             
    6 entries                                                                                       
     n  l   j            E        occ.                                                              
     1  0  0.50     -2084.0982   2.0000                                                             
     2  0  0.50      -173.9859   2.0000                                                             
     2  1  1.50      -124.4865   6.0000                                                             
     3  0  0.50       -13.9692   2.0000                                                             
     3  1  0.50        -5.5067   3.0000                                                             
     3  2  1.50        -5.4423   0.0000                                                             
   Description                                                                                      
     l       E           TYP  RCUT    TYP  RCUT                                                     
     0    -13.9691527     23  1.900                                                                 
     0    -11.7794650     23  1.900                                                                 
     1     -5.5066937     23  1.900                                                                 
     1     -0.2556953     23  1.900                                                                 
     2     -5.4423304     23  1.900                                                                 
  local pseudopotential read in
  partial core-charges read in
  partial kinetic energy density read in
  atomic valenz-charges read in
  non local Contribution for L=            0  read in
    real space projection operators read in
  non local Contribution for L=            0  read in
    real space projection operators read in
  non local Contribution for L=            1  read in
    real space projection operators read in
  non local Contribution for L=            1  read in
    real space projection operators read in
    PAW grid and wavefunctions read in
 
   number of l-projection  operators is LMAX  =            4
   number of lm-projection operators is LMMAX =            8
 
  PAW_PBE Ga_d 06Jul2010                :
 energy of atom  1       EATOM=-2148.8298
 kinetic energy error for atom=    0.0026 (will be added to EATOM!!)
  PAW_PBE P 06Sep2000                   :
 energy of atom  2       EATOM= -176.0430
 kinetic energy error for atom=    0.0011 (will be added to EATOM!!)
 
 
 POSCAR: Ga1 P1
  positions in direct lattice
  No initial velocities read in
 exchange correlation table for  LEXCH =        8
   RHO(1)=    0.500       N(1)  =     2000
   RHO(2)=  100.500       N(2)  =     4000
 


--------------------------------------------------------------------------------------------------------


 ion  position               nearest neighbor table
   1  0.000  0.000  0.000-   2 2.36   2 2.36   2 2.36   2 2.36
   2  0.250  0.250  0.250-   1 2.36   1 2.36   1 2.36   1 2.36
 
  LATTYP: Found a face centered cubic cell.
 ALAT       =     5.4516240987
  
  Lattice vectors:
  
 A1 = (   3.3384251700,  -0.0000000000,   1.9274401000)
 A2 = (   1.1128080600,   3.1474967100,   1.9274401000)
 A3 = (  -0.0000000000,  -0.0000000000,   3.8548812000)


Analysis of symmetry for initial positions (statically):
=====================================================================
 Subroutine PRICEL returns:
 Original cell was already a primitive cell.
 

 Routine SETGRP: Setting up the symmetry group for a 
 face centered cubic supercell.


 Subroutine GETGRP returns: Found 24 space group operations
 (whereof 24 operations were pure point group operations)
 out of a pool of 48 trial point group operations.


The static configuration has the point symmetry T_d .


Analysis of symmetry for dynamics (positions and initial velocities):
=====================================================================
 Subroutine PRICEL returns:
 Original cell was already a primitive cell.
 

 Routine SETGRP: Setting up the symmetry group for a 
 face centered cubic supercell.


 Subroutine GETGRP returns: Found 24 space group operations
 (whereof 24 operations were pure point group operations)
 out of a pool of 48 trial point group operations.


The dynamic configuration has the point symmetry T_d .


 Subroutine INISYM returns: Found 24 space group operations
 (whereof 24 operations are pure point group operations),
 and found     1 'primitive' translations


----------------------------------------------------------------------------------------

                                     Primitive cell                                     

  volume of cell :      40.5059

  direct lattice vectors                    reciprocal lattice vectors
     3.338425170 -0.000000000  1.927440100     0.299542434 -0.105904236  0.000000000
     1.112808060  3.147496710  1.927440100     0.000000000  0.317712802  0.000000000
    -0.000000000 -0.000000000  3.854881200    -0.149771178 -0.105904256  0.259411367

  length of vectors
     3.854881056  3.854880369  3.854881200     0.317712727  0.317712802  0.317712723

  position of ions in fractional coordinates (direct lattice)
     0.000000000  0.000000000  0.000000000
     0.250000000  0.250000000  0.250000000

  ion indices of the primitive-cell ions
   primitive index   ion index
                 1           1
                 2           2

----------------------------------------------------------------------------------------

 
 -----------------------------------------------------------------------------
|                                                                             |
|           W    W    AA    RRRRR   N    N  II  N    N   GGGG   !!!           |
|           W    W   A  A   R    R  NN   N  II  NN   N  G    G  !!!           |
|           W    W  A    A  R    R  N N  N  II  N N  N  G       !!!           |
|           W WW W  AAAAAA  RRRRR   N  N N  II  N  N N  G  GGG   !            |
|           WW  WW  A    A  R   R   N   NN  II  N   NN  G    G                |
|           W    W  A    A  R    R  N    N  II  N    N   GGGG   !!!           |
|                                                                             |
|     The requested file  could not be found or opened for reading            |
|     k-point information. Automatic k-point generation is used as a          |
|     fallback, which may lead to unwanted results.                           |
|                                                                             |
 -----------------------------------------------------------------------------

 

Automatic generation of k-mesh.
 Grid dimensions derived from KSPACING:
 generate k-points for:    7    7    7

 Generating k-lattice:

  Cartesian coordinates                     Fractional coordinates (reciprocal lattice)
     0.042791776 -0.015129177  0.000000000     0.142857143 -0.000000000  0.000000000
     0.000000000  0.045387543  0.000000000     0.000000000  0.142857143  0.000000000
    -0.021395883 -0.015129179  0.037058767     0.000000000  0.000000000  0.142857143

  Length of vectors
     0.045387532  0.045387543  0.045387532

  Shift w.r.t. Gamma in fractional coordinates (k-lattice)
     0.000000000  0.000000000  0.000000000

 
 Subroutine IBZKPT returns following result:
 ===========================================
 
 Found     20 irreducible k-points:
 
 Following reciprocal coordinates:
            Coordinates               Weight
  0.000000  0.000000  0.000000      1.000000
  0.142857  0.000000  0.000000      8.000000
  0.285714  0.000000  0.000000      8.000000
  0.428571  0.000000  0.000000      8.000000
  0.142857  0.142857  0.000000      6.000000
  0.285714  0.142857  0.000000     24.000000
  0.428571  0.142857  0.000000     24.000000
 -0.428571  0.142857  0.000000     24.000000
 -0.285714  0.142857  0.000000     24.000000
 -0.142857  0.142857  0.000000     12.000000
  0.285714  0.285714  0.000000      6.000000
  0.428571  0.285714  0.000000     24.000000
 -0.428571  0.285714  0.000000     24.000000
 -0.285714  0.285714  0.000000     12.000000
  0.428571  0.428571  0.000000      6.000000
 -0.428571  0.428571  0.000000     12.000000
  0.428571  0.285714  0.142857     24.000000
 -0.428571  0.285714  0.142857     48.000000
 -0.428571  0.428571  0.142857     24.000000
 -0.285714  0.428571  0.142857     24.000000
 
 Following cartesian coordinates:
            Coordinates               Weight
  0.000000  0.000000  0.000000      1.000000
  0.042792 -0.015129  0.000000      8.000000
  0.085584 -0.030258  0.000000      8.000000
  0.128375 -0.045388  0.000000      8.000000
  0.042792  0.030258  0.000000      6.000000
  0.085584  0.015129  0.000000     24.000000
  0.128375  0.000000  0.000000     24.000000
 -0.128375  0.090775  0.000000     24.000000
 -0.085584  0.075646  0.000000     24.000000
 -0.042792  0.060517  0.000000     12.000000
  0.085584  0.060517  0.000000      6.000000
  0.128375  0.045388  0.000000     24.000000
 -0.128375  0.136163  0.000000     24.000000
 -0.085584  0.121033  0.000000     12.000000
  0.128375  0.090775  0.000000      6.000000
 -0.128375  0.181550  0.000000     12.000000
  0.106979  0.030258  0.037059     24.000000
 -0.149771  0.121033  0.037059     48.000000
 -0.149771  0.166421  0.037059     24.000000
 -0.106979  0.151292  0.037059     24.000000
 
 
 Subroutine IBZKPT_HF returns following result:
 ==============================================
 
 Found    343 k-points in 1st BZ
 the following    343 k-points will be used (e.g. in the exchange kernel)
 Following reciprocal coordinates:   # in IRBZ
  0.000000  0.000000  0.000000    0.00291545   1 t-inv F
  0.142857  0.000000  0.000000    0.00291545   2 t-inv F
  0.285714  0.000000  0.000000    0.00291545   3 t-inv F
  0.428571  0.000000  0.000000    0.00291545   4 t-inv F
  0.142857  0.142857  0.000000    0.00291545   5 t-inv F
  0.285714  0.142857  0.000000    0.00291545   6 t-inv F
  0.428571  0.142857  0.000000    0.00291545   7 t-inv F
 -0.428571  0.142857  0.000000    0.00291545   8 t-inv F
 -0.285714  0.142857  0.000000    0.00291545   9 t-inv F
 -0.142857  0.142857  0.000000    0.00291545  10 t-inv F
  0.285714  0.285714  0.000000    0.00291545  11 t-inv F
  0.428571  0.285714  0.000000    0.00291545  12 t-inv F
 -0.428571  0.285714  0.000000    0.00291545  13 t-inv F
 -0.285714  0.285714  0.000000    0.00291545  14 t-inv F
  0.428571  0.428571  0.000000    0.00291545  15 t-inv F
 -0.428571  0.428571  0.000000    0.00291545  16 t-inv F
  0.428571  0.285714  0.142857    0.00291545  17 t-inv F
 -0.428571  0.285714  0.142857    0.00291545  18 t-inv F
 -0.428571  0.428571  0.142857    0.00291545  19 t-inv F
 -0.285714  0.428571  0.142857    0.00291545  20 t-inv F
  0.000000  0.142857  0.000000    0.00291545   2 t-inv F
  0.000000  0.000000  0.142857    0.00291545   2 t-inv F
 -0.142857 -0.142857 -0.142857    0.00291545   2 t-inv F
  0.000000  0.285714  0.000000    0.00291545   3 t-inv F
  0.000000  0.000000  0.285714    0.00291545   3 t-inv F
 -0.285714 -0.285714 -0.285714    0.00291545   3 t-inv F
  0.000000  0.428571  0.000000    0.00291545   4 t-inv F
  0.000000  0.000000  0.428571    0.00291545   4 t-inv F
 -0.428571 -0.428571 -0.428571    0.00291545   4 t-inv F
  0.000000  0.142857  0.142857    0.00291545   5 t-inv F
  0.142857  0.000000  0.142857    0.00291545   5 t-inv F
 -0.142857 -0.142857  0.000000    0.00291545   5 t-inv F
 -0.142857 -0.000000 -0.142857    0.00291545   5 t-inv F
  0.000000 -0.142857 -0.142857    0.00291545   5 t-inv F
  0.000000  0.285714  0.142857    0.00291545   6 t-inv F
  0.142857  0.000000  0.285714    0.00291545   6 t-inv F
 -0.142857 -0.142857  0.142857    0.00291545   6 t-inv F
 -0.285714 -0.142857 -0.285714    0.00291545   6 t-inv F
  0.142857  0.285714 -0.000000    0.00291545   6 t-inv F
  0.142857 -0.142857 -0.142857    0.00291545   6 t-inv F
 -0.285714 -0.285714 -0.142857    0.00291545   6 t-inv F
 -0.000000  0.142857  0.285714    0.00291545   6 t-inv F
 -0.142857  0.142857 -0.142857    0.00291545   6 t-inv F
 -0.142857 -0.285714 -0.285714    0.00291545   6 t-inv F
  0.285714 -0.000000  0.142857    0.00291545   6 t-inv F
  0.000000  0.428571  0.142857    0.00291545   7 t-inv F
  0.142857  0.000000  0.428571    0.00291545   7 t-inv F
 -0.142857 -0.142857  0.285714    0.00291545   7 t-inv F
 -0.428571 -0.285714 -0.428571    0.00291545   7 t-inv F
  0.142857  0.428571 -0.000000    0.00291545   7 t-inv F
  0.285714 -0.142857 -0.142857    0.00291545   7 t-inv F
 -0.428571 -0.428571 -0.285714    0.00291545   7 t-inv F
 -0.000000  0.142857  0.428571    0.00291545   7 t-inv F
 -0.142857  0.285714 -0.142857    0.00291545   7 t-inv F
 -0.285714 -0.428571 -0.428571    0.00291545   7 t-inv F
  0.428571 -0.000000  0.142857    0.00291545   7 t-inv F
  0.000000 -0.428571  0.142857    0.00291545   8 t-inv F
  0.142857  0.000000 -0.428571    0.00291545   8 t-inv F
 -0.142857 -0.142857 -0.571429    0.00291545   8 t-inv F
  0.428571  0.571429  0.428571    0.00291545   8 t-inv F
  0.142857 -0.428571 -0.000000    0.00291545   8 t-inv F
 -0.571429 -0.142857 -0.142857    0.00291545   8 t-inv F
  0.428571  0.428571  0.571429    0.00291545   8 t-inv F
 -0.000000  0.142857 -0.428571    0.00291545   8 t-inv F
 -0.142857 -0.571429 -0.142857    0.00291545   8 t-inv F
  0.571429  0.428571  0.428571    0.00291545   8 t-inv F
 -0.428571 -0.000000  0.142857    0.00291545   8 t-inv F
  0.000000 -0.285714  0.142857    0.00291545   9 t-inv F
  0.142857  0.000000 -0.285714    0.00291545   9 t-inv F
 -0.142857 -0.142857 -0.428571    0.00291545   9 t-inv F
  0.285714  0.428571  0.285714    0.00291545   9 t-inv F
  0.142857 -0.285714 -0.000000    0.00291545   9 t-inv F
 -0.428571 -0.142857 -0.142857    0.00291545   9 t-inv F
  0.285714  0.285714  0.428571    0.00291545   9 t-inv F
 -0.000000  0.142857 -0.285714    0.00291545   9 t-inv F
 -0.142857 -0.428571 -0.142857    0.00291545   9 t-inv F
  0.428571  0.285714  0.285714    0.00291545   9 t-inv F
 -0.285714 -0.000000  0.142857    0.00291545   9 t-inv F
  0.000000 -0.142857  0.142857    0.00291545  10 t-inv F
  0.142857  0.000000 -0.142857    0.00291545  10 t-inv F
 -0.142857 -0.142857 -0.285714    0.00291545  10 t-inv F
  0.142857  0.285714  0.142857    0.00291545  10 t-inv F
  0.142857 -0.142857 -0.000000    0.00291545  10 t-inv F
 -0.285714 -0.142857 -0.142857    0.00291545  10 t-inv F
  0.142857  0.142857  0.285714    0.00291545  10 t-inv F
 -0.000000  0.142857 -0.142857    0.00291545  10 t-inv F
 -0.142857 -0.285714 -0.142857    0.00291545  10 t-inv F
  0.285714  0.142857  0.142857    0.00291545  10 t-inv F
 -0.142857 -0.000000  0.142857    0.00291545  10 t-inv F
  0.000000  0.285714  0.285714    0.00291545  11 t-inv F
  0.285714  0.000000  0.285714    0.00291545  11 t-inv F
 -0.285714 -0.285714  0.000000    0.00291545  11 t-inv F
 -0.285714 -0.000000 -0.285714    0.00291545  11 t-inv F
  0.000000 -0.285714 -0.285714    0.00291545  11 t-inv F
  0.000000  0.428571  0.285714    0.00291545  12 t-inv F
  0.285714  0.000000  0.428571    0.00291545  12 t-inv F
 -0.285714 -0.285714  0.142857    0.00291545  12 t-inv F
 -0.428571 -0.142857 -0.428571    0.00291545  12 t-inv F
  0.285714  0.428571 -0.000000    0.00291545  12 t-inv F
  0.142857 -0.285714 -0.285714    0.00291545  12 t-inv F
 -0.428571 -0.428571 -0.142857    0.00291545  12 t-inv F
 -0.000000  0.285714  0.428571    0.00291545  12 t-inv F
 -0.285714  0.142857 -0.285714    0.00291545  12 t-inv F
 -0.142857 -0.428571 -0.428571    0.00291545  12 t-inv F
  0.428571 -0.000000  0.285714    0.00291545  12 t-inv F
  0.000000 -0.428571  0.285714    0.00291545  13 t-inv F
  0.285714  0.000000 -0.428571    0.00291545  13 t-inv F
 -0.285714 -0.285714 -0.714286    0.00291545  13 t-inv F
  0.428571  0.714286  0.428571    0.00291545  13 t-inv F
  0.285714 -0.428571 -0.000000    0.00291545  13 t-inv F
 -0.714286 -0.285714 -0.285714    0.00291545  13 t-inv F
  0.428571  0.428571  0.714286    0.00291545  13 t-inv F
 -0.000000  0.285714 -0.428571    0.00291545  13 t-inv F
 -0.285714 -0.714286 -0.285714    0.00291545  13 t-inv F
  0.714286  0.428571  0.428571    0.00291545  13 t-inv F
 -0.428571 -0.000000  0.285714    0.00291545  13 t-inv F
  0.000000 -0.285714  0.285714    0.00291545  14 t-inv F
  0.285714  0.000000 -0.285714    0.00291545  14 t-inv F
 -0.285714 -0.285714 -0.571429    0.00291545  14 t-inv F
  0.285714  0.571429  0.285714    0.00291545  14 t-inv F
  0.285714 -0.285714 -0.000000    0.00291545  14 t-inv F
 -0.571429 -0.285714 -0.285714    0.00291545  14 t-inv F
  0.285714  0.285714  0.571429    0.00291545  14 t-inv F
 -0.000000  0.285714 -0.285714    0.00291545  14 t-inv F
 -0.285714 -0.571429 -0.285714    0.00291545  14 t-inv F
  0.571429  0.285714  0.285714    0.00291545  14 t-inv F
 -0.285714 -0.000000  0.285714    0.00291545  14 t-inv F
  0.000000  0.428571  0.428571    0.00291545  15 t-inv F
  0.428571  0.000000  0.428571    0.00291545  15 t-inv F
 -0.428571 -0.428571  0.000000    0.00291545  15 t-inv F
 -0.428571 -0.000000 -0.428571    0.00291545  15 t-inv F
  0.000000 -0.428571 -0.428571    0.00291545  15 t-inv F
  0.000000 -0.428571  0.428571    0.00291545  16 t-inv F
  0.428571  0.000000 -0.428571    0.00291545  16 t-inv F
 -0.428571 -0.428571 -0.857143    0.00291545  16 t-inv F
  0.428571  0.857143  0.428571    0.00291545  16 t-inv F
  0.428571 -0.428571 -0.000000    0.00291545  16 t-inv F
 -0.857143 -0.428571 -0.428571    0.00291545  16 t-inv F
  0.428571  0.428571  0.857143    0.00291545  16 t-inv F
 -0.000000  0.428571 -0.428571    0.00291545  16 t-inv F
 -0.428571 -0.857143 -0.428571    0.00291545  16 t-inv F
  0.857143  0.428571  0.428571    0.00291545  16 t-inv F
 -0.428571 -0.000000  0.428571    0.00291545  16 t-inv F
  0.142857  0.428571  0.285714    0.00291545  17 t-inv F
  0.285714  0.142857  0.428571    0.00291545  17 t-inv F
 -0.285714 -0.142857  0.142857    0.00291545  17 t-inv F
 -0.428571 -0.142857 -0.285714    0.00291545  17 t-inv F
 -0.142857  0.285714  0.142857    0.00291545  17 t-inv F
  0.142857  0.285714 -0.142857    0.00291545  17 t-inv F
  0.142857 -0.142857 -0.285714    0.00291545  17 t-inv F
 -0.285714 -0.142857 -0.428571    0.00291545  17 t-inv F
 -0.285714 -0.428571 -0.142857    0.00291545  17 t-inv F
  0.142857 -0.142857  0.285714    0.00291545  17 t-inv F
  0.142857 -0.285714 -0.142857    0.00291545  17 t-inv F
 -0.142857  0.142857  0.285714    0.00291545  17 t-inv F
 -0.285714  0.142857 -0.142857    0.00291545  17 t-inv F
 -0.428571 -0.285714 -0.142857    0.00291545  17 t-inv F
 -0.142857 -0.285714 -0.428571    0.00291545  17 t-inv F
  0.285714  0.142857 -0.142857    0.00291545  17 t-inv F
 -0.142857  0.142857 -0.285714    0.00291545  17 t-inv F
  0.285714 -0.142857  0.142857    0.00291545  17 t-inv F
 -0.142857 -0.285714  0.142857    0.00291545  17 t-inv F
 -0.142857 -0.428571 -0.285714    0.00291545  17 t-inv F
  0.428571  0.142857  0.285714    0.00291545  17 t-inv F
  0.285714  0.428571  0.142857    0.00291545  17 t-inv F
  0.142857  0.285714  0.428571    0.00291545  17 t-inv F
  0.142857 -0.428571  0.285714    0.00291545  18 t-inv F
  0.285714  0.142857 -0.428571    0.00291545  18 t-inv F
 -0.285714 -0.142857 -0.714286    0.00291545  18 t-inv F
  0.428571  0.714286  0.571429    0.00291545  18 t-inv F
 -0.142857 -0.571429  0.142857    0.00291545  18 t-inv F
  0.142857 -0.571429 -0.142857    0.00291545  18 t-inv F
 -0.714286 -0.142857 -0.285714    0.00291545  18 t-inv F
  0.571429  0.714286  0.428571    0.00291545  18 t-inv F
  0.571429  0.428571  0.714286    0.00291545  18 t-inv F
  0.142857 -0.142857 -0.571429    0.00291545  18 t-inv F
 -0.714286 -0.285714 -0.142857    0.00291545  18 t-inv F
 -0.142857  0.142857 -0.571429    0.00291545  18 t-inv F
 -0.285714 -0.714286 -0.142857    0.00291545  18 t-inv F
  0.428571  0.571429  0.714286    0.00291545  18 t-inv F
  0.714286  0.571429  0.428571    0.00291545  18 t-inv F
 -0.571429  0.142857 -0.142857    0.00291545  18 t-inv F
 -0.142857 -0.714286 -0.285714    0.00291545  18 t-inv F
 -0.571429 -0.142857  0.142857    0.00291545  18 t-inv F
 -0.142857 -0.285714 -0.714286    0.00291545  18 t-inv F
  0.714286  0.428571  0.571429    0.00291545  18 t-inv F
 -0.428571  0.142857  0.285714    0.00291545  18 t-inv F
  0.285714 -0.428571  0.142857    0.00291545  18 t-inv F
  0.142857  0.285714 -0.428571    0.00291545  18 t-inv F
  0.142857 -0.428571  0.428571    0.00291545  19 t-inv F
  0.428571  0.142857 -0.428571    0.00291545  19 t-inv F
 -0.428571 -0.285714 -0.857143    0.00291545  19 t-inv F
  0.428571  0.857143  0.571429    0.00291545  19 t-inv F
 -0.142857 -0.571429  0.285714    0.00291545  19 t-inv F
  0.285714 -0.571429 -0.142857    0.00291545  19 t-inv F
 -0.857143 -0.285714 -0.428571    0.00291545  19 t-inv F
  0.571429  0.857143  0.428571    0.00291545  19 t-inv F
  0.571429  0.428571  0.857143    0.00291545  19 t-inv F
  0.285714 -0.142857 -0.571429    0.00291545  19 t-inv F
 -0.857143 -0.428571 -0.285714    0.00291545  19 t-inv F
 -0.142857  0.285714 -0.571429    0.00291545  19 t-inv F
 -0.428571 -0.857143 -0.285714    0.00291545  19 t-inv F
  0.428571  0.571429  0.857143    0.00291545  19 t-inv F
  0.857143  0.571429  0.428571    0.00291545  19 t-inv F
 -0.571429  0.285714 -0.142857    0.00291545  19 t-inv F
 -0.285714 -0.857143 -0.428571    0.00291545  19 t-inv F
 -0.571429 -0.142857  0.285714    0.00291545  19 t-inv F
 -0.285714 -0.428571 -0.857143    0.00291545  19 t-inv F
  0.857143  0.428571  0.571429    0.00291545  19 t-inv F
 -0.428571  0.142857  0.428571    0.00291545  19 t-inv F
  0.428571 -0.428571  0.142857    0.00291545  19 t-inv F
  0.142857  0.428571 -0.428571    0.00291545  19 t-inv F
  0.142857 -0.285714  0.428571    0.00291545  20 t-inv F
  0.428571  0.142857 -0.285714    0.00291545  20 t-inv F
 -0.428571 -0.285714 -0.714286    0.00291545  20 t-inv F
  0.285714  0.714286  0.428571    0.00291545  20 t-inv F
 -0.142857 -0.428571  0.285714    0.00291545  20 t-inv F
  0.285714 -0.428571 -0.142857    0.00291545  20 t-inv F
 -0.714286 -0.285714 -0.428571    0.00291545  20 t-inv F
  0.428571  0.714286  0.285714    0.00291545  20 t-inv F
  0.428571  0.285714  0.714286    0.00291545  20 t-inv F
  0.285714 -0.142857 -0.428571    0.00291545  20 t-inv F
 -0.714286 -0.428571 -0.285714    0.00291545  20 t-inv F
 -0.142857  0.285714 -0.428571    0.00291545  20 t-inv F
 -0.428571 -0.714286 -0.285714    0.00291545  20 t-inv F
  0.285714  0.428571  0.714286    0.00291545  20 t-inv F
  0.714286  0.428571  0.285714    0.00291545  20 t-inv F
 -0.428571  0.285714 -0.142857    0.00291545  20 t-inv F
 -0.285714 -0.714286 -0.428571    0.00291545  20 t-inv F
 -0.428571 -0.142857  0.285714    0.00291545  20 t-inv F
 -0.285714 -0.428571 -0.714286    0.00291545  20 t-inv F
  0.714286  0.285714  0.428571    0.00291545  20 t-inv F
 -0.285714  0.142857  0.428571    0.00291545  20 t-inv F
  0.428571 -0.285714  0.142857    0.00291545  20 t-inv F
  0.142857  0.428571 -0.285714    0.00291545  20 t-inv F
 -0.142857 -0.000000 -0.000000    0.00291545   2 t-inv T
 -0.000000 -0.142857 -0.000000    0.00291545   2 t-inv T
 -0.000000 -0.000000 -0.142857    0.00291545   2 t-inv T
  0.142857  0.142857  0.142857    0.00291545   2 t-inv T
 -0.285714 -0.000000 -0.000000    0.00291545   3 t-inv T
 -0.000000 -0.285714 -0.000000    0.00291545   3 t-inv T
 -0.000000 -0.000000 -0.285714    0.00291545   3 t-inv T
  0.285714  0.285714  0.285714    0.00291545   3 t-inv T
 -0.428571 -0.000000 -0.000000    0.00291545   4 t-inv T
 -0.000000 -0.428571 -0.000000    0.00291545   4 t-inv T
 -0.000000 -0.000000 -0.428571    0.00291545   4 t-inv T
  0.428571  0.428571  0.428571    0.00291545   4 t-inv T
 -0.285714 -0.142857 -0.000000    0.00291545   6 t-inv T
 -0.000000 -0.285714 -0.142857    0.00291545   6 t-inv T
 -0.142857 -0.000000 -0.285714    0.00291545   6 t-inv T
  0.142857  0.142857 -0.142857    0.00291545   6 t-inv T
  0.285714  0.142857  0.285714    0.00291545   6 t-inv T
 -0.142857 -0.285714  0.000000    0.00291545   6 t-inv T
 -0.142857  0.142857  0.142857    0.00291545   6 t-inv T
  0.285714  0.285714  0.142857    0.00291545   6 t-inv T
  0.000000 -0.142857 -0.285714    0.00291545   6 t-inv T
  0.142857 -0.142857  0.142857    0.00291545   6 t-inv T
  0.142857  0.285714  0.285714    0.00291545   6 t-inv T
 -0.285714  0.000000 -0.142857    0.00291545   6 t-inv T
 -0.428571 -0.142857 -0.000000    0.00291545   7 t-inv T
 -0.000000 -0.428571 -0.142857    0.00291545   7 t-inv T
 -0.142857 -0.000000 -0.428571    0.00291545   7 t-inv T
  0.142857  0.142857 -0.285714    0.00291545   7 t-inv T
  0.428571  0.285714  0.428571    0.00291545   7 t-inv T
 -0.142857 -0.428571  0.000000    0.00291545   7 t-inv T
 -0.285714  0.142857  0.142857    0.00291545   7 t-inv T
  0.428571  0.428571  0.285714    0.00291545   7 t-inv T
  0.000000 -0.142857 -0.428571    0.00291545   7 t-inv T
  0.142857 -0.285714  0.142857    0.00291545   7 t-inv T
  0.285714  0.428571  0.428571    0.00291545   7 t-inv T
 -0.428571  0.000000 -0.142857    0.00291545   7 t-inv T
  0.428571 -0.142857 -0.000000    0.00291545   8 t-inv T
 -0.000000  0.428571 -0.142857    0.00291545   8 t-inv T
 -0.142857 -0.000000  0.428571    0.00291545   8 t-inv T
  0.142857  0.142857  0.571429    0.00291545   8 t-inv T
 -0.428571 -0.571429 -0.428571    0.00291545   8 t-inv T
 -0.142857  0.428571  0.000000    0.00291545   8 t-inv T
  0.571429  0.142857  0.142857    0.00291545   8 t-inv T
 -0.428571 -0.428571 -0.571429    0.00291545   8 t-inv T
  0.000000 -0.142857  0.428571    0.00291545   8 t-inv T
  0.142857  0.571429  0.142857    0.00291545   8 t-inv T
 -0.571429 -0.428571 -0.428571    0.00291545   8 t-inv T
  0.428571  0.000000 -0.142857    0.00291545   8 t-inv T
  0.285714 -0.142857 -0.000000    0.00291545   9 t-inv T
 -0.000000  0.285714 -0.142857    0.00291545   9 t-inv T
 -0.142857 -0.000000  0.285714    0.00291545   9 t-inv T
  0.142857  0.142857  0.428571    0.00291545   9 t-inv T
 -0.285714 -0.428571 -0.285714    0.00291545   9 t-inv T
 -0.142857  0.285714  0.000000    0.00291545   9 t-inv T
  0.428571  0.142857  0.142857    0.00291545   9 t-inv T
 -0.285714 -0.285714 -0.428571    0.00291545   9 t-inv T
  0.000000 -0.142857  0.285714    0.00291545   9 t-inv T
  0.142857  0.428571  0.142857    0.00291545   9 t-inv T
 -0.428571 -0.285714 -0.285714    0.00291545   9 t-inv T
  0.285714  0.000000 -0.142857    0.00291545   9 t-inv T
 -0.428571 -0.285714 -0.000000    0.00291545  12 t-inv T
 -0.000000 -0.428571 -0.285714    0.00291545  12 t-inv T
 -0.285714 -0.000000 -0.428571    0.00291545  12 t-inv T
  0.285714  0.285714 -0.142857    0.00291545  12 t-inv T
  0.428571  0.142857  0.428571    0.00291545  12 t-inv T
 -0.285714 -0.428571  0.000000    0.00291545  12 t-inv T
 -0.142857  0.285714  0.285714    0.00291545  12 t-inv T
  0.428571  0.428571  0.142857    0.00291545  12 t-inv T
  0.000000 -0.285714 -0.428571    0.00291545  12 t-inv T
  0.285714 -0.142857  0.285714    0.00291545  12 t-inv T
  0.142857  0.428571  0.428571    0.00291545  12 t-inv T
 -0.428571  0.000000 -0.285714    0.00291545  12 t-inv T
  0.428571 -0.285714 -0.000000    0.00291545  13 t-inv T
 -0.000000  0.428571 -0.285714    0.00291545  13 t-inv T
 -0.285714 -0.000000  0.428571    0.00291545  13 t-inv T
  0.285714  0.285714  0.714286    0.00291545  13 t-inv T
 -0.428571 -0.714286 -0.428571    0.00291545  13 t-inv T
 -0.285714  0.428571  0.000000    0.00291545  13 t-inv T
  0.714286  0.285714  0.285714    0.00291545  13 t-inv T
 -0.428571 -0.428571 -0.714286    0.00291545  13 t-inv T
  0.000000 -0.285714  0.428571    0.00291545  13 t-inv T
  0.285714  0.714286  0.285714    0.00291545  13 t-inv T
 -0.714286 -0.428571 -0.428571    0.00291545  13 t-inv T
  0.428571  0.000000 -0.285714    0.00291545  13 t-inv T
  0.428571 -0.285714 -0.142857    0.00291545  18 t-inv T
 -0.142857  0.428571 -0.285714    0.00291545  18 t-inv T
 -0.285714 -0.142857  0.428571    0.00291545  18 t-inv T
  0.285714  0.142857  0.714286    0.00291545  18 t-inv T
 -0.428571 -0.714286 -0.571429    0.00291545  18 t-inv T
  0.142857  0.571429 -0.142857    0.00291545  18 t-inv T
 -0.142857  0.571429  0.142857    0.00291545  18 t-inv T
  0.714286  0.142857  0.285714    0.00291545  18 t-inv T
 -0.571429 -0.714286 -0.428571    0.00291545  18 t-inv T
 -0.571429 -0.428571 -0.714286    0.00291545  18 t-inv T
 -0.142857  0.142857  0.571429    0.00291545  18 t-inv T
  0.714286  0.285714  0.142857    0.00291545  18 t-inv T
  0.142857 -0.142857  0.571429    0.00291545  18 t-inv T
  0.285714  0.714286  0.142857    0.00291545  18 t-inv T
 -0.428571 -0.571429 -0.714286    0.00291545  18 t-inv T
 -0.714286 -0.571429 -0.428571    0.00291545  18 t-inv T
  0.571429 -0.142857  0.142857    0.00291545  18 t-inv T
  0.142857  0.714286  0.285714    0.00291545  18 t-inv T
  0.571429  0.142857 -0.142857    0.00291545  18 t-inv T
  0.142857  0.285714  0.714286    0.00291545  18 t-inv T
 -0.714286 -0.428571 -0.571429    0.00291545  18 t-inv T
  0.428571 -0.142857 -0.285714    0.00291545  18 t-inv T
 -0.285714  0.428571 -0.142857    0.00291545  18 t-inv T
 -0.142857 -0.285714  0.428571    0.00291545  18 t-inv T


--------------------------------------------------------------------------------------------------------




 Dimension of arrays:
   k-points           NKPTS =     20   k-points in BZ     NKDIM =    343   number of bands    NBANDS=     13
   number of dos      NEDOS =    301   number of ions     NIONS =      2
   non local maximal  LDIM  =      6   non local SUM 2l+1 LMDIM =     18
   total plane-waves  NPLWV =  27000
   max r-space proj   IRMAX =      1   max aug-charges    IRDMAX=  25458
   dimension x,y,z NGX =    30 NGY =   30 NGZ =   30
   dimension x,y,z NGXF=    60 NGYF=   60 NGZF=   60
   support grid    NGXF=    60 NGYF=   60 NGZF=   60
   ions per type =               1   1
   NGX,Y,Z   is equivalent  to a cutoff of  12.94, 12.94, 12.94 a.u.
   NGXF,Y,Z  is equivalent  to a cutoff of  25.88, 25.88, 25.88 a.u.

 SYSTEM =  GaP HSE06 SCF                           
 POSCAR =  Ga1 P1                                  

 Startparameter for this run:
   NWRITE =      2    write-flag & timer
   PREC   = accura    normal or accurate (medium, high low for compatibility)
   ISTART =      1    job   : 0-new  1-cont  2-samecut
   ICHARG =      1    charge: 1-file 2-atom 10-const
   ISPIN  =      1    spin polarized calculation?
   LNONCOLLINEAR =      F non collinear calculations
   LSORBIT =      F    spin-orbit coupling
   INIWAV =      1    electr: 0-lowe 1-rand  2-diag
   LASPH  =      F    aspherical Exc in radial PAW
 Electronic Relaxation 1
   ENCUT  =  520.0 eV  38.22 Ry    6.18 a.u.   7.17  7.17  7.17*2*pi/ulx,y,z
   ENINI  =  520.0     initial cutoff
   ENAUG  =  490.7 eV  augmentation charge cutoff
   NELM   =    200;   NELMIN=  2; NELMDL=  0     # of ELM steps 
   EDIFF  = 0.1E-05   stopping-criterion for ELM
   LREAL  =      F    real-space projection
   NLSPLINE    = F    spline interpolate recip. space projectors
   LCOMPAT=      F    compatible to vasp.4.4
   GGA_COMPAT  = T    GGA compatible to vasp.4.4-vasp.4.6
   LMAXPAW     = -100 max onsite density
   LMAXMIX     =    2 max onsite mixed and CHGCAR
   VOSKOWN=      0    Vosko Wilk Nusair interpolation
   ROPT   =    0.00000   0.00000
 Ionic relaxation
   EDIFFG = 0.1E-04   stopping-criterion for IOM
   NSW    =      0    number of steps for IOM
   NBLOCK =      1;   KBLOCK =      1    inner block; outer block 
   IBRION =     -1    ionic relax: 0-MD 1-quasi-New 2-CG
   NFREE  =      0    steps in history (QN), initial steepest desc. (CG)
   ISIF   =      0    stress and relaxation
   IWAVPR =     10    prediction:  0-non 1-charg 2-wave 3-comb
   ISYM   =      3    0-nonsym 1-usesym 2-fastsym
   LCORR  =      T    Harris-Foulkes like correction to forces

   POTIM  = 0.5000    time-step for ionic-motion
   TEIN   =    0.0    initial temperature
   TEBEG  =    0.0;   TEEND  =   0.0 temperature during run
   SMASS  =  -3.00    Nose mass-parameter (am)
   estimated Nose-frequenzy (Omega)   =  0.10E-29 period in steps = 0.13E+47 mass=  -0.340E-27a.u.
   SCALEE = 1.0000    scale energy and forces
   NPACO  =    256;   APACO  = 10.0  distance and # of slots for P.C.
   PSTRESS=    0.0 pullay stress

  Mass of Ions in am
   POMASS =  69.72 30.97
  Ionic Valenz
   ZVAL   =  13.00  5.00
  Atomic Wigner-Seitz radii
   RWIGS  =  -1.00 -1.00
  virtual crystal weights 
   VCA    =   1.00  1.00
   NELECT =      18.0000    total number of electrons
   NUPDOWN=      -1.0000    fix difference up-down

 DOS related values:
   EMIN   =  10.00;   EMAX   =-10.00  energy-range for DOS
   EFERMI =   0.00;   METHOD = LEGACY      
   ISMEAR =     0;   SIGMA  =   0.05  broadening in eV -4-tet -1-fermi 0-gaus

 Electronic relaxation 2 (details)
   IALGO  =     58    algorithm
   LDIAG  =      T    sub-space diagonalisation (order eigenvalues)
   LSUBROT=      F    optimize rotation matrix (better conditioning)
   TURBO    =      0    0=normal 1=particle mesh
   IRESTART =      0    0=no restart 2=restart with 2 vectors
   NREBOOT  =      0    no. of reboots
   NMIN     =      0    reboot dimension
   EREF     =   0.00    reference energy to select bands
   IMIX   =      4    mixing-type and parameters
     AMIX     =   0.40;   BMIX     =  1.00
     AMIX_MAG =   1.60;   BMIX_MAG =  1.00
     AMIN     =   0.10
     WC   =   100.;   INIMIX=   1;  MIXPRE=   1;  MAXMIX= -45

 Intra band minimization:
   WEIMIN = 0.0000     energy-eigenvalue tresh-hold
   EBREAK =  0.19E-07  absolut break condition
   DEPER  =   0.30     relativ break condition  

   TIME   =   0.40     timestep for ELM

  volume/ion in A,a.u.               =      20.25       136.67
  Fermi-wavevector in a.u.,A,eV,Ry     =   1.249280  2.360796 21.234610  1.560700
  Thomas-Fermi vector in A             =   2.383328
 
 Write flags
   LWAVE        =      F    write WAVECAR
   LDOWNSAMPLE  =      F    k-point downsampling of WAVECAR
   LCHARG       =      F    write CHGCAR
   LVTOT        =      F    write LOCPOT, total local potential
   LVHAR        =      F    write LOCPOT, Hartree potential only
   LELF         =      F    write electronic localiz. function (ELF)
   LORBIT       =      0    0 simple, 1 ext, 2 COOP (PROOUT), +10 PAW based schemes


 Dipole corrections
   LMONO  =      F    monopole corrections only (constant potential shift)
   LDIPOL =      F    correct potential (dipole corrections)
   IDIPOL =      0    1-x, 2-y, 3-z, 4-all directions 
   EPSILON=  1.0000000 bulk dielectric constant

 Exchange correlation treatment:
   GGA     =    --    GGA type
   LEXCH   =     8    internal setting for exchange type
   LIBXC   =     F    Libxc                    
   VOSKOWN =     0    Vosko Wilk Nusair interpolation
   EXXOEP  =     0    0=HF, 1=EXX-LHF (local Hartree Fock) 2=EXX OEP
   LHFCALC =     T    Hartree Fock is set to
   LSYMGRAD=     F    symmetrize gradient (conserves proper symmetry)
   PRECFOCK=normal    Normal, Fast or Accurate (Low or Medium for compatibility)
   LRHFCALC=     F    long range Hartree Fock
   LRSCOR  =     F    long range correlation only (use DFT for short range part)
   LTHOMAS =     F    Thomas Fermi screening in HF
   LMODELHF=     F    short range full HF, long range fraction AEXX
   FOCKCORR=     1    mode to apply convergence corrections
   LFOCKACE=     T    use Adeptively-Compressed-Exchange operator
   ENCUT4O =  -1.0   cutoff for four orbital integrals eV
   LMAXFOCK=     4    L truncation for augmentation on plane wave grid
   LMAXFOCKAE=  -1    L truncation for all-electron charge restoration on plane wave grid
   NMAXFOCKAE=   1    number of basis functions for all-electron charge restoration
   LFOCKAEDFT=     F  apply the AE augmentation even for DFT
   NKREDX  =     1    reduce k-point grid by
   NKREDY  =     1    reduce k-point grid by
   NKREDZ  =     1    reduce k-point grid by
   SHIFTRED=     F    shift reduced grid of Gamma
   HFKIDENT=     F    idential grid for each k-point
   ODDONLY =     F    use only odd q-grid points
   EVENONLY=     F    use only even q-grid points
   HFALPHA =   -1.0000 decay constant for conv. correction
   MCALPHA =    0.0000 extent of test-charge in conv. correction in multipole expansion
   AEXX    =    0.2500 exact exchange contribution
   HFSCREEN=    0.2000 screening length (either q_TF or 0.3 A-1)
   HFSCREENC=   0.2000 screening length for correlation (either q_TF or 0.3 A-1)
   HFRCUT  =    0.0000 spherical cutoff for potential kernel
   ALDAX   =    0.7500 LDA exchange part
   AGGAX   =    0.7500 GGA exchange part
   ALDAC   =    1.0000 LDA correlation
   AGGAC   =    1.0000 GGA correlation
   ENCUTFOCK=  -1.0 apply spherical cutoff to Coloumb kernel
   NBANDSGWLOW=     1    first orbital included in HF term
   NBLOCK_FOCK=     4    blocking factor in FOCK_ACC

 Linear response parameters
   LEPSILON=     F    determine dielectric tensor
   LRPA    =     F    only Hartree local field effects (RPA)
   LNABLA  =     F    use nabla operator in PAW spheres
   LVEL    =     F    velocity operator in full k-point grid
   CSHIFT  =0.1000    complex shift for real part using Kramers Kronig
   OMEGAMAX=  -1.0    maximum frequency
   DEG_THRESHOLD= 0.2000000E-02 threshold for treating states as degnerate
   RTIME   =   -0.100 relaxation time in fs
  (WPLASMAI=    0.000 imaginary part of plasma frequency in eV, 0.658/RTIME)
   DFIELD  = 0.0000000 0.0000000 0.0000000 field for delta impulse in time
 
  Optional k-point grid parameters
   LKPOINTS_OPT  =     F    use optional k-point grid
   KPOINTS_OPT_MODE=     1    mode for optional k-point grid
 
 Orbital magnetization related:
   ORBITALMAG=     F  switch on orbital magnetization
   LCHIMAG   =     F  perturbation theory with respect to B field
   DQ        =  0.001000  dq finite difference perturbation B field
   LLRAUG    =     F  two centre corrections for induced B field
   LBONE     =     F  B-component reconstruction in AE one-centre
   LVGVCALC  =     T  calculate vGv susceptibility
   LVGVAPPL  =     F  apply vGv susceptibility instead of pGv for G=0

 Random number generation:
   RANDOM_GENERATOR = DEFAULT
   PCG_SEED         = not used


--------------------------------------------------------------------------------------------------------


 Static calculation
 charge density and potential will be updated during run
 non-spin polarized calculation
 Conjugate gradient for all bands (Freysoldt, et al. PRB 79, 241103 (2009))
 preconditioned conjugated gradient                                        
 perform sub-space diagonalisation
    before iterative eigenvector-optimisation
 modified Broyden-mixing scheme, WC =      100.0
 initial mixing is a Kerker type mixing with AMIX =  0.4000 and BMIX =      1.0000
 Hartree-type preconditioning will be used
 using additional bands             4
 reciprocal scheme for non local part
 use partial core corrections
 no Harris-corrections to forces 
 use gradient corrections 
 use of overlap-Matrix (Vanderbilt PP)
 Gauss-broadening in eV      SIGMA  =   0.05


--------------------------------------------------------------------------------------------------------


  energy-cutoff  :      520.00
  volume of cell :       40.51
      direct lattice vectors                 reciprocal lattice vectors
     3.338425170 -0.000000000  1.927440100     0.299542434 -0.105904236  0.000000000
     1.112808060  3.147496710  1.927440100     0.000000000  0.317712802  0.000000000
    -0.000000000 -0.000000000  3.854881200    -0.149771178 -0.105904256  0.259411367

  length of vectors
     3.854881056  3.854880369  3.854881200     0.317712727  0.317712802  0.317712723


 
 old parameters found on file WAVECAR:
  energy-cutoff  :      520.00
  volume of cell :       40.51
      direct lattice vectors                 reciprocal lattice vectors
     3.338425170 -0.000000000  1.927440100     0.299542434 -0.105904236  0.000000000
     1.112808060  3.147496710  1.927440100     0.000000000  0.317712802  0.000000000
    -0.000000000 -0.000000000  3.854881200    -0.149771178 -0.105904256  0.259411367

  length of vectors

 
 k-points in units of 2pi/SCALE and weight: read from INCAR                         
   0.00000000  0.00000000  0.00000000       0.003
   0.04279178 -0.01512918  0.00000000       0.023
   0.08558355 -0.03025835  0.00000000       0.023
   0.12837533 -0.04538753  0.00000000       0.023
   0.04279178  0.03025837  0.00000000       0.017
   0.08558355  0.01512919  0.00000000       0.070
   0.12837533  0.00000001  0.00000000       0.070
  -0.12837533  0.09077507  0.00000000       0.070
  -0.08558355  0.07564590  0.00000000       0.070
  -0.04279178  0.06051672  0.00000000       0.035
   0.08558355  0.06051673  0.00000000       0.017
   0.12837533  0.04538756  0.00000000       0.070
  -0.12837533  0.13616262  0.00000000       0.070
  -0.08558355  0.12103344  0.00000000       0.035
   0.12837533  0.09077510  0.00000000       0.017
  -0.12837533  0.18155016  0.00000000       0.035
   0.10697945  0.03025838  0.03705877       0.070
  -0.14977121  0.12103344  0.03705877       0.140
  -0.14977121  0.16642098  0.03705877       0.070
  -0.10697944  0.15129180  0.03705877       0.070
 
 k-points in reciprocal lattice and weights: read from INCAR                         
   0.00000000  0.00000000  0.00000000       0.003
   0.14285714  0.00000000  0.00000000       0.023
   0.28571429  0.00000000  0.00000000       0.023
   0.42857143  0.00000000  0.00000000       0.023
   0.14285714  0.14285714  0.00000000       0.017
   0.28571429  0.14285714  0.00000000       0.070
   0.42857143  0.14285714  0.00000000       0.070
  -0.42857143  0.14285714  0.00000000       0.070
  -0.28571429  0.14285714  0.00000000       0.070
  -0.14285714  0.14285714  0.00000000       0.035
   0.28571429  0.28571429  0.00000000       0.017
   0.42857143  0.28571429  0.00000000       0.070
  -0.42857143  0.28571429  0.00000000       0.070
  -0.28571429  0.28571429  0.00000000       0.035
   0.42857143  0.42857143  0.00000000       0.017
  -0.42857143  0.42857143  0.00000000       0.035
   0.42857143  0.28571429  0.14285714       0.070
  -0.42857143  0.28571429  0.14285714       0.140
  -0.42857143  0.42857143  0.14285714       0.070
  -0.28571429  0.42857143  0.14285714       0.070
 
 position of ions in fractional coordinates (direct lattice) 
   0.00000000  0.00000000  0.00000000
   0.25000000  0.25000000  0.25000000
 
 position of ions in cartesian coordinates  (Angst):
   0.00000000  0.00000000  0.00000000
   1.11280831  0.78687418  1.92744035
 


--------------------------------------------------------------------------------------------------------


 k-point   1 :   0.0000 0.0000 0.0000  plane waves:    1067
 k-point   2 :   0.1429 0.0000 0.0000  plane waves:    1073
 k-point   3 :   0.2857 0.0000 0.0000  plane waves:    1089
 k-point   4 :   0.4286 0.0000 0.0000  plane waves:    1095
 k-point   5 :   0.1429 0.1429 0.0000  plane waves:    1074
 k-point   6 :   0.2857 0.1429 0.0000  plane waves:    1081
 k-point   7 :   0.4286 0.1429 0.0000  plane waves:    1084
 k-point   8 :  -0.4286 0.1429 0.0000  plane waves:    1092
 k-point   9 :  -0.2857 0.1429 0.0000  plane waves:    1093
 k-point  10 :  -0.1429 0.1429 0.0000  plane waves:    1087
 k-point  11 :   0.2857 0.2857 0.0000  plane waves:    1086
 k-point  12 :   0.4286 0.2857 0.0000  plane waves:    1083
 k-point  13 :  -0.4286 0.2857 0.0000  plane waves:    1102
 k-point  14 :  -0.2857 0.2857 0.0000  plane waves:    1095
 k-point  15 :   0.4286 0.4286 0.0000  plane waves:    1086
 k-point  16 :  -0.4286 0.4286 0.0000  plane waves:    1102
 k-point  17 :   0.4286 0.2857 0.1429  plane waves:    1085
 k-point  18 :  -0.4286 0.2857 0.1429  plane waves:    1092
 k-point  19 :  -0.4286 0.4286 0.1429  plane waves:    1093
 k-point  20 :  -0.2857 0.4286 0.1429  plane waves:    1090

 maximum and minimum number of plane-waves per node :      1102     1067

 maximum number of plane-waves:      1102
 maximum index in each direction: 
   IXMAX=    7   IYMAX=    7   IZMAX=    7
   IXMIN=   -7   IYMIN=   -7   IZMIN=   -7


 serial   3D FFT for wavefunctions
 parallel 3D FFT for charge:
    minimum data exchange during FFTs selected (reduces bandwidth)


 FFT grid for exact exchange (Hartree Fock) 
  NGX = 24; NGY = 24; NGZ = 24

 
 Radii for the augmentation spheres in the non-local exchange
 for species   1 augmentation radius   1.289 (default was   1.031)
       energy cutoff for augmentation   2080.0
 for species   2 augmentation radius   1.198 (default was   0.959)
       energy cutoff for augmentation   2080.0
 Maximum index for augmentation-charges in exchange          3055
  SETUP_FOCK is finished

 total amount of memory used by VASP MPI-rank0    72668. kBytes
=======================================================================

   base      :      30000. kBytes
   nonl-proj :       6382. kBytes
   fftplans  :       7596. kBytes
   grid      :      13478. kBytes
   one-center:         31. kBytes
   HF        :        129. kBytes
   nonlr-proj:        976. kBytes
   wavefun   :      14076. kBytes
 
     INWAV:  cpu time      0.0280: real time      0.0281
 Broyden mixing: mesh for mixing (old mesh)
   NGX = 15   NGY = 15   NGZ = 15
  (NGX  = 60   NGY  = 60   NGZ  = 60)
  gives a total of   3375 points

 initial charge density was supplied:
 number of electron      17.9999989 magnetization 
 charge density for first step will be calculated from the start-wavefunctions


--------------------------------------------------------------------------------------------------------


 Maximum index for augmentation-charges         24499 (set IRDMAX)


--------------------------------------------------------------------------------------------------------


 initial charge from wavefunction
 First call to EWALD:  gamma=   0.516
 Maximum number of real-space cells 3x 3x 3
 Maximum number of reciprocal cells 3x 3x 3

    FEWALD:  cpu time      0.0014: real time      0.0009


--------------------------------------- Ionic step        1  -------------------------------------------




--------------------------------------- Iteration      1(   1)  ---------------------------------------


    POTLOK:  cpu time      0.1986: real time      0.2026
    SETDIJ:  cpu time      0.2168: real time      0.1564
    TRIAL :  cpu time     14.2407: real time     14.2438
    CORREC:  cpu time     14.6869: real time     14.6276
    CHARGE:  cpu time      0.1016: real time      0.0994
    --------------------------------------------
      LOOP:  cpu time     29.4612: real time     29.3495

 eigenvalue-minimisations  :     0
 total energy-change (2. order) :-0.1073900E+02  (-0.4600922E-01)
 number of electron      17.9999989 magnetization 
 augmentation part        7.9571648 magnetization 

 Free energy of the ion-electron system (eV)
  ---------------------------------------------------
  alpha Z        PSCENC =        55.07069950
  Ewald energy   TEWEN  =     -1312.38699282
  -Hartree energ DENC   =      -695.40373937
  -exchange      EXHF   =        42.37794599
  -V(xc)+E(xc)   XCENC  =        35.61083494
  PAW double counting   =      2332.61475161    -2646.37241253
  entropy T*S    EENTRO =        -0.00000000
  eigenvalues    EBANDS =      -143.99460318
  atomic energy  EATOM  =      2321.74451976
  ---------------------------------------------------
  free energy    TOTEN  =       -10.73899610 eV

  energy without entropy =      -10.73899610  energy(sigma->0) =      -10.73899610
  exchange ACFDT corr.  =        -0.00000000  see jH, gK, PRB 81, 115126


--------------------------------------------------------------------------------------------------------




--------------------------------------- Iteration      1(   2)  ---------------------------------------


    POTLOK:  cpu time      0.1657: real time      0.1653
    SETDIJ:  cpu time      0.2190: real time      0.1557
    TRIAL :  cpu time     14.1843: real time     14.1850
    CORREC:  cpu time     14.7624: real time     14.7024
    CHARGE:  cpu time      0.1016: real time      0.0993
    --------------------------------------------
      LOOP:  cpu time     29.4333: real time     29.3080

 eigenvalue-minimisations  :     0
 total energy-change (2. order) :-0.4594237E-01  (-0.2191925E-01)
 number of electron      17.9999989 magnetization 
 augmentation part        7.9716021 magnetization 

 Free energy of the ion-electron system (eV)
  ---------------------------------------------------
  alpha Z        PSCENC =        55.07069950
  Ewald energy   TEWEN  =     -1312.38699282
  -Hartree energ DENC   =      -698.26831461
  -exchange      EXHF   =        42.46673800
  -V(xc)+E(xc)   XCENC  =        35.70162452
  PAW double counting   =      2380.53698694    -2698.02817583
  entropy T*S    EENTRO =        -0.00000000
  eigenvalues    EBANDS =      -137.62202391
  atomic energy  EATOM  =      2321.74451976
  ---------------------------------------------------
  free energy    TOTEN  =       -10.78493847 eV

  energy without entropy =      -10.78493847  energy(sigma->0) =      -10.78493847
  exchange ACFDT corr.  =        -0.00000000  see jH, gK, PRB 81, 115126


--------------------------------------------------------------------------------------------------------




--------------------------------------- Iteration      1(   3)  ---------------------------------------


    POTLOK:  cpu time      0.1616: real time      0.1612
    SETDIJ:  cpu time      0.2149: real time      0.1551
    TRIAL :  cpu time     14.2712: real time     14.2715
    CORREC:  cpu time     14.7365: real time     14.6774
    CHARGE:  cpu time      0.1013: real time      0.0991
    --------------------------------------------
      LOOP:  cpu time     29.4857: real time     29.3644

 eigenvalue-minimisations  :     0
 total energy-change (2. order) :-0.2222127E-01  (-0.4628720E-02)
 number of electron      17.9999989 magnetization 
 augmentation part        7.9793503 magnetization 

 Free energy of the ion-electron system (eV)
  ---------------------------------------------------
  alpha Z        PSCENC =        55.07069950
  Ewald energy   TEWEN  =     -1312.38699282
  -Hartree energ DENC   =      -696.38415444
  -exchange      EXHF   =        42.47133231
  -V(xc)+E(xc)   XCENC  =        35.67220066
  PAW double counting   =      2487.03478271    -2803.64687637
  entropy T*S    EENTRO =        -0.00000000
  eigenvalues    EBANDS =      -140.38267104
  atomic energy  EATOM  =      2321.74451976
  ---------------------------------------------------
  free energy    TOTEN  =       -10.80715974 eV

  energy without entropy =      -10.80715974  energy(sigma->0) =      -10.80715974
  exchange ACFDT corr.  =        -0.00000000  see jH, gK, PRB 81, 115126


--------------------------------------------------------------------------------------------------------




--------------------------------------- Iteration      1(   4)  ---------------------------------------


    POTLOK:  cpu time      0.1576: real time      0.1573
    SETDIJ:  cpu time      0.2103: real time      0.1501
    TRIAL :  cpu time     14.2621: real time     14.2651
    CORREC:  cpu time     14.7410: real time     14.6800
    CHARGE:  cpu time      0.0999: real time      0.0977
    --------------------------------------------
      LOOP:  cpu time     29.4711: real time     29.3505

 eigenvalue-minimisations  :     0
 total energy-change (2. order) :-0.4647560E-02  (-0.2806296E-02)
 number of electron      17.9999989 magnetization 
 augmentation part        7.9794962 magnetization 

 Free energy of the ion-electron system (eV)
  ---------------------------------------------------
  alpha Z        PSCENC =        55.07069950
  Ewald energy   TEWEN  =     -1312.38699282
  -Hartree energ DENC   =      -697.20188817
  -exchange      EXHF   =        42.49922912
  -V(xc)+E(xc)   XCENC  =        35.70409789
  PAW double counting   =      2515.29660430    -2832.24361573
  entropy T*S    EENTRO =        -0.00000000
  eigenvalues    EBANDS =      -139.29446113
  atomic energy  EATOM  =      2321.74451976
  ---------------------------------------------------
  free energy    TOTEN  =       -10.81180730 eV

  energy without entropy =      -10.81180730  energy(sigma->0) =      -10.81180730
  exchange ACFDT corr.  =        -0.00000000  see jH, gK, PRB 81, 115126


--------------------------------------------------------------------------------------------------------




--------------------------------------- Iteration      1(   5)  ---------------------------------------


    POTLOK:  cpu time      0.1576: real time      0.1572
    SETDIJ:  cpu time      0.2160: real time      0.1562
    TRIAL :  cpu time     14.2441: real time     14.2435
    CORREC:  cpu time     14.7377: real time     14.6782
    CHARGE:  cpu time      0.1009: real time      0.0987
    --------------------------------------------
      LOOP:  cpu time     29.4571: real time     29.3346

 eigenvalue-minimisations  :     0
 total energy-change (2. order) :-0.2825948E-02  (-0.6396859E-03)
 number of electron      17.9999989 magnetization 
 augmentation part        7.9815248 magnetization 

 Free energy of the ion-electron system (eV)
  ---------------------------------------------------
  alpha Z        PSCENC =        55.07069950
  Ewald energy   TEWEN  =     -1312.38699282
  -Hartree energ DENC   =      -696.95478480
  -exchange      EXHF   =        42.51256941
  -V(xc)+E(xc)   XCENC  =        35.70264564
  PAW double counting   =      2529.80446478    -2846.59045273
  entropy T*S    EENTRO =        -0.00000000
  eigenvalues    EBANDS =      -139.71730198
  atomic energy  EATOM  =      2321.74451976
  ---------------------------------------------------
  free energy    TOTEN  =       -10.81463325 eV

  energy without entropy =      -10.81463325  energy(sigma->0) =      -10.81463325
  exchange ACFDT corr.  =        -0.00000000  see jH, gK, PRB 81, 115126


--------------------------------------------------------------------------------------------------------




--------------------------------------- Iteration      1(   6)  ---------------------------------------


    POTLOK:  cpu time      0.1562: real time      0.1559
    SETDIJ:  cpu time      0.2198: real time      0.1601
    TRIAL :  cpu time     14.2891: real time     14.2906
    CORREC:  cpu time     14.7426: real time     14.6827
    CHARGE:  cpu time      0.1009: real time      0.0985
    --------------------------------------------
      LOOP:  cpu time     29.5096: real time     29.3889

 eigenvalue-minimisations  :     0
 total energy-change (2. order) :-0.6401688E-03  (-0.2669891E-03)
 number of electron      17.9999989 magnetization 
 augmentation part        7.9818857 magnetization 

 Free energy of the ion-electron system (eV)
  ---------------------------------------------------
  alpha Z        PSCENC =        55.07069950
  Ewald energy   TEWEN  =     -1312.38699282
  -Hartree energ DENC   =      -697.15608258
  -exchange      EXHF   =        42.51862917
  -V(xc)+E(xc)   XCENC  =        35.70816849
  PAW double counting   =      2526.19407922    -2843.16550255
  entropy T*S    EENTRO =        -0.00000000
  eigenvalues    EBANDS =      -139.34279160
  atomic energy  EATOM  =      2321.74451976
  ---------------------------------------------------
  free energy    TOTEN  =       -10.81527342 eV

  energy without entropy =      -10.81527342  energy(sigma->0) =      -10.81527342
  exchange ACFDT corr.  =        -0.00000000  see jH, gK, PRB 81, 115126


--------------------------------------------------------------------------------------------------------




--------------------------------------- Iteration      1(   7)  ---------------------------------------


    POTLOK:  cpu time      0.1458: real time      0.1455
    SETDIJ:  cpu time      0.2292: real time      0.1694
    TRIAL :  cpu time     14.2433: real time     14.2446
    CORREC:  cpu time     14.7385: real time     14.6778
    CHARGE:  cpu time      0.1007: real time      0.0985
    --------------------------------------------
      LOOP:  cpu time     29.4581: real time     29.3363

 eigenvalue-minimisations  :     0
 total energy-change (2. order) :-0.2671717E-03  (-0.5815894E-04)
 number of electron      17.9999989 magnetization 
 augmentation part        7.9814897 magnetization 

 Free energy of the ion-electron system (eV)
  ---------------------------------------------------
  alpha Z        PSCENC =        55.07069950
  Ewald energy   TEWEN  =     -1312.38699282
  -Hartree energ DENC   =      -697.19851260
  -exchange      EXHF   =        42.51845956
  -V(xc)+E(xc)   XCENC  =        35.70829132
  PAW double counting   =      2519.43485115    -2836.41742178
  entropy T*S    EENTRO =        -0.00000000
  eigenvalues    EBANDS =      -139.28943466
  atomic energy  EATOM  =      2321.74451976
  ---------------------------------------------------
  free energy    TOTEN  =       -10.81554059 eV

  energy without entropy =      -10.81554059  energy(sigma->0) =      -10.81554059
  exchange ACFDT corr.  =        -0.00000000  see jH, gK, PRB 81, 115126


--------------------------------------------------------------------------------------------------------




--------------------------------------- Iteration      1(   8)  ---------------------------------------


    POTLOK:  cpu time      0.1560: real time      0.1556
    SETDIJ:  cpu time      0.2147: real time      0.1557
    TRIAL :  cpu time     14.2667: real time     14.2660
    CORREC:  cpu time     14.7353: real time     14.6739
    CHARGE:  cpu time      0.1000: real time      0.0977
    --------------------------------------------
      LOOP:  cpu time     29.4729: real time     29.3490

 eigenvalue-minimisations  :     0
 total energy-change (2. order) :-0.5814485E-04  (-0.2168394E-04)
 number of electron      17.9999989 magnetization 
 augmentation part        7.9816630 magnetization 

 Free energy of the ion-electron system (eV)
  ---------------------------------------------------
  alpha Z        PSCENC =        55.07069950
  Ewald energy   TEWEN  =     -1312.38699282
  -Hartree energ DENC   =      -697.14783875
  -exchange      EXHF   =        42.51739745
  -V(xc)+E(xc)   XCENC  =        35.70641082
  PAW double counting   =      2515.45074753    -2832.38601964
  entropy T*S    EENTRO =        -0.00000000
  eigenvalues    EBANDS =      -139.38452257
  atomic energy  EATOM  =      2321.74451976
  ---------------------------------------------------
  free energy    TOTEN  =       -10.81559873 eV

  energy without entropy =      -10.81559873  energy(sigma->0) =      -10.81559873
  exchange ACFDT corr.  =        -0.00000000  see jH, gK, PRB 81, 115126


--------------------------------------------------------------------------------------------------------




--------------------------------------- Iteration      1(   9)  ---------------------------------------


    POTLOK:  cpu time      0.1586: real time      0.1583
    SETDIJ:  cpu time      0.2145: real time      0.1554
    TRIAL :  cpu time     14.2506: real time     14.2498
    CORREC:  cpu time     14.7480: real time     14.6867
    CHARGE:  cpu time      0.1006: real time      0.0984
    --------------------------------------------
      LOOP:  cpu time     29.4738: real time     29.3500

 eigenvalue-minimisations  :     0
 total energy-change (2. order) :-0.2168645E-04  (-0.7740811E-05)
 number of electron      17.9999989 magnetization 
 augmentation part        7.9817401 magnetization 

 Free energy of the ion-electron system (eV)
  ---------------------------------------------------
  alpha Z        PSCENC =        55.07069950
  Ewald energy   TEWEN  =     -1312.38699282
  -Hartree energ DENC   =      -697.16679679
  -exchange      EXHF   =        42.51796461
  -V(xc)+E(xc)   XCENC  =        35.70678870
  PAW double counting   =      2512.66074721    -2829.61455162
  entropy T*S    EENTRO =        -0.00000000
  eigenvalues    EBANDS =      -139.34799896
  atomic energy  EATOM  =      2321.74451976
  ---------------------------------------------------
  free energy    TOTEN  =       -10.81562042 eV

  energy without entropy =      -10.81562042  energy(sigma->0) =      -10.81562042
  exchange ACFDT corr.  =        -0.00000000  see jH, gK, PRB 81, 115126


--------------------------------------------------------------------------------------------------------




--------------------------------------- Iteration      1(  10)  ---------------------------------------


    POTLOK:  cpu time      0.1506: real time      0.1502
    SETDIJ:  cpu time      0.2175: real time      0.1583
    TRIAL :  cpu time     14.2789: real time     14.2782
    CORREC:  cpu time     14.7356: real time     14.6752
    CHARGE:  cpu time      0.1011: real time      0.0989
    --------------------------------------------
      LOOP:  cpu time     29.4840: real time     29.3610

 eigenvalue-minimisations  :     0
 total energy-change (2. order) :-0.7759685E-05  (-0.2184516E-05)
 number of electron      17.9999989 magnetization 
 augmentation part        7.9816874 magnetization 

 Free energy of the ion-electron system (eV)
  ---------------------------------------------------
  alpha Z        PSCENC =        55.07069950
  Ewald energy   TEWEN  =     -1312.38699282
  -Hartree energ DENC   =      -697.17418027
  -exchange      EXHF   =        42.51815446
  -V(xc)+E(xc)   XCENC  =        35.70691724
  PAW double counting   =      2511.35615547    -2828.31750690
  entropy T*S    EENTRO =        -0.00000000
  eigenvalues    EBANDS =      -139.33339462
  atomic energy  EATOM  =      2321.74451976
  ---------------------------------------------------
  free energy    TOTEN  =       -10.81562818 eV

  energy without entropy =      -10.81562818  energy(sigma->0) =      -10.81562818
  exchange ACFDT corr.  =        -0.00000000  see jH, gK, PRB 81, 115126


--------------------------------------------------------------------------------------------------------




--------------------------------------- Iteration      1(  11)  ---------------------------------------


    POTLOK:  cpu time      0.1631: real time      0.1628
    SETDIJ:  cpu time      0.2098: real time      0.1501
    TRIAL :  cpu time     14.2398: real time     14.2390
    CORREC:  cpu time     14.7389: real time     14.6783
    CHARGE:  cpu time      0.1005: real time      0.0982
    --------------------------------------------
      LOOP:  cpu time     29.4523: real time     29.3286

 eigenvalue-minimisations  :     0
 total energy-change (2. order) :-0.2186882E-05  (-0.8552954E-06)
 number of electron      17.9999989 magnetization 
 augmentation part        7.9817319 magnetization 

 Free energy of the ion-electron system (eV)
  ---------------------------------------------------
  alpha Z        PSCENC =        55.07069950
  Ewald energy   TEWEN  =     -1312.38699282
  -Hartree energ DENC   =      -697.16773734
  -exchange      EXHF   =        42.51797980
  -V(xc)+E(xc)   XCENC  =        35.70666831
  PAW double counting   =      2511.12873290    -2828.08291761
  entropy T*S    EENTRO =        -0.00000000
  eigenvalues    EBANDS =      -139.34658287
  atomic energy  EATOM  =      2321.74451976
  ---------------------------------------------------
  free energy    TOTEN  =       -10.81563037 eV

  energy without entropy =      -10.81563037  energy(sigma->0) =      -10.81563037
  exchange ACFDT corr.  =        -0.00000000  see jH, gK, PRB 81, 115126


--------------------------------------------------------------------------------------------------------




--------------------------------------- Iteration      1(  12)  ---------------------------------------


    POTLOK:  cpu time      0.1568: real time      0.1564
    SETDIJ:  cpu time      0.2179: real time      0.1590
    TRIAL :  cpu time     14.2426: real time     14.2433
    CORREC:  cpu time     14.7383: real time     14.6772
    EDDIAG:  cpu time     14.2074: real time     14.2092
    CHARGE:  cpu time      0.1002: real time      0.0979
    --------------------------------------------
      LOOP:  cpu time     43.6634: real time     43.5430

 eigenvalue-minimisations  :     0
 total energy-change (2. order) :-0.8617407E-06  (-0.2591537E-06)
 number of electron      17.9999989 magnetization 
 augmentation part        7.9817368 magnetization 

 Free energy of the ion-electron system (eV)
  ---------------------------------------------------
  alpha Z        PSCENC =        55.07069950
  Ewald energy   TEWEN  =     -1312.38699282
  -Hartree energ DENC   =      -697.17324771
  -exchange      EXHF   =        42.51801876
  -V(xc)+E(xc)   XCENC  =        35.70677956
  PAW double counting   =      2511.21901390    -2828.17591901
  entropy T*S    EENTRO =        -0.00000000
  eigenvalues    EBANDS =      -139.33852105
  atomic energy  EATOM  =      2321.74451976
  ---------------------------------------------------
  free energy    TOTEN  =       -10.81563123 eV

  energy without entropy =      -10.81563123  energy(sigma->0) =      -10.81563123
  exchange ACFDT corr.  =        -0.00000000  see jH, gK, PRB 81, 115126


--------------------------------------------------------------------------------------------------------


  average scaling for gradient   0.8326


 average (electrostatic) potential at core
  the test charge radii are     1.0314  0.9587
  (the norm of the test charge is              1.0000)
       1 -58.3569       2 -79.8774
 
 
 
 E-fermi :   4.4808     XC(G=0):  -8.1429     alpha+bet :-10.8659

 Fermi energy:         4.4807838050

 k-point     1 :       0.0000    0.0000    0.0000
  band No.  band energies     occupation 
      1     -12.8610      2.00000
      2     -12.8610      2.00000
      3     -12.8610      2.00000
      4     -12.7607      2.00000
      5     -12.7607      2.00000
      6      -9.5892      2.00000
      7       4.1986      2.00000
      8       4.1986      2.00000
      9       4.1986      2.00000
     10       6.9982      0.00000
     11       8.9841      0.00000
     12       8.9841      0.00000
     13       8.9841      0.00000

 k-point     2 :       0.1429    0.0000    0.0000
  band No.  band energies     occupation 
      1     -12.8723      2.00000
      2     -12.8555      2.00000
      3     -12.8555      2.00000
      4     -12.7608      2.00000
      5     -12.7608      2.00000
      6      -9.3074      2.00000
      7       2.1629      2.00000
      8       3.8935      2.00000
      9       3.8935      2.00000
     10       7.5835      0.00000
     11       9.4505      0.00000
     12       9.4505      0.00000
     13       9.8301      0.00000

 k-point     3 :       0.2857    0.0000    0.0000
  band No.  band energies     occupation 
      1     -12.8967      2.00000
      2     -12.8448      2.00000
      3     -12.8448      2.00000
      4     -12.7592      2.00000
      5     -12.7592      2.00000
      6      -8.5205      2.00000
      7      -0.6427      2.00000
      8       3.3639      2.00000
      9       3.3639      2.00000
     10       7.1128      0.00000
     11       9.9500      0.00000
     12       9.9500      0.00000
     13      12.2270      0.00000

 k-point     4 :       0.4286    0.0000    0.0000
  band No.  band energies     occupation 
      1     -12.9155      2.00000
      2     -12.8383      2.00000
      3     -12.8383      2.00000
      4     -12.7558      2.00000
      5     -12.7558      2.00000
      6      -7.5616      2.00000
      7      -2.7023      2.00000
      8       3.0297      2.00000
      9       3.0297      2.00000
     10       6.7608      0.00000
     11       9.8651      0.00000
     12       9.8651      0.00000
     13      13.4551      0.00000

 k-point     5 :       0.1429    0.1429    0.0000
  band No.  band energies     occupation 
      1     -12.8814      2.00000
      2     -12.8502      2.00000
      3     -12.8502      2.00000
      4     -12.7654      2.00000
      5     -12.7572      2.00000
      6      -9.2132      2.00000
      7       2.3010      2.00000
      8       3.3498      2.00000
      9       3.3498      2.00000
     10       8.0117      0.00000
     11       8.7335      0.00000
     12      10.2499      0.00000
     13      10.2499      0.00000

 k-point     6 :       0.2857    0.1429    0.0000
  band No.  band energies     occupation 
      1     -12.9010      2.00000
      2     -12.8409      2.00000
      3     -12.8387      2.00000
      4     -12.7685      2.00000
      5     -12.7541      2.00000
      6      -8.5889      2.00000
      7       0.1245      2.00000
      8       2.7384      2.00000
      9       2.7684      2.00000
     10       7.9281      0.00000
     11       9.2401      0.00000
     12      10.8843      0.00000
     13      11.0889      0.00000

 k-point     7 :       0.4286    0.1429    0.0000
  band No.  band energies     occupation 
      1     -12.9171      2.00000
      2     -12.8354      2.00000
      3     -12.8310      2.00000
      4     -12.7657      2.00000
      5     -12.7525      2.00000
      6      -7.6307      2.00000
      7      -2.0873      2.00000
      8       2.0096      2.00000
      9       2.5233      2.00000
     10       7.7715      0.00000
     11       9.6517      0.00000
     12      10.9717      0.00000
     13      11.9440      0.00000

 k-point     8 :      -0.4286    0.1429    0.0000
  band No.  band energies     occupation 
      1     -12.9206      2.00000
      2     -12.8343      2.00000
      3     -12.8307      2.00000
      4     -12.7597      2.00000
      5     -12.7560      2.00000
      6      -7.1852      2.00000
      7      -2.8629      2.00000
      8       1.5724      2.00000
      9       2.7021      2.00000
     10       7.7787      0.00000
     11       9.6820      0.00000
     12      10.5961      0.00000
     13      13.6799      0.00000

 k-point     9 :      -0.2857    0.1429    0.0000
  band No.  band energies     occupation 
      1     -12.9087      2.00000
      2     -12.8377      2.00000
      3     -12.8372      2.00000
      4     -12.7622      2.00000
      5     -12.7570      2.00000
      6      -7.9646      2.00000
      7      -1.4175      2.00000
      8       1.6285      2.00000
      9       3.2256      2.00000
     10       8.0778      0.00000
     11      10.0097      0.00000
     12      10.3236      0.00000
     13      12.0728      0.00000

 k-point    10 :      -0.1429    0.1429    0.0000
  band No.  band energies     occupation 
      1     -12.8885      2.00000
      2     -12.8492      2.00000
      3     -12.8451      2.00000
      4     -12.7637      2.00000
      5     -12.7579      2.00000
      6      -8.8539      2.00000
      7       0.7674      2.00000
      8       2.4348      2.00000
      9       3.8086      2.00000
     10       8.3034      0.00000
     11       9.5318      0.00000
     12       9.7045      0.00000
     13      10.9827      0.00000

 k-point    11 :       0.2857    0.2857    0.0000
  band No.  band energies     occupation 
      1     -12.9215      2.00000
      2     -12.8253      2.00000
      3     -12.8253      2.00000
      4     -12.7782      2.00000
      5     -12.7491      2.00000
      6      -8.1481      2.00000
      7      -0.3903      2.00000
      8       2.0995      2.00000
      9       2.0995      2.00000
     10       6.9156      0.00000
     11       8.4427      0.00000
     12      12.7303      0.00000
     13      12.7303      0.00000

 k-point    12 :       0.4286    0.2857    0.0000
  band No.  band energies     occupation 
      1     -12.9342      2.00000
      2     -12.8187      2.00000
      3     -12.8157      2.00000
      4     -12.7806      2.00000
      5     -12.7471      2.00000
      6      -7.3204      2.00000
      7      -1.8556      2.00000
      8       1.1456      2.00000
      9       1.7899      2.00000
     10       7.1325      0.00000
     11       8.5651      0.00000
     12      12.5697      0.00000
     13      13.2270      0.00000

 k-point    13 :      -0.4286    0.2857    0.0000
  band No.  band energies     occupation 
      1     -12.9326      2.00000
      2     -12.8232      2.00000
      3     -12.8151      2.00000
      4     -12.7736      2.00000
      5     -12.7517      2.00000
      6      -6.6704      2.00000
      7      -2.7579      2.00000
      8       0.1449      2.00000
      9       1.9581      2.00000
     10       7.3738      0.00000
     11      10.6002      0.00000
     12      12.4323      0.00000
     13      12.6900      0.00000

 k-point    14 :      -0.2857    0.2857    0.0000
  band No.  band energies     occupation 
      1     -12.9218      2.00000
      2     -12.8305      2.00000
      3     -12.8238      2.00000
      4     -12.7634      2.00000
      5     -12.7595      2.00000
      6      -7.1115      2.00000
      7      -2.2039      2.00000
      8       0.0896      2.00000
      9       2.5393      2.00000
     10       7.9497      0.00000
     11      11.3439      0.00000
     12      11.7478      0.00000
     13      12.0719      0.00000

 k-point    15 :       0.4286    0.4286    0.0000
  band No.  band energies     occupation 
      1     -12.9499      2.00000
      2     -12.8047      2.00000
      3     -12.8047      2.00000
      4     -12.7899      2.00000
      5     -12.7427      2.00000
      6      -6.7327      2.00000
      7      -2.6809      2.00000
      8       1.3670      2.00000
      9       1.3670      2.00000
     10       6.4725      0.00000
     11       7.0564      0.00000
     12      15.4462      0.00000
     13      15.4462      0.00000

 k-point    16 :      -0.4286    0.4286    0.0000
  band No.  band energies     occupation 
      1     -12.9478      2.00000
      2     -12.8085      2.00000
      3     -12.8044      2.00000
      4     -12.7864      2.00000
      5     -12.7448      2.00000
      6      -6.3671      2.00000
      7      -3.0562      2.00000
      8       0.5484      2.00000
      9       1.4307      2.00000
     10       6.7892      0.00000
     11       8.0114      0.00000
     12      14.8639      0.00000
     13      15.0152      0.00000

 k-point    17 :       0.4286    0.2857    0.1429
  band No.  band energies     occupation 
      1     -12.9173      2.00000
      2     -12.8326      2.00000
      3     -12.8268      2.00000
      4     -12.7718      2.00000
      5     -12.7520      2.00000
      6      -7.8543      2.00000
      7      -1.1137      2.00000
      8       1.1919      2.00000
      9       2.4905      2.00000
     10       8.4646      0.00000
     11       9.3707      0.00000
     12      10.3806      0.00000
     13      12.5017      0.00000

 k-point    18 :      -0.4286    0.2857    0.1429
  band No.  band energies     occupation 
      1     -12.9259      2.00000
      2     -12.8308      2.00000
      3     -12.8185      2.00000
      4     -12.7691      2.00000
      5     -12.7538      2.00000
      6      -6.9793      2.00000
      7      -2.4905      2.00000
      8       0.5321      2.00000
      9       1.9545      2.00000
     10       8.7656      0.00000
     11       9.5194      0.00000
     12      11.2910      0.00000
     13      13.0563      0.00000

 k-point    19 :      -0.4286    0.4286    0.1429
  band No.  band energies     occupation 
      1     -12.9398      2.00000
      2     -12.8181      2.00000
      3     -12.8069      2.00000
      4     -12.7810      2.00000
      5     -12.7480      2.00000
      6      -6.6061      2.00000
      7      -2.6835      2.00000
      8       0.6233      2.00000
      9       1.0701      2.00000
     10       8.0255      0.00000
     11       8.4858      0.00000
     12      12.2595      0.00000
     13      14.6593      0.00000

 k-point    20 :      -0.2857    0.4286    0.1429
  band No.  band energies     occupation 
      1     -12.9338      2.00000
      2     -12.8256      2.00000
      3     -12.8077      2.00000
      4     -12.7745      2.00000
      5     -12.7531      2.00000
      6      -6.4094      2.00000
      7      -2.8258      2.00000
      8      -0.0232      2.00000
      9       1.1727      2.00000
     10       8.5739      0.00000
     11      10.5455      0.00000
     12      11.6072      0.00000
     13      12.2943      0.00000


--------------------------------------------------------------------------------------------------------


 soft charge-density along one line, spin component            1
         0         1         2         3         4         5         6         7         8         9
 total charge-density along one line
 
 pseudopotential strength for first ion, spin component:            1
-10.446   0.000  -0.001  -0.000   0.001  -0.285  -0.000   0.001
  0.000 -10.446  -0.000  -0.001  -0.000  -0.000  -0.285   0.000
 -0.001  -0.000 -10.447  -0.000  -0.000   0.001   0.000  -0.284
 -0.000  -0.001  -0.000 -10.447   0.000   0.000   0.001   0.000
  0.001  -0.000  -0.000   0.000 -10.448  -0.000   0.000   0.000
 -0.285  -0.000   0.001   0.000  -0.000   5.291  -0.000  -0.000
 -0.000  -0.285   0.000   0.001   0.000  -0.000   5.291   0.000
  0.001   0.000  -0.284   0.000   0.000  -0.000   0.000   5.291
  0.000   0.001   0.000  -0.284  -0.000  -0.000  -0.000   0.000
 -0.000   0.000   0.000  -0.000  -0.284   0.000   0.000  -0.000
  0.000   0.000   0.000   0.000  -0.000  -0.000  -0.000  -0.000
 -0.000  -0.000  -0.000  -0.000  -0.000   0.000   0.000   0.000
  0.000   0.000   0.001  -0.000   0.002  -0.000  -0.000  -0.001
 -0.000   0.001  -0.000   0.002  -0.000   0.000  -0.001   0.000
  0.001  -0.000   0.002  -0.000  -0.001  -0.001   0.000  -0.001
 -0.000  -0.000  -0.005   0.000  -0.009   0.000   0.000   0.004
  0.000  -0.006   0.000  -0.009   0.000  -0.000   0.005  -0.000
 -0.006   0.000  -0.008   0.000   0.004   0.005  -0.000   0.006
 total augmentation occupancy for first ion, spin component:            1
  1.993  -0.000   0.002  -0.000  -0.001  -0.003   0.000   0.006   0.000  -0.003  -0.000  -0.000  -0.000  -0.000   0.016  -0.000
 -0.000   1.993  -0.000   0.002   0.000   0.000  -0.003  -0.000   0.006  -0.000   0.000   0.000   0.000   0.016  -0.000   0.000
  0.002  -0.000   1.995  -0.000   0.001   0.006  -0.000   0.003  -0.000   0.002   0.000   0.000   0.013  -0.000   0.019   0.001
 -0.000   0.002  -0.000   1.995  -0.000   0.000   0.006  -0.000   0.002   0.000   0.000   0.000  -0.000   0.022   0.000  -0.000
 -0.001   0.000   0.001  -0.000   1.996  -0.003  -0.000   0.002   0.000   0.005   0.000   0.000   0.023  -0.000  -0.011   0.002
 -0.003   0.000   0.006   0.000  -0.003   0.028  -0.000   0.017   0.000  -0.010  -0.000  -0.000   0.000   0.000   0.108   0.000
  0.000  -0.003  -0.000   0.006  -0.000  -0.000   0.028  -0.000   0.020   0.000   0.000   0.000   0.000   0.108   0.000   0.000
  0.006  -0.000   0.003  -0.000   0.002   0.017  -0.000   0.046  -0.000   0.006   0.000   0.000   0.093  -0.000   0.132   0.002
  0.000   0.006  -0.000   0.002   0.000   0.000   0.020  -0.000   0.042  -0.000   0.000   0.000  -0.000   0.152   0.000   0.000
 -0.003  -0.000   0.002   0.000   0.005  -0.010   0.000   0.006  -0.000   0.053   0.000   0.000   0.162  -0.000  -0.076   0.003
 -0.000   0.000   0.000   0.000   0.000  -0.000   0.000   0.000   0.000   0.000   1.388   0.045   0.000   0.000  -0.000   0.000
 -0.000   0.000   0.000   0.000   0.000  -0.000   0.000   0.000   0.000   0.000   0.045   0.002   0.000   0.000  -0.000   0.000
 -0.000   0.000   0.013  -0.000   0.023   0.000   0.000   0.093  -0.000   0.162   0.000   0.000   1.002   0.000  -0.000   0.021
 -0.000   0.016  -0.000   0.022  -0.000   0.000   0.108  -0.000   0.152  -0.000   0.000   0.000   0.000   1.002   0.000   0.000
  0.016  -0.000   0.019   0.000  -0.011   0.108   0.000   0.132   0.000  -0.076  -0.000  -0.000  -0.000   0.000   1.002  -0.000
 -0.000   0.000   0.001  -0.000   0.002   0.000   0.000   0.002   0.000   0.003   0.000   0.000   0.021   0.000  -0.000   0.000
 -0.000   0.002  -0.000   0.002  -0.000   0.000   0.002  -0.000   0.003   0.000   0.000   0.000   0.000   0.021   0.000   0.000
  0.002  -0.000   0.002   0.000  -0.001   0.002   0.000   0.003   0.000  -0.002  -0.000  -0.000  -0.000   0.000   0.021  -0.000


------------------------ aborting loop because EDIFF is reached ----------------------------------------


    FORLOC:  cpu time      0.0024: real time      0.0024
    FORHF :  cpu time     28.9211: real time     28.9308
    FORNL :  cpu time      0.0553: real time      0.0367
    FORCOR:  cpu time      0.3707: real time      0.3094
    OFIELD:  cpu time      0.0011: real time      0.0011

 VOLUME and BASIS-vectors are now :
 -----------------------------------------------------------------------------
  energy-cutoff  :      520.00
  volume of cell :       40.51
      direct lattice vectors                 reciprocal lattice vectors
     3.338425170 -0.000000000  1.927440100     0.299542434 -0.105904236  0.000000000
     1.112808060  3.147496710  1.927440100     0.000000000  0.317712802  0.000000000
    -0.000000000 -0.000000000  3.854881200    -0.149771178 -0.105904256  0.259411367

  length of vectors
     3.854881056  3.854880369  3.854881200     0.317712727  0.317712802  0.317712723


 FORCES acting on ions:
    Electron-Ion                     Ewald-Force                    Non-Local-Force
 -----------------------------------------------------------------------------------------------
   0.146E-04 -.393E-04 0.421E-04   -.286E-04 0.775E-04 -.581E-04   -.945E-16 -.625E-16 -.833E-16
   -.233E-04 0.635E-04 -.505E-04   0.286E-04 -.775E-04 0.581E-04   0.555E-16 -.694E-17 -.833E-16
 -----------------------------------------------------------------------------------------------
   -.780E-05 0.250E-04 -.665E-05   0.336E-15 0.152E-15 0.112E-15   -.390E-16 -.694E-16 -.167E-15
 
 
 POSITION                                       TOTAL-FORCE (eV/Angst)
 -----------------------------------------------------------------------------------
      0.00000      0.00000      0.00000        -0.000000      0.000000      0.000000
      1.11281      0.78687      1.92744         0.000000     -0.000000     -0.000000
 -----------------------------------------------------------------------------------
    total drift:                               -0.000008      0.000025     -0.000007


--------------------------------------------------------------------------------------------------------



  FREE ENERGIE OF THE ION-ELECTRON SYSTEM (eV)
  ---------------------------------------------------
  free  energy   TOTEN  =       -10.81563123 eV

  energy  without entropy=      -10.81563123  energy(sigma->0) =      -10.81563123
 


--------------------------------------------------------------------------------------------------------


    POTLOK:  cpu time      0.3852: real time      0.3256


--------------------------------------------------------------------------------------------------------


     LOOP+:  cpu time    397.5764: real time    395.9870
    4ORBIT:  cpu time      0.0000: real time      0.0000

 total amount of memory used by VASP MPI-rank0    74903. kBytes
=======================================================================

   base      :      30000. kBytes
   nonl-proj :       6382. kBytes
   fftplans  :       7596. kBytes
   grid      :      13478. kBytes
   one-center:         31. kBytes
   HF        :        129. kBytes
   nonlr-proj:       1297. kBytes
   wavefun   :      14076. kBytes
   fock_wrk  :       1914. kBytes
 
  
  
 General timing and accounting informations for this job:
 ========================================================
  
                  Total CPU time used (sec):      405.520
                            User time (sec):      403.936
                          System time (sec):        1.583
                         Elapsed time (sec):      402.560
  
                   Maximum memory used (kb):     1339456.
                   Average memory used (kb):          N/A
  
                          Minor page faults:       624159
                          Major page faults:            0
                 Voluntary context switches:        17410
