    1    1    1    1
  0.5164360E+02  0.4180008E-09  0.4180008E-09  0.4180009E-09  0.5000000E-15
   1.0000000000000000E-004
  CAR 
 FCC Ca EOS                              
      8    145      8
 
  0.1262379E-14  0.1262379E-14  0.1262379E-14  0.2441406E-03
      1        -22.000839   1.000000
      2        -22.000836   1.000000
      3        -22.000834   1.000000
      4         -2.244612   1.000000
      5          3.477066  -0.000000
      6          3.477067  -0.000000
      7          3.477068  -0.000000
      8          4.313109  -0.000000
 
  0.6250000E-01  0.1266888E-14  0.1262379E-14  0.1953125E-02
      1        -22.003268   1.000000
      2        -22.001189   1.000000
      3        -22.001185   1.000000
      4         -2.187968   1.000000
      5          3.419683  -0.000000
      6          3.497676  -0.000000
      7          3.497678  -0.000000
      8          4.296202  -0.000000
 
  0.1250000E+00  0.1266105E-14  0.1262379E-14  0.1953125E-02
      1        -22.010195   1.000000
      2        -22.002196   1.000000
      3        -22.002192   1.000000
      4         -2.019588   1.000000
      5          3.258276  -0.000000
      6          3.548658  -0.000000
      7          3.548660  -0.000000
      8          4.260731  -0.000000
 
  0.1875000E+00  0.1246033E-14  0.1262379E-14  0.1953125E-02
      1        -22.020533   1.000000
      2        -22.003703   1.000000
      3        -22.003699   1.000000
      4         -1.744297   1.000000
      5          3.016378  -0.000000
      6          3.593581  -0.000000
      7          3.593584  -0.000000
      8          4.253103  -0.000000
 
  0.2500000E+00  0.1224942E-14  0.1262379E-14  0.1953125E-02
      1        -22.032683   1.000000
      2        -22.005477   1.000000
      3        -22.005473   1.000000
      4         -1.370682   1.000000
      5          2.713821  -0.000000
      6          3.586352  -0.000000
      7          3.586356  -0.000000
      8          4.327417  -0.000000
 
  0.3125000E+00  0.1236509E-14  0.1262379E-14  0.1953125E-02
      1        -22.044789   1.000000
      2        -22.007251   1.000000
      3        -22.007248   1.000000
      4         -0.912333   1.000000
      5          2.356806  -0.000000
      6          3.529567  -0.000000
      7          3.529571  -0.000000
      8          4.479545  -0.000000
 
  0.3750000E+00  0.1216626E-14  0.1262379E-14  0.1953125E-02
      1        -22.055013   1.000000
      2        -22.008750   1.000000
      3        -22.008746   1.000000
      4         -0.391116   1.000000
      5          1.941130  -0.000747
      6          3.461958  -0.000000
      7          3.461962  -0.000000
      8          4.654421  -0.000000
 
  0.4375000E+00  0.1253912E-14  0.1262379E-14  0.1953125E-02
      1        -22.061832   1.000000
      2        -22.009756   1.000000
      3        -22.009752   1.000000
      4          0.149288   1.000000
      5          1.478270   0.271976
      6          3.412176  -0.000000
      7          3.412180  -0.000000
      8          4.792453  -0.000000
 
  0.5000000E+00  0.1249564E-14  0.1262379E-14  0.9765625E-03
      1        -22.064221   1.000000
      2        -22.010108   1.000000
      3        -22.010104   1.000000
      4          0.499050   1.000000
      5          1.156461   1.034045
      6          3.394204  -0.000000
      7          3.394208  -0.000000
      8          4.845113  -0.000000
 
  0.6250000E-01  0.6250000E-01  0.1262379E-14  0.1464844E-02
      1        -22.003203   1.000000
      2        -22.001745   1.000000
      3        -22.001745   1.000000
      4         -2.169109   1.000000
      5          3.405106  -0.000000
      6          3.503908  -0.000000
      7          3.503909  -0.000000
      8          4.246485  -0.000000
 
  0.1250000E+00  0.6250000E-01  0.1262379E-14  0.5859375E-02
      1        -22.008358   1.000000
      2        -22.002939   1.000000
      3        -22.002391   1.000000
      4         -2.038042   1.000000
      5          3.284118  -0.000000
      6          3.545591  -0.000000
      7          3.548128  -0.000000
      8          4.171718  -0.000000
 
  0.1875000E+00  0.6250000E-01  0.1262379E-14  0.5859375E-02
      1        -22.017470   1.000000
      2        -22.004588   1.000000
      3        -22.003507   1.000000
      4         -1.798435   1.000000
      5          3.077972  -0.000000
      6          3.594146  -0.000000
      7          3.596957  -0.000000
      8          4.117300  -0.000000
 
  0.2500000E+00  0.6250000E-01  0.1262379E-14  0.5859375E-02
      1        -22.028886   1.000000
      2        -22.006438   1.000000
      3        -22.005137   1.000000
      4         -1.457474   1.000000
      5          2.807197  -0.000000
      6          3.585636  -0.000000
      7          3.608343  -0.000000
      8          4.161831  -0.000000
 
  0.3125000E+00  0.6250000E-01  0.1262379E-14  0.5859375E-02
      1        -22.040853   1.000000
      2        -22.008210   1.000000
      3        -22.007054   1.000000
      4         -1.026772   1.000000
      5          2.480513  -0.000000
      6          3.510463  -0.000000
      7          3.572799  -0.000000
      8          4.316299  -0.000000
 
  0.3750000E+00  0.6250000E-01  0.1262379E-14  0.5859375E-02
      1        -22.051557   1.000000
      2        -22.009636   1.000000
      3        -22.008953   1.000000
      4         -0.524605   1.000000
      5          2.094584  -0.000011
      6          3.426193  -0.000000
      7          3.512409  -0.000000
      8          4.518982  -0.000000
 
  0.4375000E+00  0.6250000E-01  0.1262379E-14  0.5859375E-02
      1        -22.059393   1.000000
      2        -22.010544   1.000000
      3        -22.010497   1.000000
      4          0.016845   1.000000
      5          1.649309  -0.034113
      6          3.364514  -0.000000
      7          3.457743  -0.000000
      8          4.712753  -0.000000
 
  0.5000000E+00  0.6250000E-01  0.1262379E-14  0.5859375E-02
      1        -22.063190   1.000000
      2        -22.011579   1.000000
      3        -22.010658   1.000000
      4          0.493478   1.000000
      5          1.221940   1.025151
      6          3.335534  -0.000000
      7          3.428266  -0.000000
      8          4.846514  -0.000000
 
 -0.4375000E+00  0.6250000E-01  0.1262379E-14  0.5859375E-02
      1        -22.062399   1.000000
      2        -22.011902   1.000000
      3        -22.010107   1.000000
      4          0.359894   1.000000
      5          1.346284   0.796299
      6          3.340311  -0.000000
      7          3.433302  -0.000000
      8          4.778549  -0.000000
 
 -0.3750000E+00  0.6250000E-01  0.1262379E-14  0.5859375E-02
      1        -22.057131   1.000000
      2        -22.011454   1.000000
      3        -22.008917   1.000000
      4         -0.164832   1.000000
      5          1.805332  -0.010365
      6          3.376885  -0.000000
      7          3.474106  -0.000000
      8          4.622061  -0.000000
 
 -0.3125000E+00  0.6250000E-01  0.1262379E-14  0.5859375E-02
      1        -22.048177   1.000000
      2        -22.010299   1.000000
      3        -22.007266   1.000000
      4         -0.698380   1.000000
      5          2.233231  -0.000000
      6          3.438440  -0.000000
      7          3.543303  -0.000000
      8          4.423410  -0.000000
 
 -0.2500000E+00  0.6250000E-01  0.1262379E-14  0.5859375E-02
      1        -22.036891   1.000000
      2        -22.008606   1.000000
      3        -22.005418   1.000000
      4         -1.179376   1.000000
      5          2.598650  -0.000000
      6          3.506922  -0.000000
      7          3.618950  -0.000000
      8          4.237858  -0.000000
 
 -0.1875000E+00  0.6250000E-01  0.1262379E-14  0.5859375E-02
      1        -22.024988   1.000000
      2        -22.006608   1.000000
      3        -22.003643   1.000000
      4         -1.581834   1.000000
      5          2.905875  -0.000000
      6          3.551749  -0.000000
      7          3.650972  -0.000000
      8          4.134486  -0.000000
 
 -0.1250000E+00  0.6250000E-01  0.1262379E-14  0.5859375E-02
      1        -22.014326   1.000000
      2        -22.004571   1.000000
      3        -22.002213   1.000000
      4         -1.890069   1.000000
      5          3.154981  -0.000000
      6          3.550271  -0.000000
      7          3.603777  -0.000000
      8          4.153061  -0.000000
 
 -0.6250000E-01  0.6250000E-01  0.1262379E-14  0.2929688E-02
      1        -22.006693   1.000000
      2        -22.002675   1.000000
      3        -22.001357   1.000000
      4         -2.094096   1.000000
      5          3.332825  -0.000000
      6          3.519788  -0.000000
      7          3.535426  -0.000000
      8          4.228442  -0.000000
 
  0.1250000E+00  0.1250000E+00  0.1262379E-14  0.1464844E-02
      1        -22.009912   1.000000
      2        -22.004336   1.000000
      3        -22.004335   1.000000
      4         -1.944990   1.000000
      5          3.212224  -0.000000
      6          3.585809  -0.000000
      7          3.585811  -0.000000
      8          4.052944  -0.000000
 
  0.1875000E+00  0.1250000E+00  0.1262379E-14  0.5859375E-02
      1        -22.016674   1.000000
      2        -22.006170   1.000000
      3        -22.005649   1.000000
      4         -1.743029   1.000000
      5          3.056978  -0.000000
      6          3.630452  -0.000000
      7          3.644995  -0.000000
      8          3.951897  -0.000000
 
  0.2500000E+00  0.1250000E+00  0.1262379E-14  0.5859375E-02
      1        -22.026555   1.000000
      2        -22.008168   1.000000
      3        -22.007178   1.000000
      4         -1.437999   1.000000
      5          2.840990  -0.000000
      6          3.562587  -0.000000
      7          3.683904  -0.000000
      8          4.002301  -0.000000
 
  0.3125000E+00  0.1250000E+00  0.1262379E-14  0.5859375E-02
      1        -22.037489   1.000000
      2        -22.010024   1.000000
      3        -22.009235   1.000000
      4         -1.039665   1.000000
      5          2.570440  -0.000000
      6          3.422790  -0.000000
      7          3.673975  -0.000000
      8          4.182694  -0.000000
 
  0.3750000E+00  0.1250000E+00  0.1262379E-14  0.5859375E-02
      1        -22.047741   1.000000
      2        -22.011572   1.000000
      3        -22.011448   1.000000
      4         -0.563252   1.000000
      5          2.238621  -0.000000
      6          3.300160  -0.000000
      7          3.626014  -0.000000
      8          4.412106  -0.000000
 
  0.4375000E+00  0.1250000E+00  0.1262379E-14  0.5859375E-02
      1        -22.055759   1.000000
      2        -22.013840   1.000000
      3        -22.012229   1.000000
      4         -0.033301   1.000000
      5          1.838019  -0.006118
      6          3.218757  -0.000000
      7          3.569857  -0.000000
      8          4.649601  -0.000000
 
  0.5000000E+00  0.1250000E+00  0.1262379E-14  0.5859375E-02
      1        -22.060365   1.000000
      2        -22.015671   1.000000
      3        -22.012252   1.000000
      4          0.496294   1.000000
      5          1.391244   0.628389
      6          3.176033  -0.000000
      7          3.529502  -0.000000
      8          4.851003  -0.000000
 
 -0.4375000E+00  0.1250000E+00  0.1262379E-14  0.5859375E-02
      1        -22.060901   1.000000
      2        -22.016758   1.000000
      3        -22.011509   1.000000
      4          0.635873   1.000000
      5          1.268955   0.980587
      6          3.162548  -0.000000
      7          3.519144  -0.000000
      8          4.773597  -0.000000
 
 -0.3750000E+00  0.1250000E+00  0.1262379E-14  0.5859375E-02
      1        -22.057330   1.000000
      2        -22.016899   1.000000
      3        -22.010114   1.000000
      4          0.147541   1.000000
      5          1.705840  -0.031046
      6          3.177969  -0.000000
      7          3.545096  -0.000000
      8          4.602556  -0.000000
 
 -0.3125000E+00  0.1250000E+00  0.1262379E-14  0.5859375E-02
      1        -22.050234   1.000000
      2        -22.016012   1.000000
      3        -22.008281   1.000000
      4         -0.390837   1.000000
      5          2.134788  -0.000003
      6          3.230671  -0.000000
      7          3.606866  -0.000000
      8          4.384690  -0.000000
 
 -0.2500000E+00  0.1250000E+00  0.1262379E-14  0.5859375E-02
      1        -22.040761   1.000000
      2        -22.014152   1.000000
      3        -22.006286   1.000000
      4         -0.888656   1.000000
      5          2.489107  -0.000000
      6          3.321287  -0.000000
      7          3.694865  -0.000000
      8          4.165014  -0.000000
 
 -0.1875000E+00  0.1250000E+00  0.1262379E-14  0.5859375E-02
      1        -22.030483   1.000000
      2        -22.011453   1.000000
      3        -22.004431   1.000000
      4         -1.315373   1.000000
      5          2.770326  -0.000000
      6          3.428905  -0.000000
      7          3.765319  -0.000000
      8          4.008691  -0.000000
 
 -0.1250000E+00  0.1250000E+00  0.1262379E-14  0.2929688E-02
      1        -22.021180   1.000000
      2        -22.008103   1.000000
      3        -22.003007   1.000000
      4         -1.652988   1.000000
      5          2.990491  -0.000000
      6          3.514345  -0.000000
      7          3.702225  -0.000000
      8          4.038866  -0.000000
 
  0.1875000E+00  0.1875000E+00  0.1262379E-14  0.1464844E-02
      1        -22.019855   1.000000
      2        -22.008215   1.000000
      3        -22.008215   1.000000
      4         -1.579770   1.000000
      5          2.950941  -0.000000
      6          3.726235  -0.000000
      7          3.726237  -0.000000
      8          3.755866  -0.000000
 
  0.2500000E+00  0.1875000E+00  0.1262379E-14  0.5859375E-02
      1        -22.027110   1.000000
      2        -22.010406   1.000000
      3        -22.010207   1.000000
      4         -1.313341   1.000000
      5          2.790184  -0.000000
      6          3.530008  -0.000000
      7          3.800738  -0.000000
      8          3.889494  -0.000000
 
  0.3125000E+00  0.1875000E+00  0.1262379E-14  0.5859375E-02
      1        -22.036155   1.000000
      2        -22.012491   1.000000
      3        -22.012396   1.000000
      4         -0.951915   1.000000
      5          2.589882  -0.000000
      6          3.312969  -0.000000
      7          3.827195  -0.000000
      8          4.097149  -0.000000
 
  0.3750000E+00  0.1875000E+00  0.1262379E-14  0.5859375E-02
      1        -22.045007   1.000000
      2        -22.015326   1.000000
      3        -22.013901   1.000000
      4         -0.508218   1.000000
      5          2.337875  -0.000000
      6          3.135684  -0.000000
      7          3.799597  -0.000000
      8          4.342979  -0.000000
 
  0.4375000E+00  0.1875000E+00  0.1262379E-14  0.5859375E-02
      1        -22.052178   1.000000
      2        -22.018430   1.000000
      3        -22.014687   1.000000
      4         -0.001742   1.000000
      5          2.013428  -0.000118
      6          3.019983  -0.000000
      7          3.745935  -0.000000
      8          4.609778  -0.000000
 
  0.5000000E+00  0.1875000E+00  0.1262379E-14  0.5859375E-02
      1        -22.056597   1.000000
      2        -22.021315   1.000000
      3        -22.014630   1.000000
      4          0.535105   1.000000
      5          1.612573  -0.019529
      6          2.955260  -0.000000
      7          3.694968  -0.000000
      8          4.860539  -0.000000
 
 -0.4375000E+00  0.1875000E+00  0.1262379E-14  0.5859375E-02
      1        -22.057693   1.000000
      2        -22.023453   1.000000
      3        -22.013744   1.000000
      4          0.938544   1.001663
      5          1.271335   0.977102
      6          2.916470  -0.000000
      7          3.665493  -0.000000
      8          4.779976  -0.000000
 
 -0.3750000E+00  0.1875000E+00  0.1262379E-14  0.5859375E-02
      1        -22.055467   1.000000
      2        -22.024366   1.000000
      3        -22.012160   1.000000
      4          0.531444   1.000000
      5          1.654635  -0.034825
      6          2.898982  -0.000000
      7          3.667824  -0.000000
      8          4.603168  -0.000000
 
 -0.3125000E+00  0.1875000E+00  0.1262379E-14  0.5859375E-02
      1        -22.050493   1.000000
      2        -22.023663   1.000000
      3        -22.010118   1.000000
      4         -0.001428   1.000000
      5          2.079441  -0.000017
      6          2.930416  -0.000000
      7          3.705839  -0.000000
      8          4.380436  -0.000000
 
 -0.2500000E+00  0.1875000E+00  0.1262379E-14  0.5859375E-02
      1        -22.043866   1.000000
      2        -22.021102   1.000000
      3        -22.007939   1.000000
      4         -0.508031   1.000000
      5          2.399372  -0.000000
      6          3.046780  -0.000000
      7          3.777836  -0.000000
      8          4.150878  -0.000000
 
 -0.1875000E+00  0.1875000E+00  0.1262379E-14  0.2929688E-02
      1        -22.036881   1.000000
      2        -22.016770   1.000000
      3        -22.005936   1.000000
      4         -0.953029   1.000000
      5          2.612366  -0.000000
      6          3.238501  -0.000000
      7          3.868608  -0.000000
      8          3.952800  -0.000000
 
  0.2500000E+00  0.2500000E+00  0.1262379E-14  0.1464844E-02
      1        -22.031432   1.000000
      2        -22.012788   1.000000
      3        -22.012787   1.000000
      4         -1.087378   1.000000
      5          2.675331  -0.000000
      6          3.396560  -0.000000
      7          3.928614  -0.000000
      8          3.928616  -0.000000
 
  0.3125000E+00  0.2500000E+00  0.1262379E-14  0.5859375E-02
      1        -22.038141   1.000000
      2        -22.015250   1.000000
      3        -22.014974   1.000000
      4         -0.767082   1.000000
      5          2.530515  -0.000000
      6          3.186269  -0.000000
      7          4.014889  -0.000000
      8          4.094048  -0.000000
 
  0.3750000E+00  0.2500000E+00  0.1262379E-14  0.5859375E-02
      1        -22.045037   1.000000
      2        -22.018389   1.000000
      3        -22.016621   1.000000
      4         -0.363395   1.000000
      5          2.360751  -0.000000
      6          2.975106  -0.000000
      7          4.024351  -0.000000
      8          4.326267  -0.000000
 
  0.4375000E+00  0.2500000E+00  0.1262379E-14  0.5859375E-02
      1        -22.050515   1.000000
      2        -22.022281   1.000000
      3        -22.017483   1.000000
      4          0.107360   1.000000
      5          2.137074  -0.000003
      6          2.814793  -0.000000
      7          3.979976  -0.000000
      8          4.600212  -0.000000
 
  0.5000000E+00  0.2500000E+00  0.1262379E-14  0.5859375E-02
      1        -22.053587   1.000000
      2        -22.026512   1.000000
      3        -22.017427   1.000000
      4          0.621329   1.000000
      5          1.831233  -0.006865
      6          2.716041  -0.000000
      7          3.918899  -0.000000
      8          4.881303  -0.000000
 
 -0.4375000E+00  0.2500000E+00  0.1262379E-14  0.5859375E-02
      1        -22.053899   1.000000
      2        -22.030322   1.000000
      3        -22.016467   1.000000
      4          1.140069   1.031416
      5          1.444598   0.404992
      6          2.643294  -0.000000
      7          3.865116  -0.000000
      8          4.798970  -0.000000
 
 -0.3750000E+00  0.2500000E+00  0.1262379E-14  0.5859375E-02
      1        -22.051861   1.000000
      2        -22.032674   1.000000
      3        -22.014745   1.000000
      4          0.956398   1.002412
      5          1.658585  -0.035174
      6          2.578114  -0.000000
      7          3.830907  -0.000000
      8          4.630138  -0.000000
 
 -0.3125000E+00  0.2500000E+00  0.1262379E-14  0.5859375E-02
      1        -22.048851   1.000000
      2        -22.032145   1.000000
      3        -22.012516   1.000000
      4          0.448172   1.000000
      5          2.079378  -0.000017
      6          2.567837  -0.000000
      7          3.818328  -0.000000
      8          4.428752  -0.000000
 
 -0.2500000E+00  0.2500000E+00  0.1262379E-14  0.2929688E-02
      1        -22.046300   1.000000
      2        -22.027834   1.000000
      3        -22.010127   1.000000
      4         -0.053637   1.000000
      5          2.309911  -0.000000
      6          2.740948  -0.000000
      7          3.813992  -0.000000
      8          4.247609  -0.000000
 
  0.3125000E+00  0.3125000E+00  0.1262379E-14  0.1464844E-02
      1        -22.042854   1.000000
      2        -22.017362   1.000000
      3        -22.017361   1.000000
      4         -0.491625   1.000000
      5          2.426884  -0.000000
      6          3.019574  -0.000000
      7          4.192790  -0.000000
      8          4.192791  -0.000000
 
  0.3750000E+00  0.3125000E+00  0.1262379E-14  0.5859375E-02
      1        -22.048147   1.000000
      2        -22.019953   1.000000
      3        -22.019198   1.000000
      4         -0.135568   1.000000
      5          2.311691  -0.000000
      6          2.821382  -0.000000
      7          4.279879  -0.000000
      8          4.378852  -0.000000
 
  0.4375000E+00  0.3125000E+00  0.1262379E-14  0.5859375E-02
      1        -22.052126   1.000000
      2        -22.023710   1.000000
      3        -22.020207   1.000000
      4          0.286150   1.000000
      5          2.180066  -0.000001
      6          2.631941  -0.000000
      7          4.259815  -0.000000
      8          4.629555  -0.000000
 
  0.5000000E+00  0.3125000E+00  0.1262379E-14  0.5859375E-02
      1        -22.053657   1.000000
      2        -22.028606   1.000000
      3        -22.020229   1.000000
      4          0.752184   1.000012
      5          1.992608  -0.000207
      6          2.490705  -0.000000
      7          4.190398  -0.000000
      8          4.905735  -0.000000
 
 -0.4375000E+00  0.3125000E+00  0.1262379E-14  0.5859375E-02
      1        -22.052256   1.000000
      2        -22.034148   1.000000
      3        -22.019266   1.000000
      4          1.233101   1.018357
      5          1.726578  -0.026617
      6          2.377988  -0.000000
      7          4.105626  -0.000000
      8          4.830960  -0.000000
 
 -0.3750000E+00  0.3125000E+00  0.1262379E-14  0.5859375E-02
      1        -22.048158   1.000000
      2        -22.039455   1.000000
      3        -22.017460   1.000000
      4          1.353996   0.770088
      5          1.720679  -0.027942
      6          2.254313  -0.000000
      7          4.017174  -0.000000
      8          4.688226  -0.000000
 
 -0.3125000E+00  0.3125000E+00  0.1262379E-14  0.2929688E-02
      1        -22.045929   1.000000
      2        -22.039786   1.000000
      3        -22.015092   1.000000
      4          0.919859   1.001104
      5          2.128502  -0.000003
      6          2.173587  -0.000001
      7          3.923643  -0.000000
      8          4.537981  -0.000000
 
  0.3750000E+00  0.3750000E+00  0.1262379E-14  0.1464844E-02
      1        -22.052417   1.000000
      2        -22.021242   1.000000
      3        -22.021241   1.000000
      4          0.164734   1.000000
      5          2.233197  -0.000000
      6          2.651683  -0.000000
      7          4.507168  -0.000000
      8          4.507169  -0.000000
 
  0.4375000E+00  0.3750000E+00  0.1262379E-14  0.5859375E-02
      1        -22.055698   1.000000
      2        -22.023573   1.000000
      3        -22.022437   1.000000
      4          0.521677   1.000000
      5          2.155456  -0.000001
      6          2.466383  -0.000000
      7          4.559618  -0.000000
      8          4.704291  -0.000000
 
  0.5000000E+00  0.3750000E+00  0.1262379E-14  0.5859375E-02
      1        -22.056664   1.000000
      2        -22.027409   1.000000
      3        -22.022602   1.000000
      4          0.911236   1.000908
      5          2.066123  -0.000026
      6          2.296869  -0.000000
      7          4.486044  -0.000000
      8          4.923473  -0.000000
 
 -0.4375000E+00  0.3750000E+00  0.1262379E-14  0.5859375E-02
      1        -22.054832   1.000000
      2        -22.032522   1.000000
      3        -22.021715   1.000000
      4          1.293282   0.938587
      5          1.938760  -0.000790
      6          2.160590  -0.000001
      7          4.363603  -0.000000
      8          4.876198  -0.000000
 
 -0.3750000E+00  0.3750000E+00  0.1262379E-14  0.2929688E-02
      1        -22.050628   1.000000
      2        -22.037981   1.000000
      3        -22.019910   1.000000
      4          1.536670   0.092269
      5          1.818572  -0.008445
      6          2.063399  -0.000028
      7          4.202866  -0.000000
      8          4.777245  -0.000000
 
  0.4375000E+00  0.4375000E+00  0.1262379E-14  0.1464844E-02
      1        -22.058746   1.000000
      2        -22.023834   1.000000
      3        -22.023833   1.000000
      4          0.792389   1.000040
      5          2.111084  -0.000006
      6          2.299357  -0.000000
      7          4.817170  -0.000000
      8          4.823582  -0.000000
 
  0.5000000E+00  0.4375000E+00  0.1262379E-14  0.5859375E-02
      1        -22.059746   1.000000
      2        -22.025534   1.000000
      3        -22.024188   1.000000
      4          1.059933   1.014040
      5          2.074590  -0.000020
      6          2.147734  -0.000002
      7          4.743803  -0.000000
      8          4.949800  -0.000000
 
 -0.4375000E+00  0.4375000E+00  0.1262379E-14  0.2929688E-02
      1        -22.058223   1.000000
      2        -22.028737   1.000000
      3        -22.023448   1.000000
      4          1.252104   1.001630
      5          2.039510  -0.000057
      6          2.070573  -0.000023
      7          4.593924  -0.000000
      8          4.931362  -0.000000
 
  0.5000000E+00  0.5000000E+00  0.1262379E-14  0.7324219E-03
      1        -22.060956   1.000000
      2        -22.024747   1.000000
      3        -22.024746   1.000000
      4          1.126568   1.028660
      5          2.069459  -0.000023
      6          2.084700  -0.000015
      7          4.838711  -0.000000
      8          4.984260  -0.000000
 
  0.1875000E+00  0.1250000E+00  0.6250000E-01  0.5859375E-02
      1        -22.013759   1.000000
      2        -22.005315   1.000000
      3        -22.003077   1.000000
      4         -1.871410   1.000000
      5          3.149772  -0.000000
      6          3.563857  -0.000000
      7          3.617950  -0.000000
      8          4.074345  -0.000000
 
  0.2500000E+00  0.1250000E+00  0.6250000E-01  0.1171875E-01
      1        -22.022669   1.000000
      2        -22.007917   1.000000
      3        -22.004205   1.000000
      4         -1.598888   1.000000
      5          2.947424  -0.000000
      6          3.542953  -0.000000
      7          3.693551  -0.000000
      8          4.020472  -0.000000
 
  0.3125000E+00  0.1250000E+00  0.6250000E-01  0.1171875E-01
      1        -22.033486   1.000000
      2        -22.010311   1.000000
      3        -22.005855   1.000000
      4         -1.228880   1.000000
      5          2.686846  -0.000000
      6          3.463160  -0.000000
      7          3.689902  -0.000000
      8          4.107484  -0.000000
 
  0.3750000E+00  0.1250000E+00  0.6250000E-01  0.1171875E-01
      1        -22.044373   1.000000
      2        -22.012342   1.000000
      3        -22.007773   1.000000
      4         -0.774698   1.000000
      5          2.366068  -0.000000
      6          3.362172  -0.000000
      7          3.624989  -0.000000
      8          4.300207  -0.000000
 
  0.4375000E+00  0.1250000E+00  0.6250000E-01  0.1171875E-01
      1        -22.053603   1.000000
      2        -22.013818   1.000000
      3        -22.009598   1.000000
      4         -0.257434   1.000000
      5          1.977362  -0.000308
      6          3.280903  -0.000000
      7          3.554784  -0.000000
      8          4.521840  -0.000000
 
  0.5000000E+00  0.1250000E+00  0.6250000E-01  0.1171875E-01
      1        -22.059766   1.000000
      2        -22.014662   1.000000
      3        -22.010956   1.000000
      4          0.283140   1.000000
      5          1.528613   0.112248
      6          3.234084  -0.000000
      7          3.504735  -0.000000
      8          4.718948  -0.000000
 
 -0.4375000E+00  0.1250000E+00  0.6250000E-01  0.5859375E-02
      1        -22.061926   1.000000
      2        -22.014920   1.000000
      3        -22.011466   1.000000
      4          0.650662   1.000000
      5          1.194056   1.034208
      6          3.219628  -0.000000
      7          3.486832  -0.000000
      8          4.815299  -0.000000
 
  0.2500000E+00  0.1875000E+00  0.6250000E-01  0.5859375E-02
      1        -22.023146   1.000000
      2        -22.009268   1.000000
      3        -22.006755   1.000000
      4         -1.508501   1.000000
      5          2.903367  -0.000000
      6          3.573582  -0.000000
      7          3.754978  -0.000000
      8          3.887417  -0.000000
 
  0.3125000E+00  0.1875000E+00  0.6250000E-01  0.1171875E-01
      1        -22.031985   1.000000
      2        -22.012359   1.000000
      3        -22.008192   1.000000
      4         -1.174744   1.000000
      5          2.705568  -0.000000
      6          3.410116  -0.000000
      7          3.800345  -0.000000
      8          3.992169  -0.000000
 
  0.3750000E+00  0.1875000E+00  0.6250000E-01  0.1171875E-01
      1        -22.041468   1.000000
      2        -22.015029   1.000000
      3        -22.010048   1.000000
      4         -0.752964   1.000000
      5          2.456309  -0.000000
      6          3.240763  -0.000000
      7          3.759958  -0.000000
      8          4.204713  -0.000000
 
  0.4375000E+00  0.1875000E+00  0.6250000E-01  0.1171875E-01
      1        -22.049946   1.000000
      2        -22.017241   1.000000
      3        -22.011876   1.000000
      4         -0.260497   1.000000
      5          2.136169  -0.000003
      6          3.118064  -0.000000
      7          3.696610  -0.000000
      8          4.446614  -0.000000
 
  0.5000000E+00  0.1875000E+00  0.6250000E-01  0.1171875E-01
      1        -22.056070   1.000000
      2        -22.019033   1.000000
      3        -22.013112   1.000000
      4          0.274434   1.000000
      5          1.737317  -0.024146
      6          3.050388  -0.000000
      7          3.638871  -0.000000
      8          4.673364  -0.000000
 
 -0.4375000E+00  0.1875000E+00  0.6250000E-01  0.1171875E-01
      1        -22.058913   1.000000
      2        -22.020352   1.000000
      3        -22.013343   1.000000
      4          0.774736   1.000023
      5          1.309192   0.903188
      6          3.020306  -0.000000
      7          3.605261  -0.000000
      8          4.782073  -0.000000
 
 -0.3750000E+00  0.1875000E+00  0.6250000E-01  0.1171875E-01
      1        -22.058084   1.000000
      2        -22.020947   1.000000
      3        -22.012559   1.000000
      4          0.623345   1.000000
      5          1.454400   0.364819
      6          3.012673  -0.000000
      7          3.606061  -0.000000
      8          4.702567  -0.000000
 
 -0.3125000E+00  0.1875000E+00  0.6250000E-01  0.1171875E-01
      1        -22.053777   1.000000
      2        -22.020532   1.000000
      3        -22.011000   1.000000
      4          0.093757   1.000000
      5          1.900649  -0.001840
      6          3.035984  -0.000000
      7          3.643365  -0.000000
      8          4.509576  -0.000000
 
 -0.2500000E+00  0.1875000E+00  0.6250000E-01  0.1171875E-01
      1        -22.046757   1.000000
      2        -22.018939   1.000000
      3        -22.009021   1.000000
      4         -0.430942   1.000000
      5          2.278468  -0.000000
      6          3.112982  -0.000000
      7          3.712501  -0.000000
      8          4.277406  -0.000000
 
 -0.1875000E+00  0.1875000E+00  0.6250000E-01  0.1171875E-01
      1        -22.038259   1.000000
      2        -22.016136   1.000000
      3        -22.007008   1.000000
      4         -0.902676   1.000000
      5          2.565100  -0.000000
      6          3.251100  -0.000000
      7          3.802476  -0.000000
      8          4.052309  -0.000000
 
 -0.1250000E+00  0.1875000E+00  0.6250000E-01  0.5859375E-02
      1        -22.029794   1.000000
      2        -22.012276   1.000000
      3        -22.005313   1.000000
      4         -1.297080   1.000000
      5          2.778861  -0.000000
      6          3.415675  -0.000000
      7          3.833265  -0.000000
      8          3.927545  -0.000000
 
  0.3125000E+00  0.2500000E+00  0.6250000E-01  0.5859375E-02
      1        -22.033635   1.000000
      2        -22.013934   1.000000
      3        -22.011539   1.000000
      4         -1.019152   1.000000
      5          2.642201  -0.000000
      6          3.333428  -0.000000
      7          3.941804  -0.000000
      8          3.951848  -0.000000
 
  0.3750000E+00  0.2500000E+00  0.6250000E-01  0.1171875E-01
      1        -22.041056   1.000000
      2        -22.017325   1.000000
      3        -22.013227   1.000000
      4         -0.635388   1.000000
      5          2.468501  -0.000000
      6          3.114413  -0.000000
      7          3.944083  -0.000000
      8          4.161309  -0.000000
 
  0.4375000E+00  0.2500000E+00  0.6250000E-01  0.1171875E-01
      1        -22.047835   1.000000
      2        -22.020539   1.000000
      3        -22.014945   1.000000
      4         -0.176634   1.000000
      5          2.243231  -0.000000
      6          2.938460  -0.000000
      7          3.895245  -0.000000
      8          4.408793  -0.000000
 
  0.5000000E+00  0.2500000E+00  0.6250000E-01  0.1171875E-01
      1        -22.052760   1.000000
      2        -22.023690   1.000000
      3        -22.015990   1.000000
      4          0.335083   1.000000
      5          1.933932  -0.000883
      6          2.834314  -0.000000
      7          3.830195  -0.000000
      8          4.650879  -0.000000
 
 -0.4375000E+00  0.2500000E+00  0.6250000E-01  0.1171875E-01
      1        -22.055111   1.000000
      2        -22.026531   1.000000
      3        -22.015989   1.000000
      4          0.863973   1.000288
      5          1.539656   0.085281
      6          2.778745  -0.000000
      7          3.775057  -0.000000
      8          4.756207  -0.000000
 
 -0.3750000E+00  0.2500000E+00  0.6250000E-01  0.1171875E-01
      1        -22.054691   1.000000
      2        -22.028429   1.000000
      3        -22.014973   1.000000
      4          1.015645   1.007206
      5          1.430668   0.463300
      6          2.738726  -0.000000
      7          3.749365  -0.000000
      8          4.690240  -0.000000
 
 -0.3125000E+00  0.2500000E+00  0.6250000E-01  0.1171875E-01
      1        -22.051907   1.000000
      2        -22.028649   1.000000
      3        -22.013197   1.000000
      4          0.510348   1.000000
      5          1.877613  -0.002944
      6          2.723998  -0.000000
      7          3.759692  -0.000000
      8          4.521911  -0.000000
 
 -0.2500000E+00  0.2500000E+00  0.6250000E-01  0.1171875E-01
      1        -22.047690   1.000000
      2        -22.026560   1.000000
      3        -22.011017   1.000000
      4         -0.009459   1.000000
      5          2.230265  -0.000000
      6          2.793502  -0.000000
      7          3.798309  -0.000000
      8          4.306550  -0.000000
 
 -0.1875000E+00  0.2500000E+00  0.6250000E-01  0.5859375E-02
      1        -22.043002   1.000000
      2        -22.022079   1.000000
      3        -22.008827   1.000000
      4         -0.490126   1.000000
      5          2.435423  -0.000000
      6          2.996136  -0.000000
      7          3.841612  -0.000000
      8          4.115307  -0.000000
 
  0.3750000E+00  0.3125000E+00  0.6250000E-01  0.5859375E-02
      1        -22.043767   1.000000
      2        -22.018600   1.000000
      3        -22.016531   1.000000
      4         -0.426895   1.000000
      5          2.405490  -0.000000
      6          2.983544  -0.000000
      7          4.142616  -0.000000
      8          4.209227  -0.000000
 
  0.4375000E+00  0.3125000E+00  0.6250000E-01  0.1171875E-01
      1        -22.048779   1.000000
      2        -22.022190   1.000000
      3        -22.018129   1.000000
      4         -0.011391   1.000000
      5          2.266747  -0.000000
      6          2.778159  -0.000000
      7          4.138883  -0.000000
      8          4.423254  -0.000000
 
  0.5000000E+00  0.3125000E+00  0.6250000E-01  0.1171875E-01
      1        -22.051954   1.000000
      2        -22.026394   1.000000
      3        -22.019080   1.000000
      4          0.460405   1.000000
      5          2.072501  -0.000021
      6          2.626014  -0.000000
      7          4.069653  -0.000000
      8          4.663344  -0.000000
 
 -0.4375000E+00  0.3125000E+00  0.6250000E-01  0.1171875E-01
      1        -22.052631   1.000000
      2        -22.031043   1.000000
      3        -22.018946   1.000000
      4          0.961793   1.002689
      5          1.787599  -0.013376
      6          2.532793  -0.000000
      7          3.981676  -0.000000
      8          4.764349  -0.000000
 
 -0.3750000E+00  0.3125000E+00  0.6250000E-01  0.1171875E-01
      1        -22.050878   1.000000
      2        -22.035248   1.000000
      3        -22.017772   1.000000
      4          1.409434   0.552992
      5          1.460806   0.339117
      6          2.449304  -0.000000
      7          3.910202  -0.000000
      8          4.700083  -0.000000
 
 -0.3125000E+00  0.3125000E+00  0.6250000E-01  0.1171875E-01
      1        -22.048173   1.000000
      2        -22.037069   1.000000
      3        -22.015803   1.000000
      4          0.956128   1.002399
      5          1.915632  -0.001333
      6          2.373256  -0.000000
      7          3.875034  -0.000000
      8          4.579740  -0.000000
 
 -0.2500000E+00  0.3125000E+00  0.6250000E-01  0.5859375E-02
      1        -22.047508   1.000000
      2        -22.033588   1.000000
      3        -22.013413   1.000000
      4          0.465774   1.000000
      5          2.195646  -0.000000
      6          2.458403  -0.000000
      7          3.849814  -0.000000
      8          4.417928  -0.000000
 
  0.4375000E+00  0.3750000E+00  0.6250000E-01  0.5859375E-02
      1        -22.052149   1.000000
      2        -22.022554   1.000000
      3        -22.020850   1.000000
      4          0.226129   1.000000
      5          2.220207  -0.000000
      6          2.630376  -0.000000
      7          4.389802  -0.000000
      8          4.516282  -0.000000
 
  0.5000000E+00  0.3750000E+00  0.6250000E-01  0.1171875E-01
      1        -22.054327   1.000000
      2        -22.026204   1.000000
      3        -22.021871   1.000000
      4          0.639620   1.000000
      5          2.121551  -0.000004
      6          2.447064  -0.000000
      7          4.341176  -0.000000
      8          4.720019  -0.000000
 
 -0.4375000E+00  0.3750000E+00  0.6250000E-01  0.1171875E-01
      1        -22.053886   1.000000
      2        -22.031201   1.000000
      3        -22.021722   1.000000
      4          1.077508   1.017583
      5          1.968413  -0.000386
      6          2.310543  -0.000000
      7          4.212109  -0.000000
      8          4.831971  -0.000000
 
 -0.3750000E+00  0.3750000E+00  0.6250000E-01  0.1171875E-01
      1        -22.050622   1.000000
      2        -22.037014   1.000000
      3        -22.020472   1.000000
      4          1.480632   0.263278
      5          1.768736  -0.017101
      6          2.186076  -0.000000
      7          4.066605  -0.000000
      8          4.781987  -0.000000
 
 -0.3125000E+00  0.3750000E+00  0.6250000E-01  0.5859375E-02
      1        -22.045045   1.000000
      2        -22.042665   1.000000
      3        -22.018373   1.000000
      4          1.364011   0.734256
      5          1.940203  -0.000763
      6          2.078138  -0.000018
      7          3.965439  -0.000000
      8          4.690775  -0.000000
 
  0.5000000E+00  0.4375000E+00  0.6250000E-01  0.5859375E-02
      1        -22.057658   1.000000
      2        -22.025193   1.000000
      3        -22.023766   1.000000
      4          0.852454   1.000213
      5          2.103083  -0.000008
      6          2.289315  -0.000000
      7          4.601188  -0.000000
      8          4.826332  -0.000000
 
 -0.4375000E+00  0.4375000E+00  0.6250000E-01  0.1171875E-01
      1        -22.057208   1.000000
      2        -22.028507   1.000000
      3        -22.023856   1.000000
      4          1.179440   1.035435
      5          2.047773  -0.000045
      6          2.140228  -0.000002
      7          4.459793  -0.000000
      8          4.927853  -0.000000
 
 -0.3750000E+00  0.4375000E+00  0.6250000E-01  0.5859375E-02
      1        -22.054352   1.000000
      2        -22.033117   1.000000
      3        -22.022630   1.000000
      4          1.421963   0.500095
      5          1.974453  -0.000331
      6          2.057703  -0.000033
      7          4.249554  -0.000000
      8          4.891564  -0.000000
 
 -0.4375000E+00  0.5000000E+00  0.6250000E-01  0.2929688E-02
      1        -22.059578   1.000000
      2        -22.026124   1.000000
      3        -22.024799   1.000000
      4          1.190005   1.034751
      5          2.063103  -0.000028
      6          2.076309  -0.000019
      7          4.676535  -0.000000
      8          4.984478  -0.000000
 
  0.3750000E+00  0.2500000E+00  0.1250000E+00  0.5859375E-02
      1        -22.038316   1.000000
      2        -22.017193   1.000000
      3        -22.009544   1.000000
      4         -0.817209   1.000000
      5          2.554085  -0.000000
      6          3.190679  -0.000000
      7          3.913848  -0.000000
      8          4.016521  -0.000000
 
  0.4375000E+00  0.2500000E+00  0.1250000E+00  0.1171875E-01
      1        -22.044800   1.000000
      2        -22.021332   1.000000
      3        -22.011420   1.000000
      4         -0.378342   1.000000
      5          2.362312  -0.000000
      6          2.983810  -0.000000
      7          3.859897  -0.000000
      8          4.220438  -0.000000
 
  0.5000000E+00  0.2500000E+00  0.1250000E+00  0.1171875E-01
      1        -22.050469   1.000000
      2        -22.024289   1.000000
      3        -22.013377   1.000000
      4          0.121663   1.000000
      5          2.077929  -0.000018
      6          2.855628  -0.000000
      7          3.788344  -0.000000
      8          4.453169  -0.000000
 
 -0.4375000E+00  0.2500000E+00  0.1250000E+00  0.1171875E-01
      1        -22.054343   1.000000
      2        -22.025982   1.000000
      3        -22.014872   1.000000
      4          0.650681   1.000000
      5          1.688545  -0.033911
      6          2.809687  -0.000000
      7          3.732154  -0.000000
      8          4.644170  -0.000000
 
 -0.3750000E+00  0.2500000E+00  0.1250000E+00  0.5859375E-02
      1        -22.055717   1.000000
      2        -22.026519   1.000000
      3        -22.015434   1.000000
      4          1.076436   1.017355
      5          1.311516   0.897482
      6          2.802333  -0.000000
      7          3.710117  -0.000000
      8          4.706250  -0.000000
 
  0.4375000E+00  0.3125000E+00  0.1250000E+00  0.5859375E-02
      1        -22.045710   1.000000
      2        -22.022120   1.000000
      3        -22.014785   1.000000
      4         -0.236372   1.000000
      5          2.348620  -0.000000
      6          2.881378  -0.000000
      7          4.016786  -0.000000
      8          4.255252  -0.000000
 
  0.5000000E+00  0.3125000E+00  0.1250000E+00  0.1171875E-01
      1        -22.049358   1.000000
      2        -22.026401   1.000000
      3        -22.016617   1.000000
      4          0.227687   1.000000
      5          2.186519  -0.000000
      6          2.687968  -0.000000
      7          3.966370  -0.000000
      8          4.455007  -0.000000
 
 -0.4375000E+00  0.3125000E+00  0.1250000E+00  0.1171875E-01
      1        -22.051462   1.000000
      2        -22.029978   1.000000
      3        -22.017991   1.000000
      4          0.730450   1.000006
      5          1.912119  -0.001439
      6          2.595000  -0.000000
      7          3.877809  -0.000000
      8          4.636963  -0.000000
 
 -0.3750000E+00  0.3125000E+00  0.1250000E+00  0.1171875E-01
      1        -22.051840   1.000000
      2        -22.032574   1.000000
      3        -22.018304   1.000000
      4          1.234939   1.017034
      5          1.528051   0.113701
      6          2.559608  -0.000000
      7          3.806900  -0.000000
      8          4.679584  -0.000000
 
 -0.3125000E+00  0.3125000E+00  0.1250000E+00  0.1171875E-01
      1        -22.050822   1.000000
      2        -22.033477   1.000000
      3        -22.017414   1.000000
      4          1.063097   1.014646
      5          1.701451  -0.031869
      6          2.529579  -0.000000
      7          3.801826  -0.000000
      8          4.641757  -0.000000
 
 -0.2500000E+00  0.3125000E+00  0.1250000E+00  0.1171875E-01
      1        -22.049182   1.000000
      2        -22.031782   1.000000
      3        -22.015621   1.000000
      4          0.561589   1.000000
      5          2.074729  -0.000020
      6          2.541315  -0.000000
      7          3.847401  -0.000000
      8          4.504386  -0.000000
 
 -0.1875000E+00  0.3125000E+00  0.1250000E+00  0.5859375E-02
      1        -22.047289   1.000000
      2        -22.027381   1.000000
      3        -22.013441   1.000000
      4          0.068347   1.000000
      5          2.273009  -0.000000
      6          2.709045  -0.000000
      7          3.887340  -0.000000
      8          4.325205  -0.000000
 
  0.5000000E+00  0.3750000E+00  0.1250000E+00  0.5859375E-02
      1        -22.051239   1.000000
      2        -22.026289   1.000000
      3        -22.019859   1.000000
      4          0.404533   1.000000
      5          2.186416  -0.000000
      6          2.564536  -0.000000
      7          4.157681  -0.000000
      8          4.541478  -0.000000
 
 -0.4375000E+00  0.3750000E+00  0.1250000E+00  0.1171875E-01
      1        -22.051757   1.000000
      2        -22.030686   1.000000
      3        -22.021207   1.000000
      4          0.859739   1.000258
      5          2.057837  -0.000033
      6          2.405047  -0.000000
      7          4.035491  -0.000000
      8          4.709583  -0.000000
 
 -0.3750000E+00  0.3750000E+00  0.1250000E+00  0.1171875E-01
      1        -22.050082   1.000000
      2        -22.035519   1.000000
      3        -22.021347   1.000000
      4          1.316396   0.885060
      5          1.818315  -0.008479
      6          2.324768  -0.000000
      7          3.875607  -0.000000
      8          4.764327  -0.000000
 
 -0.3125000E+00  0.3750000E+00  0.1250000E+00  0.1171875E-01
      1        -22.046722   1.000000
      2        -22.039864   1.000000
      3        -22.020177   1.000000
      4          1.434971   0.445182
      5          1.790071  -0.012926
      6          2.240098  -0.000000
      7          3.805400  -0.000000
      8          4.732968  -0.000000
 
 -0.2500000E+00  0.3750000E+00  0.1250000E+00  0.5859375E-02
      1        -22.046575   1.000000
      2        -22.038459   1.000000
      3        -22.018082   1.000000
      4          1.021028   1.007872
      5          2.105414  -0.000008
      6          2.212694  -0.000000
      7          3.834425  -0.000000
      8          4.627312  -0.000000
 
 -0.4375000E+00  0.4375000E+00  0.1250000E+00  0.5859375E-02
      1        -22.054566   1.000000
      2        -22.029072   1.000000
      3        -22.023564   1.000000
      4          1.022381   1.008046
      5          2.083257  -0.000015
      6          2.259756  -0.000000
      7          4.230720  -0.000000
      8          4.833599  -0.000000
 
 -0.3750000E+00  0.4375000E+00  0.1250000E+00  0.1171875E-01
      1        -22.052531   1.000000
      2        -22.033330   1.000000
      3        -22.023862   1.000000
      4          1.388916   0.637828
      5          1.999226  -0.000174
      6          2.132373  -0.000003
      7          3.993767  -0.000000
      8          4.911922  -0.000000
 
 -0.3125000E+00  0.4375000E+00  0.1250000E+00  0.5859375E-02
      1        -22.048558   1.000000
      2        -22.038478   1.000000
      3        -22.022538   1.000000
      4          1.600123  -0.009751
      5          1.922032  -0.001157
      6          2.047354  -0.000045
      7          3.828075  -0.000000
      8          4.869264  -0.000000
 
 -0.3750000E+00  0.5000000E+00  0.1250000E+00  0.2929688E-02
      1        -22.055662   1.000000
      2        -22.030053   1.000000
      3        -22.024931   1.000000
      4          1.366077   0.726631
      5          2.047934  -0.000044
      6          2.056488  -0.000034
      7          4.222616  -0.000000
      8          4.984988  -0.000000
 
 -0.4375000E+00  0.3750000E+00  0.1875000E+00  0.5859375E-02
      1        -22.049442   1.000000
      2        -22.031872   1.000000
      3        -22.018745   1.000000
      4          0.681280   1.000001
      5          2.144016  -0.000002
      6          2.434973  -0.000000
      7          3.922853  -0.000000
      8          4.578865  -0.000000
 
 -0.3750000E+00  0.3750000E+00  0.1875000E+00  0.1171875E-01
      1        -22.048443   1.000000
      2        -22.036208   1.000000
      3        -22.020542   1.000000
      4          1.146409   1.032550
      5          1.955369  -0.000532
      6          2.329013  -0.000000
      7          3.796550  -0.000000
      8          4.713223  -0.000000
 
 -0.3125000E+00  0.3750000E+00  0.1875000E+00  0.5859375E-02
      1        -22.047666   1.000000
      2        -22.038087   1.000000
      3        -22.021249   1.000000
      4          1.515641   0.147818
      5          1.662273  -0.035371
      6          2.332474  -0.000000
      7          3.724305  -0.000000
      8          4.746510  -0.000000
 
 -0.3750000E+00  0.4375000E+00  0.1875000E+00  0.5859375E-02
      1        -22.049897   1.000000
      2        -22.034879   1.000000
      3        -22.023232   1.000000
      4          1.266515   0.984024
      5          2.061524  -0.000030
      6          2.197603  -0.000000
      7          3.826738  -0.000000
      8          4.843458  -0.000000
 
 -0.3125000E+00  0.4375000E+00  0.1875000E+00  0.1171875E-01
      1        -22.046547   1.000000
      2        -22.039361   1.000000
      3        -22.023923   1.000000
      4          1.599729  -0.009394
      5          1.935279  -0.000856
      6          2.131156  -0.000003
      7          3.634641  -0.000000
      8          4.906938  -0.000000
 
 -0.2500000E+00  0.4375000E+00  0.1875000E+00  0.5859375E-02
      1        -22.044292   1.000000
      2        -22.041719   1.000000
      3        -22.022830   1.000000
      4          1.511099   0.161245
      5          2.047877  -0.000044
      6          2.059460  -0.000032
      7          3.646683  -0.000000
      8          4.854887  -0.000000
 
 -0.3125000E+00  0.5000000E+00  0.1875000E+00  0.2929688E-02
      1        -22.049791   1.000000
      2        -22.035932   1.000000
      3        -22.025065   1.000000
      4          1.594641  -0.004512
      5          2.033193  -0.000068
      6          2.037035  -0.000061
      7          3.727777  -0.000000
      8          4.985516  -0.000000
 
 -0.2500000E+00  0.5000000E+00  0.2500000E+00  0.1464844E-02
      1        -22.042862   1.000000
      2        -22.042857   1.000000
      3        -22.025119   1.000000
      4          1.717795  -0.028575
      5          2.028136  -0.000079
      6          2.028138  -0.000079
      7          3.502742  -0.000000
      8          4.985732  -0.000000
