 vasp.6.4.2 20Jul23 (build Mar  2 2025 11:04:54) complex                         
 executed on              LinuxNV date 2026.04.06  23:46:06
 running    1 mpi-ranks, with    2 threads/rank, on    1 nodes
 distrk:  each k-point on    1 cores,    1 groups
 distr:  one band on NCORE=   1 cores,    1 groups
 OpenACC runtime initialized ...    1 GPUs detected


--------------------------------------------------------------------------------------------------------


 INCAR:
   SYSTEM = FCC Ca EOS
   PREC = Accurate
   ENCUT = 400
   KSPACING = 0.12
   KGAMMA = .TRUE.
   ISMEAR = 1
   SIGMA = 0.2
   EDIFF = 1E-6
   NSW = 0
   ISIF = 2
   IBRION = -1
   LWAVE = .FALSE.
   LCHARG = .FALSE.

 POTCAR:    PAW_PBE Ca_pv 06Sep2000               
 POTCAR:    PAW_PBE Ca_pv 06Sep2000               
   SHA256 =  5cc3b112e325694c46995e507efc6b20df47ddfb672dcbdafb4aa31d8b171ed2 Ca_pv/POTCAR          
   COPYR  = (c) Copyright 06Sep2000 Georg Kresse                                                    
   COPYR  = This file is part of the software VASP. Any use, copying, and all other rights are regul
   COPYR  = If you do not have a valid VASP license, you may not use, copy or distribute this file. 
   VRHFIN =Ca: p6s2d0.01                                                                            
   LEXCH  = PE                                                                                      
   EATOM  =   612.6676 eV,   45.0298 Ry                                                             
                                                                                                    
   TITEL  = PAW_PBE Ca_pv 06Sep2000                                                                 
   LULTRA =        F    use ultrasoft PP ?                                                          
   IUNSCR =        1    unscreen: 0-lin 1-nonlin 2-no                                               
   RPACOR =    2.300    partial core radius                                                         
   POMASS =   40.078; ZVAL   =    8.000    mass and valenz                                          
   RCORE  =    3.000    outmost cutoff radius                                                       
   RWIGS  =    3.300; RWIGS  =    1.746    wigner-seitz radius (au A)                               
   ENMAX  =  119.559; ENMIN  =   89.670 eV                                                          
   RCLOC  =    1.709    cutoff for local pot                                                        
   LCOR   =        T    correct aug charges                                                         
   LPAW   =        T    paw PP                                                                      
   EAUG   =  325.799                                                                                
   DEXC   =    0.000                                                                                
   RMAX   =    3.072    core radius for proj-oper                                                   
   RAUG   =    1.300    factor for augmentation sphere                                              
   RDEP   =    3.090    radius for radial grids                                                     
   RDEPT  =    2.377    core radius for aug-charge                                                  
                                                                                                    
   Atomic configuration                                                                             
    7 entries                                                                                       
     n  l   j            E        occ.                                                              
     1  0  0.50     -3949.1705   2.0000                                                             
     2  0  0.50      -414.3434   2.0000                                                             
     2  1  1.50      -334.7047   6.0000                                                             
     3  0  0.50       -47.0896   2.0000                                                             
     3  1  1.50       -28.0061   6.0000                                                             
     4  0  0.50        -3.7663   2.0000                                                             
     3  2  1.50        -4.0817   0.0000                                                             
   Description                                                                                      
     l       E           TYP  RCUT    TYP  RCUT                                                     
     1    -28.0060855     23  3.000                                                                 
     1      1.3605826     23  3.000                                                                 
     0     -3.7663320     23  3.000                                                                 
     0      4.1207953     23  3.000                                                                 
     2     -4.0817478     23  3.000                                                                 
     2     -0.8716232     23  3.000                                                                 
  local pseudopotential read in
  partial core-charges read in
  partial kinetic energy density read in
  atomic valenz-charges read in
  non local Contribution for L=            1  read in
    real space projection operators read in
  non local Contribution for L=            1  read in
    real space projection operators read in
  non local Contribution for L=            0  read in
    real space projection operators read in
  non local Contribution for L=            0  read in
    real space projection operators read in
  non local Contribution for L=            2  read in
    real space projection operators read in
  non local Contribution for L=            2  read in
    real space projection operators read in
    PAW grid and wavefunctions read in
 
   number of l-projection  operators is LMAX  =            6
   number of lm-projection operators is LMMAX =           18
 
  PAW_PBE Ca_pv 06Sep2000               :
 energy of atom  1       EATOM= -612.6676
 kinetic energy error for atom=    0.0002 (will be added to EATOM!!)
 
 
 POSCAR: Ca1
  positions in direct lattice
  No initial velocities read in
 exchange correlation table for  LEXCH =        8
   RHO(1)=    0.500       N(1)  =     2000
   RHO(2)=  100.500       N(2)  =     4000
 


--------------------------------------------------------------------------------------------------------


 ion  position               nearest neighbor table
   1  0.000  0.000  0.000-
 
  LATTYP: Found a face centered cubic cell.
 ALAT       =     5.9114234083
  
  Lattice vectors:
  
 A1 = (   3.6199938206,  -0.0000000212,   2.0900034098)
 A2 = (   1.2066642288,   3.4129621360,   2.0900034098)
 A3 = (  -0.0000000212,  -0.0000000212,   4.1800090350)


Analysis of symmetry for initial positions (statically):
=====================================================================
 Subroutine PRICEL returns:
 Original cell was already a primitive cell.
 

 Routine SETGRP: Setting up the symmetry group for a 
 face centered cubic supercell.


 Subroutine GETGRP returns: Found 48 space group operations
 (whereof 48 operations were pure point group operations)
 out of a pool of 48 trial point group operations.


The static configuration has the point symmetry O_h .


Analysis of symmetry for dynamics (positions and initial velocities):
=====================================================================
 Subroutine PRICEL returns:
 Original cell was already a primitive cell.
 

 Routine SETGRP: Setting up the symmetry group for a 
 face centered cubic supercell.


 Subroutine GETGRP returns: Found 48 space group operations
 (whereof 48 operations were pure point group operations)
 out of a pool of 48 trial point group operations.


The dynamic configuration has the point symmetry O_h .


 Subroutine INISYM returns: Found 48 space group operations
 (whereof 48 operations are pure point group operations),
 and found     1 'primitive' translations


----------------------------------------------------------------------------------------

                                     Primitive cell                                     

  volume of cell :      51.6436

  direct lattice vectors                    reciprocal lattice vectors
     3.619993821 -0.000000021  2.090003410     0.276243564 -0.097666841  0.000000001
     1.206664229  3.412962136  2.090003410     0.000000001  0.293000612  0.000000001
    -0.000000021 -0.000000021  4.180009035    -0.138121709 -0.097666834  0.239233931

  length of vectors
     4.180008315  4.180007578  4.180009035     0.293000544  0.293000612  0.293000497

  position of ions in fractional coordinates (direct lattice)
     0.000000000  0.000000000  0.000000000

  ion indices of the primitive-cell ions
   primitive index   ion index
                 1           1

----------------------------------------------------------------------------------------

 
 -----------------------------------------------------------------------------
|                                                                             |
|           W    W    AA    RRRRR   N    N  II  N    N   GGGG   !!!           |
|           W    W   A  A   R    R  NN   N  II  NN   N  G    G  !!!           |
|           W    W  A    A  R    R  N N  N  II  N N  N  G       !!!           |
|           W WW W  AAAAAA  RRRRR   N  N N  II  N  N N  G  GGG   !            |
|           WW  WW  A    A  R   R   N   NN  II  N   NN  G    G                |
|           W    W  A    A  R    R  N    N  II  N    N   GGGG   !!!           |
|                                                                             |
|     The requested file  could not be found or opened for reading            |
|     k-point information. Automatic k-point generation is used as a          |
|     fallback, which may lead to unwanted results.                           |
|                                                                             |
 -----------------------------------------------------------------------------

 

Automatic generation of k-mesh.
 Grid dimensions derived from KSPACING:
 generate k-points for:   16   16   16

 Generating k-lattice:

  Cartesian coordinates                     Fractional coordinates (reciprocal lattice)
     0.017265223 -0.006104178  0.000000000     0.062500000  0.000000000  0.000000000
     0.000000000  0.018312538  0.000000000    -0.000000000  0.062500000 -0.000000000
    -0.008632607 -0.006104177  0.014952121     0.000000000  0.000000000  0.062500000

  Length of vectors
     0.018312534  0.018312538  0.018312531

  Shift w.r.t. Gamma in fractional coordinates (k-lattice)
     0.000000000  0.000000000  0.000000000

 
 Subroutine IBZKPT returns following result:
 ===========================================
 
 Found    145 irreducible k-points:
 
 Following reciprocal coordinates:
            Coordinates               Weight
  0.000000  0.000000  0.000000      1.000000
  0.062500  0.000000  0.000000      8.000000
  0.125000  0.000000  0.000000      8.000000
  0.187500  0.000000  0.000000      8.000000
  0.250000  0.000000  0.000000      8.000000
  0.312500  0.000000  0.000000      8.000000
  0.375000  0.000000  0.000000      8.000000
  0.437500  0.000000  0.000000      8.000000
  0.500000  0.000000  0.000000      4.000000
  0.062500  0.062500  0.000000      6.000000
  0.125000  0.062500  0.000000     24.000000
  0.187500  0.062500  0.000000     24.000000
  0.250000  0.062500  0.000000     24.000000
  0.312500  0.062500  0.000000     24.000000
  0.375000  0.062500  0.000000     24.000000
  0.437500  0.062500  0.000000     24.000000
  0.500000  0.062500  0.000000     24.000000
 -0.437500  0.062500  0.000000     24.000000
 -0.375000  0.062500  0.000000     24.000000
 -0.312500  0.062500  0.000000     24.000000
 -0.250000  0.062500  0.000000     24.000000
 -0.187500  0.062500  0.000000     24.000000
 -0.125000  0.062500  0.000000     24.000000
 -0.062500  0.062500  0.000000     12.000000
  0.125000  0.125000  0.000000      6.000000
  0.187500  0.125000  0.000000     24.000000
  0.250000  0.125000  0.000000     24.000000
  0.312500  0.125000  0.000000     24.000000
  0.375000  0.125000  0.000000     24.000000
  0.437500  0.125000  0.000000     24.000000
  0.500000  0.125000  0.000000     24.000000
 -0.437500  0.125000  0.000000     24.000000
 -0.375000  0.125000  0.000000     24.000000
 -0.312500  0.125000  0.000000     24.000000
 -0.250000  0.125000  0.000000     24.000000
 -0.187500  0.125000  0.000000     24.000000
 -0.125000  0.125000  0.000000     12.000000
  0.187500  0.187500  0.000000      6.000000
  0.250000  0.187500  0.000000     24.000000
  0.312500  0.187500  0.000000     24.000000
  0.375000  0.187500  0.000000     24.000000
  0.437500  0.187500  0.000000     24.000000
  0.500000  0.187500  0.000000     24.000000
 -0.437500  0.187500  0.000000     24.000000
 -0.375000  0.187500  0.000000     24.000000
 -0.312500  0.187500  0.000000     24.000000
 -0.250000  0.187500  0.000000     24.000000
 -0.187500  0.187500  0.000000     12.000000
  0.250000  0.250000  0.000000      6.000000
  0.312500  0.250000  0.000000     24.000000
  0.375000  0.250000  0.000000     24.000000
  0.437500  0.250000  0.000000     24.000000
  0.500000  0.250000  0.000000     24.000000
 -0.437500  0.250000  0.000000     24.000000
 -0.375000  0.250000  0.000000     24.000000
 -0.312500  0.250000  0.000000     24.000000
 -0.250000  0.250000  0.000000     12.000000
  0.312500  0.312500  0.000000      6.000000
  0.375000  0.312500  0.000000     24.000000
  0.437500  0.312500  0.000000     24.000000
  0.500000  0.312500  0.000000     24.000000
 -0.437500  0.312500  0.000000     24.000000
 -0.375000  0.312500  0.000000     24.000000
 -0.312500  0.312500  0.000000     12.000000
  0.375000  0.375000  0.000000      6.000000
  0.437500  0.375000  0.000000     24.000000
  0.500000  0.375000  0.000000     24.000000
 -0.437500  0.375000  0.000000     24.000000
 -0.375000  0.375000  0.000000     12.000000
  0.437500  0.437500  0.000000      6.000000
  0.500000  0.437500  0.000000     24.000000
 -0.437500  0.437500  0.000000     12.000000
  0.500000  0.500000  0.000000      3.000000
  0.187500  0.125000  0.062500     24.000000
  0.250000  0.125000  0.062500     48.000000
  0.312500  0.125000  0.062500     48.000000
  0.375000  0.125000  0.062500     48.000000
  0.437500  0.125000  0.062500     48.000000
  0.500000  0.125000  0.062500     48.000000
 -0.437500  0.125000  0.062500     24.000000
  0.250000  0.187500  0.062500     24.000000
  0.312500  0.187500  0.062500     48.000000
  0.375000  0.187500  0.062500     48.000000
  0.437500  0.187500  0.062500     48.000000
  0.500000  0.187500  0.062500     48.000000
 -0.437500  0.187500  0.062500     48.000000
 -0.375000  0.187500  0.062500     48.000000
 -0.312500  0.187500  0.062500     48.000000
 -0.250000  0.187500  0.062500     48.000000
 -0.187500  0.187500  0.062500     48.000000
 -0.125000  0.187500  0.062500     24.000000
  0.312500  0.250000  0.062500     24.000000
  0.375000  0.250000  0.062500     48.000000
  0.437500  0.250000  0.062500     48.000000
  0.500000  0.250000  0.062500     48.000000
 -0.437500  0.250000  0.062500     48.000000
 -0.375000  0.250000  0.062500     48.000000
 -0.312500  0.250000  0.062500     48.000000
 -0.250000  0.250000  0.062500     48.000000
 -0.187500  0.250000  0.062500     24.000000
  0.375000  0.312500  0.062500     24.000000
  0.437500  0.312500  0.062500     48.000000
  0.500000  0.312500  0.062500     48.000000
 -0.437500  0.312500  0.062500     48.000000
 -0.375000  0.312500  0.062500     48.000000
 -0.312500  0.312500  0.062500     48.000000
 -0.250000  0.312500  0.062500     24.000000
  0.437500  0.375000  0.062500     24.000000
  0.500000  0.375000  0.062500     48.000000
 -0.437500  0.375000  0.062500     48.000000
 -0.375000  0.375000  0.062500     48.000000
 -0.312500  0.375000  0.062500     24.000000
  0.500000  0.437500  0.062500     24.000000
 -0.437500  0.437500  0.062500     48.000000
 -0.375000  0.437500  0.062500     24.000000
 -0.437500  0.500000  0.062500     12.000000
  0.375000  0.250000  0.125000     24.000000
  0.437500  0.250000  0.125000     48.000000
  0.500000  0.250000  0.125000     48.000000
 -0.437500  0.250000  0.125000     48.000000
 -0.375000  0.250000  0.125000     24.000000
  0.437500  0.312500  0.125000     24.000000
  0.500000  0.312500  0.125000     48.000000
 -0.437500  0.312500  0.125000     48.000000
 -0.375000  0.312500  0.125000     48.000000
 -0.312500  0.312500  0.125000     48.000000
 -0.250000  0.312500  0.125000     48.000000
 -0.187500  0.312500  0.125000     24.000000
  0.500000  0.375000  0.125000     24.000000
 -0.437500  0.375000  0.125000     48.000000
 -0.375000  0.375000  0.125000     48.000000
 -0.312500  0.375000  0.125000     48.000000
 -0.250000  0.375000  0.125000     24.000000
 -0.437500  0.437500  0.125000     24.000000
 -0.375000  0.437500  0.125000     48.000000
 -0.312500  0.437500  0.125000     24.000000
 -0.375000  0.500000  0.125000     12.000000
 -0.437500  0.375000  0.187500     24.000000
 -0.375000  0.375000  0.187500     48.000000
 -0.312500  0.375000  0.187500     24.000000
 -0.375000  0.437500  0.187500     24.000000
 -0.312500  0.437500  0.187500     48.000000
 -0.250000  0.437500  0.187500     24.000000
 -0.312500  0.500000  0.187500     12.000000
 -0.250000  0.500000  0.250000      6.000000
 
 Following cartesian coordinates:
            Coordinates               Weight
  0.000000  0.000000  0.000000      1.000000
  0.018301 -0.006470  0.000000      8.000000
  0.036602 -0.012941  0.000000      8.000000
  0.054903 -0.019411  0.000000      8.000000
  0.073205 -0.025882  0.000000      8.000000
  0.091506 -0.032352  0.000000      8.000000
  0.109807 -0.038823  0.000000      8.000000
  0.128108 -0.045293  0.000000      8.000000
  0.146409 -0.051763  0.000000      4.000000
  0.018301  0.012941  0.000000      6.000000
  0.036602  0.006470  0.000000     24.000000
  0.054903  0.000000  0.000000     24.000000
  0.073205 -0.006470  0.000000     24.000000
  0.091506 -0.012941  0.000000     24.000000
  0.109807 -0.019411  0.000000     24.000000
  0.128108 -0.025882  0.000000     24.000000
  0.146409 -0.032352  0.000000     24.000000
 -0.128108  0.064704 -0.000000     24.000000
 -0.109807  0.058234 -0.000000     24.000000
 -0.091506  0.051763 -0.000000     24.000000
 -0.073205  0.045293 -0.000000     24.000000
 -0.054903  0.038823 -0.000000     24.000000
 -0.036602  0.032352 -0.000000     24.000000
 -0.018301  0.025882  0.000000     12.000000
  0.036602  0.025882  0.000000      6.000000
  0.054903  0.019411  0.000000     24.000000
  0.073205  0.012941  0.000000     24.000000
  0.091506  0.006470  0.000000     24.000000
  0.109807  0.000000  0.000000     24.000000
  0.128108 -0.006470  0.000000     24.000000
  0.146409 -0.012941  0.000000     24.000000
 -0.128108  0.084116 -0.000000     24.000000
 -0.109807  0.077645 -0.000000     24.000000
 -0.091506  0.071175 -0.000000     24.000000
 -0.073205  0.064704 -0.000000     24.000000
 -0.054903  0.058234  0.000000     24.000000
 -0.036602  0.051763  0.000000     12.000000
  0.054903  0.038823  0.000000      6.000000
  0.073205  0.032352  0.000000     24.000000
  0.091506  0.025882  0.000000     24.000000
  0.109807  0.019411  0.000000     24.000000
  0.128108  0.012941  0.000000     24.000000
  0.146409  0.006470  0.000000     24.000000
 -0.128108  0.103527 -0.000000     24.000000
 -0.109807  0.097056 -0.000000     24.000000
 -0.091506  0.090586 -0.000000     24.000000
 -0.073205  0.084116  0.000000     24.000000
 -0.054903  0.077645  0.000000     12.000000
  0.073205  0.051763  0.000000      6.000000
  0.091506  0.045293  0.000000     24.000000
  0.109807  0.038823  0.000000     24.000000
  0.128108  0.032352  0.000000     24.000000
  0.146409  0.025882  0.000000     24.000000
 -0.128108  0.122938 -0.000000     24.000000
 -0.109807  0.116468  0.000000     24.000000
 -0.091506  0.109997  0.000000     24.000000
 -0.073205  0.103527  0.000000     12.000000
  0.091506  0.064704  0.000000      6.000000
  0.109807  0.058234  0.000000     24.000000
  0.128108  0.051763  0.000000     24.000000
  0.146409  0.045293  0.000000     24.000000
 -0.128108  0.142349  0.000000     24.000000
 -0.109807  0.135879  0.000000     24.000000
 -0.091506  0.129409  0.000000     12.000000
  0.109807  0.077645  0.000000      6.000000
  0.128108  0.071175  0.000000     24.000000
  0.146409  0.064704  0.000000     24.000000
 -0.128108  0.161761  0.000000     24.000000
 -0.109807  0.155290  0.000000     12.000000
  0.128108  0.090586  0.000000      6.000000
  0.146409  0.084116  0.000000     24.000000
 -0.128108  0.181172  0.000000     12.000000
  0.146409  0.103527  0.000000      3.000000
  0.045753  0.012941  0.015849     24.000000
  0.064054  0.006470  0.015849     48.000000
  0.082355  0.000000  0.015849     48.000000
  0.100656 -0.006470  0.015849     48.000000
  0.118957 -0.012941  0.015849     48.000000
  0.137259 -0.019411  0.015849     48.000000
 -0.137259  0.077645  0.015849     24.000000
  0.064054  0.025882  0.015849     24.000000
  0.082355  0.019411  0.015849     48.000000
  0.100656  0.012941  0.015849     48.000000
  0.118957  0.006470  0.015849     48.000000
  0.137259  0.000000  0.015849     48.000000
 -0.137259  0.097056  0.015849     48.000000
 -0.118957  0.090586  0.015849     48.000000
 -0.100656  0.084116  0.015849     48.000000
 -0.082355  0.077645  0.015849     48.000000
 -0.064054  0.071175  0.015849     48.000000
 -0.045753  0.064704  0.015849     24.000000
  0.082355  0.038823  0.015849     24.000000
  0.100656  0.032352  0.015849     48.000000
  0.118957  0.025882  0.015849     48.000000
  0.137259  0.019411  0.015849     48.000000
 -0.137259  0.116468  0.015849     48.000000
 -0.118957  0.109997  0.015849     48.000000
 -0.100656  0.103527  0.015849     48.000000
 -0.082355  0.097056  0.015849     48.000000
 -0.064054  0.090586  0.015849     24.000000
  0.100656  0.051763  0.015849     24.000000
  0.118957  0.045293  0.015849     48.000000
  0.137259  0.038823  0.015849     48.000000
 -0.137259  0.135879  0.015849     48.000000
 -0.118957  0.129409  0.015849     48.000000
 -0.100656  0.122938  0.015849     48.000000
 -0.082355  0.116468  0.015849     24.000000
  0.118957  0.064704  0.015849     24.000000
  0.137259  0.058234  0.015849     48.000000
 -0.137259  0.155290  0.015849     48.000000
 -0.118957  0.148820  0.015849     48.000000
 -0.100656  0.142349  0.015849     24.000000
  0.137259  0.077645  0.015849     24.000000
 -0.137259  0.174702  0.015849     48.000000
 -0.118957  0.168231  0.015849     24.000000
 -0.137259  0.194113  0.015849     12.000000
  0.091506  0.025882  0.031698     24.000000
  0.109807  0.019411  0.031698     48.000000
  0.128108  0.012941  0.031698     48.000000
 -0.146409  0.109997  0.031698     48.000000
 -0.128108  0.103527  0.031698     24.000000
  0.109807  0.038823  0.031698     24.000000
  0.128108  0.032352  0.031698     48.000000
 -0.146409  0.129409  0.031698     48.000000
 -0.128108  0.122938  0.031698     48.000000
 -0.109807  0.116468  0.031698     48.000000
 -0.091506  0.109997  0.031698     48.000000
 -0.073205  0.103527  0.031698     24.000000
  0.128108  0.051763  0.031698     24.000000
 -0.146409  0.148820  0.031698     48.000000
 -0.128108  0.142349  0.031698     48.000000
 -0.109807  0.135879  0.031698     48.000000
 -0.091506  0.129409  0.031698     24.000000
 -0.146409  0.168231  0.031698     24.000000
 -0.128108  0.161761  0.031698     48.000000
 -0.109807  0.155290  0.031698     24.000000
 -0.128108  0.181172  0.031698     12.000000
 -0.155560  0.142349  0.047548     24.000000
 -0.137259  0.135879  0.047548     48.000000
 -0.118957  0.129409  0.047548     24.000000
 -0.137259  0.155290  0.047548     24.000000
 -0.118957  0.148820  0.047548     48.000000
 -0.100656  0.142349  0.047548     24.000000
 -0.118957  0.168231  0.047548     12.000000
 -0.109807  0.155290  0.063397      6.000000
 


--------------------------------------------------------------------------------------------------------




 Dimension of arrays:
   k-points           NKPTS =    145   k-points in BZ     NKDIM =    145   number of bands    NBANDS=      8
   number of dos      NEDOS =    301   number of ions     NIONS =      1
   non local maximal  LDIM  =      6   non local SUM 2l+1 LMDIM =     18
   total plane-waves  NPLWV =  21952
   max r-space proj   IRMAX =      1   max aug-charges    IRDMAX=  29971
   dimension x,y,z NGX =    28 NGY =   28 NGZ =   28
   dimension x,y,z NGXF=    56 NGYF=   56 NGZF=   56
   support grid    NGXF=    56 NGYF=   56 NGZF=   56
   ions per type =               1
   NGX,Y,Z   is equivalent  to a cutoff of  11.14, 11.14, 11.14 a.u.
   NGXF,Y,Z  is equivalent  to a cutoff of  22.27, 22.27, 22.27 a.u.

 SYSTEM =  FCC Ca EOS                              
 POSCAR =  Ca1                                     

 Startparameter for this run:
   NWRITE =      2    write-flag & timer
   PREC   = accura    normal or accurate (medium, high low for compatibility)
   ISTART =      0    job   : 0-new  1-cont  2-samecut
   ICHARG =      2    charge: 1-file 2-atom 10-const
   ISPIN  =      1    spin polarized calculation?
   LNONCOLLINEAR =      F non collinear calculations
   LSORBIT =      F    spin-orbit coupling
   INIWAV =      1    electr: 0-lowe 1-rand  2-diag
   LASPH  =      F    aspherical Exc in radial PAW
 Electronic Relaxation 1
   ENCUT  =  400.0 eV  29.40 Ry    5.42 a.u.   6.82  6.82  6.82*2*pi/ulx,y,z
   ENINI  =  400.0     initial cutoff
   ENAUG  =  325.8 eV  augmentation charge cutoff
   NELM   =     60;   NELMIN=  2; NELMDL= -5     # of ELM steps 
   EDIFF  = 0.1E-05   stopping-criterion for ELM
   LREAL  =      F    real-space projection
   NLSPLINE    = F    spline interpolate recip. space projectors
   LCOMPAT=      F    compatible to vasp.4.4
   GGA_COMPAT  = T    GGA compatible to vasp.4.4-vasp.4.6
   LMAXPAW     = -100 max onsite density
   LMAXMIX     =    2 max onsite mixed and CHGCAR
   VOSKOWN=      0    Vosko Wilk Nusair interpolation
   ROPT   =    0.00000
 Ionic relaxation
   EDIFFG = 0.1E-04   stopping-criterion for IOM
   NSW    =      0    number of steps for IOM
   NBLOCK =      1;   KBLOCK =      1    inner block; outer block 
   IBRION =     -1    ionic relax: 0-MD 1-quasi-New 2-CG
   NFREE  =      0    steps in history (QN), initial steepest desc. (CG)
   ISIF   =      2    stress and relaxation
   IWAVPR =     10    prediction:  0-non 1-charg 2-wave 3-comb
   ISYM   =      2    0-nonsym 1-usesym 2-fastsym
   LCORR  =      T    Harris-Foulkes like correction to forces

   POTIM  = 0.5000    time-step for ionic-motion
   TEIN   =    0.0    initial temperature
   TEBEG  =    0.0;   TEEND  =   0.0 temperature during run
   SMASS  =  -3.00    Nose mass-parameter (am)
   estimated Nose-frequenzy (Omega)   =  0.10E-29 period in steps = 0.13E+47 mass=  -0.399E-27a.u.
   SCALEE = 1.0000    scale energy and forces
   NPACO  =    256;   APACO  = 10.0  distance and # of slots for P.C.
   PSTRESS=    0.0 pullay stress

  Mass of Ions in am
   POMASS =  40.08
  Ionic Valenz
   ZVAL   =   8.00
  Atomic Wigner-Seitz radii
   RWIGS  =  -1.00
  virtual crystal weights 
   VCA    =   1.00
   NELECT =       8.0000    total number of electrons
   NUPDOWN=      -1.0000    fix difference up-down

 DOS related values:
   EMIN   =  10.00;   EMAX   =-10.00  energy-range for DOS
   EFERMI =   0.00;   METHOD = LEGACY      
   ISMEAR =     1;   SIGMA  =   0.20  broadening in eV -4-tet -1-fermi 0-gaus

 Electronic relaxation 2 (details)
   IALGO  =     38    algorithm
   LDIAG  =      T    sub-space diagonalisation (order eigenvalues)
   LSUBROT=      F    optimize rotation matrix (better conditioning)
   TURBO    =      0    0=normal 1=particle mesh
   IRESTART =      0    0=no restart 2=restart with 2 vectors
   NREBOOT  =      0    no. of reboots
   NMIN     =      0    reboot dimension
   EREF     =   0.00    reference energy to select bands
   IMIX   =      4    mixing-type and parameters
     AMIX     =   0.40;   BMIX     =  1.00
     AMIX_MAG =   1.60;   BMIX_MAG =  1.00
     AMIN     =   0.10
     WC   =   100.;   INIMIX=   1;  MIXPRE=   1;  MAXMIX= -45

 Intra band minimization:
   WEIMIN = 0.0000     energy-eigenvalue tresh-hold
   EBREAK =  0.31E-07  absolut break condition
   DEPER  =   0.30     relativ break condition  

   TIME   =   0.40     timestep for ELM

  volume/ion in A,a.u.               =      51.64       348.51
  Fermi-wavevector in a.u.,A,eV,Ry     =   0.879224  1.661492 10.517767  0.773034
  Thomas-Fermi vector in A             =   1.999418
 
 Write flags
   LWAVE        =      F    write WAVECAR
   LDOWNSAMPLE  =      F    k-point downsampling of WAVECAR
   LCHARG       =      F    write CHGCAR
   LVTOT        =      F    write LOCPOT, total local potential
   LVHAR        =      F    write LOCPOT, Hartree potential only
   LELF         =      F    write electronic localiz. function (ELF)
   LORBIT       =      0    0 simple, 1 ext, 2 COOP (PROOUT), +10 PAW based schemes


 Dipole corrections
   LMONO  =      F    monopole corrections only (constant potential shift)
   LDIPOL =      F    correct potential (dipole corrections)
   IDIPOL =      0    1-x, 2-y, 3-z, 4-all directions 
   EPSILON=  1.0000000 bulk dielectric constant

 Exchange correlation treatment:
   GGA     =    --    GGA type
   LEXCH   =     8    internal setting for exchange type
   LIBXC   =     F    Libxc                    
   VOSKOWN =     0    Vosko Wilk Nusair interpolation
   LHFCALC =     F    Hartree Fock is set to
   LHFONE  =     F    Hartree Fock one center treatment
   AEXX    =    0.0000 exact exchange contribution

 Linear response parameters
   LEPSILON=     F    determine dielectric tensor
   LRPA    =     F    only Hartree local field effects (RPA)
   LNABLA  =     F    use nabla operator in PAW spheres
   LVEL    =     F    velocity operator in full k-point grid
   CSHIFT  =0.1000    complex shift for real part using Kramers Kronig
   OMEGAMAX=  -1.0    maximum frequency
   DEG_THRESHOLD= 0.2000000E-02 threshold for treating states as degnerate
   RTIME   =   -0.100 relaxation time in fs
  (WPLASMAI=    0.000 imaginary part of plasma frequency in eV, 0.658/RTIME)
   DFIELD  = 0.0000000 0.0000000 0.0000000 field for delta impulse in time
 
  Optional k-point grid parameters
   LKPOINTS_OPT  =     F    use optional k-point grid
   KPOINTS_OPT_MODE=     1    mode for optional k-point grid
 
 Orbital magnetization related:
   ORBITALMAG=     F  switch on orbital magnetization
   LCHIMAG   =     F  perturbation theory with respect to B field
   DQ        =  0.001000  dq finite difference perturbation B field
   LLRAUG    =     F  two centre corrections for induced B field
   LBONE     =     F  B-component reconstruction in AE one-centre
   LVGVCALC  =     T  calculate vGv susceptibility
   LVGVAPPL  =     F  apply vGv susceptibility instead of pGv for G=0

 Random number generation:
   RANDOM_GENERATOR = DEFAULT
   PCG_SEED         = not used


--------------------------------------------------------------------------------------------------------


 Static calculation
 charge density and potential will be updated during run
 non-spin polarized calculation
 Variant of blocked Davidson
 Davidson routine will perform the subspace rotation
 perform sub-space diagonalisation
    after iterative eigenvector-optimisation
 modified Broyden-mixing scheme, WC =      100.0
 initial mixing is a Kerker type mixing with AMIX =  0.4000 and BMIX =      1.0000
 Hartree-type preconditioning will be used
 using additional bands             4
 reciprocal scheme for non local part
 use partial core corrections
 calculate Harris-corrections to forces 
   (improved forces if not selfconsistent)
 use gradient corrections 
 use of overlap-Matrix (Vanderbilt PP)
 Methfessel and Paxton  Order N= 1 SIGMA  =   0.20


--------------------------------------------------------------------------------------------------------


  energy-cutoff  :      400.00
  volume of cell :       51.64
      direct lattice vectors                 reciprocal lattice vectors
     3.619993821 -0.000000021  2.090003410     0.276243564 -0.097666841  0.000000001
     1.206664229  3.412962136  2.090003410     0.000000001  0.293000612  0.000000001
    -0.000000021 -0.000000021  4.180009035    -0.138121709 -0.097666834  0.239233931

  length of vectors
     4.180008315  4.180007578  4.180009035     0.293000544  0.293000612  0.293000497


 
 k-points in units of 2pi/SCALE and weight: read from INCAR                         
   0.00000000  0.00000000  0.00000000       0.000
   0.01830114 -0.00647043  0.00000000       0.002
   0.03660227 -0.01294086  0.00000000       0.002
   0.05490341 -0.01941128  0.00000000       0.002
   0.07320454 -0.02588171  0.00000000       0.002
   0.09150568 -0.03235214  0.00000000       0.002
   0.10980682 -0.03882257  0.00000000       0.002
   0.12810795 -0.04529300  0.00000000       0.002
   0.14640909 -0.05176343  0.00000000       0.001
   0.01830114  0.01294086  0.00000000       0.001
   0.03660227  0.00647043  0.00000000       0.006
   0.05490341  0.00000001  0.00000000       0.006
   0.07320454 -0.00647042  0.00000000       0.006
   0.09150568 -0.01294085  0.00000000       0.006
   0.10980682 -0.01941128  0.00000000       0.006
   0.12810795 -0.02588171  0.00000000       0.006
   0.14640909 -0.03235214  0.00000000       0.006
  -0.12810795  0.06470429 -0.00000000       0.006
  -0.10980682  0.05823386 -0.00000000       0.006
  -0.09150568  0.05176343 -0.00000000       0.006
  -0.07320454  0.04529300 -0.00000000       0.006
  -0.05490341  0.03882258 -0.00000000       0.006
  -0.03660227  0.03235215 -0.00000000       0.006
  -0.01830114  0.02588172  0.00000000       0.003
   0.03660227  0.02588172  0.00000000       0.001
   0.05490341  0.01941130  0.00000000       0.006
   0.07320454  0.01294087  0.00000000       0.006
   0.09150568  0.00647044  0.00000000       0.006
   0.10980682  0.00000001  0.00000000       0.006
   0.12810795 -0.00647042  0.00000000       0.006
   0.14640909 -0.01294084  0.00000000       0.006
  -0.12810795  0.08411558 -0.00000000       0.006
  -0.10980682  0.07764515 -0.00000000       0.006
  -0.09150568  0.07117472 -0.00000000       0.006
  -0.07320454  0.06470429 -0.00000000       0.006
  -0.05490341  0.05823387  0.00000000       0.006
  -0.03660227  0.05176344  0.00000000       0.003
   0.05490341  0.03882259  0.00000000       0.001
   0.07320454  0.03235216  0.00000000       0.006
   0.09150568  0.02588173  0.00000000       0.006
   0.10980682  0.01941130  0.00000000       0.006
   0.12810795  0.01294087  0.00000000       0.006
   0.14640909  0.00647045  0.00000000       0.006
  -0.12810795  0.10352687 -0.00000000       0.006
  -0.10980682  0.09705644 -0.00000000       0.006
  -0.09150568  0.09058601 -0.00000000       0.006
  -0.07320454  0.08411558  0.00000000       0.006
  -0.05490341  0.07764516  0.00000000       0.003
   0.07320454  0.05176345  0.00000000       0.001
   0.09150568  0.04529302  0.00000000       0.006
   0.10980682  0.03882259  0.00000000       0.006
   0.12810795  0.03235216  0.00000000       0.006
   0.14640909  0.02588174  0.00000000       0.006
  -0.12810795  0.12293816 -0.00000000       0.006
  -0.10980682  0.11646773  0.00000000       0.006
  -0.09150568  0.10999730  0.00000000       0.006
  -0.07320454  0.10352688  0.00000000       0.003
   0.09150568  0.06470431  0.00000000       0.001
   0.10980682  0.05823388  0.00000000       0.006
   0.12810795  0.05176346  0.00000000       0.006
   0.14640909  0.04529303  0.00000000       0.006
  -0.12810795  0.14234945  0.00000000       0.006
  -0.10980682  0.13587902  0.00000000       0.006
  -0.09150568  0.12940859  0.00000000       0.003
   0.10980682  0.07764517  0.00000000       0.001
   0.12810795  0.07117475  0.00000000       0.006
   0.14640909  0.06470432  0.00000000       0.006
  -0.12810795  0.16176074  0.00000000       0.006
  -0.10980682  0.15529031  0.00000000       0.003
   0.12810795  0.09058604  0.00000000       0.001
   0.14640909  0.08411561  0.00000000       0.006
  -0.12810795  0.18117203  0.00000000       0.003
   0.14640909  0.10352690  0.00000000       0.001
   0.04575285  0.01294087  0.01584925       0.006
   0.06405398  0.00647044  0.01584925       0.012
   0.08235512  0.00000001  0.01584925       0.012
   0.10065625 -0.00647042  0.01584925       0.012
   0.11895739 -0.01294084  0.01584925       0.012
   0.13725853 -0.01941127  0.01584925       0.012
  -0.13725852  0.07764515  0.01584925       0.006
   0.06405398  0.02588173  0.01584925       0.006
   0.08235512  0.01941130  0.01584925       0.012
   0.10065625  0.01294087  0.01584925       0.012
   0.11895739  0.00647045  0.01584925       0.012
   0.13725853  0.00000002  0.01584925       0.012
  -0.13725852  0.09705644  0.01584925       0.012
  -0.11895738  0.09058601  0.01584925       0.012
  -0.10065624  0.08411558  0.01584925       0.012
  -0.08235511  0.07764516  0.01584925       0.012
  -0.06405397  0.07117473  0.01584925       0.012
  -0.04575284  0.06470430  0.01584925       0.006
   0.08235512  0.03882259  0.01584925       0.006
   0.10065625  0.03235217  0.01584925       0.012
   0.11895739  0.02588174  0.01584925       0.012
   0.13725853  0.01941131  0.01584925       0.012
  -0.13725852  0.11646773  0.01584925       0.012
  -0.11895738  0.10999730  0.01584925       0.012
  -0.10065624  0.10352688  0.01584925       0.012
  -0.08235511  0.09705645  0.01584925       0.012
  -0.06405397  0.09058602  0.01584925       0.006
   0.10065625  0.05176346  0.01584925       0.006
   0.11895739  0.04529303  0.01584925       0.012
   0.13725853  0.03882260  0.01584925       0.012
  -0.13725852  0.13587902  0.01584925       0.012
  -0.11895738  0.12940859  0.01584925       0.012
  -0.10065624  0.12293817  0.01584925       0.012
  -0.08235511  0.11646774  0.01584925       0.006
   0.11895739  0.06470432  0.01584925       0.006
   0.13725853  0.05823389  0.01584925       0.012
  -0.13725852  0.15529031  0.01584925       0.012
  -0.11895738  0.14881988  0.01584925       0.012
  -0.10065624  0.14234946  0.01584925       0.006
   0.13725853  0.07764518  0.01584925       0.006
  -0.13725852  0.17470160  0.01584925       0.012
  -0.11895738  0.16823118  0.01584925       0.006
  -0.13725852  0.19411289  0.01584925       0.003
   0.09150569  0.02588174  0.03169850       0.006
   0.10980683  0.01941131  0.03169850       0.012
   0.12810796  0.01294088  0.03169850       0.012
  -0.14640908  0.10999730  0.03169850       0.012
  -0.12810794  0.10352688  0.03169850       0.006
   0.10980683  0.03882260  0.03169850       0.006
   0.12810796  0.03235217  0.03169850       0.012
  -0.14640908  0.12940859  0.03169850       0.012
  -0.12810794  0.12293817  0.03169850       0.012
  -0.10980681  0.11646774  0.03169850       0.012
  -0.09150567  0.10999731  0.03169850       0.012
  -0.07320453  0.10352688  0.03169850       0.006
   0.12810796  0.05176346  0.03169850       0.006
  -0.14640908  0.14881989  0.03169850       0.012
  -0.12810794  0.14234946  0.03169850       0.012
  -0.10980681  0.13587903  0.03169850       0.012
  -0.09150567  0.12940860  0.03169850       0.006
  -0.14640908  0.16823118  0.03169850       0.006
  -0.12810794  0.16176075  0.03169850       0.012
  -0.10980681  0.15529032  0.03169850       0.006
  -0.12810794  0.18117204  0.03169850       0.003
  -0.15555964  0.14234946  0.04754774       0.006
  -0.13725851  0.13587903  0.04754774       0.012
  -0.11895737  0.12940860  0.04754774       0.006
  -0.13725851  0.15529032  0.04754774       0.006
  -0.11895737  0.14881989  0.04754774       0.012
  -0.10065623  0.14234946  0.04754774       0.006
  -0.11895737  0.16823118  0.04754774       0.003
  -0.10980680  0.15529033  0.06339699       0.001
 
 k-points in reciprocal lattice and weights: read from INCAR                         
   0.00000000  0.00000000  0.00000000       0.000
   0.06250000  0.00000000  0.00000000       0.002
   0.12500000  0.00000000  0.00000000       0.002
   0.18750000  0.00000000  0.00000000       0.002
   0.25000000  0.00000000  0.00000000       0.002
   0.31250000  0.00000000  0.00000000       0.002
   0.37500000  0.00000000  0.00000000       0.002
   0.43750000  0.00000000  0.00000000       0.002
   0.50000000  0.00000000  0.00000000       0.001
   0.06250000  0.06250000  0.00000000       0.001
   0.12500000  0.06250000  0.00000000       0.006
   0.18750000  0.06250000  0.00000000       0.006
   0.25000000  0.06250000  0.00000000       0.006
   0.31250000  0.06250000  0.00000000       0.006
   0.37500000  0.06250000  0.00000000       0.006
   0.43750000  0.06250000  0.00000000       0.006
   0.50000000  0.06250000  0.00000000       0.006
  -0.43750000  0.06250000  0.00000000       0.006
  -0.37500000  0.06250000  0.00000000       0.006
  -0.31250000  0.06250000  0.00000000       0.006
  -0.25000000  0.06250000  0.00000000       0.006
  -0.18750000  0.06250000  0.00000000       0.006
  -0.12500000  0.06250000  0.00000000       0.006
  -0.06250000  0.06250000  0.00000000       0.003
   0.12500000  0.12500000  0.00000000       0.001
   0.18750000  0.12500000  0.00000000       0.006
   0.25000000  0.12500000  0.00000000       0.006
   0.31250000  0.12500000  0.00000000       0.006
   0.37500000  0.12500000  0.00000000       0.006
   0.43750000  0.12500000  0.00000000       0.006
   0.50000000  0.12500000  0.00000000       0.006
  -0.43750000  0.12500000  0.00000000       0.006
  -0.37500000  0.12500000  0.00000000       0.006
  -0.31250000  0.12500000  0.00000000       0.006
  -0.25000000  0.12500000  0.00000000       0.006
  -0.18750000  0.12500000  0.00000000       0.006
  -0.12500000  0.12500000  0.00000000       0.003
   0.18750000  0.18750000  0.00000000       0.001
   0.25000000  0.18750000  0.00000000       0.006
   0.31250000  0.18750000  0.00000000       0.006
   0.37500000  0.18750000  0.00000000       0.006
   0.43750000  0.18750000  0.00000000       0.006
   0.50000000  0.18750000  0.00000000       0.006
  -0.43750000  0.18750000  0.00000000       0.006
  -0.37500000  0.18750000  0.00000000       0.006
  -0.31250000  0.18750000  0.00000000       0.006
  -0.25000000  0.18750000  0.00000000       0.006
  -0.18750000  0.18750000  0.00000000       0.003
   0.25000000  0.25000000  0.00000000       0.001
   0.31250000  0.25000000  0.00000000       0.006
   0.37500000  0.25000000  0.00000000       0.006
   0.43750000  0.25000000  0.00000000       0.006
   0.50000000  0.25000000  0.00000000       0.006
  -0.43750000  0.25000000  0.00000000       0.006
  -0.37500000  0.25000000  0.00000000       0.006
  -0.31250000  0.25000000  0.00000000       0.006
  -0.25000000  0.25000000  0.00000000       0.003
   0.31250000  0.31250000  0.00000000       0.001
   0.37500000  0.31250000  0.00000000       0.006
   0.43750000  0.31250000  0.00000000       0.006
   0.50000000  0.31250000  0.00000000       0.006
  -0.43750000  0.31250000  0.00000000       0.006
  -0.37500000  0.31250000  0.00000000       0.006
  -0.31250000  0.31250000  0.00000000       0.003
   0.37500000  0.37500000  0.00000000       0.001
   0.43750000  0.37500000  0.00000000       0.006
   0.50000000  0.37500000  0.00000000       0.006
  -0.43750000  0.37500000  0.00000000       0.006
  -0.37500000  0.37500000  0.00000000       0.003
   0.43750000  0.43750000  0.00000000       0.001
   0.50000000  0.43750000  0.00000000       0.006
  -0.43750000  0.43750000  0.00000000       0.003
   0.50000000  0.50000000  0.00000000       0.001
   0.18750000  0.12500000  0.06250000       0.006
   0.25000000  0.12500000  0.06250000       0.012
   0.31250000  0.12500000  0.06250000       0.012
   0.37500000  0.12500000  0.06250000       0.012
   0.43750000  0.12500000  0.06250000       0.012
   0.50000000  0.12500000  0.06250000       0.012
  -0.43750000  0.12500000  0.06250000       0.006
   0.25000000  0.18750000  0.06250000       0.006
   0.31250000  0.18750000  0.06250000       0.012
   0.37500000  0.18750000  0.06250000       0.012
   0.43750000  0.18750000  0.06250000       0.012
   0.50000000  0.18750000  0.06250000       0.012
  -0.43750000  0.18750000  0.06250000       0.012
  -0.37500000  0.18750000  0.06250000       0.012
  -0.31250000  0.18750000  0.06250000       0.012
  -0.25000000  0.18750000  0.06250000       0.012
  -0.18750000  0.18750000  0.06250000       0.012
  -0.12500000  0.18750000  0.06250000       0.006
   0.31250000  0.25000000  0.06250000       0.006
   0.37500000  0.25000000  0.06250000       0.012
   0.43750000  0.25000000  0.06250000       0.012
   0.50000000  0.25000000  0.06250000       0.012
  -0.43750000  0.25000000  0.06250000       0.012
  -0.37500000  0.25000000  0.06250000       0.012
  -0.31250000  0.25000000  0.06250000       0.012
  -0.25000000  0.25000000  0.06250000       0.012
  -0.18750000  0.25000000  0.06250000       0.006
   0.37500000  0.31250000  0.06250000       0.006
   0.43750000  0.31250000  0.06250000       0.012
   0.50000000  0.31250000  0.06250000       0.012
  -0.43750000  0.31250000  0.06250000       0.012
  -0.37500000  0.31250000  0.06250000       0.012
  -0.31250000  0.31250000  0.06250000       0.012
  -0.25000000  0.31250000  0.06250000       0.006
   0.43750000  0.37500000  0.06250000       0.006
   0.50000000  0.37500000  0.06250000       0.012
  -0.43750000  0.37500000  0.06250000       0.012
  -0.37500000  0.37500000  0.06250000       0.012
  -0.31250000  0.37500000  0.06250000       0.006
   0.50000000  0.43750000  0.06250000       0.006
  -0.43750000  0.43750000  0.06250000       0.012
  -0.37500000  0.43750000  0.06250000       0.006
  -0.43750000  0.50000000  0.06250000       0.003
   0.37500000  0.25000000  0.12500000       0.006
   0.43750000  0.25000000  0.12500000       0.012
   0.50000000  0.25000000  0.12500000       0.012
  -0.43750000  0.25000000  0.12500000       0.012
  -0.37500000  0.25000000  0.12500000       0.006
   0.43750000  0.31250000  0.12500000       0.006
   0.50000000  0.31250000  0.12500000       0.012
  -0.43750000  0.31250000  0.12500000       0.012
  -0.37500000  0.31250000  0.12500000       0.012
  -0.31250000  0.31250000  0.12500000       0.012
  -0.25000000  0.31250000  0.12500000       0.012
  -0.18750000  0.31250000  0.12500000       0.006
   0.50000000  0.37500000  0.12500000       0.006
  -0.43750000  0.37500000  0.12500000       0.012
  -0.37500000  0.37500000  0.12500000       0.012
  -0.31250000  0.37500000  0.12500000       0.012
  -0.25000000  0.37500000  0.12500000       0.006
  -0.43750000  0.43750000  0.12500000       0.006
  -0.37500000  0.43750000  0.12500000       0.012
  -0.31250000  0.43750000  0.12500000       0.006
  -0.37500000  0.50000000  0.12500000       0.003
  -0.43750000  0.37500000  0.18750000       0.006
  -0.37500000  0.37500000  0.18750000       0.012
  -0.31250000  0.37500000  0.18750000       0.006
  -0.37500000  0.43750000  0.18750000       0.006
  -0.31250000  0.43750000  0.18750000       0.012
  -0.25000000  0.43750000  0.18750000       0.006
  -0.31250000  0.50000000  0.18750000       0.003
  -0.25000000  0.50000000  0.25000000       0.001
 
 position of ions in fractional coordinates (direct lattice) 
   0.00000000  0.00000000  0.00000000
 
 position of ions in cartesian coordinates  (Angst):
   0.00000000  0.00000000  0.00000000
 


--------------------------------------------------------------------------------------------------------


 k-point   1 :   0.0000 0.0000 0.0000  plane waves:     941
 k-point   2 :   0.0625 0.0000 0.0000  plane waves:     941
 k-point   3 :   0.1250 0.0000 0.0000  plane waves:     932
 k-point   4 :   0.1875 0.0000 0.0000  plane waves:     920
 k-point   5 :   0.2500 0.0000 0.0000  plane waves:     935
 k-point   6 :   0.3125 0.0000 0.0000  plane waves:     932
 k-point   7 :   0.3750 0.0000 0.0000  plane waves:     941
 k-point   8 :   0.4375 0.0000 0.0000  plane waves:     936
 k-point   9 :   0.5000 0.0000 0.0000  plane waves:     960
 k-point  10 :   0.0625 0.0625 0.0000  plane waves:     933
 k-point  11 :   0.1250 0.0625 0.0000  plane waves:     930
 k-point  12 :   0.1875 0.0625 0.0000  plane waves:     925
 k-point  13 :   0.2500 0.0625 0.0000  plane waves:     937
 k-point  14 :   0.3125 0.0625 0.0000  plane waves:     935
 k-point  15 :   0.3750 0.0625 0.0000  plane waves:     934
 k-point  16 :   0.4375 0.0625 0.0000  plane waves:     932
 k-point  17 :   0.5000 0.0625 0.0000  plane waves:     938
 k-point  18 :  -0.4375 0.0625 0.0000  plane waves:     942
 k-point  19 :  -0.3750 0.0625 0.0000  plane waves:     936
 k-point  20 :  -0.3125 0.0625 0.0000  plane waves:     942
 k-point  21 :  -0.2500 0.0625 0.0000  plane waves:     938
 k-point  22 :  -0.1875 0.0625 0.0000  plane waves:     929
 k-point  23 :  -0.1250 0.0625 0.0000  plane waves:     925
 k-point  24 :  -0.0625 0.0625 0.0000  plane waves:     929
 k-point  25 :   0.1250 0.1250 0.0000  plane waves:     937
 k-point  26 :   0.1875 0.1250 0.0000  plane waves:     932
 k-point  27 :   0.2500 0.1250 0.0000  plane waves:     939
 k-point  28 :   0.3125 0.1250 0.0000  plane waves:     941
 k-point  29 :   0.3750 0.1250 0.0000  plane waves:     931
 k-point  30 :   0.4375 0.1250 0.0000  plane waves:     932
 k-point  31 :   0.5000 0.1250 0.0000  plane waves:     937
 k-point  32 :  -0.4375 0.1250 0.0000  plane waves:     940
 k-point  33 :  -0.3750 0.1250 0.0000  plane waves:     938
 k-point  34 :  -0.3125 0.1250 0.0000  plane waves:     937
 k-point  35 :  -0.2500 0.1250 0.0000  plane waves:     939
 k-point  36 :  -0.1875 0.1250 0.0000  plane waves:     934
 k-point  37 :  -0.1250 0.1250 0.0000  plane waves:     923
 k-point  38 :   0.1875 0.1875 0.0000  plane waves:     934
 k-point  39 :   0.2500 0.1875 0.0000  plane waves:     940
 k-point  40 :   0.3125 0.1875 0.0000  plane waves:     940
 k-point  41 :   0.3750 0.1875 0.0000  plane waves:     939
 k-point  42 :   0.4375 0.1875 0.0000  plane waves:     931
 k-point  43 :   0.5000 0.1875 0.0000  plane waves:     938
 k-point  44 :  -0.4375 0.1875 0.0000  plane waves:     941
 k-point  45 :  -0.3750 0.1875 0.0000  plane waves:     938
 k-point  46 :  -0.3125 0.1875 0.0000  plane waves:     935
 k-point  47 :  -0.2500 0.1875 0.0000  plane waves:     935
 k-point  48 :  -0.1875 0.1875 0.0000  plane waves:     933
 k-point  49 :   0.2500 0.2500 0.0000  plane waves:     950
 k-point  50 :   0.3125 0.2500 0.0000  plane waves:     939
 k-point  51 :   0.3750 0.2500 0.0000  plane waves:     942
 k-point  52 :   0.4375 0.2500 0.0000  plane waves:     941
 k-point  53 :   0.5000 0.2500 0.0000  plane waves:     938
 k-point  54 :  -0.4375 0.2500 0.0000  plane waves:     944
 k-point  55 :  -0.3750 0.2500 0.0000  plane waves:     943
 k-point  56 :  -0.3125 0.2500 0.0000  plane waves:     944
 k-point  57 :  -0.2500 0.2500 0.0000  plane waves:     931
 k-point  58 :   0.3125 0.3125 0.0000  plane waves:     942
 k-point  59 :   0.3750 0.3125 0.0000  plane waves:     941
 k-point  60 :   0.4375 0.3125 0.0000  plane waves:     936
 k-point  61 :   0.5000 0.3125 0.0000  plane waves:     945
 k-point  62 :  -0.4375 0.3125 0.0000  plane waves:     944
 k-point  63 :  -0.3750 0.3125 0.0000  plane waves:     946
 k-point  64 :  -0.3125 0.3125 0.0000  plane waves:     945
 k-point  65 :   0.3750 0.3750 0.0000  plane waves:     942
 k-point  66 :   0.4375 0.3750 0.0000  plane waves:     946
 k-point  67 :   0.5000 0.3750 0.0000  plane waves:     945
 k-point  68 :  -0.4375 0.3750 0.0000  plane waves:     944
 k-point  69 :  -0.3750 0.3750 0.0000  plane waves:     937
 k-point  70 :   0.4375 0.4375 0.0000  plane waves:     950
 k-point  71 :   0.5000 0.4375 0.0000  plane waves:     950
 k-point  72 :  -0.4375 0.4375 0.0000  plane waves:     948
 k-point  73 :   0.5000 0.5000 0.0000  plane waves:     934
 k-point  74 :   0.1875 0.1250 0.0625  plane waves:     933
 k-point  75 :   0.2500 0.1250 0.0625  plane waves:     933
 k-point  76 :   0.3125 0.1250 0.0625  plane waves:     937
 k-point  77 :   0.3750 0.1250 0.0625  plane waves:     935
 k-point  78 :   0.4375 0.1250 0.0625  plane waves:     931
 k-point  79 :   0.5000 0.1250 0.0625  plane waves:     935
 k-point  80 :  -0.4375 0.1250 0.0625  plane waves:     936
 k-point  81 :   0.2500 0.1875 0.0625  plane waves:     937
 k-point  82 :   0.3125 0.1875 0.0625  plane waves:     942
 k-point  83 :   0.3750 0.1875 0.0625  plane waves:     939
 k-point  84 :   0.4375 0.1875 0.0625  plane waves:     932
 k-point  85 :   0.5000 0.1875 0.0625  plane waves:     933
 k-point  86 :  -0.4375 0.1875 0.0625  plane waves:     942
 k-point  87 :  -0.3750 0.1875 0.0625  plane waves:     937
 k-point  88 :  -0.3125 0.1875 0.0625  plane waves:     936
 k-point  89 :  -0.2500 0.1875 0.0625  plane waves:     941
 k-point  90 :  -0.1875 0.1875 0.0625  plane waves:     937
 k-point  91 :  -0.1250 0.1875 0.0625  plane waves:     934
 k-point  92 :   0.3125 0.2500 0.0625  plane waves:     940
 k-point  93 :   0.3750 0.2500 0.0625  plane waves:     939
 k-point  94 :   0.4375 0.2500 0.0625  plane waves:     937
 k-point  95 :   0.5000 0.2500 0.0625  plane waves:     937
 k-point  96 :  -0.4375 0.2500 0.0625  plane waves:     941
 k-point  97 :  -0.3750 0.2500 0.0625  plane waves:     943
 k-point  98 :  -0.3125 0.2500 0.0625  plane waves:     937
 k-point  99 :  -0.2500 0.2500 0.0625  plane waves:     936
 k-point 100 :  -0.1875 0.2500 0.0625  plane waves:     936
 k-point 101 :   0.3750 0.3125 0.0625  plane waves:     943
 k-point 102 :   0.4375 0.3125 0.0625  plane waves:     938
 k-point 103 :   0.5000 0.3125 0.0625  plane waves:     941
 k-point 104 :  -0.4375 0.3125 0.0625  plane waves:     938
 k-point 105 :  -0.3750 0.3125 0.0625  plane waves:     940
 k-point 106 :  -0.3125 0.3125 0.0625  plane waves:     938
 k-point 107 :  -0.2500 0.3125 0.0625  plane waves:     941
 k-point 108 :   0.4375 0.3750 0.0625  plane waves:     942
 k-point 109 :   0.5000 0.3750 0.0625  plane waves:     939
 k-point 110 :  -0.4375 0.3750 0.0625  plane waves:     945
 k-point 111 :  -0.3750 0.3750 0.0625  plane waves:     943
 k-point 112 :  -0.3125 0.3750 0.0625  plane waves:     936
 k-point 113 :   0.5000 0.4375 0.0625  plane waves:     950
 k-point 114 :  -0.4375 0.4375 0.0625  plane waves:     949
 k-point 115 :  -0.3750 0.4375 0.0625  plane waves:     944
 k-point 116 :  -0.4375 0.5000 0.0625  plane waves:     950
 k-point 117 :   0.3750 0.2500 0.1250  plane waves:     942
 k-point 118 :   0.4375 0.2500 0.1250  plane waves:     934
 k-point 119 :   0.5000 0.2500 0.1250  plane waves:     936
 k-point 120 :  -0.4375 0.2500 0.1250  plane waves:     939
 k-point 121 :  -0.3750 0.2500 0.1250  plane waves:     948
 k-point 122 :   0.4375 0.3125 0.1250  plane waves:     929
 k-point 123 :   0.5000 0.3125 0.1250  plane waves:     934
 k-point 124 :  -0.4375 0.3125 0.1250  plane waves:     935
 k-point 125 :  -0.3750 0.3125 0.1250  plane waves:     943
 k-point 126 :  -0.3125 0.3125 0.1250  plane waves:     942
 k-point 127 :  -0.2500 0.3125 0.1250  plane waves:     936
 k-point 128 :  -0.1875 0.3125 0.1250  plane waves:     930
 k-point 129 :   0.5000 0.3750 0.1250  plane waves:     944
 k-point 130 :  -0.4375 0.3750 0.1250  plane waves:     942
 k-point 131 :  -0.3750 0.3750 0.1250  plane waves:     938
 k-point 132 :  -0.3125 0.3750 0.1250  plane waves:     937
 k-point 133 :  -0.2500 0.3750 0.1250  plane waves:     938
 k-point 134 :  -0.4375 0.4375 0.1250  plane waves:     946
 k-point 135 :  -0.3750 0.4375 0.1250  plane waves:     940
 k-point 136 :  -0.3125 0.4375 0.1250  plane waves:     934
 k-point 137 :  -0.3750 0.5000 0.1250  plane waves:     946
 k-point 138 :  -0.4375 0.3750 0.1875  plane waves:     931
 k-point 139 :  -0.3750 0.3750 0.1875  plane waves:     934
 k-point 140 :  -0.3125 0.3750 0.1875  plane waves:     934
 k-point 141 :  -0.3750 0.4375 0.1875  plane waves:     947
 k-point 142 :  -0.3125 0.4375 0.1875  plane waves:     934
 k-point 143 :  -0.2500 0.4375 0.1875  plane waves:     932
 k-point 144 :  -0.3125 0.5000 0.1875  plane waves:     944
 k-point 145 :  -0.2500 0.5000 0.2500  plane waves:     932

 maximum and minimum number of plane-waves per node :       960      920

 maximum number of plane-waves:       960
 maximum index in each direction: 
   IXMAX=    7   IYMAX=    6   IZMAX=    6
   IXMIN=   -7   IYMIN=   -7   IZMIN=   -7


 serial   3D FFT for wavefunctions
 parallel 3D FFT for charge:
    minimum data exchange during FFTs selected (reduces bandwidth)


 total amount of memory used by VASP MPI-rank0    83938. kBytes
=======================================================================

   base      :      30000. kBytes
   nonl-proj :      20060. kBytes
   fftplans  :       6192. kBytes
   grid      :       9520. kBytes
   one-center:         15. kBytes
   wavefun   :      18151. kBytes
 
     INWAV:  cpu time      0.0000: real time      0.0000
 Broyden mixing: mesh for mixing (old mesh)
   NGX = 13   NGY = 13   NGZ = 13
  (NGX  = 56   NGY  = 56   NGZ  = 56)
  gives a total of   2197 points

 initial charge density was supplied:
 charge density of overlapping atoms calculated
 number of electron       8.0000000 magnetization 
 keeping initial charge density in first step


--------------------------------------------------------------------------------------------------------


 Maximum index for augmentation-charges         28867 (set IRDMAX)


--------------------------------------------------------------------------------------------------------


 First call to EWALD:  gamma=   0.476
 Maximum number of real-space cells 3x 3x 3
 Maximum number of reciprocal cells 3x 3x 3

    FEWALD:  cpu time      0.0009: real time      0.0006


--------------------------------------- Ionic step        1  -------------------------------------------




--------------------------------------- Iteration      1(   1)  ---------------------------------------


    POTLOK:  cpu time      0.0201: real time      0.0198
    SETDIJ:  cpu time      0.0181: real time      0.0091
     EDDAV:  cpu time      1.5168: real time      1.5168
       DOS:  cpu time      0.0020: real time      0.0020
    --------------------------------------------
      LOOP:  cpu time      1.5570: real time      1.5476

 eigenvalue-minimisations  :  2320
 total energy-change (2. order) : 0.1736631E+02  (-0.3358296E+03)
 number of electron       8.0000000 magnetization 
 augmentation part        8.0000000 magnetization 

 Free energy of the ion-electron system (eV)
  ---------------------------------------------------
  alpha Z        PSCENC =        14.31440178
  Ewald energy   TEWEN  =      -357.38815572
  -Hartree energ DENC   =      -155.86102622
  -exchange      EXHF   =         0.00000000
  -V(xc)+E(xc)   XCENC  =        15.06543492
  PAW double counting   =       438.55957176     -436.87374562
  entropy T*S    EENTRO =        -0.00123933
  eigenvalues    EBANDS =      -113.11628349
  atomic energy  EATOM  =       612.66735224
  Solvation  Ediel_sol  =         0.00000000
  ---------------------------------------------------
  free energy    TOTEN  =        17.36631033 eV

  energy without entropy =       17.36754966  energy(sigma->0) =       17.36672344


--------------------------------------------------------------------------------------------------------




--------------------------------------- Iteration      1(   2)  ---------------------------------------


     EDDAV:  cpu time      1.5834: real time      1.5838
       DOS:  cpu time      0.0023: real time      0.0023
    --------------------------------------------
      LOOP:  cpu time      1.5857: real time      1.5861

 eigenvalue-minimisations  :  2720
 total energy-change (2. order) :-0.1830690E+02  (-0.1827381E+02)
 number of electron       8.0000000 magnetization 
 augmentation part        8.0000000 magnetization 

 Free energy of the ion-electron system (eV)
  ---------------------------------------------------
  alpha Z        PSCENC =        14.31440178
  Ewald energy   TEWEN  =      -357.38815572
  -Hartree energ DENC   =      -155.86102622
  -exchange      EXHF   =         0.00000000
  -V(xc)+E(xc)   XCENC  =        15.06543492
  PAW double counting   =       438.55957176     -436.87374562
  entropy T*S    EENTRO =        -0.00334950
  eigenvalues    EBANDS =      -131.42107066
  atomic energy  EATOM  =       612.66735224
  Solvation  Ediel_sol  =         0.00000000
  ---------------------------------------------------
  free energy    TOTEN  =        -0.94058701 eV

  energy without entropy =       -0.93723751  energy(sigma->0) =       -0.93947051


--------------------------------------------------------------------------------------------------------




--------------------------------------- Iteration      1(   3)  ---------------------------------------


     EDDAV:  cpu time      2.1276: real time      2.1282
       DOS:  cpu time      0.0021: real time      0.0021
    --------------------------------------------
      LOOP:  cpu time      2.1297: real time      2.1303

 eigenvalue-minimisations  :  3688
 total energy-change (2. order) :-0.8717882E+00  (-0.8701824E+00)
 number of electron       8.0000000 magnetization 
 augmentation part        8.0000000 magnetization 

 Free energy of the ion-electron system (eV)
  ---------------------------------------------------
  alpha Z        PSCENC =        14.31440178
  Ewald energy   TEWEN  =      -357.38815572
  -Hartree energ DENC   =      -155.86102622
  -exchange      EXHF   =         0.00000000
  -V(xc)+E(xc)   XCENC  =        15.06543492
  PAW double counting   =       438.55957176     -436.87374562
  entropy T*S    EENTRO =        -0.00245839
  eigenvalues    EBANDS =      -132.29374995
  atomic energy  EATOM  =       612.66735224
  Solvation  Ediel_sol  =         0.00000000
  ---------------------------------------------------
  free energy    TOTEN  =        -1.81237519 eV

  energy without entropy =       -1.80991680  energy(sigma->0) =       -1.81155573


--------------------------------------------------------------------------------------------------------




--------------------------------------- Iteration      1(   4)  ---------------------------------------


     EDDAV:  cpu time      1.8391: real time      1.8396
       DOS:  cpu time      0.0024: real time      0.0024
    --------------------------------------------
      LOOP:  cpu time      1.8415: real time      1.8420

 eigenvalue-minimisations  :  3152
 total energy-change (2. order) :-0.8124353E-02  (-0.8119254E-02)
 number of electron       8.0000000 magnetization 
 augmentation part        8.0000000 magnetization 

 Free energy of the ion-electron system (eV)
  ---------------------------------------------------
  alpha Z        PSCENC =        14.31440178
  Ewald energy   TEWEN  =      -357.38815572
  -Hartree energ DENC   =      -155.86102622
  -exchange      EXHF   =         0.00000000
  -V(xc)+E(xc)   XCENC  =        15.06543492
  PAW double counting   =       438.55957176     -436.87374562
  entropy T*S    EENTRO =        -0.00239051
  eigenvalues    EBANDS =      -132.30194218
  atomic energy  EATOM  =       612.66735224
  Solvation  Ediel_sol  =         0.00000000
  ---------------------------------------------------
  free energy    TOTEN  =        -1.82049954 eV

  energy without entropy =       -1.81810903  energy(sigma->0) =       -1.81970271


--------------------------------------------------------------------------------------------------------




--------------------------------------- Iteration      1(   5)  ---------------------------------------


     EDDAV:  cpu time      2.1867: real time      2.1873
       DOS:  cpu time      0.0024: real time      0.0024
    CHARGE:  cpu time      0.1798: real time      0.1777
    MIXING:  cpu time      0.0020: real time      0.0013
    --------------------------------------------
      LOOP:  cpu time      2.3709: real time      2.3688

 eigenvalue-minimisations  :  3768
 total energy-change (2. order) :-0.8184371E-04  (-0.8187458E-04)
 number of electron       7.9999996 magnetization 
 augmentation part        4.5877890 magnetization 

 Broyden mixing:
  rms(total) = 0.71082E-01    rms(broyden)= 0.71082E-01
  rms(prec ) = 0.17950E+00
  weight for this iteration     100.00

 Free energy of the ion-electron system (eV)
  ---------------------------------------------------
  alpha Z        PSCENC =        14.31440178
  Ewald energy   TEWEN  =      -357.38815572
  -Hartree energ DENC   =      -155.86102622
  -exchange      EXHF   =         0.00000000
  -V(xc)+E(xc)   XCENC  =        15.06543492
  PAW double counting   =       438.55957176     -436.87374562
  entropy T*S    EENTRO =        -0.00238623
  eigenvalues    EBANDS =      -132.30202830
  atomic energy  EATOM  =       612.66735224
  Solvation  Ediel_sol  =         0.00000000
  ---------------------------------------------------
  free energy    TOTEN  =        -1.82058139 eV

  energy without entropy =       -1.81819515  energy(sigma->0) =       -1.81978598


--------------------------------------------------------------------------------------------------------




--------------------------------------- Iteration      1(   6)  ---------------------------------------


    POTLOK:  cpu time      0.0057: real time      0.0047
    SETDIJ:  cpu time      0.0094: real time      0.0047
     EDDAV:  cpu time      1.5454: real time      1.5449
       DOS:  cpu time      0.0024: real time      0.0024
    CHARGE:  cpu time      0.1744: real time      0.1724
    MIXING:  cpu time      0.0023: real time      0.0015
    --------------------------------------------
      LOOP:  cpu time      1.7396: real time      1.7305

 eigenvalue-minimisations  :  2632
 total energy-change (2. order) :-0.8013400E-02  (-0.4135018E-03)
 number of electron       7.9999996 magnetization 
 augmentation part        4.5825482 magnetization 

 Broyden mixing:
  rms(total) = 0.42632E-01    rms(broyden)= 0.42632E-01
  rms(prec ) = 0.11014E+00
  weight for this iteration     100.00

 eigenvalues of (default mixing * dielectric matrix)
  average eigenvalue GAMMA=   2.4545
  2.4545

 Free energy of the ion-electron system (eV)
  ---------------------------------------------------
  alpha Z        PSCENC =        14.31440178
  Ewald energy   TEWEN  =      -357.38815572
  -Hartree energ DENC   =      -156.82405256
  -exchange      EXHF   =         0.00000000
  -V(xc)+E(xc)   XCENC  =        15.14189240
  PAW double counting   =       433.13754319     -430.91119690
  entropy T*S    EENTRO =        -0.00235763
  eigenvalues    EBANDS =      -131.96402159
  atomic energy  EATOM  =       612.66735224
  Solvation  Ediel_sol  =         0.00000000
  ---------------------------------------------------
  free energy    TOTEN  =        -1.82859479 eV

  energy without entropy =       -1.82623716  energy(sigma->0) =       -1.82780891


--------------------------------------------------------------------------------------------------------




--------------------------------------- Iteration      1(   7)  ---------------------------------------


    POTLOK:  cpu time      0.0055: real time      0.0044
    SETDIJ:  cpu time      0.0071: real time      0.0035
     EDDAV:  cpu time      1.5524: real time      1.5519
       DOS:  cpu time      0.0024: real time      0.0024
    CHARGE:  cpu time      0.1765: real time      0.1744
    MIXING:  cpu time      0.0026: real time      0.0016
    --------------------------------------------
      LOOP:  cpu time      1.7465: real time      1.7383

 eigenvalue-minimisations  :  2648
 total energy-change (2. order) :-0.5330220E-02  (-0.6180010E-03)
 number of electron       7.9999996 magnetization 
 augmentation part        4.5767570 magnetization 

 Broyden mixing:
  rms(total) = 0.43771E-02    rms(broyden)= 0.43771E-02
  rms(prec ) = 0.16233E-01
  weight for this iteration     100.00

 eigenvalues of (default mixing * dielectric matrix)
  average eigenvalue GAMMA=   2.3989
  1.9473  2.8505

 Free energy of the ion-electron system (eV)
  ---------------------------------------------------
  alpha Z        PSCENC =        14.31440178
  Ewald energy   TEWEN  =      -357.38815572
  -Hartree energ DENC   =      -158.12084683
  -exchange      EXHF   =         0.00000000
  -V(xc)+E(xc)   XCENC  =        15.25553690
  PAW double counting   =       425.22222177     -422.12241331
  entropy T*S    EENTRO =        -0.00232194
  eigenvalues    EBANDS =      -131.65969989
  atomic energy  EATOM  =       612.66735224
  Solvation  Ediel_sol  =         0.00000000
  ---------------------------------------------------
  free energy    TOTEN  =        -1.83392501 eV

  energy without entropy =       -1.83160306  energy(sigma->0) =       -1.83315103


--------------------------------------------------------------------------------------------------------




--------------------------------------- Iteration      1(   8)  ---------------------------------------


    POTLOK:  cpu time      0.0058: real time      0.0048
    SETDIJ:  cpu time      0.0084: real time      0.0042
     EDDAV:  cpu time      1.8362: real time      1.8358
       DOS:  cpu time      0.0023: real time      0.0023
    CHARGE:  cpu time      0.1748: real time      0.1728
    MIXING:  cpu time      0.0024: real time      0.0015
    --------------------------------------------
      LOOP:  cpu time      2.0301: real time      2.0215

 eigenvalue-minimisations  :  3168
 total energy-change (2. order) :-0.5334461E-05  (-0.3507577E-04)
 number of electron       7.9999996 magnetization 
 augmentation part        4.5783926 magnetization 

 Broyden mixing:
  rms(total) = 0.73108E-03    rms(broyden)= 0.73103E-03
  rms(prec ) = 0.21625E-02
  weight for this iteration     100.00

 eigenvalues of (default mixing * dielectric matrix)
  average eigenvalue GAMMA=   2.2166
  1.3558  3.0711  2.2227

 Free energy of the ion-electron system (eV)
  ---------------------------------------------------
  alpha Z        PSCENC =        14.31440178
  Ewald energy   TEWEN  =      -357.38815572
  -Hartree energ DENC   =      -158.01071238
  -exchange      EXHF   =         0.00000000
  -V(xc)+E(xc)   XCENC  =        15.25503277
  PAW double counting   =       424.78222729     -421.59673040
  entropy T*S    EENTRO =        -0.00232830
  eigenvalues    EBANDS =      -131.85501763
  atomic energy  EATOM  =       612.66735224
  Solvation  Ediel_sol  =         0.00000000
  ---------------------------------------------------
  free energy    TOTEN  =        -1.83393034 eV

  energy without entropy =       -1.83160204  energy(sigma->0) =       -1.83315424


--------------------------------------------------------------------------------------------------------




--------------------------------------- Iteration      1(   9)  ---------------------------------------


    POTLOK:  cpu time      0.0055: real time      0.0045
    SETDIJ:  cpu time      0.0072: real time      0.0036
     EDDAV:  cpu time      2.2335: real time      2.2332
       DOS:  cpu time      0.0024: real time      0.0024
    CHARGE:  cpu time      0.1766: real time      0.1745
    MIXING:  cpu time      0.0024: real time      0.0015
    --------------------------------------------
      LOOP:  cpu time      2.4275: real time      2.4196

 eigenvalue-minimisations  :  3848
 total energy-change (2. order) :-0.4497995E-05  (-0.8497717E-06)
 number of electron       7.9999996 magnetization 
 augmentation part        4.5784960 magnetization 

 Broyden mixing:
  rms(total) = 0.32657E-03    rms(broyden)= 0.32655E-03
  rms(prec ) = 0.55736E-03
  weight for this iteration     100.00

 eigenvalues of (default mixing * dielectric matrix)
  average eigenvalue GAMMA=   2.0984
  1.0009  3.0262  2.5528  1.8137

 Free energy of the ion-electron system (eV)
  ---------------------------------------------------
  alpha Z        PSCENC =        14.31440178
  Ewald energy   TEWEN  =      -357.38815572
  -Hartree energ DENC   =      -157.98616261
  -exchange      EXHF   =         0.00000000
  -V(xc)+E(xc)   XCENC  =        15.25412610
  PAW double counting   =       424.80188004     -421.62776261
  entropy T*S    EENTRO =        -0.00232869
  eigenvalues    EBANDS =      -131.86728537
  atomic energy  EATOM  =       612.66735224
  Solvation  Ediel_sol  =         0.00000000
  ---------------------------------------------------
  free energy    TOTEN  =        -1.83393484 eV

  energy without entropy =       -1.83160615  energy(sigma->0) =       -1.83315861


--------------------------------------------------------------------------------------------------------




--------------------------------------- Iteration      1(  10)  ---------------------------------------


    POTLOK:  cpu time      0.0058: real time      0.0047
    SETDIJ:  cpu time      0.0085: real time      0.0043
     EDDAV:  cpu time      1.7622: real time      1.7618
       DOS:  cpu time      0.0024: real time      0.0024
    CHARGE:  cpu time      0.1755: real time      0.1727
    MIXING:  cpu time      0.0023: real time      0.0015
    --------------------------------------------
      LOOP:  cpu time      1.9567: real time      1.9473

 eigenvalue-minimisations  :  3032
 total energy-change (2. order) :-0.3173046E-05  (-0.3125420E-06)
 number of electron       7.9999996 magnetization 
 augmentation part        4.5782985 magnetization 

 Broyden mixing:
  rms(total) = 0.49146E-04    rms(broyden)= 0.49144E-04
  rms(prec ) = 0.12949E-03
  weight for this iteration     100.00

 eigenvalues of (default mixing * dielectric matrix)
  average eigenvalue GAMMA=   1.9425
  2.8612  2.5948  0.8862  1.7995  1.5706

 Free energy of the ion-electron system (eV)
  ---------------------------------------------------
  alpha Z        PSCENC =        14.31440178
  Ewald energy   TEWEN  =      -357.38815572
  -Hartree energ DENC   =      -157.97552068
  -exchange      EXHF   =         0.00000000
  -V(xc)+E(xc)   XCENC  =        15.25330555
  PAW double counting   =       424.89157950     -421.74345629
  entropy T*S    EENTRO =        -0.00232818
  eigenvalues    EBANDS =      -131.85111622
  atomic energy  EATOM  =       612.66735224
  Solvation  Ediel_sol  =         0.00000000
  ---------------------------------------------------
  free energy    TOTEN  =        -1.83393801 eV

  energy without entropy =       -1.83160983  energy(sigma->0) =       -1.83316195


--------------------------------------------------------------------------------------------------------




--------------------------------------- Iteration      1(  11)  ---------------------------------------


    POTLOK:  cpu time      0.0058: real time      0.0045
    SETDIJ:  cpu time      0.0074: real time      0.0037
     EDDAV:  cpu time      1.1267: real time      1.1260
       DOS:  cpu time      0.0024: real time      0.0024
    --------------------------------------------
      LOOP:  cpu time      1.1422: real time      1.1365

 eigenvalue-minimisations  :  1696
 total energy-change (2. order) : 0.1753948E-06  (-0.6358577E-08)
 number of electron       7.9999996 magnetization 
 augmentation part        4.5782985 magnetization 

 Free energy of the ion-electron system (eV)
  ---------------------------------------------------
  alpha Z        PSCENC =        14.31440178
  Ewald energy   TEWEN  =      -357.38815572
  -Hartree energ DENC   =      -157.97417583
  -exchange      EXHF   =         0.00000000
  -V(xc)+E(xc)   XCENC  =        15.25322579
  PAW double counting   =       424.89429584     -421.74519339
  entropy T*S    EENTRO =        -0.00232833
  eigenvalues    EBANDS =      -131.85336023
  atomic energy  EATOM  =       612.66735224
  Solvation  Ediel_sol  =         0.00000000
  ---------------------------------------------------
  free energy    TOTEN  =        -1.83393784 eV

  energy without entropy =       -1.83160951  energy(sigma->0) =       -1.83316173


--------------------------------------------------------------------------------------------------------




 average (electrostatic) potential at core
  the test charge radii are     1.2658
  (the norm of the test charge is              1.0000)
       1 -51.0658
 
 
 
 E-fermi :   1.4220     XC(G=0):  -7.1061     alpha+bet : -6.0890

 Fermi energy:         1.4219852331

 k-point     1 :       0.0000    0.0000    0.0000
  band No.  band energies     occupation 
      1     -22.0008      2.00000
      2     -22.0008      2.00000
      3     -22.0008      2.00000
      4      -2.2446      2.00000
      5       3.4771     -0.00000
      6       3.4771     -0.00000
      7       3.4771     -0.00000
      8       4.3131     -0.00000

 k-point     2 :       0.0625    0.0000    0.0000
  band No.  band energies     occupation 
      1     -22.0033      2.00000
      2     -22.0012      2.00000
      3     -22.0012      2.00000
      4      -2.1880      2.00000
      5       3.4197     -0.00000
      6       3.4977     -0.00000
      7       3.4977     -0.00000
      8       4.2962     -0.00000

 k-point     3 :       0.1250    0.0000    0.0000
  band No.  band energies     occupation 
      1     -22.0102      2.00000
      2     -22.0022      2.00000
      3     -22.0022      2.00000
      4      -2.0196      2.00000
      5       3.2583     -0.00000
      6       3.5487     -0.00000
      7       3.5487     -0.00000
      8       4.2607     -0.00000

 k-point     4 :       0.1875    0.0000    0.0000
  band No.  band energies     occupation 
      1     -22.0205      2.00000
      2     -22.0037      2.00000
      3     -22.0037      2.00000
      4      -1.7443      2.00000
      5       3.0164     -0.00000
      6       3.5936     -0.00000
      7       3.5936     -0.00000
      8       4.2531     -0.00000

 k-point     5 :       0.2500    0.0000    0.0000
  band No.  band energies     occupation 
      1     -22.0327      2.00000
      2     -22.0055      2.00000
      3     -22.0055      2.00000
      4      -1.3707      2.00000
      5       2.7138     -0.00000
      6       3.5864     -0.00000
      7       3.5864     -0.00000
      8       4.3274     -0.00000

 k-point     6 :       0.3125    0.0000    0.0000
  band No.  band energies     occupation 
      1     -22.0448      2.00000
      2     -22.0073      2.00000
      3     -22.0072      2.00000
      4      -0.9123      2.00000
      5       2.3568     -0.00000
      6       3.5296     -0.00000
      7       3.5296     -0.00000
      8       4.4795     -0.00000

 k-point     7 :       0.3750    0.0000    0.0000
  band No.  band energies     occupation 
      1     -22.0550      2.00000
      2     -22.0088      2.00000
      3     -22.0087      2.00000
      4      -0.3911      2.00000
      5       1.9411     -0.00149
      6       3.4620     -0.00000
      7       3.4620     -0.00000
      8       4.6544     -0.00000

 k-point     8 :       0.4375    0.0000    0.0000
  band No.  band energies     occupation 
      1     -22.0618      2.00000
      2     -22.0098      2.00000
      3     -22.0098      2.00000
      4       0.1493      2.00000
      5       1.4783      0.54395
      6       3.4122     -0.00000
      7       3.4122     -0.00000
      8       4.7925     -0.00000

 k-point     9 :       0.5000    0.0000    0.0000
  band No.  band energies     occupation 
      1     -22.0642      2.00000
      2     -22.0101      2.00000
      3     -22.0101      2.00000
      4       0.4991      2.00000
      5       1.1565      2.06809
      6       3.3942     -0.00000
      7       3.3942     -0.00000
      8       4.8451     -0.00000

 k-point    10 :       0.0625    0.0625    0.0000
  band No.  band energies     occupation 
      1     -22.0032      2.00000
      2     -22.0017      2.00000
      3     -22.0017      2.00000
      4      -2.1691      2.00000
      5       3.4051     -0.00000
      6       3.5039     -0.00000
      7       3.5039     -0.00000
      8       4.2465     -0.00000

 k-point    11 :       0.1250    0.0625    0.0000
  band No.  band energies     occupation 
      1     -22.0084      2.00000
      2     -22.0029      2.00000
      3     -22.0024      2.00000
      4      -2.0380      2.00000
      5       3.2841     -0.00000
      6       3.5456     -0.00000
      7       3.5481     -0.00000
      8       4.1717     -0.00000

 k-point    12 :       0.1875    0.0625    0.0000
  band No.  band energies     occupation 
      1     -22.0175      2.00000
      2     -22.0046      2.00000
      3     -22.0035      2.00000
      4      -1.7984      2.00000
      5       3.0780     -0.00000
      6       3.5941     -0.00000
      7       3.5970     -0.00000
      8       4.1173     -0.00000

 k-point    13 :       0.2500    0.0625    0.0000
  band No.  band energies     occupation 
      1     -22.0289      2.00000
      2     -22.0064      2.00000
      3     -22.0051      2.00000
      4      -1.4575      2.00000
      5       2.8072     -0.00000
      6       3.5856     -0.00000
      7       3.6083     -0.00000
      8       4.1618     -0.00000

 k-point    14 :       0.3125    0.0625    0.0000
  band No.  band energies     occupation 
      1     -22.0409      2.00000
      2     -22.0082      2.00000
      3     -22.0071      2.00000
      4      -1.0268      2.00000
      5       2.4805     -0.00000
      6       3.5105     -0.00000
      7       3.5728     -0.00000
      8       4.3163     -0.00000

 k-point    15 :       0.3750    0.0625    0.0000
  band No.  band energies     occupation 
      1     -22.0516      2.00000
      2     -22.0096      2.00000
      3     -22.0090      2.00000
      4      -0.5246      2.00000
      5       2.0946     -0.00002
      6       3.4262     -0.00000
      7       3.5124     -0.00000
      8       4.5190     -0.00000

 k-point    16 :       0.4375    0.0625    0.0000
  band No.  band energies     occupation 
      1     -22.0594      2.00000
      2     -22.0105      2.00000
      3     -22.0105      2.00000
      4       0.0168      2.00000
      5       1.6493     -0.06823
      6       3.3645     -0.00000
      7       3.4577     -0.00000
      8       4.7128     -0.00000

 k-point    17 :       0.5000    0.0625    0.0000
  band No.  band energies     occupation 
      1     -22.0632      2.00000
      2     -22.0116      2.00000
      3     -22.0107      2.00000
      4       0.4935      2.00000
      5       1.2219      2.05030
      6       3.3355     -0.00000
      7       3.4283     -0.00000
      8       4.8465     -0.00000

 k-point    18 :      -0.4375    0.0625    0.0000
  band No.  band energies     occupation 
      1     -22.0624      2.00000
      2     -22.0119      2.00000
      3     -22.0101      2.00000
      4       0.3599      2.00000
      5       1.3463      1.59260
      6       3.3403     -0.00000
      7       3.4333     -0.00000
      8       4.7785     -0.00000

 k-point    19 :      -0.3750    0.0625    0.0000
  band No.  band energies     occupation 
      1     -22.0571      2.00000
      2     -22.0115      2.00000
      3     -22.0089      2.00000
      4      -0.1648      2.00000
      5       1.8053     -0.02073
      6       3.3769     -0.00000
      7       3.4741     -0.00000
      8       4.6221     -0.00000

 k-point    20 :      -0.3125    0.0625    0.0000
  band No.  band energies     occupation 
      1     -22.0482      2.00000
      2     -22.0103      2.00000
      3     -22.0073      2.00000
      4      -0.6984      2.00000
      5       2.2332     -0.00000
      6       3.4384     -0.00000
      7       3.5433     -0.00000
      8       4.4234     -0.00000

 k-point    21 :      -0.2500    0.0625    0.0000
  band No.  band energies     occupation 
      1     -22.0369      2.00000
      2     -22.0086      2.00000
      3     -22.0054      2.00000
      4      -1.1794      2.00000
      5       2.5986     -0.00000
      6       3.5069     -0.00000
      7       3.6190     -0.00000
      8       4.2379     -0.00000

 k-point    22 :      -0.1875    0.0625    0.0000
  band No.  band energies     occupation 
      1     -22.0250      2.00000
      2     -22.0066      2.00000
      3     -22.0036      2.00000
      4      -1.5818      2.00000
      5       2.9059     -0.00000
      6       3.5517     -0.00000
      7       3.6510     -0.00000
      8       4.1345     -0.00000

 k-point    23 :      -0.1250    0.0625    0.0000
  band No.  band energies     occupation 
      1     -22.0143      2.00000
      2     -22.0046      2.00000
      3     -22.0022      2.00000
      4      -1.8901      2.00000
      5       3.1550     -0.00000
      6       3.5503     -0.00000
      7       3.6038     -0.00000
      8       4.1531     -0.00000

 k-point    24 :      -0.0625    0.0625    0.0000
  band No.  band energies     occupation 
      1     -22.0067      2.00000
      2     -22.0027      2.00000
      3     -22.0014      2.00000
      4      -2.0941      2.00000
      5       3.3328     -0.00000
      6       3.5198     -0.00000
      7       3.5354     -0.00000
      8       4.2284     -0.00000

 k-point    25 :       0.1250    0.1250    0.0000
  band No.  band energies     occupation 
      1     -22.0099      2.00000
      2     -22.0043      2.00000
      3     -22.0043      2.00000
      4      -1.9450      2.00000
      5       3.2122     -0.00000
      6       3.5858     -0.00000
      7       3.5858     -0.00000
      8       4.0529     -0.00000

 k-point    26 :       0.1875    0.1250    0.0000
  band No.  band energies     occupation 
      1     -22.0167      2.00000
      2     -22.0062      2.00000
      3     -22.0056      2.00000
      4      -1.7430      2.00000
      5       3.0570     -0.00000
      6       3.6305     -0.00000
      7       3.6450     -0.00000
      8       3.9519     -0.00000

 k-point    27 :       0.2500    0.1250    0.0000
  band No.  band energies     occupation 
      1     -22.0266      2.00000
      2     -22.0082      2.00000
      3     -22.0072      2.00000
      4      -1.4380      2.00000
      5       2.8410     -0.00000
      6       3.5626     -0.00000
      7       3.6839     -0.00000
      8       4.0023     -0.00000

 k-point    28 :       0.3125    0.1250    0.0000
  band No.  band energies     occupation 
      1     -22.0375      2.00000
      2     -22.0100      2.00000
      3     -22.0092      2.00000
      4      -1.0397      2.00000
      5       2.5704     -0.00000
      6       3.4228     -0.00000
      7       3.6740     -0.00000
      8       4.1827     -0.00000

 k-point    29 :       0.3750    0.1250    0.0000
  band No.  band energies     occupation 
      1     -22.0477      2.00000
      2     -22.0116      2.00000
      3     -22.0114      2.00000
      4      -0.5633      2.00000
      5       2.2386     -0.00000
      6       3.3002     -0.00000
      7       3.6260     -0.00000
      8       4.4121     -0.00000

 k-point    30 :       0.4375    0.1250    0.0000
  band No.  band energies     occupation 
      1     -22.0558      2.00000
      2     -22.0138      2.00000
      3     -22.0122      2.00000
      4      -0.0333      2.00000
      5       1.8380     -0.01224
      6       3.2188     -0.00000
      7       3.5699     -0.00000
      8       4.6496     -0.00000

 k-point    31 :       0.5000    0.1250    0.0000
  band No.  band energies     occupation 
      1     -22.0604      2.00000
      2     -22.0157      2.00000
      3     -22.0123      2.00000
      4       0.4963      2.00000
      5       1.3912      1.25678
      6       3.1760     -0.00000
      7       3.5295     -0.00000
      8       4.8510     -0.00000

 k-point    32 :      -0.4375    0.1250    0.0000
  band No.  band energies     occupation 
      1     -22.0609      2.00000
      2     -22.0168      2.00000
      3     -22.0115      2.00000
      4       0.6359      2.00000
      5       1.2690      1.96117
      6       3.1625     -0.00000
      7       3.5191     -0.00000
      8       4.7736     -0.00000

 k-point    33 :      -0.3750    0.1250    0.0000
  band No.  band energies     occupation 
      1     -22.0573      2.00000
      2     -22.0169      2.00000
      3     -22.0101      2.00000
      4       0.1475      2.00000
      5       1.7058     -0.06209
      6       3.1780     -0.00000
      7       3.5451     -0.00000
      8       4.6026     -0.00000

 k-point    34 :      -0.3125    0.1250    0.0000
  band No.  band energies     occupation 
      1     -22.0502      2.00000
      2     -22.0160      2.00000
      3     -22.0083      2.00000
      4      -0.3908      2.00000
      5       2.1348     -0.00001
      6       3.2307     -0.00000
      7       3.6069     -0.00000
      8       4.3847     -0.00000

 k-point    35 :      -0.2500    0.1250    0.0000
  band No.  band energies     occupation 
      1     -22.0408      2.00000
      2     -22.0142      2.00000
      3     -22.0063      2.00000
      4      -0.8887      2.00000
      5       2.4891     -0.00000
      6       3.3213     -0.00000
      7       3.6949     -0.00000
      8       4.1650     -0.00000

 k-point    36 :      -0.1875    0.1250    0.0000
  band No.  band energies     occupation 
      1     -22.0305      2.00000
      2     -22.0115      2.00000
      3     -22.0044      2.00000
      4      -1.3154      2.00000
      5       2.7703     -0.00000
      6       3.4289     -0.00000
      7       3.7653     -0.00000
      8       4.0087     -0.00000

 k-point    37 :      -0.1250    0.1250    0.0000
  band No.  band energies     occupation 
      1     -22.0212      2.00000
      2     -22.0081      2.00000
      3     -22.0030      2.00000
      4      -1.6530      2.00000
      5       2.9905     -0.00000
      6       3.5143     -0.00000
      7       3.7022     -0.00000
      8       4.0389     -0.00000

 k-point    38 :       0.1875    0.1875    0.0000
  band No.  band energies     occupation 
      1     -22.0199      2.00000
      2     -22.0082      2.00000
      3     -22.0082      2.00000
      4      -1.5798      2.00000
      5       2.9509     -0.00000
      6       3.7262     -0.00000
      7       3.7262     -0.00000
      8       3.7559     -0.00000

 k-point    39 :       0.2500    0.1875    0.0000
  band No.  band energies     occupation 
      1     -22.0271      2.00000
      2     -22.0104      2.00000
      3     -22.0102      2.00000
      4      -1.3133      2.00000
      5       2.7902     -0.00000
      6       3.5300     -0.00000
      7       3.8007     -0.00000
      8       3.8895     -0.00000

 k-point    40 :       0.3125    0.1875    0.0000
  band No.  band energies     occupation 
      1     -22.0362      2.00000
      2     -22.0125      2.00000
      3     -22.0124      2.00000
      4      -0.9519      2.00000
      5       2.5899     -0.00000
      6       3.3130     -0.00000
      7       3.8272     -0.00000
      8       4.0971     -0.00000

 k-point    41 :       0.3750    0.1875    0.0000
  band No.  band energies     occupation 
      1     -22.0450      2.00000
      2     -22.0153      2.00000
      3     -22.0139      2.00000
      4      -0.5082      2.00000
      5       2.3379     -0.00000
      6       3.1357     -0.00000
      7       3.7996     -0.00000
      8       4.3430     -0.00000

 k-point    42 :       0.4375    0.1875    0.0000
  band No.  band energies     occupation 
      1     -22.0522      2.00000
      2     -22.0184      2.00000
      3     -22.0147      2.00000
      4      -0.0017      2.00000
      5       2.0134     -0.00024
      6       3.0200     -0.00000
      7       3.7459     -0.00000
      8       4.6098     -0.00000

 k-point    43 :       0.5000    0.1875    0.0000
  band No.  band energies     occupation 
      1     -22.0566      2.00000
      2     -22.0213      2.00000
      3     -22.0146      2.00000
      4       0.5351      2.00000
      5       1.6126     -0.03906
      6       2.9553     -0.00000
      7       3.6950     -0.00000
      8       4.8605     -0.00000

 k-point    44 :      -0.4375    0.1875    0.0000
  band No.  band energies     occupation 
      1     -22.0577      2.00000
      2     -22.0235      2.00000
      3     -22.0137      2.00000
      4       0.9385      2.00333
      5       1.2713      1.95420
      6       2.9165     -0.00000
      7       3.6655     -0.00000
      8       4.7800     -0.00000

 k-point    45 :      -0.3750    0.1875    0.0000
  band No.  band energies     occupation 
      1     -22.0555      2.00000
      2     -22.0244      2.00000
      3     -22.0122      2.00000
      4       0.5314      2.00000
      5       1.6546     -0.06965
      6       2.8990     -0.00000
      7       3.6678     -0.00000
      8       4.6032     -0.00000

 k-point    46 :      -0.3125    0.1875    0.0000
  band No.  band energies     occupation 
      1     -22.0505      2.00000
      2     -22.0237      2.00000
      3     -22.0101      2.00000
      4      -0.0014      2.00000
      5       2.0794     -0.00003
      6       2.9304     -0.00000
      7       3.7058     -0.00000
      8       4.3804     -0.00000

 k-point    47 :      -0.2500    0.1875    0.0000
  band No.  band energies     occupation 
      1     -22.0439      2.00000
      2     -22.0211      2.00000
      3     -22.0079      2.00000
      4      -0.5080      2.00000
      5       2.3994     -0.00000
      6       3.0468     -0.00000
      7       3.7778     -0.00000
      8       4.1509     -0.00000

 k-point    48 :      -0.1875    0.1875    0.0000
  band No.  band energies     occupation 
      1     -22.0369      2.00000
      2     -22.0168      2.00000
      3     -22.0059      2.00000
      4      -0.9530      2.00000
      5       2.6124     -0.00000
      6       3.2385     -0.00000
      7       3.8686     -0.00000
      8       3.9528     -0.00000

 k-point    49 :       0.2500    0.2500    0.0000
  band No.  band energies     occupation 
      1     -22.0314      2.00000
      2     -22.0128      2.00000
      3     -22.0128      2.00000
      4      -1.0874      2.00000
      5       2.6753     -0.00000
      6       3.3966     -0.00000
      7       3.9286     -0.00000
      8       3.9286     -0.00000

 k-point    50 :       0.3125    0.2500    0.0000
  band No.  band energies     occupation 
      1     -22.0381      2.00000
      2     -22.0152      2.00000
      3     -22.0150      2.00000
      4      -0.7671      2.00000
      5       2.5305     -0.00000
      6       3.1863     -0.00000
      7       4.0149     -0.00000
      8       4.0940     -0.00000

 k-point    51 :       0.3750    0.2500    0.0000
  band No.  band energies     occupation 
      1     -22.0450      2.00000
      2     -22.0184      2.00000
      3     -22.0166      2.00000
      4      -0.3634      2.00000
      5       2.3608     -0.00000
      6       2.9751     -0.00000
      7       4.0244     -0.00000
      8       4.3263     -0.00000

 k-point    52 :       0.4375    0.2500    0.0000
  band No.  band energies     occupation 
      1     -22.0505      2.00000
      2     -22.0223      2.00000
      3     -22.0175      2.00000
      4       0.1074      2.00000
      5       2.1371     -0.00001
      6       2.8148     -0.00000
      7       3.9800     -0.00000
      8       4.6002     -0.00000

 k-point    53 :       0.5000    0.2500    0.0000
  band No.  band energies     occupation 
      1     -22.0536      2.00000
      2     -22.0265      2.00000
      3     -22.0174      2.00000
      4       0.6213      2.00000
      5       1.8312     -0.01373
      6       2.7160     -0.00000
      7       3.9189     -0.00000
      8       4.8813     -0.00000

 k-point    54 :      -0.4375    0.2500    0.0000
  band No.  band energies     occupation 
      1     -22.0539      2.00000
      2     -22.0303      2.00000
      3     -22.0165      2.00000
      4       1.1401      2.06283
      5       1.4446      0.80998
      6       2.6433     -0.00000
      7       3.8651     -0.00000
      8       4.7990     -0.00000

 k-point    55 :      -0.3750    0.2500    0.0000
  band No.  band energies     occupation 
      1     -22.0519      2.00000
      2     -22.0327      2.00000
      3     -22.0147      2.00000
      4       0.9564      2.00482
      5       1.6586     -0.07035
      6       2.5781     -0.00000
      7       3.8309     -0.00000
      8       4.6301     -0.00000

 k-point    56 :      -0.3125    0.2500    0.0000
  band No.  band energies     occupation 
      1     -22.0489      2.00000
      2     -22.0321      2.00000
      3     -22.0125      2.00000
      4       0.4482      2.00000
      5       2.0794     -0.00003
      6       2.5678     -0.00000
      7       3.8183     -0.00000
      8       4.4288     -0.00000

 k-point    57 :      -0.2500    0.2500    0.0000
  band No.  band energies     occupation 
      1     -22.0463      2.00000
      2     -22.0278      2.00000
      3     -22.0101      2.00000
      4      -0.0536      2.00000
      5       2.3099     -0.00000
      6       2.7409     -0.00000
      7       3.8140     -0.00000
      8       4.2476     -0.00000

 k-point    58 :       0.3125    0.3125    0.0000
  band No.  band energies     occupation 
      1     -22.0429      2.00000
      2     -22.0174      2.00000
      3     -22.0174      2.00000
      4      -0.4916      2.00000
      5       2.4269     -0.00000
      6       3.0196     -0.00000
      7       4.1928     -0.00000
      8       4.1928     -0.00000

 k-point    59 :       0.3750    0.3125    0.0000
  band No.  band energies     occupation 
      1     -22.0481      2.00000
      2     -22.0200      2.00000
      3     -22.0192      2.00000
      4      -0.1356      2.00000
      5       2.3117     -0.00000
      6       2.8214     -0.00000
      7       4.2799     -0.00000
      8       4.3789     -0.00000

 k-point    60 :       0.4375    0.3125    0.0000
  band No.  band energies     occupation 
      1     -22.0521      2.00000
      2     -22.0237      2.00000
      3     -22.0202      2.00000
      4       0.2861      2.00000
      5       2.1801     -0.00000
      6       2.6319     -0.00000
      7       4.2598     -0.00000
      8       4.6296     -0.00000

 k-point    61 :       0.5000    0.3125    0.0000
  band No.  band energies     occupation 
      1     -22.0537      2.00000
      2     -22.0286      2.00000
      3     -22.0202      2.00000
      4       0.7522      2.00002
      5       1.9926     -0.00041
      6       2.4907     -0.00000
      7       4.1904     -0.00000
      8       4.9057     -0.00000

 k-point    62 :      -0.4375    0.3125    0.0000
  band No.  band energies     occupation 
      1     -22.0523      2.00000
      2     -22.0341      2.00000
      3     -22.0193      2.00000
      4       1.2331      2.03671
      5       1.7266     -0.05323
      6       2.3780     -0.00000
      7       4.1056     -0.00000
      8       4.8310     -0.00000

 k-point    63 :      -0.3750    0.3125    0.0000
  band No.  band energies     occupation 
      1     -22.0482      2.00000
      2     -22.0395      2.00000
      3     -22.0175      2.00000
      4       1.3540      1.54018
      5       1.7207     -0.05588
      6       2.2543     -0.00000
      7       4.0172     -0.00000
      8       4.6882     -0.00000

 k-point    64 :      -0.3125    0.3125    0.0000
  band No.  band energies     occupation 
      1     -22.0459      2.00000
      2     -22.0398      2.00000
      3     -22.0151      2.00000
      4       0.9199      2.00221
      5       2.1285     -0.00001
      6       2.1736     -0.00000
      7       3.9236     -0.00000
      8       4.5380     -0.00000

 k-point    65 :       0.3750    0.3750    0.0000
  band No.  band energies     occupation 
      1     -22.0524      2.00000
      2     -22.0212      2.00000
      3     -22.0212      2.00000
      4       0.1647      2.00000
      5       2.2332     -0.00000
      6       2.6517     -0.00000
      7       4.5072     -0.00000
      8       4.5072     -0.00000

 k-point    66 :       0.4375    0.3750    0.0000
  band No.  band energies     occupation 
      1     -22.0557      2.00000
      2     -22.0236      2.00000
      3     -22.0224      2.00000
      4       0.5217      2.00000
      5       2.1555     -0.00000
      6       2.4664     -0.00000
      7       4.5596     -0.00000
      8       4.7043     -0.00000

 k-point    67 :       0.5000    0.3750    0.0000
  band No.  band energies     occupation 
      1     -22.0567      2.00000
      2     -22.0274      2.00000
      3     -22.0226      2.00000
      4       0.9112      2.00182
      5       2.0661     -0.00005
      6       2.2969     -0.00000
      7       4.4860     -0.00000
      8       4.9235     -0.00000

 k-point    68 :      -0.4375    0.3750    0.0000
  band No.  band energies     occupation 
      1     -22.0548      2.00000
      2     -22.0325      2.00000
      3     -22.0217      2.00000
      4       1.2933      1.87717
      5       1.9388     -0.00158
      6       2.1606     -0.00000
      7       4.3636     -0.00000
      8       4.8762     -0.00000

 k-point    69 :      -0.3750    0.3750    0.0000
  band No.  band energies     occupation 
      1     -22.0506      2.00000
      2     -22.0380      2.00000
      3     -22.0199      2.00000
      4       1.5367      0.18454
      5       1.8186     -0.01689
      6       2.0634     -0.00006
      7       4.2029     -0.00000
      8       4.7772     -0.00000

 k-point    70 :       0.4375    0.4375    0.0000
  band No.  band energies     occupation 
      1     -22.0587      2.00000
      2     -22.0238      2.00000
      3     -22.0238      2.00000
      4       0.7924      2.00008
      5       2.1111     -0.00001
      6       2.2994     -0.00000
      7       4.8172     -0.00000
      8       4.8236     -0.00000

 k-point    71 :       0.5000    0.4375    0.0000
  band No.  band energies     occupation 
      1     -22.0597      2.00000
      2     -22.0255      2.00000
      3     -22.0242      2.00000
      4       1.0599      2.02808
      5       2.0746     -0.00004
      6       2.1477     -0.00000
      7       4.7438     -0.00000
      8       4.9498     -0.00000

 k-point    72 :      -0.4375    0.4375    0.0000
  band No.  band energies     occupation 
      1     -22.0582      2.00000
      2     -22.0287      2.00000
      3     -22.0234      2.00000
      4       1.2521      2.00326
      5       2.0395     -0.00011
      6       2.0706     -0.00005
      7       4.5939     -0.00000
      8       4.9314     -0.00000

 k-point    73 :       0.5000    0.5000    0.0000
  band No.  band energies     occupation 
      1     -22.0610      2.00000
      2     -22.0247      2.00000
      3     -22.0247      2.00000
      4       1.1266      2.05732
      5       2.0695     -0.00005
      6       2.0847     -0.00003
      7       4.8387     -0.00000
      8       4.9843     -0.00000

 k-point    74 :       0.1875    0.1250    0.0625
  band No.  band energies     occupation 
      1     -22.0138      2.00000
      2     -22.0053      2.00000
      3     -22.0031      2.00000
      4      -1.8714      2.00000
      5       3.1498     -0.00000
      6       3.5639     -0.00000
      7       3.6180     -0.00000
      8       4.0743     -0.00000

 k-point    75 :       0.2500    0.1250    0.0625
  band No.  band energies     occupation 
      1     -22.0227      2.00000
      2     -22.0079      2.00000
      3     -22.0042      2.00000
      4      -1.5989      2.00000
      5       2.9474     -0.00000
      6       3.5430     -0.00000
      7       3.6936     -0.00000
      8       4.0205     -0.00000

 k-point    76 :       0.3125    0.1250    0.0625
  band No.  band energies     occupation 
      1     -22.0335      2.00000
      2     -22.0103      2.00000
      3     -22.0059      2.00000
      4      -1.2289      2.00000
      5       2.6868     -0.00000
      6       3.4632     -0.00000
      7       3.6899     -0.00000
      8       4.1075     -0.00000

 k-point    77 :       0.3750    0.1250    0.0625
  band No.  band energies     occupation 
      1     -22.0444      2.00000
      2     -22.0123      2.00000
      3     -22.0078      2.00000
      4      -0.7747      2.00000
      5       2.3661     -0.00000
      6       3.3622     -0.00000
      7       3.6250     -0.00000
      8       4.3002     -0.00000

 k-point    78 :       0.4375    0.1250    0.0625
  band No.  band energies     occupation 
      1     -22.0536      2.00000
      2     -22.0138      2.00000
      3     -22.0096      2.00000
      4      -0.2574      2.00000
      5       1.9774     -0.00062
      6       3.2809     -0.00000
      7       3.5548     -0.00000
      8       4.5218     -0.00000

 k-point    79 :       0.5000    0.1250    0.0625
  band No.  band energies     occupation 
      1     -22.0598      2.00000
      2     -22.0147      2.00000
      3     -22.0110      2.00000
      4       0.2831      2.00000
      5       1.5286      0.22450
      6       3.2341     -0.00000
      7       3.5047     -0.00000
      8       4.7189     -0.00000

 k-point    80 :      -0.4375    0.1250    0.0625
  band No.  band energies     occupation 
      1     -22.0619      2.00000
      2     -22.0149      2.00000
      3     -22.0115      2.00000
      4       0.6507      2.00000
      5       1.1941      2.06842
      6       3.2196     -0.00000
      7       3.4868     -0.00000
      8       4.8153     -0.00000

 k-point    81 :       0.2500    0.1875    0.0625
  band No.  band energies     occupation 
      1     -22.0231      2.00000
      2     -22.0093      2.00000
      3     -22.0068      2.00000
      4      -1.5085      2.00000
      5       2.9034     -0.00000
      6       3.5736     -0.00000
      7       3.7550     -0.00000
      8       3.8874     -0.00000

 k-point    82 :       0.3125    0.1875    0.0625
  band No.  band energies     occupation 
      1     -22.0320      2.00000
      2     -22.0124      2.00000
      3     -22.0082      2.00000
      4      -1.1747      2.00000
      5       2.7056     -0.00000
      6       3.4101     -0.00000
      7       3.8003     -0.00000
      8       3.9922     -0.00000

 k-point    83 :       0.3750    0.1875    0.0625
  band No.  band energies     occupation 
      1     -22.0415      2.00000
      2     -22.0150      2.00000
      3     -22.0100      2.00000
      4      -0.7530      2.00000
      5       2.4563     -0.00000
      6       3.2408     -0.00000
      7       3.7600     -0.00000
      8       4.2047     -0.00000

 k-point    84 :       0.4375    0.1875    0.0625
  band No.  band energies     occupation 
      1     -22.0499      2.00000
      2     -22.0172      2.00000
      3     -22.0119      2.00000
      4      -0.2605      2.00000
      5       2.1362     -0.00001
      6       3.1181     -0.00000
      7       3.6966     -0.00000
      8       4.4466     -0.00000

 k-point    85 :       0.5000    0.1875    0.0625
  band No.  band energies     occupation 
      1     -22.0561      2.00000
      2     -22.0190      2.00000
      3     -22.0131      2.00000
      4       0.2744      2.00000
      5       1.7373     -0.04829
      6       3.0504     -0.00000
      7       3.6389     -0.00000
      8       4.6734     -0.00000

 k-point    86 :      -0.4375    0.1875    0.0625
  band No.  band energies     occupation 
      1     -22.0589      2.00000
      2     -22.0204      2.00000
      3     -22.0133      2.00000
      4       0.7747      2.00005
      5       1.3092      1.80638
      6       3.0203     -0.00000
      7       3.6053     -0.00000
      8       4.7821     -0.00000

 k-point    87 :      -0.3750    0.1875    0.0625
  band No.  band energies     occupation 
      1     -22.0581      2.00000
      2     -22.0209      2.00000
      3     -22.0126      2.00000
      4       0.6233      2.00000
      5       1.4544      0.72964
      6       3.0127     -0.00000
      7       3.6061     -0.00000
      8       4.7026     -0.00000

 k-point    88 :      -0.3125    0.1875    0.0625
  band No.  band energies     occupation 
      1     -22.0538      2.00000
      2     -22.0205      2.00000
      3     -22.0110      2.00000
      4       0.0938      2.00000
      5       1.9006     -0.00368
      6       3.0360     -0.00000
      7       3.6434     -0.00000
      8       4.5096     -0.00000

 k-point    89 :      -0.2500    0.1875    0.0625
  band No.  band energies     occupation 
      1     -22.0468      2.00000
      2     -22.0189      2.00000
      3     -22.0090      2.00000
      4      -0.4309      2.00000
      5       2.2785     -0.00000
      6       3.1130     -0.00000
      7       3.7125     -0.00000
      8       4.2774     -0.00000

 k-point    90 :      -0.1875    0.1875    0.0625
  band No.  band energies     occupation 
      1     -22.0383      2.00000
      2     -22.0161      2.00000
      3     -22.0070      2.00000
      4      -0.9027      2.00000
      5       2.5651     -0.00000
      6       3.2511     -0.00000
      7       3.8025     -0.00000
      8       4.0523     -0.00000

 k-point    91 :      -0.1250    0.1875    0.0625
  band No.  band energies     occupation 
      1     -22.0298      2.00000
      2     -22.0123      2.00000
      3     -22.0053      2.00000
      4      -1.2971      2.00000
      5       2.7789     -0.00000
      6       3.4157     -0.00000
      7       3.8333     -0.00000
      8       3.9275     -0.00000

 k-point    92 :       0.3125    0.2500    0.0625
  band No.  band energies     occupation 
      1     -22.0336      2.00000
      2     -22.0139      2.00000
      3     -22.0115      2.00000
      4      -1.0192      2.00000
      5       2.6422     -0.00000
      6       3.3334     -0.00000
      7       3.9418     -0.00000
      8       3.9518     -0.00000

 k-point    93 :       0.3750    0.2500    0.0625
  band No.  band energies     occupation 
      1     -22.0411      2.00000
      2     -22.0173      2.00000
      3     -22.0132      2.00000
      4      -0.6354      2.00000
      5       2.4685     -0.00000
      6       3.1144     -0.00000
      7       3.9441     -0.00000
      8       4.1613     -0.00000

 k-point    94 :       0.4375    0.2500    0.0625
  band No.  band energies     occupation 
      1     -22.0478      2.00000
      2     -22.0205      2.00000
      3     -22.0149      2.00000
      4      -0.1766      2.00000
      5       2.2432     -0.00000
      6       2.9385     -0.00000
      7       3.8952     -0.00000
      8       4.4088     -0.00000

 k-point    95 :       0.5000    0.2500    0.0625
  band No.  band energies     occupation 
      1     -22.0528      2.00000
      2     -22.0237      2.00000
      3     -22.0160      2.00000
      4       0.3351      2.00000
      5       1.9339     -0.00177
      6       2.8343     -0.00000
      7       3.8302     -0.00000
      8       4.6509     -0.00000

 k-point    96 :      -0.4375    0.2500    0.0625
  band No.  band energies     occupation 
      1     -22.0551      2.00000
      2     -22.0265      2.00000
      3     -22.0160      2.00000
      4       0.8640      2.00058
      5       1.5397      0.17056
      6       2.7787     -0.00000
      7       3.7751     -0.00000
      8       4.7562     -0.00000

 k-point    97 :      -0.3750    0.2500    0.0625
  band No.  band energies     occupation 
      1     -22.0547      2.00000
      2     -22.0284      2.00000
      3     -22.0150      2.00000
      4       1.0156      2.01441
      5       1.4307      0.92660
      6       2.7387     -0.00000
      7       3.7494     -0.00000
      8       4.6902     -0.00000

 k-point    98 :      -0.3125    0.2500    0.0625
  band No.  band energies     occupation 
      1     -22.0519      2.00000
      2     -22.0286      2.00000
      3     -22.0132      2.00000
      4       0.5103      2.00000
      5       1.8776     -0.00589
      6       2.7240     -0.00000
      7       3.7597     -0.00000
      8       4.5219     -0.00000

 k-point    99 :      -0.2500    0.2500    0.0625
  band No.  band energies     occupation 
      1     -22.0477      2.00000
      2     -22.0266      2.00000
      3     -22.0110      2.00000
      4      -0.0095      2.00000
      5       2.2303     -0.00000
      6       2.7935     -0.00000
      7       3.7983     -0.00000
      8       4.3065     -0.00000

 k-point   100 :      -0.1875    0.2500    0.0625
  band No.  band energies     occupation 
      1     -22.0430      2.00000
      2     -22.0221      2.00000
      3     -22.0088      2.00000
      4      -0.4901      2.00000
      5       2.4354     -0.00000
      6       2.9961     -0.00000
      7       3.8416     -0.00000
      8       4.1153     -0.00000

 k-point   101 :       0.3750    0.3125    0.0625
  band No.  band energies     occupation 
      1     -22.0438      2.00000
      2     -22.0186      2.00000
      3     -22.0165      2.00000
      4      -0.4269      2.00000
      5       2.4055     -0.00000
      6       2.9835     -0.00000
      7       4.1426     -0.00000
      8       4.2092     -0.00000

 k-point   102 :       0.4375    0.3125    0.0625
  band No.  band energies     occupation 
      1     -22.0488      2.00000
      2     -22.0222      2.00000
      3     -22.0181      2.00000
      4      -0.0114      2.00000
      5       2.2667     -0.00000
      6       2.7782     -0.00000
      7       4.1389     -0.00000
      8       4.4233     -0.00000

 k-point   103 :       0.5000    0.3125    0.0625
  band No.  band energies     occupation 
      1     -22.0520      2.00000
      2     -22.0264      2.00000
      3     -22.0191      2.00000
      4       0.4604      2.00000
      5       2.0725     -0.00004
      6       2.6260     -0.00000
      7       4.0697     -0.00000
      8       4.6633     -0.00000

 k-point   104 :      -0.4375    0.3125    0.0625
  band No.  band energies     occupation 
      1     -22.0526      2.00000
      2     -22.0310      2.00000
      3     -22.0189      2.00000
      4       0.9618      2.00538
      5       1.7876     -0.02675
      6       2.5328     -0.00000
      7       3.9817     -0.00000
      8       4.7643     -0.00000

 k-point   105 :      -0.3750    0.3125    0.0625
  band No.  band energies     occupation 
      1     -22.0509      2.00000
      2     -22.0352      2.00000
      3     -22.0178      2.00000
      4       1.4094      1.10598
      5       1.4608      0.67823
      6       2.4493     -0.00000
      7       3.9102     -0.00000
      8       4.7001     -0.00000

 k-point   106 :      -0.3125    0.3125    0.0625
  band No.  band energies     occupation 
      1     -22.0482      2.00000
      2     -22.0371      2.00000
      3     -22.0158      2.00000
      4       0.9561      2.00480
      5       1.9156     -0.00267
      6       2.3733     -0.00000
      7       3.8750     -0.00000
      8       4.5797     -0.00000

 k-point   107 :      -0.2500    0.3125    0.0625
  band No.  band energies     occupation 
      1     -22.0475      2.00000
      2     -22.0336      2.00000
      3     -22.0134      2.00000
      4       0.4658      2.00000
      5       2.1956     -0.00000
      6       2.4584     -0.00000
      7       3.8498     -0.00000
      8       4.4179     -0.00000

 k-point   108 :       0.4375    0.3750    0.0625
  band No.  band energies     occupation 
      1     -22.0521      2.00000
      2     -22.0226      2.00000
      3     -22.0209      2.00000
      4       0.2261      2.00000
      5       2.2202     -0.00000
      6       2.6304     -0.00000
      7       4.3898     -0.00000
      8       4.5163     -0.00000

 k-point   109 :       0.5000    0.3750    0.0625
  band No.  band energies     occupation 
      1     -22.0543      2.00000
      2     -22.0262      2.00000
      3     -22.0219      2.00000
      4       0.6396      2.00000
      5       2.1216     -0.00001
      6       2.4471     -0.00000
      7       4.3412     -0.00000
      8       4.7200     -0.00000

 k-point   110 :      -0.4375    0.3750    0.0625
  band No.  band energies     occupation 
      1     -22.0539      2.00000
      2     -22.0312      2.00000
      3     -22.0217      2.00000
      4       1.0775      2.03517
      5       1.9684     -0.00077
      6       2.3105     -0.00000
      7       4.2121     -0.00000
      8       4.8320     -0.00000

 k-point   111 :      -0.3750    0.3750    0.0625
  band No.  band energies     occupation 
      1     -22.0506      2.00000
      2     -22.0370      2.00000
      3     -22.0205      2.00000
      4       1.4806      0.52656
      5       1.7687     -0.03420
      6       2.1861     -0.00000
      7       4.0666     -0.00000
      8       4.7820     -0.00000

 k-point   112 :      -0.3125    0.3750    0.0625
  band No.  band energies     occupation 
      1     -22.0450      2.00000
      2     -22.0427      2.00000
      3     -22.0184      2.00000
      4       1.3640      1.46851
      5       1.9402     -0.00153
      6       2.0781     -0.00004
      7       3.9654     -0.00000
      8       4.6908     -0.00000

 k-point   113 :       0.5000    0.4375    0.0625
  band No.  band energies     occupation 
      1     -22.0577      2.00000
      2     -22.0252      2.00000
      3     -22.0238      2.00000
      4       0.8525      2.00043
      5       2.1031     -0.00002
      6       2.2893     -0.00000
      7       4.6012     -0.00000
      8       4.8263     -0.00000

 k-point   114 :      -0.4375    0.4375    0.0625
  band No.  band energies     occupation 
      1     -22.0572      2.00000
      2     -22.0285      2.00000
      3     -22.0239      2.00000
      4       1.1794      2.07087
      5       2.0478     -0.00009
      6       2.1402     -0.00000
      7       4.4598     -0.00000
      8       4.9279     -0.00000

 k-point   115 :      -0.3750    0.4375    0.0625
  band No.  band energies     occupation 
      1     -22.0544      2.00000
      2     -22.0331      2.00000
      3     -22.0226      2.00000
      4       1.4220      1.00019
      5       1.9745     -0.00066
      6       2.0577     -0.00007
      7       4.2496     -0.00000
      8       4.8916     -0.00000

 k-point   116 :      -0.4375    0.5000    0.0625
  band No.  band energies     occupation 
      1     -22.0596      2.00000
      2     -22.0261      2.00000
      3     -22.0248      2.00000
      4       1.1900      2.06950
      5       2.0631     -0.00006
      6       2.0763     -0.00004
      7       4.6765     -0.00000
      8       4.9845     -0.00000

 k-point   117 :       0.3750    0.2500    0.1250
  band No.  band energies     occupation 
      1     -22.0383      2.00000
      2     -22.0172      2.00000
      3     -22.0095      2.00000
      4      -0.8172      2.00000
      5       2.5541     -0.00000
      6       3.1907     -0.00000
      7       3.9138     -0.00000
      8       4.0165     -0.00000

 k-point   118 :       0.4375    0.2500    0.1250
  band No.  band energies     occupation 
      1     -22.0448      2.00000
      2     -22.0213      2.00000
      3     -22.0114      2.00000
      4      -0.3783      2.00000
      5       2.3623     -0.00000
      6       2.9838     -0.00000
      7       3.8599     -0.00000
      8       4.2204     -0.00000

 k-point   119 :       0.5000    0.2500    0.1250
  band No.  band energies     occupation 
      1     -22.0505      2.00000
      2     -22.0243      2.00000
      3     -22.0134      2.00000
      4       0.1217      2.00000
      5       2.0779     -0.00004
      6       2.8556     -0.00000
      7       3.7883     -0.00000
      8       4.4532     -0.00000

 k-point   120 :      -0.4375    0.2500    0.1250
  band No.  band energies     occupation 
      1     -22.0543      2.00000
      2     -22.0260      2.00000
      3     -22.0149      2.00000
      4       0.6507      2.00000
      5       1.6885     -0.06782
      6       2.8097     -0.00000
      7       3.7322     -0.00000
      8       4.6442     -0.00000

 k-point   121 :      -0.3750    0.2500    0.1250
  band No.  band energies     occupation 
      1     -22.0557      2.00000
      2     -22.0265      2.00000
      3     -22.0154      2.00000
      4       1.0764      2.03471
      5       1.3115      1.79496
      6       2.8023     -0.00000
      7       3.7101     -0.00000
      8       4.7063     -0.00000

 k-point   122 :       0.4375    0.3125    0.1250
  band No.  band energies     occupation 
      1     -22.0457      2.00000
      2     -22.0221      2.00000
      3     -22.0148      2.00000
      4      -0.2364      2.00000
      5       2.3486     -0.00000
      6       2.8814     -0.00000
      7       4.0168     -0.00000
      8       4.2553     -0.00000

 k-point   123 :       0.5000    0.3125    0.1250
  band No.  band energies     occupation 
      1     -22.0494      2.00000
      2     -22.0264      2.00000
      3     -22.0166      2.00000
      4       0.2277      2.00000
      5       2.1865     -0.00000
      6       2.6880     -0.00000
      7       3.9664     -0.00000
      8       4.4550     -0.00000

 k-point   124 :      -0.4375    0.3125    0.1250
  band No.  band energies     occupation 
      1     -22.0515      2.00000
      2     -22.0300      2.00000
      3     -22.0180      2.00000
      4       0.7304      2.00001
      5       1.9121     -0.00288
      6       2.5950     -0.00000
      7       3.8778     -0.00000
      8       4.6370     -0.00000

 k-point   125 :      -0.3750    0.3125    0.1250
  band No.  band energies     occupation 
      1     -22.0518      2.00000
      2     -22.0326      2.00000
      3     -22.0183      2.00000
      4       1.2349      2.03407
      5       1.5281      0.22740
      6       2.5596     -0.00000
      7       3.8069     -0.00000
      8       4.6796     -0.00000

 k-point   126 :      -0.3125    0.3125    0.1250
  band No.  band energies     occupation 
      1     -22.0508      2.00000
      2     -22.0335      2.00000
      3     -22.0174      2.00000
      4       1.0631      2.02929
      5       1.7015     -0.06374
      6       2.5296     -0.00000
      7       3.8018     -0.00000
      8       4.6418     -0.00000

 k-point   127 :      -0.2500    0.3125    0.1250
  band No.  band energies     occupation 
      1     -22.0492      2.00000
      2     -22.0318      2.00000
      3     -22.0156      2.00000
      4       0.5616      2.00000
      5       2.0747     -0.00004
      6       2.5413     -0.00000
      7       3.8474     -0.00000
      8       4.5044     -0.00000

 k-point   128 :      -0.1875    0.3125    0.1250
  band No.  band energies     occupation 
      1     -22.0473      2.00000
      2     -22.0274      2.00000
      3     -22.0134      2.00000
      4       0.0683      2.00000
      5       2.2730     -0.00000
      6       2.7090     -0.00000
      7       3.8873     -0.00000
      8       4.3252     -0.00000

 k-point   129 :       0.5000    0.3750    0.1250
  band No.  band energies     occupation 
      1     -22.0512      2.00000
      2     -22.0263      2.00000
      3     -22.0199      2.00000
      4       0.4045      2.00000
      5       2.1864     -0.00000
      6       2.5645     -0.00000
      7       4.1577     -0.00000
      8       4.5415     -0.00000

 k-point   130 :      -0.4375    0.3750    0.1250
  band No.  band energies     occupation 
      1     -22.0518      2.00000
      2     -22.0307      2.00000
      3     -22.0212      2.00000
      4       0.8597      2.00052
      5       2.0578     -0.00007
      6       2.4050     -0.00000
      7       4.0355     -0.00000
      8       4.7096     -0.00000

 k-point   131 :      -0.3750    0.3750    0.1250
  band No.  band energies     occupation 
      1     -22.0501      2.00000
      2     -22.0355      2.00000
      3     -22.0213      2.00000
      4       1.3164      1.77012
      5       1.8183     -0.01696
      6       2.3248     -0.00000
      7       3.8756     -0.00000
      8       4.7643     -0.00000

 k-point   132 :      -0.3125    0.3750    0.1250
  band No.  band energies     occupation 
      1     -22.0467      2.00000
      2     -22.0399      2.00000
      3     -22.0202      2.00000
      4       1.4350      0.89036
      5       1.7901     -0.02585
      6       2.2401     -0.00000
      7       3.8054     -0.00000
      8       4.7330     -0.00000

 k-point   133 :      -0.2500    0.3750    0.1250
  band No.  band energies     occupation 
      1     -22.0466      2.00000
      2     -22.0385      2.00000
      3     -22.0181      2.00000
      4       1.0210      2.01574
      5       2.1054     -0.00002
      6       2.2127     -0.00000
      7       3.8344     -0.00000
      8       4.6273     -0.00000

 k-point   134 :      -0.4375    0.4375    0.1250
  band No.  band energies     occupation 
      1     -22.0546      2.00000
      2     -22.0291      2.00000
      3     -22.0236      2.00000
      4       1.0224      2.01609
      5       2.0833     -0.00003
      6       2.2598     -0.00000
      7       4.2307     -0.00000
      8       4.8336     -0.00000

 k-point   135 :      -0.3750    0.4375    0.1250
  band No.  band energies     occupation 
      1     -22.0525      2.00000
      2     -22.0333      2.00000
      3     -22.0239      2.00000
      4       1.3889      1.27566
      5       1.9992     -0.00035
      6       2.1324     -0.00001
      7       3.9938     -0.00000
      8       4.9119     -0.00000

 k-point   136 :      -0.3125    0.4375    0.1250
  band No.  band energies     occupation 
      1     -22.0486      2.00000
      2     -22.0385      2.00000
      3     -22.0225      2.00000
      4       1.6001     -0.01950
      5       1.9220     -0.00231
      6       2.0474     -0.00009
      7       3.8281     -0.00000
      8       4.8693     -0.00000

 k-point   137 :      -0.3750    0.5000    0.1250
  band No.  band energies     occupation 
      1     -22.0557      2.00000
      2     -22.0301      2.00000
      3     -22.0249      2.00000
      4       1.3661      1.45326
      5       2.0479     -0.00009
      6       2.0565     -0.00007
      7       4.2226     -0.00000
      8       4.9850     -0.00000

 k-point   138 :      -0.4375    0.3750    0.1875
  band No.  band energies     occupation 
      1     -22.0494      2.00000
      2     -22.0319      2.00000
      3     -22.0187      2.00000
      4       0.6813      2.00000
      5       2.1440     -0.00000
      6       2.4350     -0.00000
      7       3.9229     -0.00000
      8       4.5789     -0.00000

 k-point   139 :      -0.3750    0.3750    0.1875
  band No.  band energies     occupation 
      1     -22.0484      2.00000
      2     -22.0362      2.00000
      3     -22.0205      2.00000
      4       1.1464      2.06510
      5       1.9554     -0.00106
      6       2.3290     -0.00000
      7       3.7965     -0.00000
      8       4.7132     -0.00000

 k-point   140 :      -0.3125    0.3750    0.1875
  band No.  band energies     occupation 
      1     -22.0477      2.00000
      2     -22.0381      2.00000
      3     -22.0212      2.00000
      4       1.5156      0.29564
      5       1.6623     -0.07074
      6       2.3325     -0.00000
      7       3.7243     -0.00000
      8       4.7465     -0.00000

 k-point   141 :      -0.3750    0.4375    0.1875
  band No.  band energies     occupation 
      1     -22.0499      2.00000
      2     -22.0349      2.00000
      3     -22.0232      2.00000
      4       1.2665      1.96805
      5       2.0615     -0.00006
      6       2.1976     -0.00000
      7       3.8267     -0.00000
      8       4.8435     -0.00000

 k-point   142 :      -0.3125    0.4375    0.1875
  band No.  band energies     occupation 
      1     -22.0465      2.00000
      2     -22.0394      2.00000
      3     -22.0239      2.00000
      4       1.5997     -0.01879
      5       1.9353     -0.00171
      6       2.1312     -0.00001
      7       3.6346     -0.00000
      8       4.9069     -0.00000

 k-point   143 :      -0.2500    0.4375    0.1875
  band No.  band energies     occupation 
      1     -22.0443      2.00000
      2     -22.0417      2.00000
      3     -22.0228      2.00000
      4       1.5111      0.32249
      5       2.0479     -0.00009
      6       2.0595     -0.00006
      7       3.6467     -0.00000
      8       4.8549     -0.00000

 k-point   144 :      -0.3125    0.5000    0.1875
  band No.  band energies     occupation 
      1     -22.0498      2.00000
      2     -22.0359      2.00000
      3     -22.0251      2.00000
      4       1.5946     -0.00902
      5       2.0332     -0.00014
      6       2.0370     -0.00012
      7       3.7278     -0.00000
      8       4.9855     -0.00000

 k-point   145 :      -0.2500    0.5000    0.2500
  band No.  band energies     occupation 
      1     -22.0429      2.00000
      2     -22.0429      2.00000
      3     -22.0251      2.00000
      4       1.7178     -0.05715
      5       2.0281     -0.00016
      6       2.0281     -0.00016
      7       3.5027     -0.00000
      8       4.9857     -0.00000


--------------------------------------------------------------------------------------------------------


 soft charge-density along one line, spin component            1
         0         1         2         3         4         5         6         7         8         9
 total charge-density along one line
 
 pseudopotential strength for first ion, spin component:            1
-20.979  -0.000  -0.000   3.179   0.000   0.000  -0.000  -0.000
 -0.000 -20.979  -0.000   0.000   3.179   0.000  -0.000  -0.000
 -0.000  -0.000 -20.979   0.000   0.000   3.179   0.000   0.000
  3.179   0.000   0.000   5.623   0.000   0.000  -0.000  -0.000
  0.000   3.179   0.000   0.000   5.623   0.000  -0.000  -0.000
  0.000   0.000   3.179   0.000   0.000   5.623   0.000   0.000
 -0.000  -0.000   0.000  -0.000  -0.000   0.000   3.498   7.492
 -0.000  -0.000   0.000  -0.000  -0.000   0.000   7.492  16.076
 -0.000   0.000   0.000   0.000  -0.000  -0.000   0.000   0.000
  0.000   0.000   0.000  -0.000  -0.000  -0.000   0.000   0.000
 -0.000   0.000   0.000   0.000  -0.000  -0.000   0.000   0.000
  0.000   0.000  -0.000  -0.000  -0.000   0.000   0.000   0.000
 -0.000  -0.000  -0.000   0.000   0.000   0.000  -0.000  -0.000
 -0.000   0.000   0.000   0.000  -0.000  -0.000   0.000   0.000
  0.000   0.000   0.000  -0.000  -0.000  -0.000   0.000   0.000
 -0.000   0.000   0.000   0.000  -0.000  -0.000   0.000   0.000
  0.000   0.000  -0.000  -0.000  -0.000   0.000   0.000   0.000
 -0.000  -0.000  -0.000   0.000   0.000   0.000  -0.000  -0.000
 total augmentation occupancy for first ion, spin component:            1
  2.002  -0.000  -0.000   0.006  -0.000  -0.000   0.000   0.000   0.000   0.000   0.000   0.000   0.000   0.000   0.000   0.000
 -0.000   2.002  -0.000  -0.000   0.006  -0.000   0.000   0.000   0.000   0.000   0.000   0.000   0.000   0.000   0.000   0.000
 -0.000  -0.000   2.002  -0.000  -0.000   0.006   0.000   0.000   0.000   0.000   0.000   0.000   0.000   0.000   0.000   0.000
  0.006  -0.000  -0.000   0.056  -0.000  -0.000   0.000   0.000   0.000   0.000   0.000   0.000   0.000   0.000   0.000   0.000
 -0.000   0.006  -0.000  -0.000   0.056  -0.000   0.000   0.000   0.000   0.000   0.000   0.000   0.000   0.000   0.000   0.000
 -0.000  -0.000   0.006  -0.000  -0.000   0.056   0.000   0.000   0.000   0.000   0.000   0.000   0.000   0.000   0.000   0.000
  0.000   0.000   0.000   0.000   0.000   0.000   1.183  -0.041   0.000   0.000  -0.000   0.000  -0.000  -0.000  -0.000   0.000
  0.000   0.000   0.000   0.000   0.000   0.000  -0.041   0.002  -0.000  -0.000   0.000  -0.000   0.000   0.000   0.000  -0.000
  0.000   0.000   0.000   0.000   0.000   0.000   0.000  -0.000   0.077  -0.000  -0.008  -0.000   0.005  -0.015   0.000   0.001
  0.000   0.000   0.000   0.000   0.000   0.000   0.000  -0.000  -0.000   0.077  -0.000  -0.009   0.000   0.000  -0.015   0.000
  0.000   0.000   0.000   0.000   0.000   0.000  -0.000   0.000  -0.008  -0.000   0.069  -0.000  -0.003   0.001   0.000  -0.015
  0.000   0.000   0.000   0.000   0.000   0.000   0.000  -0.000  -0.000  -0.009  -0.000   0.071  -0.000   0.000   0.001   0.000
  0.000   0.000   0.000   0.000   0.000   0.000  -0.000   0.000   0.005   0.000  -0.003  -0.000   0.066  -0.000  -0.000   0.000
  0.000   0.000   0.000   0.000   0.000   0.000  -0.000   0.000  -0.015   0.000   0.001   0.000  -0.000   0.003  -0.000   0.000
  0.000   0.000   0.000   0.000   0.000   0.000  -0.000   0.000   0.000  -0.015   0.000   0.001  -0.000  -0.000   0.003  -0.000
  0.000   0.000   0.000   0.000   0.000   0.000   0.000  -0.000   0.001   0.000  -0.015   0.000   0.000   0.000  -0.000   0.003
  0.000   0.000   0.000   0.000   0.000   0.000  -0.000   0.000   0.000   0.001   0.000  -0.015   0.000  -0.000   0.000  -0.000
  0.000   0.000   0.000   0.000   0.000   0.000   0.000  -0.000  -0.000  -0.000   0.000   0.000  -0.014  -0.000   0.000   0.000


------------------------ aborting loop because EDIFF is reached ----------------------------------------


    CHARGE:  cpu time      0.1858: real time      0.1833
    FORLOC:  cpu time      0.0022: real time      0.0022
    FORNL :  cpu time      0.5298: real time      0.5168
    STRESS:  cpu time      3.5011: real time      3.3070
    FORCOR:  cpu time      0.0061: real time      0.0051
    FORHAR:  cpu time      0.0014: real time      0.0014
    MIXING:  cpu time      0.0028: real time      0.0018
    OFIELD:  cpu time      0.0000: real time      0.0000

  FORCE on cell =-STRESS in cart. coord.  units (eV):
  Direction    XX          YY          ZZ          XY          YZ          ZX
  --------------------------------------------------------------------------------------
  Alpha Z    14.31440    14.31440    14.31440
  Ewald    -119.12940  -119.12936  -119.12940     0.00000     0.00002     0.00002
  Hartree    52.65781    52.65782    52.65781    -0.00000     0.00000     0.00000
  E(xc)     -30.96682   -30.96682   -30.96683    -0.00000    -0.00000    -0.00000
  Local     -13.07683   -13.07685   -13.07681     0.00002     0.00001     0.00002
  n-local     3.65315     6.05666     6.98936     0.03459    -0.11948    -0.11814
  augment    61.16346    61.16345    61.16344    -0.00001    -0.00002    -0.00003
  Kinetic    32.34416    27.54133    26.08843    -0.43835     0.28720     0.42862
  Fock        0.00000     0.00000     0.00000     0.00000     0.00000     0.00000
  -------------------------------------------------------------------------------------
  Total      -0.81302    -0.81302    -0.81302     0.00000     0.00000     0.00000
  in kB     -25.22283   -25.22282   -25.22283     0.00000     0.00001     0.00001
  external pressure =      -25.22 kB  Pullay stress =        0.00 kB


 VOLUME and BASIS-vectors are now :
 -----------------------------------------------------------------------------
  energy-cutoff  :      400.00
  volume of cell :       51.64
      direct lattice vectors                 reciprocal lattice vectors
     3.619993821 -0.000000021  2.090003410     0.276243564 -0.097666841  0.000000001
     1.206664229  3.412962136  2.090003410     0.000000001  0.293000612  0.000000001
    -0.000000021 -0.000000021  4.180009035    -0.138121709 -0.097666834  0.239233931

  length of vectors
     4.180008315  4.180007578  4.180009035     0.293000544  0.293000612  0.293000497


 FORCES acting on ions
    electron-ion (+dipol)            ewald-force                    non-local-force                 convergence-correction
 -----------------------------------------------------------------------------------------------
   -.238E-15 0.956E-15 -.727E-14   -.552E-15 -.189E-15 -.283E-15   0.403E-23 0.000E+00 -.331E-23   -.302E-14 -.165E-14 -.279E-14
 -----------------------------------------------------------------------------------------------
   -.238E-15 0.956E-15 -.727E-14   -.552E-15 -.189E-15 -.283E-15   0.403E-23 0.000E+00 -.331E-23   -.302E-14 -.165E-14 -.279E-14
 
 
 POSITION                                       TOTAL-FORCE (eV/Angst)
 -----------------------------------------------------------------------------------
      0.00000      0.00000      0.00000        -0.000000      0.000000     -0.000000
 -----------------------------------------------------------------------------------
    total drift:                               -0.000000     -0.000000     -0.000000


--------------------------------------------------------------------------------------------------------



  FREE ENERGIE OF THE ION-ELECTRON SYSTEM (eV)
  ---------------------------------------------------
  free  energy   TOTEN  =        -1.83393784 eV

  energy  without entropy=       -1.83160951  energy(sigma->0) =       -1.83316173
 


--------------------------------------------------------------------------------------------------------


    POTLOK:  cpu time      0.0156: real time      0.0107


--------------------------------------------------------------------------------------------------------


     LOOP+:  cpu time     24.8136: real time     24.5334
    4ORBIT:  cpu time      0.0000: real time      0.0000

 total amount of memory used by VASP MPI-rank0    83938. kBytes
=======================================================================

   base      :      30000. kBytes
   nonl-proj :      20060. kBytes
   fftplans  :       6192. kBytes
   grid      :       9520. kBytes
   one-center:         15. kBytes
   wavefun   :      18151. kBytes
 
  
  
 General timing and accounting informations for this job:
 ========================================================
  
                  Total CPU time used (sec):       26.198
                            User time (sec):       25.397
                          System time (sec):        0.801
                         Elapsed time (sec):       25.807
  
                   Maximum memory used (kb):     1571700.
                   Average memory used (kb):          N/A
  
                          Minor page faults:       403768
                          Major page faults:            0
                 Voluntary context switches:        23675
