    2    2    1    1
  0.6339706E+02  0.5023808E-09  0.5023808E-09  0.5023808E-09  0.5000000E-15
   1.0000000000000000E-004
  CAR 
 unknown system                          
     20     84     14
 
  0.1262379E-14  0.1262379E-14  0.1262379E-14  0.4551661E-03
      1        -27.270006   1.000000
      2        -27.196551   1.000000
      3        -12.535321   1.000000
      4        -12.535321   1.000000
      5        -12.535321   1.000000
      6        -12.222430   1.000000
      7        -12.222430   1.000000
      8        -12.222430   1.000000
      9         -1.122372   1.000000
     10          1.089963   1.000706
     11          1.089963   1.000706
     12          3.448384  -0.000000
     13          3.448384  -0.000000
     14          3.448384  -0.000000
 
  0.7692308E-01  0.1262379E-14  0.1262379E-14  0.2730997E-02
      1        -27.268791   1.000000
      2        -27.197470   1.000000
      3        -12.535568   1.000000
      4        -12.530607   1.000000
      5        -12.530607   1.000000
      6        -12.232218   1.000000
      7        -12.226767   1.000000
      8        -12.226767   1.000000
      9         -1.066749   1.000000
     10          1.121274   1.001435
     11          1.126891   1.001621
     12          3.429806  -0.000000
     13          3.429806  -0.000000
     14          3.476050  -0.000000
 
  0.1538462E+00  0.1262379E-14  0.1262379E-14  0.2730997E-02
      1        -27.265245   1.000000
      2        -27.200191   1.000000
      3        -12.535478   1.000000
      4        -12.516758   1.000000
      5        -12.516758   1.000000
      6        -12.259991   1.000000
      7        -12.239572   1.000000
      8        -12.239572   1.000000
      9         -0.903480   1.000000
     10          1.215037   1.008457
     11          1.222151   1.009455
     12          3.384293  -0.000000
     13          3.384293  -0.000000
     14          4.371024  -0.000000
 
  0.2307692E+00  0.1262379E-14  0.1262379E-14  0.2730997E-02
      1        -27.259638   1.000000
      2        -27.204632   1.000000
      3        -12.532870   1.000000
      4        -12.494642   1.000000
      5        -12.494642   1.000000
      6        -12.301331   1.000000
      7        -12.260217   1.000000
      8        -12.260217   1.000000
      9         -0.643087   1.000000
     10          1.324800   1.030479
     11          1.370620   1.035393
     12          3.336254  -0.000000
     13          3.336254  -0.000000
     14          3.930509  -0.000000
 
  0.3076923E+00  0.1262379E-14  0.1262379E-14  0.2730997E-02
      1        -27.252398   1.000000
      2        -27.210640   1.000000
      3        -12.524804   1.000000
      4        -12.465648   1.000000
      5        -12.465648   1.000000
      6        -12.350152   1.000000
      7        -12.287648   1.000000
      8        -12.287648   1.000000
      9         -0.302619   1.000000
     10          1.347449   1.034223
     11          1.586855   0.603545
     12          3.312528  -0.000000
     13          3.312528  -0.000000
     14          3.460866  -0.000000
 
  0.3846154E+00  0.1262379E-14  0.1262379E-14  0.2730997E-02
      1        -27.244042   1.000000
      2        -27.217974   1.000000
      3        -12.508466   1.000000
      4        -12.431579   1.000000
      5        -12.431579   1.000000
      6        -12.399982   1.000000
      7        -12.320423   1.000000
      8        -12.320423   1.000000
      9          0.094053   1.000000
     10          1.208677   1.007632
     11          1.861903  -0.035349
     12          3.001991  -0.000000
     13          3.335197  -0.000000
     14          3.335197  -0.000000
 
  0.4615385E+00  0.1262379E-14  0.1262379E-14  0.2730997E-02
      1        -27.235150   1.000000
      2        -27.226287   1.000000
      3        -12.482009   1.000000
      4        -12.445226   1.000000
      5        -12.394531   1.000000
      6        -12.394531   1.000000
      7        -12.356735   1.000000
      8        -12.356735   1.000000
      9          0.513785   1.000000
     10          0.908244   1.000004
     11          2.192886  -0.000156
     12          2.575309  -0.000000
     13          3.419611  -0.000000
     14          3.419612  -0.000000
 
  0.7692308E-01  0.7692308E-01  0.1262379E-14  0.5461994E-02
      1        -27.267608   1.000000
      2        -27.198355   1.000000
      3        -12.543415   1.000000
      4        -12.526009   1.000000
      5        -12.518489   1.000000
      6        -12.250158   1.000000
      7        -12.230958   1.000000
      8        -12.222590   1.000000
      9         -1.012025   1.000000
     10          1.153617   1.002814
     11          1.162338   1.003338
     12          3.357083  -0.000000
     13          3.401279  -0.000000
     14          3.560472  -0.000000
 
  0.1538462E+00  0.7692308E-01  0.1262379E-14  0.1092399E-01
      1        -27.264148   1.000000
      2        -27.200984   1.000000
      3        -12.549490   1.000000
      4        -12.512494   1.000000
      5        -12.499059   1.000000
      6        -12.283743   1.000000
      7        -12.243333   1.000000
      8        -12.228512   1.000000
      9         -0.851463   1.000000
     10          1.241756   1.012624
     11          1.261277   1.016372
     12          3.273942  -0.000000
     13          3.327812  -0.000000
     14          3.687338  -0.000000
 
  0.2307692E+00  0.7692308E-01  0.1262379E-14  0.1092399E-01
      1        -27.258687   1.000000
      2        -27.205276   1.000000
      3        -12.550926   1.000000
      4        -12.490936   1.000000
      5        -12.473871   1.000000
      6        -12.327862   1.000000
      7        -12.263294   1.000000
      8        -12.244738   1.000000
      9         -0.595697   1.000000
     10          1.352277   1.034744
     11          1.403236   1.028914
     12          3.207829  -0.000000
     13          3.228489  -0.000000
     14          3.863395  -0.000000
 
  0.3076923E+00  0.7692308E-01  0.1262379E-14  0.1092399E-01
      1        -27.251635   1.000000
      2        -27.211090   1.000000
      3        -12.545692   1.000000
      4        -12.462695   1.000000
      5        -12.443398   1.000000
      6        -12.377544   1.000000
      7        -12.289843   1.000000
      8        -12.269271   1.000000
      9         -0.261847   1.000000
     10          1.372831   1.035301
     11          1.607980   0.515033
     12          3.090195  -0.000000
     13          3.175581  -0.000000
     14          3.730308  -0.000000
 
  0.3846154E+00  0.7692308E-01  0.1262379E-14  0.1092399E-01
      1        -27.243503   1.000000
      2        -27.218190   1.000000
      3        -12.531511   1.000000
      4        -12.429541   1.000000
      5        -12.427096   1.000000
      6        -12.408861   1.000000
      7        -12.321598   1.000000
      8        -12.300068   1.000000
      9          0.126478   1.000000
     10          1.227425   1.010247
     11          1.868472  -0.034948
     12          2.847267  -0.000000
     13          3.193412  -0.000000
     14          3.548031  -0.000000
 
  0.4615385E+00  0.7692308E-01  0.1262379E-14  0.1092399E-01
      1        -27.234859   1.000000
      2        -27.226254   1.000000
      3        -12.506788   1.000000
      4        -12.471400   1.000000
      5        -12.393515   1.000000
      6        -12.372048   1.000000
      7        -12.356816   1.000000
      8        -12.335052   1.000000
      9          0.537402   1.000000
     10          0.925861   1.000007
     11          2.176064  -0.000243
     12          2.515385  -0.000000
     13          3.273728  -0.000000
     14          3.424528  -0.000000
 
  0.1538462E+00  0.1538462E+00  0.1262379E-14  0.5461994E-02
      1        -27.260955   1.000000
      2        -27.203341   1.000000
      3        -12.565687   1.000000
      4        -12.500002   1.000000
      5        -12.471288   1.000000
      6        -12.325634   1.000000
      7        -12.254443   1.000000
      8        -12.223043   1.000000
      9         -0.699219   1.000000
     10          1.309733   1.027248
     11          1.372886   1.035298
     12          3.129997  -0.000000
     13          3.196152  -0.000000
     14          3.891989  -0.000000
 
  0.2307692E+00  0.1538462E+00  0.1262379E-14  0.1092399E-01
      1        -27.255911   1.000000
      2        -27.207195   1.000000
      3        -12.576358   1.000000
      4        -12.480101   1.000000
      5        -12.439787   1.000000
      6        -12.375374   1.000000
      7        -12.272402   1.000000
      8        -12.228915   1.000000
      9         -0.457881   1.000000
     10          1.392238   1.032459
     11          1.523860   0.834393
     12          3.016321  -0.000000
     13          3.038251  -0.000000
     14          3.962765  -0.000000
 
  0.3076923E+00  0.1538462E+00  0.1262379E-14  0.1092399E-01
      1        -27.249415   1.000000
      2        -27.212433   1.000000
      3        -12.578923   1.000000
      4        -12.454075   1.000000
      5        -12.427684   1.000000
      6        -12.405513   1.000000
      7        -12.296357   1.000000
      8        -12.244901   1.000000
      9         -0.145130   1.000000
     10          1.400883   1.029807
     11          1.701977   0.157262
     12          2.866270  -0.000000
     13          2.949612  -0.000000
     14          3.617706  -0.000000
 
  0.3846154E+00  0.1538462E+00  0.1262379E-14  0.1092399E-01
      1        -27.241948   1.000000
      2        -27.218858   1.000000
      3        -12.571114   1.000000
      4        -12.477310   1.000000
      5        -12.423609   1.000000
      6        -12.369596   1.000000
      7        -12.325118   1.000000
      8        -12.269102   1.000000
      9          0.215616   1.000000
     10          1.247798   1.013724
     11          1.919746  -0.025790
     12          2.665705  -0.000000
     13          2.941721  -0.000000
     14          3.339021  -0.000000
 
  0.4615385E+00  0.1538462E+00  0.1262379E-14  0.1092399E-01
      1        -27.234031   1.000000
      2        -27.226182   1.000000
      3        -12.551412   1.000000
      4        -12.519631   1.000000
      5        -12.390623   1.000000
      6        -12.357133   1.000000
      7        -12.333585   1.000000
      8        -12.299388   1.000000
      9          0.595293   1.000000
     10          0.956761   1.000019
     11          2.169015  -0.000292
     12          2.427305  -0.000000
     13          3.001151  -0.000000
     14          3.132976  -0.000000
 
  0.2307692E+00  0.2307692E+00  0.1262379E-14  0.5461994E-02
      1        -27.251546   1.000000
      2        -27.210350   1.000000
      3        -12.596758   1.000000
      4        -12.462877   1.000000
      5        -12.428868   1.000000
      6        -12.403349   1.000000
      7        -12.287196   1.000000
      8        -12.223708   1.000000
      9         -0.242287   1.000000
     10          1.412611   1.024559
     11          1.700853   0.160625
     12          2.856823  -0.000000
     13          2.859858  -0.000000
     14          3.597902  -0.000000
 
  0.3076923E+00  0.2307692E+00  0.1262379E-14  0.1092399E-01
      1        -27.245940   1.000000
      2        -27.214673   1.000000
      3        -12.608450   1.000000
      4        -12.482324   1.000000
      5        -12.440452   1.000000
      6        -12.366497   1.000000
      7        -12.307031   1.000000
      8        -12.229355   1.000000
      9          0.031503   1.000000
     10          1.362896   1.035407
     11          1.888142  -0.032374
     12          2.707250  -0.000000
     13          2.750978  -0.000000
     14          3.279654  -0.000000
 
  0.3846154E+00  0.2307692E+00  0.1262379E-14  0.1092399E-01
      1        -27.239537   1.000000
      2        -27.220014   1.000000
      3        -12.608741   1.000000
      4        -12.530595   1.000000
      5        -12.414331   1.000000
      6        -12.331003   1.000000
      7        -12.330591   1.000000
      8        -12.244640   1.000000
      9          0.339323   1.000000
     10          1.203314   1.006985
     11          2.070841  -0.002737
     12          2.567344  -0.000000
     13          2.709833  -0.000000
     14          3.026263  -0.000000
 
  0.4615385E+00  0.2307692E+00  0.1262379E-14  0.1092399E-01
      1        -27.232793   1.000000
      2        -27.226154   1.000000
      3        -12.595860   1.000000
      4        -12.569402   1.000000
      5        -12.386223   1.000000
      6        -12.357892   1.000000
      7        -12.297129   1.000000
      8        -12.267851   1.000000
      9          0.655498   1.000000
     10          0.953924   1.000017
     11          2.250516  -0.000030
     12          2.418508  -0.000000
     13          2.740165  -0.000000
     14          2.851515  -0.000000
 
  0.3076923E+00  0.3076923E+00  0.1262379E-14  0.5461994E-02
      1        -27.241521   1.000000
      2        -27.217785   1.000000
      3        -12.629330   1.000000
      4        -12.534709   1.000000
      5        -12.422835   1.000000
      6        -12.329336   1.000000
      7        -12.321503   1.000000
      8        -12.224432   1.000000
      9          0.244732   1.000000
     10          1.254299   1.014969
     11          2.107396  -0.001269
     12          2.608184  -0.000000
     13          2.613333  -0.000000
     14          2.987943  -0.000000
 
  0.3846154E+00  0.3076923E+00  0.1262379E-14  0.1092399E-01
      1        -27.236518   1.000000
      2        -27.221696   1.000000
      3        -12.638318   1.000000
      4        -12.579741   1.000000
      5        -12.402512   1.000000
      6        -12.339220   1.000000
      7        -12.295622   1.000000
      8        -12.229784   1.000000
      9          0.470455   1.000000
     10          1.093102   1.000760
     11          2.299630  -0.000006
     12          2.533171  -0.000000
     13          2.564470  -0.000000
     14          2.761425  -0.000000
 
  0.4615385E+00  0.3076923E+00  0.1262379E-14  0.1092399E-01
      1        -27.231321   1.000000
      2        -27.226282   1.000000
      3        -12.633270   1.000000
      4        -12.613447   1.000000
      5        -12.380889   1.000000
      6        -12.359372   1.000000
      7        -12.266803   1.000000
      8        -12.244366   1.000000
      9          0.691738   1.000000
     10          0.901103   1.000003
     11          2.438088  -0.000000
     12          2.519991  -0.000000
     13          2.532283  -0.000000
     14          2.608404  -0.000000
 
  0.3846154E+00  0.3846154E+00  0.1262379E-14  0.5461994E-02
      1        -27.233184   1.000000
      2        -27.223927   1.000000
      3        -12.656021   1.000000
      4        -12.619780   1.000000
      5        -12.389139   1.000000
      6        -12.349600   1.000000
      7        -12.266408   1.000000
      8        -12.225048   1.000000
      9          0.592431   1.000000
     10          0.958576   1.000020
     11          2.425350  -0.000000
     12          2.521901  -0.000000
     13          2.562895  -0.000000
     14          2.627861  -0.000000
 
  0.4615385E+00  0.3846154E+00  0.1262379E-14  0.1092399E-01
      1        -27.229816   1.000000
      2        -27.226671   1.000000
      3        -12.659290   1.000000
      4        -12.647030   1.000000
      5        -12.375251   1.000000
      6        -12.361806   1.000000
      7        -12.244205   1.000000
      8        -12.230097   1.000000
      9          0.707512   1.000000
     10          0.827407   1.000000
     11          2.392992  -0.000000
     12          2.438926  -0.000000
     13          2.661203  -0.000000
     14          2.686114  -0.000000
 
  0.4615385E+00  0.4615385E+00  0.1262379E-14  0.5461994E-02
      1        -27.228463   1.000000
      2        -27.227393   1.000000
      3        -12.670965   1.000000
      4        -12.666820   1.000000
      5        -12.369908   1.000000
      6        -12.365335   1.000000
      7        -12.230214   1.000000
      8        -12.225404   1.000000
      9          0.725590   1.000000
     10          0.764312   1.000000
     11          2.329508  -0.000002
     12          2.344852  -0.000001
     13          2.812973  -0.000000
     14          2.816065  -0.000000
 
  0.7692308E-01  0.7692308E-01  0.7692308E-01  0.3641329E-02
      1        -27.266453   1.000000
      2        -27.199209   1.000000
      3        -12.538589   1.000000
      4        -12.538589   1.000000
      5        -12.502166   1.000000
      6        -12.267065   1.000000
      7        -12.227050   1.000000
      8        -12.227050   1.000000
      9         -0.958067   1.000000
     10          1.191763   1.005734
     11          1.191763   1.005734
     12          3.326973  -0.000000
     13          3.326973  -0.000000
     14          3.645256  -0.000000
 
  0.1538462E+00  0.7692308E-01  0.7692308E-01  0.1092399E-01
      1        -27.263081   1.000000
      2        -27.201748   1.000000
      3        -12.550155   1.000000
      4        -12.524413   1.000000
      5        -12.478850   1.000000
      6        -12.302121   1.000000
      7        -12.240211   1.000000
      8        -12.229285   1.000000
      9         -0.799875   1.000000
     10          1.279584   1.020333
     11          1.289769   1.022658
     12          3.220404  -0.000000
     13          3.245409  -0.000000
     14          3.797505  -0.000000
 
  0.2307692E+00  0.7692308E-01  0.7692308E-01  0.1092399E-01
      1        -27.257757   1.000000
      2        -27.205897   1.000000
      3        -12.556324   1.000000
      4        -12.501771   1.000000
      5        -12.451523   1.000000
      6        -12.347116   1.000000
      7        -12.261417   1.000000
      8        -12.241178   1.000000
      9         -0.548193   1.000000
     10          1.392744   1.032330
     11          1.424323   1.017155
     12          3.127453  -0.000000
     13          3.137064  -0.000000
     14          3.811619  -0.000000
 
  0.3076923E+00  0.7692308E-01  0.7692308E-01  0.1092399E-01
      1        -27.250889   1.000000
      2        -27.211518   1.000000
      3        -12.554970   1.000000
      4        -12.472087   1.000000
      5        -12.420681   1.000000
      6        -12.396751   1.000000
      7        -12.289586   1.000000
      8        -12.261335   1.000000
      9         -0.220238   1.000000
     10          1.405936   1.027793
     11          1.623055   0.451337
     12          2.970618  -0.000000
     13          3.096493  -0.000000
     14          3.555584  -0.000000
 
  0.3846154E+00  0.7692308E-01  0.7692308E-01  0.1092399E-01
      1        -27.242977   1.000000
      2        -27.218395   1.000000
      3        -12.543915   1.000000
      4        -12.445469   1.000000
      5        -12.437193   1.000000
      6        -12.387300   1.000000
      7        -12.323222   1.000000
      8        -12.287932   1.000000
      9          0.160593   1.000000
     10          1.251538   1.014433
     11          1.870483  -0.034772
     12          2.748306  -0.000000
     13          3.110069  -0.000000
     14          3.407392  -0.000000
 
  0.4615385E+00  0.7692308E-01  0.7692308E-01  0.1092399E-01
      1        -27.234573   1.000000
      2        -27.226216   1.000000
      3        -12.521715   1.000000
      4        -12.488320   1.000000
      5        -12.399232   1.000000
      6        -12.360484   1.000000
      7        -12.352849   1.000000
      8        -12.319088   1.000000
      9          0.563665   1.000000
     10          0.947251   1.000014
     11          2.156674  -0.000398
     12          2.461901  -0.000000
     13          3.178848  -0.000000
     14          3.287325  -0.000000
 
  0.1538462E+00  0.1538462E+00  0.7692308E-01  0.1092399E-01
      1        -27.259965   1.000000
      2        -27.204021   1.000000
      3        -12.560564   1.000000
      4        -12.519585   1.000000
      5        -12.450100   1.000000
      6        -12.341024   1.000000
      7        -12.249074   1.000000
      8        -12.227838   1.000000
      9         -0.648993   1.000000
     10          1.353419   1.034848
     11          1.396550   1.031257
     12          3.086435  -0.000000
     13          3.117504  -0.000000
     14          3.749836  -0.000000
 
  0.2307692E+00  0.1538462E+00  0.7692308E-01  0.2184797E-01
      1        -27.255048   1.000000
      2        -27.207747   1.000000
      3        -12.572741   1.000000
      4        -12.499244   1.000000
      5        -12.418984   1.000000
      6        -12.388720   1.000000
      7        -12.268411   1.000000
      8        -12.232477   1.000000
      9         -0.410124   1.000000
     10          1.442661   1.000542
     11          1.539194   0.785026
     12          2.956496  -0.000000
     13          2.977496  -0.000000
     14          3.403384  -0.000000
 
  0.3076923E+00  0.1538462E+00  0.7692308E-01  0.2184797E-01
      1        -27.248720   1.000000
      2        -27.212810   1.000000
      3        -12.577999   1.000000
      4        -12.470741   1.000000
      5        -12.439057   1.000000
      6        -12.386483   1.000000
      7        -12.294888   1.000000
      8        -12.245492   1.000000
      9         -0.101148   1.000000
     10          1.451119   0.990576
     11          1.704583   0.149583
     12          2.788824  -0.000000
     13          2.908240  -0.000000
     14          3.208550  -0.000000
 
  0.3846154E+00  0.1538462E+00  0.7692308E-01  0.2184797E-01
      1        -27.241453   1.000000
      2        -27.219032   1.000000
      3        -12.572979   1.000000
      4        -12.486571   1.000000
      5        -12.436900   1.000000
      6        -12.353562   1.000000
      7        -12.326891   1.000000
      8        -12.265751   1.000000
      9          0.254593   1.000000
     10          1.286186   1.021834
     11          1.909409  -0.028122
     12          2.596591  -0.000000
     13          2.902705  -0.000000
     14          3.125902  -0.000000
 
  0.4615385E+00  0.1538462E+00  0.7692308E-01  0.2184797E-01
      1        -27.233756   1.000000
      2        -27.226135   1.000000
      3        -12.555929   1.000000
      4        -12.526618   1.000000
      5        -12.400082   1.000000
      6        -12.362653   1.000000
      7        -12.321453   1.000000
      8        -12.291638   1.000000
      9          0.629150   1.000000
     10          0.988766   1.000049
     11          2.140925  -0.000586
     12          2.377318  -0.000000
     13          2.954695  -0.000000
     14          3.043051  -0.000000
 
  0.2307692E+00  0.2307692E+00  0.7692308E-01  0.1092399E-01
      1        -27.250792   1.000000
      2        -27.210792   1.000000
      3        -12.591224   1.000000
      4        -12.482635   1.000000
      5        -12.438297   1.000000
      6        -12.385210   1.000000
      7        -12.283962   1.000000
      8        -12.228969   1.000000
      9         -0.194408   1.000000
     10          1.467617   0.966524
     11          1.714707   0.121311
     12          2.803149  -0.000000
     13          2.813162  -0.000000
     14          3.102174  -0.000000
 
  0.3076923E+00  0.2307692E+00  0.7692308E-01  0.2184797E-01
      1        -27.245330   1.000000
      2        -27.214967   1.000000
      3        -12.603542   1.000000
      4        -12.488613   1.000000
      5        -12.457842   1.000000
      6        -12.351907   1.000000
      7        -12.305833   1.000000
      8        -12.233842   1.000000
      9          0.078918   1.000000
     10          1.419239   1.020653
     11          1.889682  -0.032105
     12          2.647632  -0.000000
     13          2.719523  -0.000000
     14          2.948309  -0.000000
 
  0.3846154E+00  0.2307692E+00  0.7692308E-01  0.2184797E-01
      1        -27.239094   1.000000
      2        -27.220136   1.000000
      3        -12.605437   1.000000
      4        -12.534124   1.000000
      5        -12.428073   1.000000
      6        -12.332767   1.000000
      7        -12.320210   1.000000
      8        -12.246684   1.000000
      9          0.385356   1.000000
     10          1.253097   1.014734
     11          2.051617  -0.003970
     12          2.503735  -0.000000
     13          2.691038  -0.000000
     14          2.875402  -0.000000
 
  0.4615385E+00  0.2307692E+00  0.7692308E-01  0.2184797E-01
      1        -27.232536   1.000000
      2        -27.226090   1.000000
      3        -12.594595   1.000000
      4        -12.570431   1.000000
      5        -12.395815   1.000000
      6        -12.363356   1.000000
      7        -12.291253   1.000000
      8        -12.266286   1.000000
      9          0.699761   1.000000
     10          0.998450   1.000064
     11          2.209942  -0.000098
     12          2.361207  -0.000001
     13          2.721624  -0.000000
     14          2.794315  -0.000000
 
  0.3076923E+00  0.3076923E+00  0.7692308E-01  0.1092399E-01
      1        -27.241018   1.000000
      2        -27.217968   1.000000
      3        -12.623373   1.000000
      4        -12.537288   1.000000
      5        -12.438108   1.000000
      6        -12.321491   1.000000
      7        -12.319465   1.000000
      8        -12.230199   1.000000
      9          0.295596   1.000000
     10          1.309941   1.027295
     11          2.107096  -0.001278
     12          2.568589  -0.000000
     13          2.572327  -0.000000
     14          2.776781  -0.000000
 
  0.3846154E+00  0.3076923E+00  0.7692308E-01  0.2184797E-01
      1        -27.236144   1.000000
      2        -27.221753   1.000000
      3        -12.632722   1.000000
      4        -12.579420   1.000000
      5        -12.414470   1.000000
      6        -12.341244   1.000000
      7        -12.290495   1.000000
      8        -12.234874   1.000000
      9          0.523419   1.000000
     10          1.146519   1.002441
     11          2.280159  -0.000012
     12          2.475324  -0.000000
     13          2.548305  -0.000000
     14          2.663449  -0.000000
 
  0.4615385E+00  0.3076923E+00  0.7692308E-01  0.2184797E-01
      1        -27.231088   1.000000
      2        -27.226196   1.000000
      3        -12.628866   1.000000
      4        -12.610818   1.000000
      5        -12.389189   1.000000
      6        -12.364228   1.000000
      7        -12.266056   1.000000
      8        -12.247159   1.000000
      9          0.744885   1.000000
     10          0.953738   1.000017
     11          2.377958  -0.000000
     12          2.423389  -0.000000
     13          2.560317  -0.000000
     14          2.593195  -0.000000
 
  0.3846154E+00  0.3846154E+00  0.7692308E-01  0.1092399E-01
      1        -27.232891   1.000000
      2        -27.223905   1.000000
      3        -12.649718   1.000000
      4        -12.616760   1.000000
      5        -12.398478   1.000000
      6        -12.352465   1.000000
      7        -12.265905   1.000000
      8        -12.231231   1.000000
      9          0.649562   1.000000
     10          1.013516   1.000099
     11          2.397902  -0.000000
     12          2.500370  -0.000000
     13          2.503450  -0.000000
     14          2.585878  -0.000000
 
  0.4615385E+00  0.3846154E+00  0.7692308E-01  0.2184797E-01
      1        -27.229611   1.000000
      2        -27.226557   1.000000
      3        -12.653307   1.000000
      4        -12.642155   1.000000
      5        -12.381910   1.000000
      6        -12.366222   1.000000
      7        -12.247353   1.000000
      8        -12.235576   1.000000
      9          0.765390   1.000000
     10          0.884010   1.000002
     11          2.363144  -0.000001
     12          2.397836  -0.000000
     13          2.637472  -0.000000
     14          2.651438  -0.000000
 
  0.4615385E+00  0.4615385E+00  0.7692308E-01  0.1092399E-01
      1        -27.228291   1.000000
      2        -27.227250   1.000000
      3        -12.664477   1.000000
      4        -12.660705   1.000000
      5        -12.375198   1.000000
      6        -12.369848   1.000000
      7        -12.235825   1.000000
      8        -12.231825   1.000000
      9          0.784819   1.000000
     10          0.822914   1.000000
     11          2.307033  -0.000005
     12          2.319675  -0.000003
     13          2.777353  -0.000000
     14          2.777853  -0.000000
 
  0.1538462E+00  0.1538462E+00  0.1538462E+00  0.3641329E-02
      1        -27.257080   1.000000
      2        -27.206055   1.000000
      3        -12.545507   1.000000
      4        -12.545507   1.000000
      5        -12.418736   1.000000
      6        -12.376767   1.000000
      7        -12.241978   1.000000
      8        -12.241978   1.000000
      9         -0.502440   1.000000
     10          1.466470   0.968401
     11          1.466470   0.968401
     12          2.971574  -0.000000
     13          2.971575  -0.000000
     14          3.307614  -0.000000
 
  0.2307692E+00  0.1538462E+00  0.1538462E+00  0.1092399E-01
      1        -27.252540   1.000000
      2        -27.209392   1.000000
      3        -12.566516   1.000000
      4        -12.521447   1.000000
      5        -12.421431   1.000000
      6        -12.386854   1.000000
      7        -12.264747   1.000000
      8        -12.240668   1.000000
      9         -0.271572   1.000000
     10          1.579251   0.634642
     11          1.581086   0.627193
     12          2.817207  -0.000000
     13          2.847728  -0.000000
     14          2.975931  -0.000000
 
  0.3076923E+00  0.1538462E+00  0.1538462E+00  0.1092399E-01
      1        -27.246704   1.000000
      2        -27.213950   1.000000
      3        -12.579199   1.000000
      4        -12.489868   1.000000
      5        -12.468137   1.000000
      6        -12.355843   1.000000
      7        -12.294956   1.000000
      8        -12.246453   1.000000
      9          0.024783   1.000000
     10          1.567761   0.680387
     11          1.728688   0.086471
     12          2.647525  -0.000000
     13          2.779033  -0.000000
     14          2.836637  -0.000000
 
  0.3846154E+00  0.1538462E+00  0.1538462E+00  0.1092399E-01
      1        -27.240024   1.000000
      2        -27.219573   1.000000
      3        -12.580929   1.000000
      4        -12.511317   1.000000
      5        -12.452702   1.000000
      6        -12.330992   1.000000
      7        -12.326589   1.000000
      8        -12.258899   1.000000
      9          0.362901   1.000000
     10          1.367877   1.035451
     11          1.905165  -0.029045
     12          2.471245  -0.000000
     13          2.773902  -0.000000
     14          2.855327  -0.000000
 
  0.4615385E+00  0.1538462E+00  0.1538462E+00  0.1092399E-01
      1        -27.232975   1.000000
      2        -27.226022   1.000000
      3        -12.570061   1.000000
      4        -12.546355   1.000000
      5        -12.412223   1.000000
      6        -12.370841   1.000000
      7        -12.300005   1.000000
      8        -12.277096   1.000000
      9          0.717245   1.000000
     10          1.062692   1.000363
     11          2.095806  -0.001634
     12          2.287248  -0.000010
     13          2.818044  -0.000000
     14          2.864546  -0.000000
 
  0.2307692E+00  0.2307692E+00  0.1538462E+00  0.1092399E-01
      1        -27.248596   1.000000
      2        -27.212114   1.000000
      3        -12.574953   1.000000
      4        -12.516520   1.000000
      5        -12.462989   1.000000
      6        -12.355458   1.000000
      7        -12.276746   1.000000
      8        -12.244494   1.000000
      9         -0.056037   1.000000
     10          1.621368   0.458443
     11          1.754690   0.034738
     12          2.663599  -0.000000
     13          2.677800  -0.000000
     14          2.700537  -0.000000
 
  0.3076923E+00  0.2307692E+00  0.1538462E+00  0.2184797E-01
      1        -27.243557   1.000000
      2        -27.215862   1.000000
      3        -12.589996   1.000000
      4        -12.505972   1.000000
      5        -12.489696   1.000000
      6        -12.326785   1.000000
      7        -12.303048   1.000000
      8        -12.246706   1.000000
      9          0.214897   1.000000
     10          1.579101   0.635254
     11          1.888778  -0.032264
     12          2.526752  -0.000000
     13          2.569965  -0.000000
     14          2.618782  -0.000000
 
  0.3846154E+00  0.2307692E+00  0.1538462E+00  0.2184797E-01
      1        -27.237818   1.000000
      2        -27.220527   1.000000
      3        -12.597152   1.000000
      4        -12.544602   1.000000
      5        -12.454406   1.000000
      6        -12.336873   1.000000
      7        -12.301684   1.000000
      8        -12.253017   1.000000
      9          0.515271   1.000000
     10          1.385497   1.033896
     11          2.000157  -0.009566
     12          2.382127  -0.000000
     13          2.607832  -0.000000
     14          2.642268  -0.000000
 
  0.4615385E+00  0.2307692E+00  0.1538462E+00  0.2184797E-01
      1        -27.231809   1.000000
      2        -27.225930   1.000000
      3        -12.592252   1.000000
      4        -12.574355   1.000000
      5        -12.415208   1.000000
      6        -12.375123   1.000000
      7        -12.280731   1.000000
      8        -12.264387   1.000000
      9          0.821081   1.000000
     10          1.116198   1.001284
     11          2.121419  -0.000926
     12          2.248584  -0.000032
     13          2.645702  -0.000000
     14          2.679254  -0.000000
 
  0.3076923E+00  0.3076923E+00  0.1538462E+00  0.1092399E-01
      1        -27.239564   1.000000
      2        -27.218540   1.000000
      3        -12.605850   1.000000
      4        -12.544927   1.000000
      5        -12.470995   1.000000
      6        -12.320623   1.000000
      7        -12.301804   1.000000
      8        -12.247190   1.000000
      9          0.441820   1.000000
     10          1.468055   0.965798
     11          2.105279  -0.001330
     12          2.449129  -0.000000
     13          2.458841  -0.000000
     14          2.480036  -0.000000
 
  0.3846154E+00  0.3076923E+00  0.1538462E+00  0.2184797E-01
      1        -27.235072   1.000000
      2        -27.221944   1.000000
      3        -12.616530   1.000000
      4        -12.579018   1.000000
      5        -12.442447   1.000000
      6        -12.345920   1.000000
      7        -12.281649   1.000000
      8        -12.249844   1.000000
      9          0.675579   1.000000
     10          1.296620   1.024243
     11          2.214841  -0.000085
     12          2.362082  -0.000001
     13          2.471867  -0.000000
     14          2.485469  -0.000000
 
  0.4615385E+00  0.3076923E+00  0.1538462E+00  0.2184797E-01
      1        -27.230431   1.000000
      2        -27.225970   1.000000
      3        -12.616476   1.000000
      4        -12.603763   1.000000
      5        -12.409698   1.000000
      6        -12.376504   1.000000
      7        -12.266451   1.000000
      8        -12.256001   1.000000
      9          0.896436   1.000003
     10          1.102141   1.000936
     11          2.249116  -0.000031
     12          2.290734  -0.000009
     13          2.515382  -0.000000
     14          2.536510  -0.000000
 
  0.3846154E+00  0.3846154E+00  0.1538462E+00  0.1092399E-01
      1        -27.232054   1.000000
      2        -27.223859   1.000000
      3        -12.631189   1.000000
      4        -12.608355   1.000000
      5        -12.422632   1.000000
      6        -12.359566   1.000000
      7        -12.266992   1.000000
      8        -12.249441   1.000000
      9          0.815391   1.000000
     10          1.170126   1.003872
     11          2.327284  -0.000003
     12          2.359445  -0.000001
     13          2.450872  -0.000000
     14          2.474731  -0.000000
 
  0.4615385E+00  0.3846154E+00  0.1538462E+00  0.2184797E-01
      1        -27.229038   1.000000
      2        -27.226252   1.000000
      3        -12.635814   1.000000
      4        -12.628119   1.000000
      5        -12.399931   1.000000
      6        -12.378029   1.000000
      7        -12.257307   1.000000
      8        -12.251756   1.000000
      9          0.933265   1.000009
     10          1.046958   1.000243
     11          2.288285  -0.000009
     12          2.300875  -0.000006
     13          2.555817  -0.000000
     14          2.566527  -0.000000
 
  0.4615385E+00  0.4615385E+00  0.1538462E+00  0.1092399E-01
      1        -27.227806   1.000000
      2        -27.226859   1.000000
      3        -12.645386   1.000000
      4        -12.642796   1.000000
      5        -12.389844   1.000000
      6        -12.382180   1.000000
      7        -12.252418   1.000000
      8        -12.250716   1.000000
      9          0.957100   1.000019
     10          0.992870   1.000055
     11          2.249484  -0.000031
     12          2.256092  -0.000025
     13          2.672461  -0.000000
     14          2.681978  -0.000000
 
  0.2307692E+00  0.2307692E+00  0.2307692E+00  0.3641329E-02
      1        -27.245165   1.000000
      2        -27.214317   1.000000
      3        -12.548936   1.000000
      4        -12.548936   1.000000
      5        -12.495918   1.000000
      6        -12.327635   1.000000
      7        -12.269462   1.000000
      8        -12.269462   1.000000
      9          0.157189   1.000000
     10          1.816298  -0.027426
     11          1.816298  -0.027426
     12          2.315569  -0.000004
     13          2.556151  -0.000000
     14          2.556151  -0.000000
 
  0.3076923E+00  0.2307692E+00  0.2307692E+00  0.1092399E-01
      1        -27.240798   1.000000
      2        -27.217383   1.000000
      3        -12.574520   1.000000
      4        -12.530442   1.000000
      5        -12.514746   1.000000
      6        -12.304326   1.000000
      7        -12.302548   1.000000
      8        -12.264503   1.000000
      9          0.420282   1.000000
     10          1.777858   0.002299
     11          1.892991  -0.031502
     12          2.283116  -0.000011
     13          2.410743  -0.000000
     14          2.484631  -0.000000
 
  0.3846154E+00  0.2307692E+00  0.2307692E+00  0.1092399E-01
      1        -27.235858   1.000000
      2        -27.221237   1.000000
      3        -12.589812   1.000000
      4        -12.560856   1.000000
      5        -12.474436   1.000000
      6        -12.341933   1.000000
      7        -12.286234   1.000000
      8        -12.263071   1.000000
      9          0.703186   1.000000
     10          1.518271   0.851038
     11          1.978340  -0.013158
     12          2.280222  -0.000012
     13          2.463746  -0.000000
     14          2.481016  -0.000000
 
  0.4615385E+00  0.2307692E+00  0.2307692E+00  0.1092399E-01
      1        -27.230730   1.000000
      2        -27.225757   1.000000
      3        -12.592693   1.000000
      4        -12.582617   1.000000
      5        -12.430447   1.000000
      6        -12.385399   1.000000
      7        -12.273483   1.000000
      8        -12.265882   1.000000
      9          0.981651   1.000040
     10          1.249936   1.014126
     11          2.069193  -0.002828
     12          2.167835  -0.000301
     13          2.526345  -0.000000
     14          2.550078  -0.000000
 
  0.3076923E+00  0.3076923E+00  0.2307692E+00  0.1092399E-01
      1        -27.237319   1.000000
      2        -27.219542   1.000000
      3        -12.577806   1.000000
      4        -12.556789   1.000000
      5        -12.507601   1.000000
      6        -12.317266   1.000000
      7        -12.287517   1.000000
      8        -12.274494   1.000000
      9          0.663128   1.000000
     10          1.692389   0.186903
     11          2.100244  -0.001485
     12          2.166448  -0.000311
     13          2.336550  -0.000002
     14          2.364048  -0.000001
 
  0.3846154E+00  0.3076923E+00  0.2307692E+00  0.2184797E-01
      1        -27.233436   1.000000
      2        -27.222336   1.000000
      3        -12.591964   1.000000
      4        -12.579676   1.000000
      5        -12.474380   1.000000
      6        -12.350164   1.000000
      7        -12.276840   1.000000
      8        -12.273441   1.000000
      9          0.904698   1.000003
     10          1.502849   0.893007
     11          2.111945  -0.001147
     12          2.244752  -0.000036
     13          2.352491  -0.000001
     14          2.359587  -0.000001
 
  0.4615385E+00  0.3076923E+00  0.2307692E+00  0.2184797E-01
      1        -27.229463   1.000000
      2        -27.225691   1.000000
      3        -12.598911   1.000000
      4        -12.594655   1.000000
      5        -12.433323   1.000000
      6        -12.390584   1.000000
      7        -12.271785   1.000000
      8        -12.271252   1.000000
      9          1.119051   1.001367
     10          1.311357   1.027612
     11          2.128959  -0.000778
     12          2.172267  -0.000268
     13          2.419162  -0.000000
     14          2.447935  -0.000000
 
  0.3846154E+00  0.3846154E+00  0.2307692E+00  0.1092399E-01
      1        -27.230801   1.000000
      2        -27.223871   1.000000
      3        -12.601507   1.000000
      4        -12.596426   1.000000
      5        -12.454253   1.000000
      6        -12.366918   1.000000
      7        -12.278674   1.000000
      8        -12.273480   1.000000
      9          1.071948   1.000457
     10          1.399300   1.030366
     11          2.218197  -0.000077
     12          2.240213  -0.000041
     13          2.329400  -0.000002
     14          2.372757  -0.000001
 
  0.4615385E+00  0.3846154E+00  0.2307692E+00  0.2184797E-01
      1        -27.228205   1.000000
      2        -27.225846   1.000000
      3        -12.608274   1.000000
      4        -12.606791   1.000000
      5        -12.424445   1.000000
      6        -12.393240   1.000000
      7        -12.277752   1.000000
      8        -12.274681   1.000000
      9          1.192298   1.005788
     10          1.292989   1.023403
     11          2.196677  -0.000141
     12          2.200030  -0.000128
     13          2.422965  -0.000000
     14          2.460329  -0.000000
 
  0.4615385E+00  0.4615385E+00  0.2307692E+00  0.1092399E-01
      1        -27.227113   1.000000
      2        -27.226315   1.000000
      3        -12.614793   1.000000
      4        -12.614429   1.000000
      5        -12.410605   1.000000
      6        -12.399018   1.000000
      7        -12.281045   1.000000
      8        -12.279156   1.000000
      9          1.225045   1.009884
     10          1.255079   1.015122
     11          2.179967  -0.000220
     12          2.181596  -0.000210
     13          2.528131  -0.000000
     14          2.548648  -0.000000
 
  0.3076923E+00  0.3076923E+00  0.3076923E+00  0.3641329E-02
      1        -27.234519   1.000000
      2        -27.221024   1.000000
      3        -12.570368   1.000000
      4        -12.540901   1.000000
      5        -12.540901   1.000000
      6        -12.310610   1.000000
      7        -12.310610   1.000000
      8        -12.279744   1.000000
      9          0.922166   1.000006
     10          1.794343  -0.013755
     11          2.092151  -0.001766
     12          2.092151  -0.001766
     13          2.254146  -0.000027
     14          2.254146  -0.000027
 
  0.3846154E+00  0.3076923E+00  0.3076923E+00  0.1092399E-01
      1        -27.231437   1.000000
      2        -27.223013   1.000000
      3        -12.581715   1.000000
      4        -12.566568   1.000000
      5        -12.497338   1.000000
      6        -12.353527   1.000000
      7        -12.301385   1.000000
      8        -12.278659   1.000000
      9          1.165447   1.003543
     10          1.647015   0.352453
     11          2.085523  -0.002030
     12          2.168620  -0.000295
     13          2.250763  -0.000030
     14          2.273275  -0.000015
 
  0.4615385E+00  0.3076923E+00  0.3076923E+00  0.1092399E-01
      1        -27.228348   1.000000
      2        -27.225482   1.000000
      3        -12.586642   1.000000
      4        -12.582038   1.000000
      5        -12.449696   1.000000
      6        -12.400800   1.000000
      7        -12.291477   1.000000
      8        -12.283170   1.000000
      9          1.352394   1.034755
     10          1.498650   0.903407
     11          2.089383  -0.001872
     12          2.114376  -0.001086
     13          2.318301  -0.000003
     14          2.361011  -0.000001
 
  0.3846154E+00  0.3846154E+00  0.3076923E+00  0.1092399E-01
      1        -27.229306   1.000000
      2        -27.224046   1.000000
      3        -12.583378   1.000000
      4        -12.562404   1.000000
      5        -12.486952   1.000000
      6        -12.369375   1.000000
      7        -12.317300   1.000000
      8        -12.286703   1.000000
      9          1.382650   1.034351
     10          1.631037   0.417907
     11          2.145781  -0.000521
     12          2.163422  -0.000336
     13          2.191037  -0.000164
     14          2.283130  -0.000011
 
  0.4615385E+00  0.3846154E+00  0.3076923E+00  0.2184797E-01
      1        -27.227261   1.000000
      2        -27.225473   1.000000
      3        -12.581487   1.000000
      4        -12.573666   1.000000
      5        -12.449289   1.000000
      6        -12.406397   1.000000
      7        -12.311534   1.000000
      8        -12.298881   1.000000
      9          1.503671   0.890919
     10          1.570740   0.668693
     11          2.129766  -0.000763
     12          2.130073  -0.000758
     13          2.285038  -0.000010
     14          2.343821  -0.000001
 
  0.4615385E+00  0.4615385E+00  0.3076923E+00  0.1092399E-01
      1        -27.226362   1.000000
      2        -27.225753   1.000000
      3        -12.577972   1.000000
      4        -12.574472   1.000000
      5        -12.433340   1.000000
      6        -12.415464   1.000000
      7        -12.321082   1.000000
      8        -12.314315   1.000000
      9          1.554982   0.729013
     10          1.570821   0.668373
     11          2.123078  -0.000891
     12          2.125753  -0.000838
     13          2.373730  -0.000000
     14          2.404871  -0.000000
 
  0.3846154E+00  0.3846154E+00  0.3846154E+00  0.3641329E-02
      1        -27.227774   1.000000
      2        -27.224486   1.000000
      3        -12.570583   1.000000
      4        -12.516187   1.000000
      5        -12.516187   1.000000
      6        -12.363129   1.000000
      7        -12.363129   1.000000
      8        -12.305597   1.000000
      9          1.667814   0.271988
     10          1.751342   0.040460
     11          2.115625  -0.001056
     12          2.115625  -0.001056
     13          2.198862  -0.000133
     14          2.198862  -0.000133
 
  0.4615385E+00  0.3846154E+00  0.3846154E+00  0.1092399E-01
      1        -27.226378   1.000000
      2        -27.225264   1.000000
      3        -12.556916   1.000000
      4        -12.539515   1.000000
      5        -12.465571   1.000000
      6        -12.413533   1.000000
      7        -12.348040   1.000000
      8        -12.327367   1.000000
      9          1.779569   0.000375
     10          1.782937  -0.003230
     11          2.106109  -0.001306
     12          2.135885  -0.000661
     13          2.184937  -0.000193
     14          2.257347  -0.000025
 
  0.4615385E+00  0.4615385E+00  0.3846154E+00  0.1092399E-01
      1        -27.225704   1.000000
      2        -27.225322   1.000000
      3        -12.537456   1.000000
      4        -12.526776   1.000000
      5        -12.454637   1.000000
      6        -12.425433   1.000000
      7        -12.368550   1.000000
      8        -12.354764   1.000000
      9          1.864039  -0.035249
     10          1.886872  -0.032590
     11          2.097302  -0.001582
     12          2.118512  -0.000989
     13          2.232905  -0.000051
     14          2.274059  -0.000015
 
  0.4615385E+00  0.4615385E+00  0.4615385E+00  0.3641329E-02
      1        -27.225269   1.000000
      2        -27.225141   1.000000
      3        -12.500300   1.000000
      4        -12.474498   1.000000
      5        -12.474498   1.000000
      6        -12.420703   1.000000
      7        -12.420703   1.000000
      8        -12.394321   1.000000
      9          2.025729  -0.006314
     10          2.113088  -0.001118
     11          2.113088  -0.001118
     12          2.130117  -0.000757
     13          2.173317  -0.000261
     14          2.173317  -0.000261
