<?xml version="1.0" encoding="ISO-8859-1"?>
<modeling>
 <generator>
  <i name="program" type="string">vasp </i>
  <i name="version" type="string">6.4.2  </i>
  <i name="subversion" type="string">20Jul23 (build Mar  2 2025 11:04:54) complex                          parallel </i>
  <i name="platform" type="string">LinuxNV </i>
  <i name="date" type="string">2026 04 07 </i>
  <i name="time" type="string">10:09:36 </i>
 </generator>
 <incar>
  <i type="string" name="PREC">Accurate</i>
  <i type="int" name="NSW">     0</i>
  <i name="ENCUT">    350.00000000</i>
  <i type="logical" name="LREAL"> F  </i>
  <i type="int" name="ISMEAR">     1</i>
  <i name="SIGMA">      0.20000000</i>
  <i name="KSPACING">      0.10000000</i>
  <i type="logical" name="KGAMMA"> T  </i>
 </incar>
 <primitive_cell>
  <structure name="primitive_cell" >
   <crystal>
    <varray name="basis" >
     <v>       2.51190400       2.51190400      -2.51190400 </v>
     <v>      -2.51190400       2.51190400       2.51190400 </v>
     <v>       2.51190400      -2.51190400       2.51190400 </v>
    </varray>
    <i name="volume">     63.39705790 </i>
    <varray name="rec_basis" >
     <v>       0.19905219       0.19905219      -0.00000000 </v>
     <v>      -0.00000000       0.19905219       0.19905219 </v>
     <v>       0.19905219      -0.00000000       0.19905219 </v>
    </varray>
   </crystal>
   <varray name="positions" >
    <v>       0.00000000       0.00000000       0.00000000 </v>
   </varray>
  </structure>
  <varray name="primitive_index" >
   <v type="int" >        1 </v>
  </varray>
 </primitive_cell>
 <kpoints>
  <generation param="Gamma">
   <v type="int" name="divisions">      13       13       13 </v>
   <v name="usershift">      0.00000000       0.00000000       0.00000000 </v>
   <v name="genvec1">      0.07692308       0.00000000       0.00000000 </v>
   <v name="genvec2">      0.00000000       0.07692308       0.00000000 </v>
   <v name="genvec3">      0.00000000       0.00000000       0.07692308 </v>
   <v name="shift">      0.00000000       0.00000000       0.00000000 </v>
  </generation>
  <varray name="kpointlist" >
   <v>       0.00000000       0.00000000       0.00000000 </v>
   <v>       0.07692308       0.00000000       0.00000000 </v>
   <v>       0.15384615       0.00000000       0.00000000 </v>
   <v>       0.23076923       0.00000000       0.00000000 </v>
   <v>       0.30769231       0.00000000       0.00000000 </v>
   <v>       0.38461538       0.00000000       0.00000000 </v>
   <v>       0.46153846       0.00000000       0.00000000 </v>
   <v>       0.07692308       0.07692308       0.00000000 </v>
   <v>       0.15384615       0.07692308       0.00000000 </v>
   <v>       0.23076923       0.07692308       0.00000000 </v>
   <v>       0.30769231       0.07692308       0.00000000 </v>
   <v>       0.38461538       0.07692308       0.00000000 </v>
   <v>       0.46153846       0.07692308       0.00000000 </v>
   <v>       0.15384615       0.15384615       0.00000000 </v>
   <v>       0.23076923       0.15384615       0.00000000 </v>
   <v>       0.30769231       0.15384615       0.00000000 </v>
   <v>       0.38461538       0.15384615       0.00000000 </v>
   <v>       0.46153846       0.15384615       0.00000000 </v>
   <v>       0.23076923       0.23076923       0.00000000 </v>
   <v>       0.30769231       0.23076923       0.00000000 </v>
   <v>       0.38461538       0.23076923       0.00000000 </v>
   <v>       0.46153846       0.23076923       0.00000000 </v>
   <v>       0.30769231       0.30769231       0.00000000 </v>
   <v>       0.38461538       0.30769231       0.00000000 </v>
   <v>       0.46153846       0.30769231       0.00000000 </v>
   <v>       0.38461538       0.38461538       0.00000000 </v>
   <v>       0.46153846       0.38461538       0.00000000 </v>
   <v>       0.46153846       0.46153846       0.00000000 </v>
   <v>       0.07692308       0.07692308       0.07692308 </v>
   <v>       0.15384615       0.07692308       0.07692308 </v>
   <v>       0.23076923       0.07692308       0.07692308 </v>
   <v>       0.30769231       0.07692308       0.07692308 </v>
   <v>       0.38461538       0.07692308       0.07692308 </v>
   <v>       0.46153846       0.07692308       0.07692308 </v>
   <v>       0.15384615       0.15384615       0.07692308 </v>
   <v>       0.23076923       0.15384615       0.07692308 </v>
   <v>       0.30769231       0.15384615       0.07692308 </v>
   <v>       0.38461538       0.15384615       0.07692308 </v>
   <v>       0.46153846       0.15384615       0.07692308 </v>
   <v>       0.23076923       0.23076923       0.07692308 </v>
   <v>       0.30769231       0.23076923       0.07692308 </v>
   <v>       0.38461538       0.23076923       0.07692308 </v>
   <v>       0.46153846       0.23076923       0.07692308 </v>
   <v>       0.30769231       0.30769231       0.07692308 </v>
   <v>       0.38461538       0.30769231       0.07692308 </v>
   <v>       0.46153846       0.30769231       0.07692308 </v>
   <v>       0.38461538       0.38461538       0.07692308 </v>
   <v>       0.46153846       0.38461538       0.07692308 </v>
   <v>       0.46153846       0.46153846       0.07692308 </v>
   <v>       0.15384615       0.15384615       0.15384615 </v>
   <v>       0.23076923       0.15384615       0.15384615 </v>
   <v>       0.30769231       0.15384615       0.15384615 </v>
   <v>       0.38461538       0.15384615       0.15384615 </v>
   <v>       0.46153846       0.15384615       0.15384615 </v>
   <v>       0.23076923       0.23076923       0.15384615 </v>
   <v>       0.30769231       0.23076923       0.15384615 </v>
   <v>       0.38461538       0.23076923       0.15384615 </v>
   <v>       0.46153846       0.23076923       0.15384615 </v>
   <v>       0.30769231       0.30769231       0.15384615 </v>
   <v>       0.38461538       0.30769231       0.15384615 </v>
   <v>       0.46153846       0.30769231       0.15384615 </v>
   <v>       0.38461538       0.38461538       0.15384615 </v>
   <v>       0.46153846       0.38461538       0.15384615 </v>
   <v>       0.46153846       0.46153846       0.15384615 </v>
   <v>       0.23076923       0.23076923       0.23076923 </v>
   <v>       0.30769231       0.23076923       0.23076923 </v>
   <v>       0.38461538       0.23076923       0.23076923 </v>
   <v>       0.46153846       0.23076923       0.23076923 </v>
   <v>       0.30769231       0.30769231       0.23076923 </v>
   <v>       0.38461538       0.30769231       0.23076923 </v>
   <v>       0.46153846       0.30769231       0.23076923 </v>
   <v>       0.38461538       0.38461538       0.23076923 </v>
   <v>       0.46153846       0.38461538       0.23076923 </v>
   <v>       0.46153846       0.46153846       0.23076923 </v>
   <v>       0.30769231       0.30769231       0.30769231 </v>
   <v>       0.38461538       0.30769231       0.30769231 </v>
   <v>       0.46153846       0.30769231       0.30769231 </v>
   <v>       0.38461538       0.38461538       0.30769231 </v>
   <v>       0.46153846       0.38461538       0.30769231 </v>
   <v>       0.46153846       0.46153846       0.30769231 </v>
   <v>       0.38461538       0.38461538       0.38461538 </v>
   <v>       0.46153846       0.38461538       0.38461538 </v>
   <v>       0.46153846       0.46153846       0.38461538 </v>
   <v>       0.46153846       0.46153846       0.46153846 </v>
  </varray>
  <varray name="weights" >
   <v>       0.00045517 </v>
   <v>       0.00273100 </v>
   <v>       0.00273100 </v>
   <v>       0.00273100 </v>
   <v>       0.00273100 </v>
   <v>       0.00273100 </v>
   <v>       0.00273100 </v>
   <v>       0.00546199 </v>
   <v>       0.01092399 </v>
   <v>       0.01092399 </v>
   <v>       0.01092399 </v>
   <v>       0.01092399 </v>
   <v>       0.01092399 </v>
   <v>       0.00546199 </v>
   <v>       0.01092399 </v>
   <v>       0.01092399 </v>
   <v>       0.01092399 </v>
   <v>       0.01092399 </v>
   <v>       0.00546199 </v>
   <v>       0.01092399 </v>
   <v>       0.01092399 </v>
   <v>       0.01092399 </v>
   <v>       0.00546199 </v>
   <v>       0.01092399 </v>
   <v>       0.01092399 </v>
   <v>       0.00546199 </v>
   <v>       0.01092399 </v>
   <v>       0.00546199 </v>
   <v>       0.00364133 </v>
   <v>       0.01092399 </v>
   <v>       0.01092399 </v>
   <v>       0.01092399 </v>
   <v>       0.01092399 </v>
   <v>       0.01092399 </v>
   <v>       0.01092399 </v>
   <v>       0.02184797 </v>
   <v>       0.02184797 </v>
   <v>       0.02184797 </v>
   <v>       0.02184797 </v>
   <v>       0.01092399 </v>
   <v>       0.02184797 </v>
   <v>       0.02184797 </v>
   <v>       0.02184797 </v>
   <v>       0.01092399 </v>
   <v>       0.02184797 </v>
   <v>       0.02184797 </v>
   <v>       0.01092399 </v>
   <v>       0.02184797 </v>
   <v>       0.01092399 </v>
   <v>       0.00364133 </v>
   <v>       0.01092399 </v>
   <v>       0.01092399 </v>
   <v>       0.01092399 </v>
   <v>       0.01092399 </v>
   <v>       0.01092399 </v>
   <v>       0.02184797 </v>
   <v>       0.02184797 </v>
   <v>       0.02184797 </v>
   <v>       0.01092399 </v>
   <v>       0.02184797 </v>
   <v>       0.02184797 </v>
   <v>       0.01092399 </v>
   <v>       0.02184797 </v>
   <v>       0.01092399 </v>
   <v>       0.00364133 </v>
   <v>       0.01092399 </v>
   <v>       0.01092399 </v>
   <v>       0.01092399 </v>
   <v>       0.01092399 </v>
   <v>       0.02184797 </v>
   <v>       0.02184797 </v>
   <v>       0.01092399 </v>
   <v>       0.02184797 </v>
   <v>       0.01092399 </v>
   <v>       0.00364133 </v>
   <v>       0.01092399 </v>
   <v>       0.01092399 </v>
   <v>       0.01092399 </v>
   <v>       0.02184797 </v>
   <v>       0.01092399 </v>
   <v>       0.00364133 </v>
   <v>       0.01092399 </v>
   <v>       0.01092399 </v>
   <v>       0.00364133 </v>
  </varray>
 </kpoints>
 <parameters>
  <separator name="general" >
   <i type="string" name="SYSTEM">unknown system</i>
   <i type="logical" name="LCOMPAT"> F  </i>
  </separator>
  <separator name="electronic" >
   <i type="string" name="PREC">accura</i>
   <i name="ENMAX">    350.00000000</i>
   <i name="ENAUG">    351.16500000</i>
   <i name="EDIFF">      0.00010000</i>
   <i type="int" name="IALGO">    38</i>
   <i type="int" name="IWAVPR">    10</i>
   <i type="int" name="NBANDS">    14</i>
   <i type="int" name="NBANDSLOW">    -1</i>
   <i type="int" name="NBANDSHIGH">    -1</i>
   <i name="NELECT">     20.00000000</i>
   <i type="int" name="TURBO">     0</i>
   <i type="int" name="IRESTART">     0</i>
   <i type="int" name="NREBOOT">     0</i>
   <i type="int" name="NMIN">     0</i>
   <i name="EREF">      0.00000000</i>
   <separator name="electronic smearing" >
    <i type="int" name="ISMEAR">     1</i>
    <i name="SIGMA">      0.20000000</i>
    <i name="KSPACING">      0.10000000</i>
    <i type="logical" name="KGAMMA"> T  </i>
    <i type="logical" name="KBLOWUP"> T  </i>
   </separator>
   <separator name="electronic projectors" >
    <i type="logical" name="LREAL"> F  </i>
    <v name="ROPT">      0.00000000</v>
    <i type="int" name="LMAXPAW">  -100</i>
    <i type="int" name="LMAXMIX">     2</i>
    <i type="logical" name="NLSPLINE"> F  </i>
   </separator>
   <separator name="electronic startup" >
    <i type="int" name="ISTART">     1</i>
    <i type="int" name="ICHARG">     0</i>
    <i type="int" name="INIWAV">     1</i>
   </separator>
   <separator name="electronic spin" >
    <i type="int" name="ISPIN">     1</i>
    <i type="logical" name="LNONCOLLINEAR"> F  </i>
    <v name="MAGMOM">      1.00000000      1.00000000</v>
    <i name="NUPDOWN">     -1.00000000</i>
    <i type="logical" name="LSORBIT"> F  </i>
    <v name="SAXIS">      0.00000000      0.00000000      1.00000000</v>
    <i type="logical" name="LSPIRAL"> F  </i>
    <v name="QSPIRAL">      0.00000000      0.00000000      0.00000000</v>
    <i type="logical" name="LZEROZ"> F  </i>
   </separator>
   <separator name="electronic exchange-correlation" >
    <i type="logical" name="LASPH"> F  </i>
    <i type="logical" name="LMETAGGA"> F  </i>
   </separator>
   <separator name="electronic convergence" >
    <i type="int" name="NELM">    60</i>
    <i type="int" name="NELMDL">     0</i>
    <i type="int" name="NELMIN">     2</i>
    <i name="ENINI">    350.00000000</i>
    <separator name="electronic convergence detail" >
     <i type="logical" name="LDIAG"> T  </i>
     <i type="logical" name="LSUBROT"> F  </i>
     <i name="WEIMIN">      0.00000000</i>
     <i name="EBREAK">      0.00000179</i>
     <i name="DEPER">      0.30000000</i>
     <i type="int" name="NRMM">     4</i>
     <i name="TIME">      0.40000000</i>
    </separator>
   </separator>
   <separator name="electronic mixer" >
    <i name="AMIX">      0.40000000</i>
    <i name="BMIX">      1.00000000</i>
    <i name="AMIN">      0.10000000</i>
    <i name="AMIX_MAG">      1.60000000</i>
    <i name="BMIX_MAG">      1.00000000</i>
    <separator name="electronic mixer details" >
     <i type="int" name="IMIX">     4</i>
     <i type="logical" name="MIXFIRST"> F  </i>
     <i type="int" name="MAXMIX">   -45</i>
     <i name="WC">    100.00000000</i>
     <i type="int" name="INIMIX">     1</i>
     <i type="int" name="MIXPRE">     1</i>
     <i type="int" name="MREMOVE">     5</i>
    </separator>
   </separator>
   <separator name="electronic dipolcorrection" >
    <i type="logical" name="LDIPOL"> F  </i>
    <i type="logical" name="LMONO"> F  </i>
    <i type="int" name="IDIPOL">     0</i>
    <i name="EPSILON">      1.00000000</i>
    <v name="DIPOL">   -100.00000000   -100.00000000   -100.00000000</v>
    <i name="EFIELD">      0.00000000</i>
   </separator>
  </separator>
  <separator name="grids" >
   <i type="int" name="NGX">    32</i>
   <i type="int" name="NGY">    32</i>
   <i type="int" name="NGZ">    32</i>
   <i type="int" name="NGXF">    64</i>
   <i type="int" name="NGYF">    64</i>
   <i type="int" name="NGZF">    64</i>
   <i type="logical" name="ADDGRID"> F  </i>
  </separator>
  <separator name="ionic" >
   <i type="int" name="NSW">     0</i>
   <i type="int" name="IBRION">    -1</i>
   <i type="int" name="MDALGO">     0</i>
   <i type="int" name="ISIF">     2</i>
   <i name="PSTRESS">      0.00000000</i>
   <i name="EDIFFG">      0.00100000</i>
   <i type="int" name="NFREE">     0</i>
   <i name="POTIM">      0.50000000</i>
   <i name="SMASS">     -3.00000000</i>
   <i name="SCALEE">      1.00000000</i>
  </separator>
  <separator name="ionic md" >
   <i name="TEBEG">      0.00010000</i>
   <i name="TEEND">      0.00010000</i>
   <i type="int" name="NBLOCK">     1</i>
   <i type="int" name="KBLOCK">     1</i>
   <i type="int" name="NPACO">   256</i>
   <i name="APACO">     10.00000000</i>
  </separator>
  <separator name="symmetry" >
   <i type="int" name="ISYM">     2</i>
   <i name="SYMPREC">      0.00001000</i>
  </separator>
  <separator name="dos" >
   <i type="int" name="LORBIT">     0</i>
   <v name="RWIGS">     -1.00000000</v>
   <i type="int" name="NEDOS">   301</i>
   <i name="EMIN">     10.00000000</i>
   <i name="EMAX">    -10.00000000</i>
   <i name="EFERMI">      0.00000000</i>
  </separator>
  <separator name="writing" >
   <i type="int" name="NWRITE">     2</i>
   <i type="logical" name="LWAVE"> T  </i>
   <i type="logical" name="LDOWNSAMPLE"> F  </i>
   <i type="logical" name="LCHARG"> T  </i>
   <i type="logical" name="LPARD"> F  </i>
   <i type="logical" name="LVTOT"> F  </i>
   <i type="logical" name="LVHAR"> F  </i>
   <i type="logical" name="LELF"> F  </i>
   <i type="logical" name="LOPTICS"> F  </i>
   <v name="STM">      0.00000000      0.00000000      0.00000000      0.00000000      0.00000000      0.00000000      0.00000000</v>
  </separator>
  <separator name="performance" >
   <i type="int" name="NPAR">     1</i>
   <i type="int" name="NSIM">     4</i>
   <i type="int" name="NBLK">    -1</i>
   <i type="logical" name="LPLANE"> T  </i>
   <i type="logical" name="LSCALAPACK"> T  </i>
   <i type="logical" name="LSCAAWARE"> F  </i>
   <i type="logical" name="LSCALU"> F  </i>
   <i type="logical" name="LASYNC"> F  </i>
   <i type="logical" name="LORBITALREAL"> F  </i>
  </separator>
  <separator name="miscellaneous" >
   <i type="int" name="IDIOT">     3</i>
   <i type="int" name="PHON_NSTRUCT">    -1</i>
   <i type="logical" name="LMUSIC"> F  </i>
   <v name="POMASS">    137.32700000</v>
   <v name="DARWINR">      0.00000000</v>
   <v name="DARWINV">      1.00000000</v>
   <i type="logical" name="LCORR"> T  </i>
  </separator>
  <i type="logical" name="GGA_COMPAT"> T  </i>
  <i type="logical" name="LBERRY"> F  </i>
  <i type="int" name="ICORELEVEL">     0</i>
  <i type="logical" name="LDAU"> F  </i>
  <i type="int" name="I_CONSTRAINED_M">     0</i>
  <separator name="electronic exchange-correlation" >
   <i type="string" name="GGA">--</i>
   <i type="int" name="VOSKOWN">     0</i>
   <i type="logical" name="LHFCALC"> F  </i>
   <i type="string" name="PRECFOCK"></i>
   <i type="logical" name="LSYMGRAD"> F  </i>
   <i type="logical" name="LHFONE"> F  </i>
   <i type="logical" name="LRHFCALC"> F  </i>
   <i type="logical" name="LTHOMAS"> F  </i>
   <i type="logical" name="LMODELHF"> F  </i>
   <i type="logical" name="LFOCKACE"> F  </i>
   <i name="ENCUT4O">     -1.00000000</i>
   <i type="int" name="EXXOEP">     0</i>
   <i type="int" name="FOURORBIT">     0</i>
   <i name="AEXX">      0.00000000</i>
   <i name="HFALPHA">      0.00000000</i>
   <i name="MCALPHA">      0.00000000</i>
   <i name="ALDAX">      1.00000000</i>
   <i name="AGGAX">      1.00000000</i>
   <i name="ALDAC">      1.00000000</i>
   <i name="AGGAC">      1.00000000</i>
   <i type="int" name="NKREDX">     1</i>
   <i type="int" name="NKREDY">     1</i>
   <i type="int" name="NKREDZ">     1</i>
   <i type="logical" name="SHIFTRED"> F  </i>
   <i type="logical" name="ODDONLY"> F  </i>
   <i type="logical" name="EVENONLY"> F  </i>
   <i type="int" name="LMAXFOCK">     0</i>
   <i type="int" name="NMAXFOCKAE">     0</i>
   <i type="logical" name="LFOCKAEDFT"> F  </i>
   <i name="HFSCREEN">      0.00000000</i>
   <i name="HFSCREENC">      0.00000000</i>
   <i type="int" name="NBANDSGWLOW">     0</i>
  </separator>
  <separator name="vdW DFT" >
   <i type="logical" name="LUSE_VDW"> F  </i>
   <i type="int" name="IVDW_NL">     1</i>
   <i type="logical" name="LSPIN_VDW"> F  </i>
   <i name="Zab_VDW">     -0.84910000</i>
   <i name="PARAM1">      0.12340000</i>
   <i name="PARAM2">      1.00000000</i>
   <i name="PARAM3">      0.00000000</i>
  </separator>
  <separator name="model GW" >
   <i type="int" name="MODEL_GW">     0</i>
   <i name="MODEL_EPS0">     38.03823474</i>
   <i name="MODEL_ALPHA">      1.00000000</i>
  </separator>
  <separator name="linear response parameters" >
   <i type="logical" name="LEPSILON"> F  </i>
   <i type="logical" name="LRPA"> F  </i>
   <i type="logical" name="LNABLA"> F  </i>
   <i type="logical" name="LVEL"> F  </i>
   <i name="CSHIFT">      0.10000000</i>
   <i name="OMEGAMAX">     -1.00000000</i>
   <i name="DEG_THRESHOLD">      0.00200000</i>
   <i name="RTIME">     -0.10000000</i>
   <i name="WPLASMAI">      0.00000000</i>
   <v name="DFIELD">      0.00000000      0.00000000      0.00000000</v>
   <v name="WPLASMA">      0.00000000      0.00000000      0.00000000      0.00000000      0.00000000      0.00000000      0.00000000      0.00000000      0.00000000</v>
  </separator>
  <separator name="orbital magnetization" >
   <i type="logical" name="NUCIND"> F  </i>
   <v name="MAGPOS">      0.00000000      0.00000000      0.00000000</v>
   <i type="logical" name="LNICSALL"> T  </i>
   <i type="logical" name="ORBITALMAG"> F  </i>
   <i type="logical" name="LMAGBLOCH"> F  </i>
   <i type="logical" name="LCHIMAG"> F  </i>
   <i type="logical" name="LGAUGE"> T  </i>
   <i type="int" name="MAGATOM">     0</i>
   <v name="MAGDIPOL">      0.00000000      0.00000000      0.00000000</v>
   <v name="AVECCONST">      0.00000000      0.00000000      0.00000000</v>
  </separator>
  <separator name="response functions" >
   <i type="logical" name="LALL_IN_ONE"> F  </i>
   <i type="int" name="IALL_IN_ONE">    -1</i>
   <i type="int" name="NBANDS_WAVE">    -1</i>
   <i type="logical" name="LFINITE_TEMPERATURE"> F  </i>
   <i type="logical" name="LADDER"> F  </i>
   <i type="logical" name="LRPAFORCE"> F  </i>
   <i type="logical" name="LFXC"> F  </i>
   <i type="logical" name="LHARTREE"> T  </i>
   <i type="int" name="IBSE">     0</i>
   <v type="int" name="KPOINT">    -1     0     0     0</v>
   <i type="logical" name="LTCTC"> F  </i>
   <i type="logical" name="LTCTE"> F  </i>
   <i type="logical" name="LTETE"> F  </i>
   <i type="logical" name="LTRIPLET"> F  </i>
   <i type="logical" name="LFXCEPS"> F  </i>
   <i type="logical" name="LFXHEG"> F  </i>
   <i type="int" name="NATURALO">     2</i>
   <i type="logical" name="LHOLEGF"> F  </i>
   <i type="logical" name="L2ORDER"> F  </i>
   <i type="logical" name="LDMP1"> F  </i>
   <i type="logical" name="LMP2LT"> F  </i>
   <i type="logical" name="LSMP2LT"> F  </i>
   <i type="logical" name="LGWLF"> F  </i>
   <i name="ENCUTGW">     -1.60000002</i>
   <i name="ENCUTGWSOFT">     -1.60000002</i>
   <i name="ENCUTLF">     -1.00000000</i>
   <i type="logical" name="LESF_SPLINES"> F  </i>
   <i type="int" name="LMAXMP2">    -1</i>
   <i name="SCISSOR">      0.00000000</i>
   <i type="int" name="NOMEGA">     0</i>
   <i type="int" name="NOMEGAR">     0</i>
   <i type="int" name="NBANDSGW">    -1</i>
   <i type="int" name="NBANDSO">    -1</i>
   <i type="int" name="NBANDSV">    -1</i>
   <i type="int" name="NELMGW">     1</i>
   <i type="int" name="NELMHF">     1</i>
   <i type="int" name="DIM">     3</i>
   <i type="int" name="IESPILON">     4</i>
   <i type="int" name="ANTIRES">     0</i>
   <i name="OMEGAMAX">    -30.00000000</i>
   <i name="OMEGAMIN">    -30.00000000</i>
   <i name="OMEGATL">   -200.00000000</i>
   <i type="int" name="OMEGAGRID">     0</i>
   <i name="CSHIFT">     -0.10000000</i>
   <i type="logical" name="LSELFENERGY"> F  </i>
   <i type="logical" name="LSPECTRAL"> F  </i>
   <i type="logical" name="LSPECTRALGW"> F  </i>
   <i type="logical" name="LSINGLES"> F  </i>
   <i type="logical" name="LFERMIGW"> F  </i>
   <i type="logical" name="ODDONLYGW"> F  </i>
   <i type="logical" name="EVENONLYGW"> F  </i>
   <i type="int" name="NKREDLFX">     1</i>
   <i type="int" name="NKREDLFY">     1</i>
   <i type="int" name="NKREDLFZ">     1</i>
   <i type="int" name="MAXMEM">  2800</i>
   <i type="int" name="TELESCOPE">     0</i>
   <i type="int" name="NTAUPAR">    -1</i>
   <i type="int" name="NOMEGAPAR">    -1</i>
   <i name="DAMP_NEWTON">      0.80000001</i>
   <i name="LAMBDA">      1.00000000</i>
  </separator>
  <separator name="External order field" >
   <i name="OFIELD_KAPPA">      0.00000000</i>
   <v name="OFIELD_K">      0.00000000      0.00000000      0.00000000</v>
   <i name="OFIELD_Q6_NEAR">      0.00000000</i>
   <i name="OFIELD_Q6_FAR">      0.00000000</i>
   <i name="OFIELD_A">      0.00000000</i>
  </separator>
  <separator name="optional k-points parameters" >
   <i type="int" name="KPOINTS_OPT_MODE">     1</i>
   <i type="logical" name="LKPOINTS_OPT"> F  </i>
  </separator>
 </parameters>
 <atominfo>
  <atoms>       2 </atoms>
  <types>       1 </types>
  <array name="atoms" >
   <dimension dim="1">ion</dimension>
   <field type="string">element</field>
   <field type="int">atomtype</field>
   <set>
    <rc><c>Ba</c><c>   1</c></rc>
    <rc><c>Ba</c><c>   1</c></rc>
   </set>
  </array>
  <array name="atomtypes" >
   <dimension dim="1">type</dimension>
   <field type="int">atomspertype</field>
   <field type="string">element</field>
   <field>mass</field>
   <field>valence</field>
   <field type="string">pseudopotential</field>
   <set>
    <rc><c>   2</c><c>Ba</c><c>    137.32700000</c><c>     10.00000000</c><c>  PAW_PBE Ba_sv 06Sep2000               </c></rc>
   </set>
  </array>
 </atominfo>
 <structure name="initialpos" >
  <crystal>
   <varray name="basis" >
    <v>       5.02380800       0.00000000       0.00000000 </v>
    <v>       0.00000000       5.02380800       0.00000000 </v>
    <v>       0.00000000       0.00000000       5.02380800 </v>
   </varray>
   <i name="volume">    126.79411581 </i>
   <varray name="rec_basis" >
    <v>       0.19905219       0.00000000       0.00000000 </v>
    <v>       0.00000000       0.19905219       0.00000000 </v>
    <v>       0.00000000       0.00000000       0.19905219 </v>
   </varray>
  </crystal>
  <varray name="positions" >
   <v>       0.00000000       0.00000000       0.00000000 </v>
   <v>       0.50000000       0.50000000       0.50000000 </v>
  </varray>
 </structure>
 <calculation>
  <scstep>
   <time name="dav">    1.70    1.70</time>
   <time name="total">    1.91    1.90</time>
   <energy>
    <i name="alphaZ">     82.78754210 </i>
    <i name="ewald">  -1043.11684317 </i>
    <i name="hartreedc">   -242.82512342 </i>
    <i name="XCdc">     45.26480946 </i>
    <i name="pawpsdc">   1021.50090896 </i>
    <i name="pawaedc">  -1019.23898033 </i>
    <i name="eentropy">      0.00152226 </i>
    <i name="bandstr">   -248.29780935 </i>
    <i name="atom">   1401.70739034 </i>
    <i name="e_fr_energy">     -2.21658315 </i>
    <i name="e_wo_entrp">     -2.21810541 </i>
    <i name="e_0_energy">     -2.21709057 </i>
   </energy>
  </scstep>
  <scstep>
   <time name="dav">    1.97    1.97</time>
   <time name="total">    2.15    2.15</time>
   <energy>
    <i name="e_fr_energy">     -3.79919340 </i>
    <i name="e_wo_entrp">     -3.80196408 </i>
    <i name="e_0_energy">     -3.80011696 </i>
   </energy>
  </scstep>
  <scstep>
   <time name="dav">    1.79    1.79</time>
   <time name="total">    1.98    1.97</time>
   <energy>
    <i name="e_fr_energy">     -3.81310327 </i>
    <i name="e_wo_entrp">     -3.81594421 </i>
    <i name="e_0_energy">     -3.81405025 </i>
   </energy>
  </scstep>
  <scstep>
   <time name="dav">    1.88    1.88</time>
   <time name="total">    2.07    2.06</time>
   <energy>
    <i name="e_fr_energy">     -3.81527966 </i>
    <i name="e_wo_entrp">     -3.81811409 </i>
    <i name="e_0_energy">     -3.81622447 </i>
   </energy>
  </scstep>
  <scstep>
   <time name="dav">    1.35    1.35</time>
   <time name="total">    1.54    1.53</time>
   <energy>
    <i name="e_fr_energy">     -3.81541920 </i>
    <i name="e_wo_entrp">     -3.81825102 </i>
    <i name="e_0_energy">     -3.81636314 </i>
   </energy>
  </scstep>
  <scstep>
   <time name="dav">    1.03    1.03</time>
   <time name="total">    1.05    1.04</time>
   <energy>
    <i name="alphaZ">     82.78754210 </i>
    <i name="ewald">  -1043.11684317 </i>
    <i name="hartreedc">   -242.34233272 </i>
    <i name="XCdc">     48.88767102 </i>
    <i name="pawpsdc">   1163.36029683 </i>
    <i name="pawaedc">  -1160.67574310 </i>
    <i name="eentropy">      0.00283343 </i>
    <i name="bandstr">   -254.42623877 </i>
    <i name="atom">   1401.70739034 </i>
    <i name="e_fr_energy">     -3.81542404 </i>
    <i name="e_wo_entrp">     -3.81825747 </i>
    <i name="e_0_energy">     -3.81636852 </i>
   </energy>
  </scstep>
  <structure>
   <crystal>
    <varray name="basis" >
     <v>       5.02380800       0.00000000       0.00000000 </v>
     <v>       0.00000000       5.02380800       0.00000000 </v>
     <v>       0.00000000       0.00000000       5.02380800 </v>
    </varray>
    <i name="volume">    126.79411581 </i>
    <varray name="rec_basis" >
     <v>       0.19905219       0.00000000       0.00000000 </v>
     <v>       0.00000000       0.19905219       0.00000000 </v>
     <v>       0.00000000       0.00000000       0.19905219 </v>
    </varray>
   </crystal>
   <varray name="positions" >
    <v>       0.00000000       0.00000000       0.00000000 </v>
    <v>       0.50000000       0.50000000       0.50000000 </v>
   </varray>
  </structure>
  <varray name="forces" >
   <v>       0.00000000      -0.00000000      -0.00000000 </v>
   <v>      -0.00000000       0.00000000       0.00000000 </v>
  </varray>
  <varray name="stress" >
   <v>       0.20931036      -0.00000000      -0.00000000 </v>
   <v>      -0.00000000       0.20931036       0.00000000 </v>
   <v>      -0.00000000      -0.00000000       0.20931036 </v>
  </varray>
  <energy>
   <i name="e_fr_energy">     -3.81542404 </i>
   <i name="e_wo_entrp">     -3.81825747 </i>
   <i name="e_0_energy">     -3.81636852 </i>
  </energy>
  <time name="totalsc">   15.26   15.06</time>
  <eigenvalues>
   <array>
    <dimension dim="1">band</dimension>
    <dimension dim="2">kpoint</dimension>
    <dimension dim="3">spin</dimension>
    <field>eigene</field>
    <field>occ</field>
    <set>
     <set comment="spin 1">
      <set comment="kpoint 1">
       <r>  -27.2700    1.0000 </r>
       <r>  -27.1966    1.0000 </r>
       <r>  -12.5353    1.0000 </r>
       <r>  -12.5353    1.0000 </r>
       <r>  -12.5353    1.0000 </r>
       <r>  -12.2224    1.0000 </r>
       <r>  -12.2224    1.0000 </r>
       <r>  -12.2224    1.0000 </r>
       <r>   -1.1224    1.0000 </r>
       <r>    1.0900    1.0007 </r>
       <r>    1.0900    1.0007 </r>
       <r>    3.4484   -0.0000 </r>
       <r>    3.4484   -0.0000 </r>
       <r>    3.4484   -0.0000 </r>
      </set>
      <set comment="kpoint 2">
       <r>  -27.2688    1.0000 </r>
       <r>  -27.1975    1.0000 </r>
       <r>  -12.5356    1.0000 </r>
       <r>  -12.5306    1.0000 </r>
       <r>  -12.5306    1.0000 </r>
       <r>  -12.2322    1.0000 </r>
       <r>  -12.2268    1.0000 </r>
       <r>  -12.2268    1.0000 </r>
       <r>   -1.0667    1.0000 </r>
       <r>    1.1213    1.0014 </r>
       <r>    1.1269    1.0016 </r>
       <r>    3.4298   -0.0000 </r>
       <r>    3.4298   -0.0000 </r>
       <r>    3.4761   -0.0000 </r>
      </set>
      <set comment="kpoint 3">
       <r>  -27.2652    1.0000 </r>
       <r>  -27.2002    1.0000 </r>
       <r>  -12.5355    1.0000 </r>
       <r>  -12.5168    1.0000 </r>
       <r>  -12.5168    1.0000 </r>
       <r>  -12.2600    1.0000 </r>
       <r>  -12.2396    1.0000 </r>
       <r>  -12.2396    1.0000 </r>
       <r>   -0.9035    1.0000 </r>
       <r>    1.2150    1.0085 </r>
       <r>    1.2222    1.0095 </r>
       <r>    3.3843   -0.0000 </r>
       <r>    3.3843   -0.0000 </r>
       <r>    4.3710   -0.0000 </r>
      </set>
      <set comment="kpoint 4">
       <r>  -27.2596    1.0000 </r>
       <r>  -27.2046    1.0000 </r>
       <r>  -12.5329    1.0000 </r>
       <r>  -12.4946    1.0000 </r>
       <r>  -12.4946    1.0000 </r>
       <r>  -12.3013    1.0000 </r>
       <r>  -12.2602    1.0000 </r>
       <r>  -12.2602    1.0000 </r>
       <r>   -0.6431    1.0000 </r>
       <r>    1.3248    1.0305 </r>
       <r>    1.3706    1.0354 </r>
       <r>    3.3363   -0.0000 </r>
       <r>    3.3363   -0.0000 </r>
       <r>    3.9305   -0.0000 </r>
      </set>
      <set comment="kpoint 5">
       <r>  -27.2524    1.0000 </r>
       <r>  -27.2106    1.0000 </r>
       <r>  -12.5248    1.0000 </r>
       <r>  -12.4656    1.0000 </r>
       <r>  -12.4656    1.0000 </r>
       <r>  -12.3502    1.0000 </r>
       <r>  -12.2876    1.0000 </r>
       <r>  -12.2876    1.0000 </r>
       <r>   -0.3026    1.0000 </r>
       <r>    1.3474    1.0342 </r>
       <r>    1.5869    0.6035 </r>
       <r>    3.3125   -0.0000 </r>
       <r>    3.3125   -0.0000 </r>
       <r>    3.4609   -0.0000 </r>
      </set>
      <set comment="kpoint 6">
       <r>  -27.2440    1.0000 </r>
       <r>  -27.2180    1.0000 </r>
       <r>  -12.5085    1.0000 </r>
       <r>  -12.4316    1.0000 </r>
       <r>  -12.4316    1.0000 </r>
       <r>  -12.4000    1.0000 </r>
       <r>  -12.3204    1.0000 </r>
       <r>  -12.3204    1.0000 </r>
       <r>    0.0941    1.0000 </r>
       <r>    1.2087    1.0076 </r>
       <r>    1.8619   -0.0353 </r>
       <r>    3.0020   -0.0000 </r>
       <r>    3.3352   -0.0000 </r>
       <r>    3.3352   -0.0000 </r>
      </set>
      <set comment="kpoint 7">
       <r>  -27.2351    1.0000 </r>
       <r>  -27.2263    1.0000 </r>
       <r>  -12.4820    1.0000 </r>
       <r>  -12.4452    1.0000 </r>
       <r>  -12.3945    1.0000 </r>
       <r>  -12.3945    1.0000 </r>
       <r>  -12.3567    1.0000 </r>
       <r>  -12.3567    1.0000 </r>
       <r>    0.5138    1.0000 </r>
       <r>    0.9082    1.0000 </r>
       <r>    2.1929   -0.0002 </r>
       <r>    2.5753   -0.0000 </r>
       <r>    3.4196   -0.0000 </r>
       <r>    3.4196   -0.0000 </r>
      </set>
      <set comment="kpoint 8">
       <r>  -27.2676    1.0000 </r>
       <r>  -27.1984    1.0000 </r>
       <r>  -12.5434    1.0000 </r>
       <r>  -12.5260    1.0000 </r>
       <r>  -12.5185    1.0000 </r>
       <r>  -12.2502    1.0000 </r>
       <r>  -12.2310    1.0000 </r>
       <r>  -12.2226    1.0000 </r>
       <r>   -1.0120    1.0000 </r>
       <r>    1.1536    1.0028 </r>
       <r>    1.1623    1.0033 </r>
       <r>    3.3571   -0.0000 </r>
       <r>    3.4013   -0.0000 </r>
       <r>    3.5605   -0.0000 </r>
      </set>
      <set comment="kpoint 9">
       <r>  -27.2641    1.0000 </r>
       <r>  -27.2010    1.0000 </r>
       <r>  -12.5495    1.0000 </r>
       <r>  -12.5125    1.0000 </r>
       <r>  -12.4991    1.0000 </r>
       <r>  -12.2837    1.0000 </r>
       <r>  -12.2433    1.0000 </r>
       <r>  -12.2285    1.0000 </r>
       <r>   -0.8515    1.0000 </r>
       <r>    1.2418    1.0126 </r>
       <r>    1.2613    1.0164 </r>
       <r>    3.2739   -0.0000 </r>
       <r>    3.3278   -0.0000 </r>
       <r>    3.6873   -0.0000 </r>
      </set>
      <set comment="kpoint 10">
       <r>  -27.2587    1.0000 </r>
       <r>  -27.2053    1.0000 </r>
       <r>  -12.5509    1.0000 </r>
       <r>  -12.4909    1.0000 </r>
       <r>  -12.4739    1.0000 </r>
       <r>  -12.3279    1.0000 </r>
       <r>  -12.2633    1.0000 </r>
       <r>  -12.2447    1.0000 </r>
       <r>   -0.5957    1.0000 </r>
       <r>    1.3523    1.0347 </r>
       <r>    1.4032    1.0289 </r>
       <r>    3.2078   -0.0000 </r>
       <r>    3.2285   -0.0000 </r>
       <r>    3.8634   -0.0000 </r>
      </set>
      <set comment="kpoint 11">
       <r>  -27.2516    1.0000 </r>
       <r>  -27.2111    1.0000 </r>
       <r>  -12.5457    1.0000 </r>
       <r>  -12.4627    1.0000 </r>
       <r>  -12.4434    1.0000 </r>
       <r>  -12.3775    1.0000 </r>
       <r>  -12.2898    1.0000 </r>
       <r>  -12.2693    1.0000 </r>
       <r>   -0.2618    1.0000 </r>
       <r>    1.3728    1.0353 </r>
       <r>    1.6080    0.5150 </r>
       <r>    3.0902   -0.0000 </r>
       <r>    3.1756   -0.0000 </r>
       <r>    3.7303   -0.0000 </r>
      </set>
      <set comment="kpoint 12">
       <r>  -27.2435    1.0000 </r>
       <r>  -27.2182    1.0000 </r>
       <r>  -12.5315    1.0000 </r>
       <r>  -12.4295    1.0000 </r>
       <r>  -12.4271    1.0000 </r>
       <r>  -12.4089    1.0000 </r>
       <r>  -12.3216    1.0000 </r>
       <r>  -12.3001    1.0000 </r>
       <r>    0.1265    1.0000 </r>
       <r>    1.2274    1.0102 </r>
       <r>    1.8685   -0.0349 </r>
       <r>    2.8473   -0.0000 </r>
       <r>    3.1934   -0.0000 </r>
       <r>    3.5480   -0.0000 </r>
      </set>
      <set comment="kpoint 13">
       <r>  -27.2349    1.0000 </r>
       <r>  -27.2263    1.0000 </r>
       <r>  -12.5068    1.0000 </r>
       <r>  -12.4714    1.0000 </r>
       <r>  -12.3935    1.0000 </r>
       <r>  -12.3720    1.0000 </r>
       <r>  -12.3568    1.0000 </r>
       <r>  -12.3351    1.0000 </r>
       <r>    0.5374    1.0000 </r>
       <r>    0.9259    1.0000 </r>
       <r>    2.1761   -0.0002 </r>
       <r>    2.5154   -0.0000 </r>
       <r>    3.2737   -0.0000 </r>
       <r>    3.4245   -0.0000 </r>
      </set>
      <set comment="kpoint 14">
       <r>  -27.2610    1.0000 </r>
       <r>  -27.2033    1.0000 </r>
       <r>  -12.5657    1.0000 </r>
       <r>  -12.5000    1.0000 </r>
       <r>  -12.4713    1.0000 </r>
       <r>  -12.3256    1.0000 </r>
       <r>  -12.2544    1.0000 </r>
       <r>  -12.2230    1.0000 </r>
       <r>   -0.6992    1.0000 </r>
       <r>    1.3097    1.0272 </r>
       <r>    1.3729    1.0353 </r>
       <r>    3.1300   -0.0000 </r>
       <r>    3.1962   -0.0000 </r>
       <r>    3.8920   -0.0000 </r>
      </set>
      <set comment="kpoint 15">
       <r>  -27.2559    1.0000 </r>
       <r>  -27.2072    1.0000 </r>
       <r>  -12.5764    1.0000 </r>
       <r>  -12.4801    1.0000 </r>
       <r>  -12.4398    1.0000 </r>
       <r>  -12.3754    1.0000 </r>
       <r>  -12.2724    1.0000 </r>
       <r>  -12.2289    1.0000 </r>
       <r>   -0.4579    1.0000 </r>
       <r>    1.3922    1.0325 </r>
       <r>    1.5239    0.8344 </r>
       <r>    3.0163   -0.0000 </r>
       <r>    3.0383   -0.0000 </r>
       <r>    3.9628   -0.0000 </r>
      </set>
      <set comment="kpoint 16">
       <r>  -27.2494    1.0000 </r>
       <r>  -27.2124    1.0000 </r>
       <r>  -12.5789    1.0000 </r>
       <r>  -12.4541    1.0000 </r>
       <r>  -12.4277    1.0000 </r>
       <r>  -12.4055    1.0000 </r>
       <r>  -12.2964    1.0000 </r>
       <r>  -12.2449    1.0000 </r>
       <r>   -0.1451    1.0000 </r>
       <r>    1.4009    1.0298 </r>
       <r>    1.7020    0.1573 </r>
       <r>    2.8663   -0.0000 </r>
       <r>    2.9496   -0.0000 </r>
       <r>    3.6177   -0.0000 </r>
      </set>
      <set comment="kpoint 17">
       <r>  -27.2419    1.0000 </r>
       <r>  -27.2189    1.0000 </r>
       <r>  -12.5711    1.0000 </r>
       <r>  -12.4773    1.0000 </r>
       <r>  -12.4236    1.0000 </r>
       <r>  -12.3696    1.0000 </r>
       <r>  -12.3251    1.0000 </r>
       <r>  -12.2691    1.0000 </r>
       <r>    0.2156    1.0000 </r>
       <r>    1.2478    1.0137 </r>
       <r>    1.9197   -0.0258 </r>
       <r>    2.6657   -0.0000 </r>
       <r>    2.9417   -0.0000 </r>
       <r>    3.3390   -0.0000 </r>
      </set>
      <set comment="kpoint 18">
       <r>  -27.2340    1.0000 </r>
       <r>  -27.2262    1.0000 </r>
       <r>  -12.5514    1.0000 </r>
       <r>  -12.5196    1.0000 </r>
       <r>  -12.3906    1.0000 </r>
       <r>  -12.3571    1.0000 </r>
       <r>  -12.3336    1.0000 </r>
       <r>  -12.2994    1.0000 </r>
       <r>    0.5953    1.0000 </r>
       <r>    0.9568    1.0000 </r>
       <r>    2.1690   -0.0003 </r>
       <r>    2.4273   -0.0000 </r>
       <r>    3.0012   -0.0000 </r>
       <r>    3.1330   -0.0000 </r>
      </set>
      <set comment="kpoint 19">
       <r>  -27.2515    1.0000 </r>
       <r>  -27.2104    1.0000 </r>
       <r>  -12.5968    1.0000 </r>
       <r>  -12.4629    1.0000 </r>
       <r>  -12.4289    1.0000 </r>
       <r>  -12.4033    1.0000 </r>
       <r>  -12.2872    1.0000 </r>
       <r>  -12.2237    1.0000 </r>
       <r>   -0.2423    1.0000 </r>
       <r>    1.4126    1.0246 </r>
       <r>    1.7009    0.1606 </r>
       <r>    2.8568   -0.0000 </r>
       <r>    2.8599   -0.0000 </r>
       <r>    3.5979   -0.0000 </r>
      </set>
      <set comment="kpoint 20">
       <r>  -27.2459    1.0000 </r>
       <r>  -27.2147    1.0000 </r>
       <r>  -12.6084    1.0000 </r>
       <r>  -12.4823    1.0000 </r>
       <r>  -12.4405    1.0000 </r>
       <r>  -12.3665    1.0000 </r>
       <r>  -12.3070    1.0000 </r>
       <r>  -12.2294    1.0000 </r>
       <r>    0.0315    1.0000 </r>
       <r>    1.3629    1.0354 </r>
       <r>    1.8881   -0.0324 </r>
       <r>    2.7073   -0.0000 </r>
       <r>    2.7510   -0.0000 </r>
       <r>    3.2797   -0.0000 </r>
      </set>
      <set comment="kpoint 21">
       <r>  -27.2395    1.0000 </r>
       <r>  -27.2200    1.0000 </r>
       <r>  -12.6087    1.0000 </r>
       <r>  -12.5306    1.0000 </r>
       <r>  -12.4143    1.0000 </r>
       <r>  -12.3310    1.0000 </r>
       <r>  -12.3306    1.0000 </r>
       <r>  -12.2446    1.0000 </r>
       <r>    0.3393    1.0000 </r>
       <r>    1.2033    1.0070 </r>
       <r>    2.0708   -0.0027 </r>
       <r>    2.5673   -0.0000 </r>
       <r>    2.7098   -0.0000 </r>
       <r>    3.0263   -0.0000 </r>
      </set>
      <set comment="kpoint 22">
       <r>  -27.2328    1.0000 </r>
       <r>  -27.2262    1.0000 </r>
       <r>  -12.5959    1.0000 </r>
       <r>  -12.5694    1.0000 </r>
       <r>  -12.3862    1.0000 </r>
       <r>  -12.3579    1.0000 </r>
       <r>  -12.2971    1.0000 </r>
       <r>  -12.2679    1.0000 </r>
       <r>    0.6555    1.0000 </r>
       <r>    0.9539    1.0000 </r>
       <r>    2.2505   -0.0000 </r>
       <r>    2.4185   -0.0000 </r>
       <r>    2.7402   -0.0000 </r>
       <r>    2.8515   -0.0000 </r>
      </set>
      <set comment="kpoint 23">
       <r>  -27.2415    1.0000 </r>
       <r>  -27.2178    1.0000 </r>
       <r>  -12.6293    1.0000 </r>
       <r>  -12.5347    1.0000 </r>
       <r>  -12.4228    1.0000 </r>
       <r>  -12.3293    1.0000 </r>
       <r>  -12.3215    1.0000 </r>
       <r>  -12.2244    1.0000 </r>
       <r>    0.2447    1.0000 </r>
       <r>    1.2543    1.0150 </r>
       <r>    2.1074   -0.0013 </r>
       <r>    2.6082   -0.0000 </r>
       <r>    2.6133   -0.0000 </r>
       <r>    2.9879   -0.0000 </r>
      </set>
      <set comment="kpoint 24">
       <r>  -27.2365    1.0000 </r>
       <r>  -27.2217    1.0000 </r>
       <r>  -12.6383    1.0000 </r>
       <r>  -12.5797    1.0000 </r>
       <r>  -12.4025    1.0000 </r>
       <r>  -12.3392    1.0000 </r>
       <r>  -12.2956    1.0000 </r>
       <r>  -12.2298    1.0000 </r>
       <r>    0.4705    1.0000 </r>
       <r>    1.0931    1.0008 </r>
       <r>    2.2996   -0.0000 </r>
       <r>    2.5332   -0.0000 </r>
       <r>    2.5645   -0.0000 </r>
       <r>    2.7614   -0.0000 </r>
      </set>
      <set comment="kpoint 25">
       <r>  -27.2313    1.0000 </r>
       <r>  -27.2263    1.0000 </r>
       <r>  -12.6333    1.0000 </r>
       <r>  -12.6134    1.0000 </r>
       <r>  -12.3809    1.0000 </r>
       <r>  -12.3594    1.0000 </r>
       <r>  -12.2668    1.0000 </r>
       <r>  -12.2444    1.0000 </r>
       <r>    0.6917    1.0000 </r>
       <r>    0.9011    1.0000 </r>
       <r>    2.4381   -0.0000 </r>
       <r>    2.5200   -0.0000 </r>
       <r>    2.5323   -0.0000 </r>
       <r>    2.6084   -0.0000 </r>
      </set>
      <set comment="kpoint 26">
       <r>  -27.2332    1.0000 </r>
       <r>  -27.2239    1.0000 </r>
       <r>  -12.6560    1.0000 </r>
       <r>  -12.6198    1.0000 </r>
       <r>  -12.3891    1.0000 </r>
       <r>  -12.3496    1.0000 </r>
       <r>  -12.2664    1.0000 </r>
       <r>  -12.2250    1.0000 </r>
       <r>    0.5924    1.0000 </r>
       <r>    0.9586    1.0000 </r>
       <r>    2.4254   -0.0000 </r>
       <r>    2.5219   -0.0000 </r>
       <r>    2.5629   -0.0000 </r>
       <r>    2.6279   -0.0000 </r>
      </set>
      <set comment="kpoint 27">
       <r>  -27.2298    1.0000 </r>
       <r>  -27.2267    1.0000 </r>
       <r>  -12.6593    1.0000 </r>
       <r>  -12.6470    1.0000 </r>
       <r>  -12.3753    1.0000 </r>
       <r>  -12.3618    1.0000 </r>
       <r>  -12.2442    1.0000 </r>
       <r>  -12.2301    1.0000 </r>
       <r>    0.7075    1.0000 </r>
       <r>    0.8274    1.0000 </r>
       <r>    2.3930   -0.0000 </r>
       <r>    2.4389   -0.0000 </r>
       <r>    2.6612   -0.0000 </r>
       <r>    2.6861   -0.0000 </r>
      </set>
      <set comment="kpoint 28">
       <r>  -27.2285    1.0000 </r>
       <r>  -27.2274    1.0000 </r>
       <r>  -12.6710    1.0000 </r>
       <r>  -12.6668    1.0000 </r>
       <r>  -12.3699    1.0000 </r>
       <r>  -12.3653    1.0000 </r>
       <r>  -12.2302    1.0000 </r>
       <r>  -12.2254    1.0000 </r>
       <r>    0.7256    1.0000 </r>
       <r>    0.7643    1.0000 </r>
       <r>    2.3295   -0.0000 </r>
       <r>    2.3449   -0.0000 </r>
       <r>    2.8130   -0.0000 </r>
       <r>    2.8161   -0.0000 </r>
      </set>
      <set comment="kpoint 29">
       <r>  -27.2665    1.0000 </r>
       <r>  -27.1992    1.0000 </r>
       <r>  -12.5386    1.0000 </r>
       <r>  -12.5386    1.0000 </r>
       <r>  -12.5022    1.0000 </r>
       <r>  -12.2671    1.0000 </r>
       <r>  -12.2271    1.0000 </r>
       <r>  -12.2271    1.0000 </r>
       <r>   -0.9581    1.0000 </r>
       <r>    1.1918    1.0057 </r>
       <r>    1.1918    1.0057 </r>
       <r>    3.3270   -0.0000 </r>
       <r>    3.3270   -0.0000 </r>
       <r>    3.6453   -0.0000 </r>
      </set>
      <set comment="kpoint 30">
       <r>  -27.2631    1.0000 </r>
       <r>  -27.2017    1.0000 </r>
       <r>  -12.5502    1.0000 </r>
       <r>  -12.5244    1.0000 </r>
       <r>  -12.4788    1.0000 </r>
       <r>  -12.3021    1.0000 </r>
       <r>  -12.2402    1.0000 </r>
       <r>  -12.2293    1.0000 </r>
       <r>   -0.7999    1.0000 </r>
       <r>    1.2796    1.0203 </r>
       <r>    1.2898    1.0227 </r>
       <r>    3.2204   -0.0000 </r>
       <r>    3.2454   -0.0000 </r>
       <r>    3.7975   -0.0000 </r>
      </set>
      <set comment="kpoint 31">
       <r>  -27.2578    1.0000 </r>
       <r>  -27.2059    1.0000 </r>
       <r>  -12.5563    1.0000 </r>
       <r>  -12.5018    1.0000 </r>
       <r>  -12.4515    1.0000 </r>
       <r>  -12.3471    1.0000 </r>
       <r>  -12.2614    1.0000 </r>
       <r>  -12.2412    1.0000 </r>
       <r>   -0.5482    1.0000 </r>
       <r>    1.3927    1.0323 </r>
       <r>    1.4243    1.0172 </r>
       <r>    3.1275   -0.0000 </r>
       <r>    3.1371   -0.0000 </r>
       <r>    3.8116   -0.0000 </r>
      </set>
      <set comment="kpoint 32">
       <r>  -27.2509    1.0000 </r>
       <r>  -27.2115    1.0000 </r>
       <r>  -12.5550    1.0000 </r>
       <r>  -12.4721    1.0000 </r>
       <r>  -12.4207    1.0000 </r>
       <r>  -12.3968    1.0000 </r>
       <r>  -12.2896    1.0000 </r>
       <r>  -12.2613    1.0000 </r>
       <r>   -0.2202    1.0000 </r>
       <r>    1.4059    1.0278 </r>
       <r>    1.6231    0.4513 </r>
       <r>    2.9706   -0.0000 </r>
       <r>    3.0965   -0.0000 </r>
       <r>    3.5556   -0.0000 </r>
      </set>
      <set comment="kpoint 33">
       <r>  -27.2430    1.0000 </r>
       <r>  -27.2184    1.0000 </r>
       <r>  -12.5439    1.0000 </r>
       <r>  -12.4455    1.0000 </r>
       <r>  -12.4372    1.0000 </r>
       <r>  -12.3873    1.0000 </r>
       <r>  -12.3232    1.0000 </r>
       <r>  -12.2879    1.0000 </r>
       <r>    0.1606    1.0000 </r>
       <r>    1.2515    1.0144 </r>
       <r>    1.8705   -0.0348 </r>
       <r>    2.7483   -0.0000 </r>
       <r>    3.1101   -0.0000 </r>
       <r>    3.4074   -0.0000 </r>
      </set>
      <set comment="kpoint 34">
       <r>  -27.2346    1.0000 </r>
       <r>  -27.2262    1.0000 </r>
       <r>  -12.5217    1.0000 </r>
       <r>  -12.4883    1.0000 </r>
       <r>  -12.3992    1.0000 </r>
       <r>  -12.3605    1.0000 </r>
       <r>  -12.3528    1.0000 </r>
       <r>  -12.3191    1.0000 </r>
       <r>    0.5637    1.0000 </r>
       <r>    0.9473    1.0000 </r>
       <r>    2.1567   -0.0004 </r>
       <r>    2.4619   -0.0000 </r>
       <r>    3.1788   -0.0000 </r>
       <r>    3.2873   -0.0000 </r>
      </set>
      <set comment="kpoint 35">
       <r>  -27.2600    1.0000 </r>
       <r>  -27.2040    1.0000 </r>
       <r>  -12.5606    1.0000 </r>
       <r>  -12.5196    1.0000 </r>
       <r>  -12.4501    1.0000 </r>
       <r>  -12.3410    1.0000 </r>
       <r>  -12.2491    1.0000 </r>
       <r>  -12.2278    1.0000 </r>
       <r>   -0.6490    1.0000 </r>
       <r>    1.3534    1.0348 </r>
       <r>    1.3966    1.0313 </r>
       <r>    3.0864   -0.0000 </r>
       <r>    3.1175   -0.0000 </r>
       <r>    3.7498   -0.0000 </r>
      </set>
      <set comment="kpoint 36">
       <r>  -27.2550    1.0000 </r>
       <r>  -27.2077    1.0000 </r>
       <r>  -12.5727    1.0000 </r>
       <r>  -12.4992    1.0000 </r>
       <r>  -12.4190    1.0000 </r>
       <r>  -12.3887    1.0000 </r>
       <r>  -12.2684    1.0000 </r>
       <r>  -12.2325    1.0000 </r>
       <r>   -0.4101    1.0000 </r>
       <r>    1.4427    1.0005 </r>
       <r>    1.5392    0.7850 </r>
       <r>    2.9565   -0.0000 </r>
       <r>    2.9775   -0.0000 </r>
       <r>    3.4034   -0.0000 </r>
      </set>
      <set comment="kpoint 37">
       <r>  -27.2487    1.0000 </r>
       <r>  -27.2128    1.0000 </r>
       <r>  -12.5780    1.0000 </r>
       <r>  -12.4707    1.0000 </r>
       <r>  -12.4391    1.0000 </r>
       <r>  -12.3865    1.0000 </r>
       <r>  -12.2949    1.0000 </r>
       <r>  -12.2455    1.0000 </r>
       <r>   -0.1011    1.0000 </r>
       <r>    1.4511    0.9906 </r>
       <r>    1.7046    0.1496 </r>
       <r>    2.7888   -0.0000 </r>
       <r>    2.9082   -0.0000 </r>
       <r>    3.2085   -0.0000 </r>
      </set>
      <set comment="kpoint 38">
       <r>  -27.2415    1.0000 </r>
       <r>  -27.2190    1.0000 </r>
       <r>  -12.5730    1.0000 </r>
       <r>  -12.4866    1.0000 </r>
       <r>  -12.4369    1.0000 </r>
       <r>  -12.3536    1.0000 </r>
       <r>  -12.3269    1.0000 </r>
       <r>  -12.2658    1.0000 </r>
       <r>    0.2546    1.0000 </r>
       <r>    1.2862    1.0218 </r>
       <r>    1.9094   -0.0281 </r>
       <r>    2.5966   -0.0000 </r>
       <r>    2.9027   -0.0000 </r>
       <r>    3.1259   -0.0000 </r>
      </set>
      <set comment="kpoint 39">
       <r>  -27.2338    1.0000 </r>
       <r>  -27.2261    1.0000 </r>
       <r>  -12.5559    1.0000 </r>
       <r>  -12.5266    1.0000 </r>
       <r>  -12.4001    1.0000 </r>
       <r>  -12.3627    1.0000 </r>
       <r>  -12.3215    1.0000 </r>
       <r>  -12.2916    1.0000 </r>
       <r>    0.6291    1.0000 </r>
       <r>    0.9888    1.0000 </r>
       <r>    2.1409   -0.0006 </r>
       <r>    2.3773   -0.0000 </r>
       <r>    2.9547   -0.0000 </r>
       <r>    3.0431   -0.0000 </r>
      </set>
      <set comment="kpoint 40">
       <r>  -27.2508    1.0000 </r>
       <r>  -27.2108    1.0000 </r>
       <r>  -12.5912    1.0000 </r>
       <r>  -12.4826    1.0000 </r>
       <r>  -12.4383    1.0000 </r>
       <r>  -12.3852    1.0000 </r>
       <r>  -12.2840    1.0000 </r>
       <r>  -12.2290    1.0000 </r>
       <r>   -0.1944    1.0000 </r>
       <r>    1.4676    0.9665 </r>
       <r>    1.7147    0.1213 </r>
       <r>    2.8031   -0.0000 </r>
       <r>    2.8132   -0.0000 </r>
       <r>    3.1022   -0.0000 </r>
      </set>
      <set comment="kpoint 41">
       <r>  -27.2453    1.0000 </r>
       <r>  -27.2150    1.0000 </r>
       <r>  -12.6035    1.0000 </r>
       <r>  -12.4886    1.0000 </r>
       <r>  -12.4578    1.0000 </r>
       <r>  -12.3519    1.0000 </r>
       <r>  -12.3058    1.0000 </r>
       <r>  -12.2338    1.0000 </r>
       <r>    0.0789    1.0000 </r>
       <r>    1.4192    1.0207 </r>
       <r>    1.8897   -0.0321 </r>
       <r>    2.6476   -0.0000 </r>
       <r>    2.7195   -0.0000 </r>
       <r>    2.9483   -0.0000 </r>
      </set>
      <set comment="kpoint 42">
       <r>  -27.2391    1.0000 </r>
       <r>  -27.2201    1.0000 </r>
       <r>  -12.6054    1.0000 </r>
       <r>  -12.5341    1.0000 </r>
       <r>  -12.4281    1.0000 </r>
       <r>  -12.3328    1.0000 </r>
       <r>  -12.3202    1.0000 </r>
       <r>  -12.2467    1.0000 </r>
       <r>    0.3854    1.0000 </r>
       <r>    1.2531    1.0147 </r>
       <r>    2.0516   -0.0040 </r>
       <r>    2.5037   -0.0000 </r>
       <r>    2.6910   -0.0000 </r>
       <r>    2.8754   -0.0000 </r>
      </set>
      <set comment="kpoint 43">
       <r>  -27.2325    1.0000 </r>
       <r>  -27.2261    1.0000 </r>
       <r>  -12.5946    1.0000 </r>
       <r>  -12.5704    1.0000 </r>
       <r>  -12.3958    1.0000 </r>
       <r>  -12.3634    1.0000 </r>
       <r>  -12.2913    1.0000 </r>
       <r>  -12.2663    1.0000 </r>
       <r>    0.6998    1.0000 </r>
       <r>    0.9984    1.0001 </r>
       <r>    2.2099   -0.0001 </r>
       <r>    2.3612   -0.0000 </r>
       <r>    2.7216   -0.0000 </r>
       <r>    2.7943   -0.0000 </r>
      </set>
      <set comment="kpoint 44">
       <r>  -27.2410    1.0000 </r>
       <r>  -27.2180    1.0000 </r>
       <r>  -12.6234    1.0000 </r>
       <r>  -12.5373    1.0000 </r>
       <r>  -12.4381    1.0000 </r>
       <r>  -12.3215    1.0000 </r>
       <r>  -12.3195    1.0000 </r>
       <r>  -12.2302    1.0000 </r>
       <r>    0.2956    1.0000 </r>
       <r>    1.3099    1.0273 </r>
       <r>    2.1071   -0.0013 </r>
       <r>    2.5686   -0.0000 </r>
       <r>    2.5723   -0.0000 </r>
       <r>    2.7768   -0.0000 </r>
      </set>
      <set comment="kpoint 45">
       <r>  -27.2361    1.0000 </r>
       <r>  -27.2218    1.0000 </r>
       <r>  -12.6327    1.0000 </r>
       <r>  -12.5794    1.0000 </r>
       <r>  -12.4145    1.0000 </r>
       <r>  -12.3412    1.0000 </r>
       <r>  -12.2905    1.0000 </r>
       <r>  -12.2349    1.0000 </r>
       <r>    0.5234    1.0000 </r>
       <r>    1.1465    1.0024 </r>
       <r>    2.2802   -0.0000 </r>
       <r>    2.4753   -0.0000 </r>
       <r>    2.5483   -0.0000 </r>
       <r>    2.6634   -0.0000 </r>
      </set>
      <set comment="kpoint 46">
       <r>  -27.2311    1.0000 </r>
       <r>  -27.2262    1.0000 </r>
       <r>  -12.6289    1.0000 </r>
       <r>  -12.6108    1.0000 </r>
       <r>  -12.3892    1.0000 </r>
       <r>  -12.3642    1.0000 </r>
       <r>  -12.2661    1.0000 </r>
       <r>  -12.2472    1.0000 </r>
       <r>    0.7449    1.0000 </r>
       <r>    0.9537    1.0000 </r>
       <r>    2.3780   -0.0000 </r>
       <r>    2.4234   -0.0000 </r>
       <r>    2.5603   -0.0000 </r>
       <r>    2.5932   -0.0000 </r>
      </set>
      <set comment="kpoint 47">
       <r>  -27.2329    1.0000 </r>
       <r>  -27.2239    1.0000 </r>
       <r>  -12.6497    1.0000 </r>
       <r>  -12.6168    1.0000 </r>
       <r>  -12.3985    1.0000 </r>
       <r>  -12.3525    1.0000 </r>
       <r>  -12.2659    1.0000 </r>
       <r>  -12.2312    1.0000 </r>
       <r>    0.6496    1.0000 </r>
       <r>    1.0135    1.0001 </r>
       <r>    2.3979   -0.0000 </r>
       <r>    2.5004   -0.0000 </r>
       <r>    2.5035   -0.0000 </r>
       <r>    2.5859   -0.0000 </r>
      </set>
      <set comment="kpoint 48">
       <r>  -27.2296    1.0000 </r>
       <r>  -27.2266    1.0000 </r>
       <r>  -12.6533    1.0000 </r>
       <r>  -12.6422    1.0000 </r>
       <r>  -12.3819    1.0000 </r>
       <r>  -12.3662    1.0000 </r>
       <r>  -12.2474    1.0000 </r>
       <r>  -12.2356    1.0000 </r>
       <r>    0.7654    1.0000 </r>
       <r>    0.8840    1.0000 </r>
       <r>    2.3631   -0.0000 </r>
       <r>    2.3978   -0.0000 </r>
       <r>    2.6375   -0.0000 </r>
       <r>    2.6514   -0.0000 </r>
      </set>
      <set comment="kpoint 49">
       <r>  -27.2283    1.0000 </r>
       <r>  -27.2272    1.0000 </r>
       <r>  -12.6645    1.0000 </r>
       <r>  -12.6607    1.0000 </r>
       <r>  -12.3752    1.0000 </r>
       <r>  -12.3698    1.0000 </r>
       <r>  -12.2358    1.0000 </r>
       <r>  -12.2318    1.0000 </r>
       <r>    0.7848    1.0000 </r>
       <r>    0.8229    1.0000 </r>
       <r>    2.3070   -0.0000 </r>
       <r>    2.3197   -0.0000 </r>
       <r>    2.7774   -0.0000 </r>
       <r>    2.7779   -0.0000 </r>
      </set>
      <set comment="kpoint 50">
       <r>  -27.2571    1.0000 </r>
       <r>  -27.2061    1.0000 </r>
       <r>  -12.5455    1.0000 </r>
       <r>  -12.5455    1.0000 </r>
       <r>  -12.4187    1.0000 </r>
       <r>  -12.3768    1.0000 </r>
       <r>  -12.2420    1.0000 </r>
       <r>  -12.2420    1.0000 </r>
       <r>   -0.5024    1.0000 </r>
       <r>    1.4665    0.9684 </r>
       <r>    1.4665    0.9684 </r>
       <r>    2.9716   -0.0000 </r>
       <r>    2.9716   -0.0000 </r>
       <r>    3.3076   -0.0000 </r>
      </set>
      <set comment="kpoint 51">
       <r>  -27.2525    1.0000 </r>
       <r>  -27.2094    1.0000 </r>
       <r>  -12.5665    1.0000 </r>
       <r>  -12.5214    1.0000 </r>
       <r>  -12.4214    1.0000 </r>
       <r>  -12.3869    1.0000 </r>
       <r>  -12.2647    1.0000 </r>
       <r>  -12.2407    1.0000 </r>
       <r>   -0.2716    1.0000 </r>
       <r>    1.5793    0.6346 </r>
       <r>    1.5811    0.6272 </r>
       <r>    2.8172   -0.0000 </r>
       <r>    2.8477   -0.0000 </r>
       <r>    2.9759   -0.0000 </r>
      </set>
      <set comment="kpoint 52">
       <r>  -27.2467    1.0000 </r>
       <r>  -27.2140    1.0000 </r>
       <r>  -12.5792    1.0000 </r>
       <r>  -12.4899    1.0000 </r>
       <r>  -12.4681    1.0000 </r>
       <r>  -12.3558    1.0000 </r>
       <r>  -12.2950    1.0000 </r>
       <r>  -12.2465    1.0000 </r>
       <r>    0.0248    1.0000 </r>
       <r>    1.5678    0.6804 </r>
       <r>    1.7287    0.0865 </r>
       <r>    2.6475   -0.0000 </r>
       <r>    2.7790   -0.0000 </r>
       <r>    2.8366   -0.0000 </r>
      </set>
      <set comment="kpoint 53">
       <r>  -27.2400    1.0000 </r>
       <r>  -27.2196    1.0000 </r>
       <r>  -12.5809    1.0000 </r>
       <r>  -12.5113    1.0000 </r>
       <r>  -12.4527    1.0000 </r>
       <r>  -12.3310    1.0000 </r>
       <r>  -12.3266    1.0000 </r>
       <r>  -12.2589    1.0000 </r>
       <r>    0.3629    1.0000 </r>
       <r>    1.3679    1.0355 </r>
       <r>    1.9052   -0.0290 </r>
       <r>    2.4712   -0.0000 </r>
       <r>    2.7739   -0.0000 </r>
       <r>    2.8553   -0.0000 </r>
      </set>
      <set comment="kpoint 54">
       <r>  -27.2330    1.0000 </r>
       <r>  -27.2260    1.0000 </r>
       <r>  -12.5701    1.0000 </r>
       <r>  -12.5464    1.0000 </r>
       <r>  -12.4122    1.0000 </r>
       <r>  -12.3708    1.0000 </r>
       <r>  -12.3000    1.0000 </r>
       <r>  -12.2771    1.0000 </r>
       <r>    0.7172    1.0000 </r>
       <r>    1.0627    1.0004 </r>
       <r>    2.0958   -0.0016 </r>
       <r>    2.2872   -0.0000 </r>
       <r>    2.8180   -0.0000 </r>
       <r>    2.8645   -0.0000 </r>
      </set>
      <set comment="kpoint 55">
       <r>  -27.2486    1.0000 </r>
       <r>  -27.2121    1.0000 </r>
       <r>  -12.5750    1.0000 </r>
       <r>  -12.5165    1.0000 </r>
       <r>  -12.4630    1.0000 </r>
       <r>  -12.3555    1.0000 </r>
       <r>  -12.2767    1.0000 </r>
       <r>  -12.2445    1.0000 </r>
       <r>   -0.0560    1.0000 </r>
       <r>    1.6214    0.4584 </r>
       <r>    1.7547    0.0347 </r>
       <r>    2.6636   -0.0000 </r>
       <r>    2.6778   -0.0000 </r>
       <r>    2.7005   -0.0000 </r>
      </set>
      <set comment="kpoint 56">
       <r>  -27.2436    1.0000 </r>
       <r>  -27.2159    1.0000 </r>
       <r>  -12.5900    1.0000 </r>
       <r>  -12.5060    1.0000 </r>
       <r>  -12.4897    1.0000 </r>
       <r>  -12.3268    1.0000 </r>
       <r>  -12.3030    1.0000 </r>
       <r>  -12.2467    1.0000 </r>
       <r>    0.2149    1.0000 </r>
       <r>    1.5791    0.6353 </r>
       <r>    1.8888   -0.0323 </r>
       <r>    2.5268   -0.0000 </r>
       <r>    2.5700   -0.0000 </r>
       <r>    2.6188   -0.0000 </r>
      </set>
      <set comment="kpoint 57">
       <r>  -27.2378    1.0000 </r>
       <r>  -27.2205    1.0000 </r>
       <r>  -12.5972    1.0000 </r>
       <r>  -12.5446    1.0000 </r>
       <r>  -12.4544    1.0000 </r>
       <r>  -12.3369    1.0000 </r>
       <r>  -12.3017    1.0000 </r>
       <r>  -12.2530    1.0000 </r>
       <r>    0.5153    1.0000 </r>
       <r>    1.3855    1.0339 </r>
       <r>    2.0002   -0.0096 </r>
       <r>    2.3821   -0.0000 </r>
       <r>    2.6078   -0.0000 </r>
       <r>    2.6423   -0.0000 </r>
      </set>
      <set comment="kpoint 58">
       <r>  -27.2318    1.0000 </r>
       <r>  -27.2259    1.0000 </r>
       <r>  -12.5923    1.0000 </r>
       <r>  -12.5744    1.0000 </r>
       <r>  -12.4152    1.0000 </r>
       <r>  -12.3751    1.0000 </r>
       <r>  -12.2807    1.0000 </r>
       <r>  -12.2644    1.0000 </r>
       <r>    0.8211    1.0000 </r>
       <r>    1.1162    1.0013 </r>
       <r>    2.1214   -0.0009 </r>
       <r>    2.2486   -0.0000 </r>
       <r>    2.6457   -0.0000 </r>
       <r>    2.6793   -0.0000 </r>
      </set>
      <set comment="kpoint 59">
       <r>  -27.2396    1.0000 </r>
       <r>  -27.2185    1.0000 </r>
       <r>  -12.6059    1.0000 </r>
       <r>  -12.5449    1.0000 </r>
       <r>  -12.4710    1.0000 </r>
       <r>  -12.3206    1.0000 </r>
       <r>  -12.3018    1.0000 </r>
       <r>  -12.2472    1.0000 </r>
       <r>    0.4418    1.0000 </r>
       <r>    1.4681    0.9658 </r>
       <r>    2.1053   -0.0013 </r>
       <r>    2.4491   -0.0000 </r>
       <r>    2.4588   -0.0000 </r>
       <r>    2.4800   -0.0000 </r>
      </set>
      <set comment="kpoint 60">
       <r>  -27.2351    1.0000 </r>
       <r>  -27.2219    1.0000 </r>
       <r>  -12.6165    1.0000 </r>
       <r>  -12.5790    1.0000 </r>
       <r>  -12.4424    1.0000 </r>
       <r>  -12.3459    1.0000 </r>
       <r>  -12.2816    1.0000 </r>
       <r>  -12.2498    1.0000 </r>
       <r>    0.6756    1.0000 </r>
       <r>    1.2966    1.0242 </r>
       <r>    2.2148   -0.0001 </r>
       <r>    2.3621   -0.0000 </r>
       <r>    2.4719   -0.0000 </r>
       <r>    2.4855   -0.0000 </r>
      </set>
      <set comment="kpoint 61">
       <r>  -27.2304    1.0000 </r>
       <r>  -27.2260    1.0000 </r>
       <r>  -12.6165    1.0000 </r>
       <r>  -12.6038    1.0000 </r>
       <r>  -12.4097    1.0000 </r>
       <r>  -12.3765    1.0000 </r>
       <r>  -12.2665    1.0000 </r>
       <r>  -12.2560    1.0000 </r>
       <r>    0.8964    1.0000 </r>
       <r>    1.1021    1.0009 </r>
       <r>    2.2491   -0.0000 </r>
       <r>    2.2907   -0.0000 </r>
       <r>    2.5154   -0.0000 </r>
       <r>    2.5365   -0.0000 </r>
      </set>
      <set comment="kpoint 62">
       <r>  -27.2321    1.0000 </r>
       <r>  -27.2239    1.0000 </r>
       <r>  -12.6312    1.0000 </r>
       <r>  -12.6084    1.0000 </r>
       <r>  -12.4226    1.0000 </r>
       <r>  -12.3596    1.0000 </r>
       <r>  -12.2670    1.0000 </r>
       <r>  -12.2494    1.0000 </r>
       <r>    0.8154    1.0000 </r>
       <r>    1.1701    1.0039 </r>
       <r>    2.3273   -0.0000 </r>
       <r>    2.3594   -0.0000 </r>
       <r>    2.4509   -0.0000 </r>
       <r>    2.4747   -0.0000 </r>
      </set>
      <set comment="kpoint 63">
       <r>  -27.2290    1.0000 </r>
       <r>  -27.2263    1.0000 </r>
       <r>  -12.6358    1.0000 </r>
       <r>  -12.6281    1.0000 </r>
       <r>  -12.3999    1.0000 </r>
       <r>  -12.3780    1.0000 </r>
       <r>  -12.2573    1.0000 </r>
       <r>  -12.2518    1.0000 </r>
       <r>    0.9333    1.0000 </r>
       <r>    1.0470    1.0002 </r>
       <r>    2.2883   -0.0000 </r>
       <r>    2.3009   -0.0000 </r>
       <r>    2.5558   -0.0000 </r>
       <r>    2.5665   -0.0000 </r>
      </set>
      <set comment="kpoint 64">
       <r>  -27.2278    1.0000 </r>
       <r>  -27.2269    1.0000 </r>
       <r>  -12.6454    1.0000 </r>
       <r>  -12.6428    1.0000 </r>
       <r>  -12.3898    1.0000 </r>
       <r>  -12.3822    1.0000 </r>
       <r>  -12.2524    1.0000 </r>
       <r>  -12.2507    1.0000 </r>
       <r>    0.9571    1.0000 </r>
       <r>    0.9929    1.0001 </r>
       <r>    2.2495   -0.0000 </r>
       <r>    2.2561   -0.0000 </r>
       <r>    2.6725   -0.0000 </r>
       <r>    2.6820   -0.0000 </r>
      </set>
      <set comment="kpoint 65">
       <r>  -27.2452    1.0000 </r>
       <r>  -27.2143    1.0000 </r>
       <r>  -12.5489    1.0000 </r>
       <r>  -12.5489    1.0000 </r>
       <r>  -12.4959    1.0000 </r>
       <r>  -12.3276    1.0000 </r>
       <r>  -12.2695    1.0000 </r>
       <r>  -12.2695    1.0000 </r>
       <r>    0.1572    1.0000 </r>
       <r>    1.8163   -0.0274 </r>
       <r>    1.8163   -0.0274 </r>
       <r>    2.3156   -0.0000 </r>
       <r>    2.5562   -0.0000 </r>
       <r>    2.5562   -0.0000 </r>
      </set>
      <set comment="kpoint 66">
       <r>  -27.2408    1.0000 </r>
       <r>  -27.2174    1.0000 </r>
       <r>  -12.5745    1.0000 </r>
       <r>  -12.5304    1.0000 </r>
       <r>  -12.5147    1.0000 </r>
       <r>  -12.3043    1.0000 </r>
       <r>  -12.3025    1.0000 </r>
       <r>  -12.2645    1.0000 </r>
       <r>    0.4203    1.0000 </r>
       <r>    1.7779    0.0023 </r>
       <r>    1.8930   -0.0315 </r>
       <r>    2.2831   -0.0000 </r>
       <r>    2.4107   -0.0000 </r>
       <r>    2.4846   -0.0000 </r>
      </set>
      <set comment="kpoint 67">
       <r>  -27.2359    1.0000 </r>
       <r>  -27.2212    1.0000 </r>
       <r>  -12.5898    1.0000 </r>
       <r>  -12.5609    1.0000 </r>
       <r>  -12.4744    1.0000 </r>
       <r>  -12.3419    1.0000 </r>
       <r>  -12.2862    1.0000 </r>
       <r>  -12.2631    1.0000 </r>
       <r>    0.7032    1.0000 </r>
       <r>    1.5183    0.8510 </r>
       <r>    1.9783   -0.0132 </r>
       <r>    2.2802   -0.0000 </r>
       <r>    2.4637   -0.0000 </r>
       <r>    2.4810   -0.0000 </r>
      </set>
      <set comment="kpoint 68">
       <r>  -27.2307    1.0000 </r>
       <r>  -27.2258    1.0000 </r>
       <r>  -12.5927    1.0000 </r>
       <r>  -12.5826    1.0000 </r>
       <r>  -12.4304    1.0000 </r>
       <r>  -12.3854    1.0000 </r>
       <r>  -12.2735    1.0000 </r>
       <r>  -12.2659    1.0000 </r>
       <r>    0.9817    1.0000 </r>
       <r>    1.2499    1.0141 </r>
       <r>    2.0692   -0.0028 </r>
       <r>    2.1678   -0.0003 </r>
       <r>    2.5263   -0.0000 </r>
       <r>    2.5501   -0.0000 </r>
      </set>
      <set comment="kpoint 69">
       <r>  -27.2373    1.0000 </r>
       <r>  -27.2195    1.0000 </r>
       <r>  -12.5778    1.0000 </r>
       <r>  -12.5568    1.0000 </r>
       <r>  -12.5076    1.0000 </r>
       <r>  -12.3173    1.0000 </r>
       <r>  -12.2875    1.0000 </r>
       <r>  -12.2745    1.0000 </r>
       <r>    0.6631    1.0000 </r>
       <r>    1.6924    0.1869 </r>
       <r>    2.1002   -0.0015 </r>
       <r>    2.1664   -0.0003 </r>
       <r>    2.3365   -0.0000 </r>
       <r>    2.3640   -0.0000 </r>
      </set>
      <set comment="kpoint 70">
       <r>  -27.2334    1.0000 </r>
       <r>  -27.2223    1.0000 </r>
       <r>  -12.5920    1.0000 </r>
       <r>  -12.5797    1.0000 </r>
       <r>  -12.4744    1.0000 </r>
       <r>  -12.3502    1.0000 </r>
       <r>  -12.2768    1.0000 </r>
       <r>  -12.2734    1.0000 </r>
       <r>    0.9047    1.0000 </r>
       <r>    1.5028    0.8930 </r>
       <r>    2.1119   -0.0011 </r>
       <r>    2.2448   -0.0000 </r>
       <r>    2.3525   -0.0000 </r>
       <r>    2.3596   -0.0000 </r>
      </set>
      <set comment="kpoint 71">
       <r>  -27.2295    1.0000 </r>
       <r>  -27.2257    1.0000 </r>
       <r>  -12.5989    1.0000 </r>
       <r>  -12.5947    1.0000 </r>
       <r>  -12.4333    1.0000 </r>
       <r>  -12.3906    1.0000 </r>
       <r>  -12.2718    1.0000 </r>
       <r>  -12.2713    1.0000 </r>
       <r>    1.1191    1.0014 </r>
       <r>    1.3114    1.0276 </r>
       <r>    2.1290   -0.0008 </r>
       <r>    2.1723   -0.0003 </r>
       <r>    2.4192   -0.0000 </r>
       <r>    2.4479   -0.0000 </r>
      </set>
      <set comment="kpoint 72">
       <r>  -27.2308    1.0000 </r>
       <r>  -27.2239    1.0000 </r>
       <r>  -12.6015    1.0000 </r>
       <r>  -12.5964    1.0000 </r>
       <r>  -12.4543    1.0000 </r>
       <r>  -12.3669    1.0000 </r>
       <r>  -12.2787    1.0000 </r>
       <r>  -12.2735    1.0000 </r>
       <r>    1.0719    1.0005 </r>
       <r>    1.3993    1.0304 </r>
       <r>    2.2182   -0.0001 </r>
       <r>    2.2402   -0.0000 </r>
       <r>    2.3294   -0.0000 </r>
       <r>    2.3728   -0.0000 </r>
      </set>
      <set comment="kpoint 73">
       <r>  -27.2282    1.0000 </r>
       <r>  -27.2258    1.0000 </r>
       <r>  -12.6083    1.0000 </r>
       <r>  -12.6068    1.0000 </r>
       <r>  -12.4244    1.0000 </r>
       <r>  -12.3932    1.0000 </r>
       <r>  -12.2778    1.0000 </r>
       <r>  -12.2747    1.0000 </r>
       <r>    1.1923    1.0058 </r>
       <r>    1.2930    1.0234 </r>
       <r>    2.1967   -0.0001 </r>
       <r>    2.2000   -0.0001 </r>
       <r>    2.4230   -0.0000 </r>
       <r>    2.4603   -0.0000 </r>
      </set>
      <set comment="kpoint 74">
       <r>  -27.2271    1.0000 </r>
       <r>  -27.2263    1.0000 </r>
       <r>  -12.6148    1.0000 </r>
       <r>  -12.6144    1.0000 </r>
       <r>  -12.4106    1.0000 </r>
       <r>  -12.3990    1.0000 </r>
       <r>  -12.2810    1.0000 </r>
       <r>  -12.2792    1.0000 </r>
       <r>    1.2250    1.0099 </r>
       <r>    1.2551    1.0151 </r>
       <r>    2.1800   -0.0002 </r>
       <r>    2.1816   -0.0002 </r>
       <r>    2.5281   -0.0000 </r>
       <r>    2.5486   -0.0000 </r>
      </set>
      <set comment="kpoint 75">
       <r>  -27.2345    1.0000 </r>
       <r>  -27.2210    1.0000 </r>
       <r>  -12.5704    1.0000 </r>
       <r>  -12.5409    1.0000 </r>
       <r>  -12.5409    1.0000 </r>
       <r>  -12.3106    1.0000 </r>
       <r>  -12.3106    1.0000 </r>
       <r>  -12.2797    1.0000 </r>
       <r>    0.9222    1.0000 </r>
       <r>    1.7943   -0.0138 </r>
       <r>    2.0922   -0.0018 </r>
       <r>    2.0922   -0.0018 </r>
       <r>    2.2541   -0.0000 </r>
       <r>    2.2541   -0.0000 </r>
      </set>
      <set comment="kpoint 76">
       <r>  -27.2314    1.0000 </r>
       <r>  -27.2230    1.0000 </r>
       <r>  -12.5817    1.0000 </r>
       <r>  -12.5666    1.0000 </r>
       <r>  -12.4973    1.0000 </r>
       <r>  -12.3535    1.0000 </r>
       <r>  -12.3014    1.0000 </r>
       <r>  -12.2787    1.0000 </r>
       <r>    1.1654    1.0035 </r>
       <r>    1.6470    0.3525 </r>
       <r>    2.0855   -0.0020 </r>
       <r>    2.1686   -0.0003 </r>
       <r>    2.2508   -0.0000 </r>
       <r>    2.2733   -0.0000 </r>
      </set>
      <set comment="kpoint 77">
       <r>  -27.2283    1.0000 </r>
       <r>  -27.2255    1.0000 </r>
       <r>  -12.5866    1.0000 </r>
       <r>  -12.5820    1.0000 </r>
       <r>  -12.4497    1.0000 </r>
       <r>  -12.4008    1.0000 </r>
       <r>  -12.2915    1.0000 </r>
       <r>  -12.2832    1.0000 </r>
       <r>    1.3524    1.0348 </r>
       <r>    1.4986    0.9034 </r>
       <r>    2.0894   -0.0019 </r>
       <r>    2.1144   -0.0011 </r>
       <r>    2.3183   -0.0000 </r>
       <r>    2.3610   -0.0000 </r>
      </set>
      <set comment="kpoint 78">
       <r>  -27.2293    1.0000 </r>
       <r>  -27.2240    1.0000 </r>
       <r>  -12.5834    1.0000 </r>
       <r>  -12.5624    1.0000 </r>
       <r>  -12.4870    1.0000 </r>
       <r>  -12.3694    1.0000 </r>
       <r>  -12.3173    1.0000 </r>
       <r>  -12.2867    1.0000 </r>
       <r>    1.3826    1.0344 </r>
       <r>    1.6310    0.4179 </r>
       <r>    2.1458   -0.0005 </r>
       <r>    2.1634   -0.0003 </r>
       <r>    2.1910   -0.0002 </r>
       <r>    2.2831   -0.0000 </r>
      </set>
      <set comment="kpoint 79">
       <r>  -27.2273    1.0000 </r>
       <r>  -27.2255    1.0000 </r>
       <r>  -12.5815    1.0000 </r>
       <r>  -12.5737    1.0000 </r>
       <r>  -12.4493    1.0000 </r>
       <r>  -12.4064    1.0000 </r>
       <r>  -12.3115    1.0000 </r>
       <r>  -12.2989    1.0000 </r>
       <r>    1.5037    0.8909 </r>
       <r>    1.5707    0.6687 </r>
       <r>    2.1298   -0.0008 </r>
       <r>    2.1301   -0.0008 </r>
       <r>    2.2850   -0.0000 </r>
       <r>    2.3438   -0.0000 </r>
      </set>
      <set comment="kpoint 80">
       <r>  -27.2264    1.0000 </r>
       <r>  -27.2258    1.0000 </r>
       <r>  -12.5780    1.0000 </r>
       <r>  -12.5745    1.0000 </r>
       <r>  -12.4333    1.0000 </r>
       <r>  -12.4155    1.0000 </r>
       <r>  -12.3211    1.0000 </r>
       <r>  -12.3143    1.0000 </r>
       <r>    1.5550    0.7290 </r>
       <r>    1.5708    0.6684 </r>
       <r>    2.1231   -0.0009 </r>
       <r>    2.1258   -0.0008 </r>
       <r>    2.3737   -0.0000 </r>
       <r>    2.4049   -0.0000 </r>
      </set>
      <set comment="kpoint 81">
       <r>  -27.2278    1.0000 </r>
       <r>  -27.2245    1.0000 </r>
       <r>  -12.5706    1.0000 </r>
       <r>  -12.5162    1.0000 </r>
       <r>  -12.5162    1.0000 </r>
       <r>  -12.3631    1.0000 </r>
       <r>  -12.3631    1.0000 </r>
       <r>  -12.3056    1.0000 </r>
       <r>    1.6678    0.2720 </r>
       <r>    1.7513    0.0405 </r>
       <r>    2.1156   -0.0011 </r>
       <r>    2.1156   -0.0011 </r>
       <r>    2.1989   -0.0001 </r>
       <r>    2.1989   -0.0001 </r>
      </set>
      <set comment="kpoint 82">
       <r>  -27.2264    1.0000 </r>
       <r>  -27.2253    1.0000 </r>
       <r>  -12.5569    1.0000 </r>
       <r>  -12.5395    1.0000 </r>
       <r>  -12.4656    1.0000 </r>
       <r>  -12.4135    1.0000 </r>
       <r>  -12.3480    1.0000 </r>
       <r>  -12.3274    1.0000 </r>
       <r>    1.7796    0.0004 </r>
       <r>    1.7829   -0.0032 </r>
       <r>    2.1061   -0.0013 </r>
       <r>    2.1359   -0.0007 </r>
       <r>    2.1849   -0.0002 </r>
       <r>    2.2573   -0.0000 </r>
      </set>
      <set comment="kpoint 83">
       <r>  -27.2257    1.0000 </r>
       <r>  -27.2253    1.0000 </r>
       <r>  -12.5375    1.0000 </r>
       <r>  -12.5268    1.0000 </r>
       <r>  -12.4546    1.0000 </r>
       <r>  -12.4254    1.0000 </r>
       <r>  -12.3686    1.0000 </r>
       <r>  -12.3548    1.0000 </r>
       <r>    1.8640   -0.0352 </r>
       <r>    1.8869   -0.0326 </r>
       <r>    2.0973   -0.0016 </r>
       <r>    2.1185   -0.0010 </r>
       <r>    2.2329   -0.0001 </r>
       <r>    2.2741   -0.0000 </r>
      </set>
      <set comment="kpoint 84">
       <r>  -27.2253    1.0000 </r>
       <r>  -27.2251    1.0000 </r>
       <r>  -12.5003    1.0000 </r>
       <r>  -12.4745    1.0000 </r>
       <r>  -12.4745    1.0000 </r>
       <r>  -12.4207    1.0000 </r>
       <r>  -12.4207    1.0000 </r>
       <r>  -12.3943    1.0000 </r>
       <r>    2.0257   -0.0063 </r>
       <r>    2.1131   -0.0011 </r>
       <r>    2.1131   -0.0011 </r>
       <r>    2.1301   -0.0008 </r>
       <r>    2.1733   -0.0003 </r>
       <r>    2.1733   -0.0003 </r>
      </set>
     </set>
    </set>
   </array>
  </eigenvalues>
  <separator name="orbital magnetization" >
   <v name="MAGDIPOLOUT">      0.00000000      0.00000000      0.00000000</v>
  </separator>
  <dos>
   <i name="efermi">      1.61153326 </i>
   <total>
    <array>
     <dimension dim="1">gridpoints</dimension>
     <dimension dim="2">spin</dimension>
     <field>energy</field>
     <field>total</field>
     <field>integrated</field>
     <set>
      <set comment="spin 1">
       <r>   -29.2700     0.0000     0.0000 </r>
       <r>   -29.1512     0.0000     0.0000 </r>
       <r>   -29.0324     0.0000     0.0000 </r>
       <r>   -28.9136    -0.0000    -0.0000 </r>
       <r>   -28.7948    -0.0000    -0.0000 </r>
       <r>   -28.6760    -0.0000    -0.0000 </r>
       <r>   -28.5572    -0.0000    -0.0000 </r>
       <r>   -28.4384    -0.0000    -0.0000 </r>
       <r>   -28.3196    -0.0000    -0.0000 </r>
       <r>   -28.2008    -0.0000    -0.0000 </r>
       <r>   -28.0820    -0.0000    -0.0000 </r>
       <r>   -27.9632    -0.0001    -0.0000 </r>
       <r>   -27.8444    -0.0021    -0.0003 </r>
       <r>   -27.7256    -0.0417    -0.0052 </r>
       <r>   -27.6068    -0.3411    -0.0457 </r>
       <r>   -27.4880    -0.7691    -0.1371 </r>
       <r>   -27.3692     2.5809     0.1695 </r>
       <r>   -27.2503    12.4386     1.6473 </r>
       <r>   -27.1315    15.1442     3.4464 </r>
       <r>   -27.0127     5.6917     4.1226 </r>
       <r>   -26.8939    -0.3703     4.0786 </r>
       <r>   -26.7751    -0.5570     4.0125 </r>
       <r>   -26.6563    -0.0980     4.0008 </r>
       <r>   -26.5375    -0.0067     4.0000 </r>
       <r>   -26.4187    -0.0002     4.0000 </r>
       <r>   -26.2999    -0.0000     4.0000 </r>
       <r>   -26.1811    -0.0000     4.0000 </r>
       <r>   -26.0623    -0.0000     4.0000 </r>
       <r>   -25.9435    -0.0000     4.0000 </r>
       <r>   -25.8247     0.0000     4.0000 </r>
       <r>   -25.7059     0.0000     4.0000 </r>
       <r>   -25.5871     0.0000     4.0000 </r>
       <r>   -25.4683     0.0000     4.0000 </r>
       <r>   -25.3495     0.0000     4.0000 </r>
       <r>   -25.2307     0.0000     4.0000 </r>
       <r>   -25.1119     0.0000     4.0000 </r>
       <r>   -24.9931     0.0000     4.0000 </r>
       <r>   -24.8743     0.0000     4.0000 </r>
       <r>   -24.7555     0.0000     4.0000 </r>
       <r>   -24.6367     0.0000     4.0000 </r>
       <r>   -24.5179     0.0000     4.0000 </r>
       <r>   -24.3991     0.0000     4.0000 </r>
       <r>   -24.2803     0.0000     4.0000 </r>
       <r>   -24.1615     0.0000     4.0000 </r>
       <r>   -24.0427     0.0000     4.0000 </r>
       <r>   -23.9239     0.0000     4.0000 </r>
       <r>   -23.8050     0.0000     4.0000 </r>
       <r>   -23.6862     0.0000     4.0000 </r>
       <r>   -23.5674     0.0000     4.0000 </r>
       <r>   -23.4486     0.0000     4.0000 </r>
       <r>   -23.3298     0.0000     4.0000 </r>
       <r>   -23.2110     0.0000     4.0000 </r>
       <r>   -23.0922     0.0000     4.0000 </r>
       <r>   -22.9734     0.0000     4.0000 </r>
       <r>   -22.8546     0.0000     4.0000 </r>
       <r>   -22.7358     0.0000     4.0000 </r>
       <r>   -22.6170     0.0000     4.0000 </r>
       <r>   -22.4982     0.0000     4.0000 </r>
       <r>   -22.3794     0.0000     4.0000 </r>
       <r>   -22.2606     0.0000     4.0000 </r>
       <r>   -22.1418     0.0000     4.0000 </r>
       <r>   -22.0230     0.0000     4.0000 </r>
       <r>   -21.9042     0.0000     4.0000 </r>
       <r>   -21.7854     0.0000     4.0000 </r>
       <r>   -21.6666     0.0000     4.0000 </r>
       <r>   -21.5478     0.0000     4.0000 </r>
       <r>   -21.4290     0.0000     4.0000 </r>
       <r>   -21.3102     0.0000     4.0000 </r>
       <r>   -21.1914     0.0000     4.0000 </r>
       <r>   -21.0726     0.0000     4.0000 </r>
       <r>   -20.9538     0.0000     4.0000 </r>
       <r>   -20.8350     0.0000     4.0000 </r>
       <r>   -20.7162     0.0000     4.0000 </r>
       <r>   -20.5974     0.0000     4.0000 </r>
       <r>   -20.4786     0.0000     4.0000 </r>
       <r>   -20.3597     0.0000     4.0000 </r>
       <r>   -20.2409     0.0000     4.0000 </r>
       <r>   -20.1221     0.0000     4.0000 </r>
       <r>   -20.0033     0.0000     4.0000 </r>
       <r>   -19.8845     0.0000     4.0000 </r>
       <r>   -19.7657     0.0000     4.0000 </r>
       <r>   -19.6469     0.0000     4.0000 </r>
       <r>   -19.5281     0.0000     4.0000 </r>
       <r>   -19.4093     0.0000     4.0000 </r>
       <r>   -19.2905     0.0000     4.0000 </r>
       <r>   -19.1717     0.0000     4.0000 </r>
       <r>   -19.0529     0.0000     4.0000 </r>
       <r>   -18.9341     0.0000     4.0000 </r>
       <r>   -18.8153     0.0000     4.0000 </r>
       <r>   -18.6965     0.0000     4.0000 </r>
       <r>   -18.5777     0.0000     4.0000 </r>
       <r>   -18.4589     0.0000     4.0000 </r>
       <r>   -18.3401     0.0000     4.0000 </r>
       <r>   -18.2213     0.0000     4.0000 </r>
       <r>   -18.1025     0.0000     4.0000 </r>
       <r>   -17.9837     0.0000     4.0000 </r>
       <r>   -17.8649     0.0000     4.0000 </r>
       <r>   -17.7461     0.0000     4.0000 </r>
       <r>   -17.6273     0.0000     4.0000 </r>
       <r>   -17.5085     0.0000     4.0000 </r>
       <r>   -17.3897     0.0000     4.0000 </r>
       <r>   -17.2709     0.0000     4.0000 </r>
       <r>   -17.1521     0.0000     4.0000 </r>
       <r>   -17.0333     0.0000     4.0000 </r>
       <r>   -16.9144     0.0000     4.0000 </r>
       <r>   -16.7956     0.0000     4.0000 </r>
       <r>   -16.6768     0.0000     4.0000 </r>
       <r>   -16.5580     0.0000     4.0000 </r>
       <r>   -16.4392     0.0000     4.0000 </r>
       <r>   -16.3204     0.0000     4.0000 </r>
       <r>   -16.2016     0.0000     4.0000 </r>
       <r>   -16.0828     0.0000     4.0000 </r>
       <r>   -15.9640     0.0000     4.0000 </r>
       <r>   -15.8452     0.0000     4.0000 </r>
       <r>   -15.7264     0.0000     4.0000 </r>
       <r>   -15.6076     0.0000     4.0000 </r>
       <r>   -15.4888     0.0000     4.0000 </r>
       <r>   -15.3700     0.0000     4.0000 </r>
       <r>   -15.2512     0.0000     4.0000 </r>
       <r>   -15.1324     0.0000     4.0000 </r>
       <r>   -15.0136     0.0000     4.0000 </r>
       <r>   -14.8948     0.0000     4.0000 </r>
       <r>   -14.7760     0.0000     4.0000 </r>
       <r>   -14.6572     0.0000     4.0000 </r>
       <r>   -14.5384     0.0000     4.0000 </r>
       <r>   -14.4196     0.0000     4.0000 </r>
       <r>   -14.3008    -0.0000     4.0000 </r>
       <r>   -14.1820    -0.0000     4.0000 </r>
       <r>   -14.0632    -0.0000     4.0000 </r>
       <r>   -13.9444    -0.0000     4.0000 </r>
       <r>   -13.8256    -0.0000     4.0000 </r>
       <r>   -13.7068    -0.0000     4.0000 </r>
       <r>   -13.5880    -0.0000     4.0000 </r>
       <r>   -13.4691    -0.0000     4.0000 </r>
       <r>   -13.3503    -0.0000     4.0000 </r>
       <r>   -13.2315    -0.0011     3.9999 </r>
       <r>   -13.1127    -0.0228     3.9971 </r>
       <r>   -12.9939    -0.2095     3.9723 </r>
       <r>   -12.8751    -0.7117     3.8877 </r>
       <r>   -12.7563     0.4367     3.9396 </r>
       <r>   -12.6375     7.6620     4.8499 </r>
       <r>   -12.5187    18.5289     7.0512 </r>
       <r>   -12.3999    26.4429    10.1927 </r>
       <r>   -12.2811    28.1706    13.5394 </r>
       <r>   -12.1623    18.1049    15.6904 </r>
       <r>   -12.0435     4.2102    16.1905 </r>
       <r>   -11.9247    -0.9271    16.0804 </r>
       <r>   -11.8059    -0.5794    16.0116 </r>
       <r>   -11.6871    -0.0912    16.0007 </r>
       <r>   -11.5683    -0.0061    16.0000 </r>
       <r>   -11.4495    -0.0002    16.0000 </r>
       <r>   -11.3307    -0.0000    16.0000 </r>
       <r>   -11.2119    -0.0000    16.0000 </r>
       <r>   -11.0931    -0.0000    16.0000 </r>
       <r>   -10.9743    -0.0000    16.0000 </r>
       <r>   -10.8555     0.0000    16.0000 </r>
       <r>   -10.7367     0.0000    16.0000 </r>
       <r>   -10.6179     0.0000    16.0000 </r>
       <r>   -10.4991     0.0000    16.0000 </r>
       <r>   -10.3803     0.0000    16.0000 </r>
       <r>   -10.2615     0.0000    16.0000 </r>
       <r>   -10.1427     0.0000    16.0000 </r>
       <r>   -10.0238     0.0000    16.0000 </r>
       <r>    -9.9050     0.0000    16.0000 </r>
       <r>    -9.7862     0.0000    16.0000 </r>
       <r>    -9.6674     0.0000    16.0000 </r>
       <r>    -9.5486     0.0000    16.0000 </r>
       <r>    -9.4298     0.0000    16.0000 </r>
       <r>    -9.3110     0.0000    16.0000 </r>
       <r>    -9.1922     0.0000    16.0000 </r>
       <r>    -9.0734     0.0000    16.0000 </r>
       <r>    -8.9546     0.0000    16.0000 </r>
       <r>    -8.8358     0.0000    16.0000 </r>
       <r>    -8.7170     0.0000    16.0000 </r>
       <r>    -8.5982     0.0000    16.0000 </r>
       <r>    -8.4794     0.0000    16.0000 </r>
       <r>    -8.3606     0.0000    16.0000 </r>
       <r>    -8.2418     0.0000    16.0000 </r>
       <r>    -8.1230     0.0000    16.0000 </r>
       <r>    -8.0042     0.0000    16.0000 </r>
       <r>    -7.8854     0.0000    16.0000 </r>
       <r>    -7.7666     0.0000    16.0000 </r>
       <r>    -7.6478     0.0000    16.0000 </r>
       <r>    -7.5290     0.0000    16.0000 </r>
       <r>    -7.4102     0.0000    16.0000 </r>
       <r>    -7.2914     0.0000    16.0000 </r>
       <r>    -7.1726     0.0000    16.0000 </r>
       <r>    -7.0538     0.0000    16.0000 </r>
       <r>    -6.9350     0.0000    16.0000 </r>
       <r>    -6.8162     0.0000    16.0000 </r>
       <r>    -6.6974     0.0000    16.0000 </r>
       <r>    -6.5786     0.0000    16.0000 </r>
       <r>    -6.4597     0.0000    16.0000 </r>
       <r>    -6.3409     0.0000    16.0000 </r>
       <r>    -6.2221     0.0000    16.0000 </r>
       <r>    -6.1033     0.0000    16.0000 </r>
       <r>    -5.9845     0.0000    16.0000 </r>
       <r>    -5.8657     0.0000    16.0000 </r>
       <r>    -5.7469     0.0000    16.0000 </r>
       <r>    -5.6281     0.0000    16.0000 </r>
       <r>    -5.5093     0.0000    16.0000 </r>
       <r>    -5.3905     0.0000    16.0000 </r>
       <r>    -5.2717     0.0000    16.0000 </r>
       <r>    -5.1529     0.0000    16.0000 </r>
       <r>    -5.0341     0.0000    16.0000 </r>
       <r>    -4.9153     0.0000    16.0000 </r>
       <r>    -4.7965     0.0000    16.0000 </r>
       <r>    -4.6777     0.0000    16.0000 </r>
       <r>    -4.5589     0.0000    16.0000 </r>
       <r>    -4.4401     0.0000    16.0000 </r>
       <r>    -4.3213     0.0000    16.0000 </r>
       <r>    -4.2025     0.0000    16.0000 </r>
       <r>    -4.0837     0.0000    16.0000 </r>
       <r>    -3.9649     0.0000    16.0000 </r>
       <r>    -3.8461     0.0000    16.0000 </r>
       <r>    -3.7273     0.0000    16.0000 </r>
       <r>    -3.6085     0.0000    16.0000 </r>
       <r>    -3.4897     0.0000    16.0000 </r>
       <r>    -3.3709     0.0000    16.0000 </r>
       <r>    -3.2521     0.0000    16.0000 </r>
       <r>    -3.1333     0.0000    16.0000 </r>
       <r>    -3.0144     0.0000    16.0000 </r>
       <r>    -2.8956     0.0000    16.0000 </r>
       <r>    -2.7768    -0.0000    16.0000 </r>
       <r>    -2.6580    -0.0000    16.0000 </r>
       <r>    -2.5392    -0.0000    16.0000 </r>
       <r>    -2.4204    -0.0000    16.0000 </r>
       <r>    -2.3016    -0.0000    16.0000 </r>
       <r>    -2.1828    -0.0000    16.0000 </r>
       <r>    -2.0640    -0.0000    16.0000 </r>
       <r>    -1.9452    -0.0000    16.0000 </r>
       <r>    -1.8264    -0.0000    16.0000 </r>
       <r>    -1.7076    -0.0000    16.0000 </r>
       <r>    -1.5888    -0.0001    16.0000 </r>
       <r>    -1.4700    -0.0007    15.9999 </r>
       <r>    -1.3512    -0.0036    15.9995 </r>
       <r>    -1.2324    -0.0036    15.9991 </r>
       <r>    -1.1136     0.0252    16.0021 </r>
       <r>    -0.9948     0.1003    16.0140 </r>
       <r>    -0.8760     0.1923    16.0368 </r>
       <r>    -0.7572     0.2594    16.0676 </r>
       <r>    -0.6384     0.3207    16.1057 </r>
       <r>    -0.5196     0.3900    16.1521 </r>
       <r>    -0.4008     0.4248    16.2025 </r>
       <r>    -0.2820     0.4879    16.2605 </r>
       <r>    -0.1632     0.5931    16.3310 </r>
       <r>    -0.0444     0.6192    16.4045 </r>
       <r>     0.0744     0.6711    16.4843 </r>
       <r>     0.1932     0.8359    16.5836 </r>
       <r>     0.3120     0.9335    16.6945 </r>
       <r>     0.4309     0.9706    16.8098 </r>
       <r>     0.5497     1.2196    16.9547 </r>
       <r>     0.6685     1.7158    17.1585 </r>
       <r>     0.7873     2.1437    17.4132 </r>
       <r>     0.9061     2.4698    17.7066 </r>
       <r>     1.0249     2.6781    18.0248 </r>
       <r>     1.1437     2.7686    18.3537 </r>
       <r>     1.2625     3.3391    18.7504 </r>
       <r>     1.3813     3.9738    19.2225 </r>
       <r>     1.5001     3.7854    19.6722 </r>
       <r>     1.6189     2.9102    20.0180 </r>
       <r>     1.7377     2.0291    20.2590 </r>
       <r>     1.8565     1.6478    20.4548 </r>
       <r>     1.9753     1.9377    20.6850 </r>
       <r>     2.0941     3.7083    21.1255 </r>
       <r>     2.2129     6.4204    21.8883 </r>
       <r>     2.3317     7.8733    22.8237 </r>
       <r>     2.4505     8.1525    23.7922 </r>
       <r>     2.5693     7.8782    24.7282 </r>
       <r>     2.6881     6.7029    25.5245 </r>
       <r>     2.8069     4.9504    26.1126 </r>
       <r>     2.9257     3.6487    26.5461 </r>
       <r>     3.0445     2.9332    26.8946 </r>
       <r>     3.1633     2.4894    27.1903 </r>
       <r>     3.2821     2.1181    27.4420 </r>
       <r>     3.4009     1.5923    27.6311 </r>
       <r>     3.5197     0.9759    27.7471 </r>
       <r>     3.6385     0.6096    27.8195 </r>
       <r>     3.7573     0.5614    27.8862 </r>
       <r>     3.8762     0.5229    27.9483 </r>
       <r>     3.9950     0.3191    27.9862 </r>
       <r>     4.1138     0.0897    27.9969 </r>
       <r>     4.2326    -0.0039    27.9964 </r>
       <r>     4.3514     0.0060    27.9971 </r>
       <r>     4.4702     0.0182    27.9993 </r>
       <r>     4.5890     0.0073    28.0002 </r>
       <r>     4.7078    -0.0006    28.0001 </r>
       <r>     4.8266    -0.0008    28.0000 </r>
       <r>     4.9454    -0.0001    28.0000 </r>
       <r>     5.0642    -0.0000    28.0000 </r>
       <r>     5.1830    -0.0000    28.0000 </r>
       <r>     5.3018    -0.0000    28.0000 </r>
       <r>     5.4206    -0.0000    28.0000 </r>
       <r>     5.5394    -0.0000    28.0000 </r>
       <r>     5.6582    -0.0000    28.0000 </r>
       <r>     5.7770     0.0000    28.0000 </r>
       <r>     5.8958     0.0000    28.0000 </r>
       <r>     6.0146     0.0000    28.0000 </r>
       <r>     6.1334     0.0000    28.0000 </r>
       <r>     6.2522     0.0000    28.0000 </r>
       <r>     6.3710     0.0000    28.0000 </r>
      </set>
     </set>
    </array>
   </total>
  </dos>
 </calculation>
 <structure name="finalpos" >
  <crystal>
   <varray name="basis" >
    <v>       5.02380800       0.00000000       0.00000000 </v>
    <v>       0.00000000       5.02380800       0.00000000 </v>
    <v>       0.00000000       0.00000000       5.02380800 </v>
   </varray>
   <i name="volume">    126.79411581 </i>
   <varray name="rec_basis" >
    <v>       0.19905219       0.00000000       0.00000000 </v>
    <v>       0.00000000       0.19905219       0.00000000 </v>
    <v>       0.00000000       0.00000000       0.19905219 </v>
   </varray>
  </crystal>
  <varray name="positions" >
   <v>       0.00000000       0.00000000       0.00000000 </v>
   <v>       0.50000000       0.50000000       0.50000000 </v>
  </varray>
 </structure>
</modeling>
