   1   1   0   0
  0.5583497E+02  0.4290164E-09  0.4290161E-09  0.4290164E-09  0.5000000E-15
   1.0000000000000000E-004
  CAR 
 static single-point for EOS             
      8.77306528    -37.18857257  301      1.53496499      1.00000000
    -37.189  0.0000E+00  0.0000E+00
    -37.035  0.0000E+00  0.0000E+00
    -36.882  0.0000E+00  0.0000E+00
    -36.729  0.0000E+00  0.0000E+00
    -36.576  0.0000E+00  0.0000E+00
    -36.423  0.0000E+00  0.0000E+00
    -36.269  0.0000E+00  0.0000E+00
    -36.116  0.0000E+00  0.0000E+00
    -35.963  0.0000E+00  0.0000E+00
    -35.810  0.0000E+00  0.0000E+00
    -35.657  0.0000E+00  0.0000E+00
    -35.503  0.0000E+00  0.0000E+00
    -35.350  0.8698E-12  0.1333E-12
    -35.197  0.1249E-01  0.1913E-02
    -35.044  0.1155E+02  0.1771E+01
    -34.890  0.1492E+01  0.2000E+01
    -34.737  0.2220E-06  0.2000E+01
    -34.584  0.0000E+00  0.2000E+01
    -34.431  0.0000E+00  0.2000E+01
    -34.278  0.0000E+00  0.2000E+01
    -34.124  0.0000E+00  0.2000E+01
    -33.971  0.0000E+00  0.2000E+01
    -33.818  0.0000E+00  0.2000E+01
    -33.665  0.0000E+00  0.2000E+01
    -33.512  0.0000E+00  0.2000E+01
    -33.358  0.0000E+00  0.2000E+01
    -33.205  0.0000E+00  0.2000E+01
    -33.052  0.0000E+00  0.2000E+01
    -32.899  0.0000E+00  0.2000E+01
    -32.746  0.0000E+00  0.2000E+01
    -32.592  0.0000E+00  0.2000E+01
    -32.439  0.0000E+00  0.2000E+01
    -32.286  0.0000E+00  0.2000E+01
    -32.133  0.0000E+00  0.2000E+01
    -31.980  0.0000E+00  0.2000E+01
    -31.826  0.0000E+00  0.2000E+01
    -31.673  0.0000E+00  0.2000E+01
    -31.520  0.0000E+00  0.2000E+01
    -31.367  0.0000E+00  0.2000E+01
    -31.214  0.0000E+00  0.2000E+01
    -31.060  0.0000E+00  0.2000E+01
    -30.907  0.0000E+00  0.2000E+01
    -30.754  0.0000E+00  0.2000E+01
    -30.601  0.0000E+00  0.2000E+01
    -30.448  0.0000E+00  0.2000E+01
    -30.294  0.0000E+00  0.2000E+01
    -30.141  0.0000E+00  0.2000E+01
    -29.988  0.0000E+00  0.2000E+01
    -29.835  0.0000E+00  0.2000E+01
    -29.682  0.0000E+00  0.2000E+01
    -29.528  0.0000E+00  0.2000E+01
    -29.375  0.0000E+00  0.2000E+01
    -29.222  0.0000E+00  0.2000E+01
    -29.069  0.0000E+00  0.2000E+01
    -28.915  0.0000E+00  0.2000E+01
    -28.762  0.0000E+00  0.2000E+01
    -28.609  0.0000E+00  0.2000E+01
    -28.456  0.0000E+00  0.2000E+01
    -28.303  0.0000E+00  0.2000E+01
    -28.149  0.0000E+00  0.2000E+01
    -27.996  0.0000E+00  0.2000E+01
    -27.843  0.0000E+00  0.2000E+01
    -27.690  0.0000E+00  0.2000E+01
    -27.537  0.0000E+00  0.2000E+01
    -27.383  0.0000E+00  0.2000E+01
    -27.230  0.0000E+00  0.2000E+01
    -27.077  0.0000E+00  0.2000E+01
    -26.924  0.0000E+00  0.2000E+01
    -26.771  0.0000E+00  0.2000E+01
    -26.617  0.0000E+00  0.2000E+01
    -26.464  0.0000E+00  0.2000E+01
    -26.311  0.0000E+00  0.2000E+01
    -26.158  0.0000E+00  0.2000E+01
    -26.005  0.0000E+00  0.2000E+01
    -25.851  0.0000E+00  0.2000E+01
    -25.698  0.0000E+00  0.2000E+01
    -25.545  0.0000E+00  0.2000E+01
    -25.392  0.0000E+00  0.2000E+01
    -25.239  0.0000E+00  0.2000E+01
    -25.085  0.0000E+00  0.2000E+01
    -24.932  0.0000E+00  0.2000E+01
    -24.779  0.0000E+00  0.2000E+01
    -24.626  0.0000E+00  0.2000E+01
    -24.473  0.0000E+00  0.2000E+01
    -24.319  0.0000E+00  0.2000E+01
    -24.166  0.0000E+00  0.2000E+01
    -24.013  0.0000E+00  0.2000E+01
    -23.860  0.0000E+00  0.2000E+01
    -23.706  0.0000E+00  0.2000E+01
    -23.553  0.0000E+00  0.2000E+01
    -23.400  0.0000E+00  0.2000E+01
    -23.247  0.0000E+00  0.2000E+01
    -23.094  0.0000E+00  0.2000E+01
    -22.940  0.0000E+00  0.2000E+01
    -22.787  0.0000E+00  0.2000E+01
    -22.634  0.0000E+00  0.2000E+01
    -22.481  0.0000E+00  0.2000E+01
    -22.328  0.0000E+00  0.2000E+01
    -22.174  0.0000E+00  0.2000E+01
    -22.021  0.0000E+00  0.2000E+01
    -21.868  0.0000E+00  0.2000E+01
    -21.715  0.0000E+00  0.2000E+01
    -21.562  0.0000E+00  0.2000E+01
    -21.408  0.0000E+00  0.2000E+01
    -21.255  0.0000E+00  0.2000E+01
    -21.102  0.0000E+00  0.2000E+01
    -20.949  0.0000E+00  0.2000E+01
    -20.796  0.0000E+00  0.2000E+01
    -20.642  0.0000E+00  0.2000E+01
    -20.489  0.0000E+00  0.2000E+01
    -20.336  0.0000E+00  0.2000E+01
    -20.183  0.0000E+00  0.2000E+01
    -20.030  0.0000E+00  0.2000E+01
    -19.876  0.0000E+00  0.2000E+01
    -19.723  0.0000E+00  0.2000E+01
    -19.570  0.0000E+00  0.2000E+01
    -19.417  0.0000E+00  0.2000E+01
    -19.264  0.0000E+00  0.2000E+01
    -19.110  0.0000E+00  0.2000E+01
    -18.957  0.0000E+00  0.2000E+01
    -18.804  0.0000E+00  0.2000E+01
    -18.651  0.0000E+00  0.2000E+01
    -18.498  0.0000E+00  0.2000E+01
    -18.344  0.0000E+00  0.2000E+01
    -18.191  0.0000E+00  0.2000E+01
    -18.038  0.0000E+00  0.2000E+01
    -17.885  0.0000E+00  0.2000E+01
    -17.731  0.0000E+00  0.2000E+01
    -17.578  0.0000E+00  0.2000E+01
    -17.425  0.2254E-12  0.2000E+01
    -17.272  0.2349E-02  0.2000E+01
    -17.119  0.8752E+01  0.3341E+01
    -16.965  0.2928E+02  0.7828E+01
    -16.812  0.1126E+01  0.8000E+01
    -16.659  0.2201E-06  0.8000E+01
    -16.506  0.0000E+00  0.8000E+01
    -16.353  0.0000E+00  0.8000E+01
    -16.199  0.0000E+00  0.8000E+01
    -16.046  0.0000E+00  0.8000E+01
    -15.893  0.0000E+00  0.8000E+01
    -15.740  0.0000E+00  0.8000E+01
    -15.587  0.0000E+00  0.8000E+01
    -15.433  0.0000E+00  0.8000E+01
    -15.280  0.0000E+00  0.8000E+01
    -15.127  0.0000E+00  0.8000E+01
    -14.974  0.0000E+00  0.8000E+01
    -14.821  0.0000E+00  0.8000E+01
    -14.667  0.0000E+00  0.8000E+01
    -14.514  0.0000E+00  0.8000E+01
    -14.361  0.0000E+00  0.8000E+01
    -14.208  0.0000E+00  0.8000E+01
    -14.055  0.0000E+00  0.8000E+01
    -13.901  0.0000E+00  0.8000E+01
    -13.748  0.0000E+00  0.8000E+01
    -13.595  0.0000E+00  0.8000E+01
    -13.442  0.0000E+00  0.8000E+01
    -13.289  0.0000E+00  0.8000E+01
    -13.135  0.0000E+00  0.8000E+01
    -12.982  0.0000E+00  0.8000E+01
    -12.829  0.0000E+00  0.8000E+01
    -12.676  0.0000E+00  0.8000E+01
    -12.522  0.0000E+00  0.8000E+01
    -12.369  0.0000E+00  0.8000E+01
    -12.216  0.0000E+00  0.8000E+01
    -12.063  0.0000E+00  0.8000E+01
    -11.910  0.0000E+00  0.8000E+01
    -11.756  0.0000E+00  0.8000E+01
    -11.603  0.0000E+00  0.8000E+01
    -11.450  0.0000E+00  0.8000E+01
    -11.297  0.0000E+00  0.8000E+01
    -11.144  0.0000E+00  0.8000E+01
    -10.990  0.0000E+00  0.8000E+01
    -10.837  0.0000E+00  0.8000E+01
    -10.684  0.0000E+00  0.8000E+01
    -10.531  0.0000E+00  0.8000E+01
    -10.378  0.0000E+00  0.8000E+01
    -10.224  0.0000E+00  0.8000E+01
    -10.071  0.0000E+00  0.8000E+01
     -9.918  0.0000E+00  0.8000E+01
     -9.765  0.0000E+00  0.8000E+01
     -9.612  0.0000E+00  0.8000E+01
     -9.458  0.0000E+00  0.8000E+01
     -9.305  0.0000E+00  0.8000E+01
     -9.152  0.0000E+00  0.8000E+01
     -8.999  0.0000E+00  0.8000E+01
     -8.846  0.0000E+00  0.8000E+01
     -8.692  0.0000E+00  0.8000E+01
     -8.539  0.0000E+00  0.8000E+01
     -8.386  0.0000E+00  0.8000E+01
     -8.233  0.0000E+00  0.8000E+01
     -8.080  0.0000E+00  0.8000E+01
     -7.926  0.0000E+00  0.8000E+01
     -7.773  0.0000E+00  0.8000E+01
     -7.620  0.0000E+00  0.8000E+01
     -7.467  0.0000E+00  0.8000E+01
     -7.314  0.0000E+00  0.8000E+01
     -7.160  0.0000E+00  0.8000E+01
     -7.007  0.0000E+00  0.8000E+01
     -6.854  0.0000E+00  0.8000E+01
     -6.701  0.0000E+00  0.8000E+01
     -6.547  0.0000E+00  0.8000E+01
     -6.394  0.0000E+00  0.8000E+01
     -6.241  0.0000E+00  0.8000E+01
     -6.088  0.0000E+00  0.8000E+01
     -5.935  0.0000E+00  0.8000E+01
     -5.781  0.0000E+00  0.8000E+01
     -5.628  0.0000E+00  0.8000E+01
     -5.475  0.0000E+00  0.8000E+01
     -5.322  0.0000E+00  0.8000E+01
     -5.169  0.0000E+00  0.8000E+01
     -5.015  0.0000E+00  0.8000E+01
     -4.862  0.0000E+00  0.8000E+01
     -4.709  0.0000E+00  0.8000E+01
     -4.556  0.0000E+00  0.8000E+01
     -4.403  0.0000E+00  0.8000E+01
     -4.249  0.0000E+00  0.8000E+01
     -4.096  0.0000E+00  0.8000E+01
     -3.943  0.0000E+00  0.8000E+01
     -3.790  0.0000E+00  0.8000E+01
     -3.637  0.0000E+00  0.8000E+01
     -3.483  0.0000E+00  0.8000E+01
     -3.330  0.0000E+00  0.8000E+01
     -3.177  0.0000E+00  0.8000E+01
     -3.024  0.0000E+00  0.8000E+01
     -2.871  0.0000E+00  0.8000E+01
     -2.717  0.0000E+00  0.8000E+01
     -2.564  0.0000E+00  0.8000E+01
     -2.411  0.0000E+00  0.8000E+01
     -2.258  0.6871E-07  0.8000E+01
     -2.105  0.2096E-01  0.8003E+01
     -1.951  0.3948E-01  0.8009E+01
     -1.798  0.2463E-04  0.8009E+01
     -1.645  0.3208E+00  0.8058E+01
     -1.492  0.4422E+00  0.8126E+01
     -1.338  0.8311E-01  0.8139E+01
     -1.185  0.8166E-07  0.8139E+01
     -1.032  0.8334E-01  0.8152E+01
     -0.879  0.6413E+00  0.8250E+01
     -0.726  0.2980E-02  0.8250E+01
     -0.572  0.1426E+01  0.8469E+01
     -0.419  0.5051E+00  0.8546E+01
     -0.266  0.1129E-03  0.8546E+01
     -0.113  0.5982E-01  0.8555E+01
      0.040  0.3027E+00  0.8602E+01
      0.194  0.2449E+00  0.8639E+01
      0.347  0.1590E+01  0.8883E+01
      0.500  0.1306E+01  0.9083E+01
      0.653  0.1231E+01  0.9272E+01
      0.806  0.3165E+00  0.9320E+01
      0.960  0.1520E+01  0.9553E+01
      1.113  0.1733E-01  0.9556E+01
      1.266  0.1014E-01  0.9557E+01
      1.419  0.1361E+01  0.9766E+01
      1.572  0.2566E+01  0.1016E+02
      1.726  0.1771E+01  0.1043E+02
      1.879  0.8579E+00  0.1056E+02
      2.032  0.2782E+01  0.1099E+02
      2.185  0.1310E+01  0.1119E+02
      2.338  0.3155E+01  0.1167E+02
      2.492  0.1259E+01  0.1186E+02
      2.645  0.3914E+01  0.1246E+02
      2.798  0.1673E+01  0.1272E+02
      2.951  0.3896E+00  0.1278E+02
      3.104  0.6909E+00  0.1289E+02
      3.258  0.3031E+01  0.1335E+02
      3.411  0.3775E+00  0.1341E+02
      3.564  0.1408E+01  0.1362E+02
      3.717  0.1032E+01  0.1378E+02
      3.870  0.6524E+00  0.1388E+02
      4.024  0.1459E+01  0.1411E+02
      4.177  0.3933E+01  0.1471E+02
      4.330  0.3433E+01  0.1523E+02
      4.483  0.1444E+01  0.1546E+02
      4.637  0.2503E+01  0.1584E+02
      4.790  0.1437E+00  0.1586E+02
      4.943  0.4425E+00  0.1593E+02
      5.096  0.2618E+01  0.1633E+02
      5.249  0.1178E+01  0.1651E+02
      5.403  0.1406E+01  0.1673E+02
      5.556  0.2074E+01  0.1704E+02
      5.709  0.1392E+01  0.1726E+02
      5.862  0.2069E+01  0.1757E+02
      6.015  0.9254E+00  0.1772E+02
      6.169  0.5257E+00  0.1780E+02
      6.322  0.1396E+00  0.1782E+02
      6.475  0.2835E+00  0.1786E+02
      6.628  0.9708E-01  0.1788E+02
      6.781  0.8074E+00  0.1800E+02
      6.935  0.2124E-02  0.1800E+02
      7.088  0.0000E+00  0.1800E+02
      7.241  0.0000E+00  0.1800E+02
      7.394  0.0000E+00  0.1800E+02
      7.547  0.0000E+00  0.1800E+02
      7.701  0.0000E+00  0.1800E+02
      7.854  0.0000E+00  0.1800E+02
      8.007  0.0000E+00  0.1800E+02
      8.160  0.0000E+00  0.1800E+02
      8.313  0.0000E+00  0.1800E+02
      8.467  0.0000E+00  0.1800E+02
      8.620  0.0000E+00  0.1800E+02
      8.773  0.0000E+00  0.1800E+02
