<?xml version="1.0" encoding="ISO-8859-1"?>
<modeling>
 <generator>
  <i name="program" type="string">vasp </i>
  <i name="version" type="string">6.4.2  </i>
  <i name="subversion" type="string">20Jul23 (build Mar  2 2025 11:04:54) complex                          parallel </i>
  <i name="platform" type="string">LinuxNV </i>
  <i name="date" type="string">2026 04 07 </i>
  <i name="time" type="string">10:10:22 </i>
 </generator>
 <incar>
  <i type="string" name="SYSTEM">static single-point for EOS (Ba)</i>
  <i type="string" name="PREC">Accurate</i>
  <i type="int" name="IBRION">    -1</i>
  <i name="EDIFF">      0.00000100</i>
  <i type="int" name="NSW">     0</i>
  <i type="int" name="ISIF">     2</i>
  <i name="ENCUT">    350.00000000</i>
  <i type="logical" name="LREAL"> F  </i>
  <i type="int" name="ISMEAR">     1</i>
  <i name="SIGMA">      0.20000000</i>
  <i name="KSPACING">      0.12000000</i>
  <i type="logical" name="KGAMMA"> T  </i>
  <i type="logical" name="LWAVE"> F  </i>
  <i type="logical" name="LCHARG"> F  </i>
 </incar>
 <primitive_cell>
  <structure name="primitive_cell" >
   <crystal>
    <varray name="basis" >
     <v>       2.36118976       2.36118976      -2.36118976 </v>
     <v>      -2.36118976       2.36118976       2.36118976 </v>
     <v>       2.36118976      -2.36118976       2.36118976 </v>
    </varray>
    <i name="volume">     52.65658194 </i>
    <varray name="rec_basis" >
     <v>       0.21175765       0.21175765       0.00000000 </v>
     <v>      -0.00000000       0.21175765       0.21175765 </v>
     <v>       0.21175765       0.00000000       0.21175765 </v>
    </varray>
   </crystal>
   <varray name="positions" >
    <v>       0.00000000       0.00000000       0.00000000 </v>
   </varray>
  </structure>
  <varray name="primitive_index" >
   <v type="int" >        1 </v>
  </varray>
 </primitive_cell>
 <kpoints>
  <generation param="Gamma">
   <v type="int" name="divisions">      12       12       12 </v>
   <v name="usershift">      0.00000000       0.00000000       0.00000000 </v>
   <v name="genvec1">      0.08333333       0.00000000       0.00000000 </v>
   <v name="genvec2">      0.00000000       0.08333333       0.00000000 </v>
   <v name="genvec3">      0.00000000       0.00000000       0.08333333 </v>
   <v name="shift">      0.00000000       0.00000000       0.00000000 </v>
  </generation>
  <varray name="kpointlist" >
   <v>       0.00000000       0.00000000       0.00000000 </v>
   <v>       0.08333333       0.00000000       0.00000000 </v>
   <v>       0.16666667       0.00000000       0.00000000 </v>
   <v>       0.25000000       0.00000000       0.00000000 </v>
   <v>       0.33333333       0.00000000       0.00000000 </v>
   <v>       0.41666667       0.00000000       0.00000000 </v>
   <v>       0.50000000       0.00000000       0.00000000 </v>
   <v>       0.08333333       0.08333333       0.00000000 </v>
   <v>       0.16666667       0.08333333       0.00000000 </v>
   <v>       0.25000000       0.08333333       0.00000000 </v>
   <v>       0.33333333       0.08333333       0.00000000 </v>
   <v>       0.41666667       0.08333333       0.00000000 </v>
   <v>       0.50000000       0.08333333       0.00000000 </v>
   <v>       0.16666667       0.16666667       0.00000000 </v>
   <v>       0.25000000       0.16666667       0.00000000 </v>
   <v>       0.33333333       0.16666667       0.00000000 </v>
   <v>       0.41666667       0.16666667       0.00000000 </v>
   <v>       0.50000000       0.16666667       0.00000000 </v>
   <v>       0.25000000       0.25000000       0.00000000 </v>
   <v>       0.33333333       0.25000000       0.00000000 </v>
   <v>       0.41666667       0.25000000       0.00000000 </v>
   <v>       0.50000000       0.25000000       0.00000000 </v>
   <v>       0.33333333       0.33333333       0.00000000 </v>
   <v>       0.41666667       0.33333333       0.00000000 </v>
   <v>       0.50000000       0.33333333       0.00000000 </v>
   <v>       0.41666667       0.41666667       0.00000000 </v>
   <v>       0.50000000       0.41666667       0.00000000 </v>
   <v>       0.50000000       0.50000000       0.00000000 </v>
   <v>       0.08333333       0.08333333       0.08333333 </v>
   <v>       0.16666667       0.08333333       0.08333333 </v>
   <v>       0.25000000       0.08333333       0.08333333 </v>
   <v>       0.33333333       0.08333333       0.08333333 </v>
   <v>       0.41666667       0.08333333       0.08333333 </v>
   <v>       0.50000000       0.08333333       0.08333333 </v>
   <v>       0.16666667       0.16666667       0.08333333 </v>
   <v>       0.25000000       0.16666667       0.08333333 </v>
   <v>       0.33333333       0.16666667       0.08333333 </v>
   <v>       0.41666667       0.16666667       0.08333333 </v>
   <v>       0.50000000       0.16666667       0.08333333 </v>
   <v>       0.25000000       0.25000000       0.08333333 </v>
   <v>       0.33333333       0.25000000       0.08333333 </v>
   <v>       0.41666667       0.25000000       0.08333333 </v>
   <v>       0.50000000       0.25000000       0.08333333 </v>
   <v>       0.33333333       0.33333333       0.08333333 </v>
   <v>       0.41666667       0.33333333       0.08333333 </v>
   <v>       0.50000000       0.33333333       0.08333333 </v>
   <v>       0.41666667       0.41666667       0.08333333 </v>
   <v>       0.50000000       0.41666667       0.08333333 </v>
   <v>       0.50000000       0.50000000       0.08333333 </v>
   <v>       0.16666667       0.16666667       0.16666667 </v>
   <v>       0.25000000       0.16666667       0.16666667 </v>
   <v>       0.33333333       0.16666667       0.16666667 </v>
   <v>       0.41666667       0.16666667       0.16666667 </v>
   <v>       0.50000000       0.16666667       0.16666667 </v>
   <v>       0.25000000       0.25000000       0.16666667 </v>
   <v>       0.33333333       0.25000000       0.16666667 </v>
   <v>       0.41666667       0.25000000       0.16666667 </v>
   <v>       0.50000000       0.25000000       0.16666667 </v>
   <v>       0.33333333       0.33333333       0.16666667 </v>
   <v>       0.41666667       0.33333333       0.16666667 </v>
   <v>       0.50000000       0.33333333       0.16666667 </v>
   <v>       0.41666667       0.41666667       0.16666667 </v>
   <v>       0.50000000       0.41666667       0.16666667 </v>
   <v>       0.50000000       0.50000000       0.16666667 </v>
   <v>       0.25000000       0.25000000       0.25000000 </v>
   <v>       0.33333333       0.25000000       0.25000000 </v>
   <v>       0.41666667       0.25000000       0.25000000 </v>
   <v>       0.50000000       0.25000000       0.25000000 </v>
   <v>       0.33333333       0.33333333       0.25000000 </v>
   <v>       0.41666667       0.33333333       0.25000000 </v>
   <v>       0.50000000       0.33333333       0.25000000 </v>
   <v>       0.41666667       0.41666667       0.25000000 </v>
   <v>       0.50000000       0.41666667       0.25000000 </v>
   <v>       0.50000000       0.50000000       0.25000000 </v>
   <v>       0.33333333       0.33333333       0.33333333 </v>
   <v>       0.41666667       0.33333333       0.33333333 </v>
   <v>       0.50000000       0.33333333       0.33333333 </v>
   <v>       0.41666667       0.41666667       0.33333333 </v>
   <v>       0.50000000       0.41666667       0.33333333 </v>
   <v>       0.50000000       0.50000000       0.33333333 </v>
   <v>       0.41666667       0.41666667       0.41666667 </v>
   <v>       0.50000000       0.41666667       0.41666667 </v>
   <v>       0.50000000       0.50000000       0.41666667 </v>
   <v>       0.50000000       0.50000000       0.50000000 </v>
  </varray>
  <varray name="weights" >
   <v>       0.00057870 </v>
   <v>       0.00347222 </v>
   <v>       0.00347222 </v>
   <v>       0.00347222 </v>
   <v>       0.00347222 </v>
   <v>       0.00347222 </v>
   <v>       0.00173611 </v>
   <v>       0.00694444 </v>
   <v>       0.01388889 </v>
   <v>       0.01388889 </v>
   <v>       0.01388889 </v>
   <v>       0.01388889 </v>
   <v>       0.00694444 </v>
   <v>       0.00694444 </v>
   <v>       0.01388889 </v>
   <v>       0.01388889 </v>
   <v>       0.01388889 </v>
   <v>       0.00694444 </v>
   <v>       0.00694444 </v>
   <v>       0.01388889 </v>
   <v>       0.01388889 </v>
   <v>       0.00694444 </v>
   <v>       0.00694444 </v>
   <v>       0.01388889 </v>
   <v>       0.00694444 </v>
   <v>       0.00694444 </v>
   <v>       0.00694444 </v>
   <v>       0.00173611 </v>
   <v>       0.00462963 </v>
   <v>       0.01388889 </v>
   <v>       0.01388889 </v>
   <v>       0.01388889 </v>
   <v>       0.01388889 </v>
   <v>       0.00694444 </v>
   <v>       0.01388889 </v>
   <v>       0.02777778 </v>
   <v>       0.02777778 </v>
   <v>       0.02777778 </v>
   <v>       0.01388889 </v>
   <v>       0.01388889 </v>
   <v>       0.02777778 </v>
   <v>       0.02777778 </v>
   <v>       0.01388889 </v>
   <v>       0.01388889 </v>
   <v>       0.02777778 </v>
   <v>       0.01388889 </v>
   <v>       0.01388889 </v>
   <v>       0.01388889 </v>
   <v>       0.00347222 </v>
   <v>       0.00462963 </v>
   <v>       0.01388889 </v>
   <v>       0.01388889 </v>
   <v>       0.01388889 </v>
   <v>       0.00694444 </v>
   <v>       0.01388889 </v>
   <v>       0.02777778 </v>
   <v>       0.02777778 </v>
   <v>       0.01388889 </v>
   <v>       0.01388889 </v>
   <v>       0.02777778 </v>
   <v>       0.01388889 </v>
   <v>       0.01388889 </v>
   <v>       0.01388889 </v>
   <v>       0.00347222 </v>
   <v>       0.00462963 </v>
   <v>       0.01388889 </v>
   <v>       0.01388889 </v>
   <v>       0.00694444 </v>
   <v>       0.01388889 </v>
   <v>       0.02777778 </v>
   <v>       0.01388889 </v>
   <v>       0.01388889 </v>
   <v>       0.01388889 </v>
   <v>       0.00347222 </v>
   <v>       0.00462963 </v>
   <v>       0.01388889 </v>
   <v>       0.00694444 </v>
   <v>       0.01388889 </v>
   <v>       0.01388889 </v>
   <v>       0.00347222 </v>
   <v>       0.00462963 </v>
   <v>       0.00694444 </v>
   <v>       0.00347222 </v>
   <v>       0.00057870 </v>
  </varray>
 </kpoints>
 <parameters>
  <separator name="general" >
   <i type="string" name="SYSTEM">static single-point for EOS (Ba)</i>
   <i type="logical" name="LCOMPAT"> F  </i>
  </separator>
  <separator name="electronic" >
   <i type="string" name="PREC">accura</i>
   <i name="ENMAX">    350.00000000</i>
   <i name="ENAUG">    351.16500000</i>
   <i name="EDIFF">      0.00000100</i>
   <i type="int" name="IALGO">    38</i>
   <i type="int" name="IWAVPR">    10</i>
   <i type="int" name="NBANDS">    14</i>
   <i type="int" name="NBANDSLOW">    -1</i>
   <i type="int" name="NBANDSHIGH">    -1</i>
   <i name="NELECT">     20.00000000</i>
   <i type="int" name="TURBO">     0</i>
   <i type="int" name="IRESTART">     0</i>
   <i type="int" name="NREBOOT">     0</i>
   <i type="int" name="NMIN">     0</i>
   <i name="EREF">      0.00000000</i>
   <separator name="electronic smearing" >
    <i type="int" name="ISMEAR">     1</i>
    <i name="SIGMA">      0.20000000</i>
    <i name="KSPACING">      0.12000000</i>
    <i type="logical" name="KGAMMA"> T  </i>
    <i type="logical" name="KBLOWUP"> T  </i>
   </separator>
   <separator name="electronic projectors" >
    <i type="logical" name="LREAL"> F  </i>
    <v name="ROPT">      0.00000000</v>
    <i type="int" name="LMAXPAW">  -100</i>
    <i type="int" name="LMAXMIX">     2</i>
    <i type="logical" name="NLSPLINE"> F  </i>
   </separator>
   <separator name="electronic startup" >
    <i type="int" name="ISTART">     0</i>
    <i type="int" name="ICHARG">     2</i>
    <i type="int" name="INIWAV">     1</i>
   </separator>
   <separator name="electronic spin" >
    <i type="int" name="ISPIN">     1</i>
    <i type="logical" name="LNONCOLLINEAR"> F  </i>
    <v name="MAGMOM">      1.00000000      1.00000000</v>
    <i name="NUPDOWN">     -1.00000000</i>
    <i type="logical" name="LSORBIT"> F  </i>
    <v name="SAXIS">      0.00000000      0.00000000      1.00000000</v>
    <i type="logical" name="LSPIRAL"> F  </i>
    <v name="QSPIRAL">      0.00000000      0.00000000      0.00000000</v>
    <i type="logical" name="LZEROZ"> F  </i>
   </separator>
   <separator name="electronic exchange-correlation" >
    <i type="logical" name="LASPH"> F  </i>
    <i type="logical" name="LMETAGGA"> F  </i>
   </separator>
   <separator name="electronic convergence" >
    <i type="int" name="NELM">    60</i>
    <i type="int" name="NELMDL">    -5</i>
    <i type="int" name="NELMIN">     2</i>
    <i name="ENINI">    350.00000000</i>
    <separator name="electronic convergence detail" >
     <i type="logical" name="LDIAG"> T  </i>
     <i type="logical" name="LSUBROT"> F  </i>
     <i name="WEIMIN">      0.00000000</i>
     <i name="EBREAK">      0.00000002</i>
     <i name="DEPER">      0.30000000</i>
     <i type="int" name="NRMM">     4</i>
     <i name="TIME">      0.40000000</i>
    </separator>
   </separator>
   <separator name="electronic mixer" >
    <i name="AMIX">      0.40000000</i>
    <i name="BMIX">      1.00000000</i>
    <i name="AMIN">      0.10000000</i>
    <i name="AMIX_MAG">      1.60000000</i>
    <i name="BMIX_MAG">      1.00000000</i>
    <separator name="electronic mixer details" >
     <i type="int" name="IMIX">     4</i>
     <i type="logical" name="MIXFIRST"> F  </i>
     <i type="int" name="MAXMIX">   -45</i>
     <i name="WC">    100.00000000</i>
     <i type="int" name="INIMIX">     1</i>
     <i type="int" name="MIXPRE">     1</i>
     <i type="int" name="MREMOVE">     5</i>
    </separator>
   </separator>
   <separator name="electronic dipolcorrection" >
    <i type="logical" name="LDIPOL"> F  </i>
    <i type="logical" name="LMONO"> F  </i>
    <i type="int" name="IDIPOL">     0</i>
    <i name="EPSILON">      1.00000000</i>
    <v name="DIPOL">   -100.00000000   -100.00000000   -100.00000000</v>
    <i name="EFIELD">      0.00000000</i>
   </separator>
  </separator>
  <separator name="grids" >
   <i type="int" name="NGX">    30</i>
   <i type="int" name="NGY">    30</i>
   <i type="int" name="NGZ">    30</i>
   <i type="int" name="NGXF">    60</i>
   <i type="int" name="NGYF">    60</i>
   <i type="int" name="NGZF">    60</i>
   <i type="logical" name="ADDGRID"> F  </i>
  </separator>
  <separator name="ionic" >
   <i type="int" name="NSW">     0</i>
   <i type="int" name="IBRION">    -1</i>
   <i type="int" name="MDALGO">     0</i>
   <i type="int" name="ISIF">     2</i>
   <i name="PSTRESS">      0.00000000</i>
   <i name="EDIFFG">      0.00001000</i>
   <i type="int" name="NFREE">     0</i>
   <i name="POTIM">      0.50000000</i>
   <i name="SMASS">     -3.00000000</i>
   <i name="SCALEE">      1.00000000</i>
  </separator>
  <separator name="ionic md" >
   <i name="TEBEG">      0.00010000</i>
   <i name="TEEND">      0.00010000</i>
   <i type="int" name="NBLOCK">     1</i>
   <i type="int" name="KBLOCK">     1</i>
   <i type="int" name="NPACO">   256</i>
   <i name="APACO">     10.00000000</i>
  </separator>
  <separator name="symmetry" >
   <i type="int" name="ISYM">     2</i>
   <i name="SYMPREC">      0.00001000</i>
  </separator>
  <separator name="dos" >
   <i type="int" name="LORBIT">     0</i>
   <v name="RWIGS">     -1.00000000</v>
   <i type="int" name="NEDOS">   301</i>
   <i name="EMIN">     10.00000000</i>
   <i name="EMAX">    -10.00000000</i>
   <i name="EFERMI">      0.00000000</i>
  </separator>
  <separator name="writing" >
   <i type="int" name="NWRITE">     2</i>
   <i type="logical" name="LWAVE"> F  </i>
   <i type="logical" name="LDOWNSAMPLE"> F  </i>
   <i type="logical" name="LCHARG"> F  </i>
   <i type="logical" name="LPARD"> F  </i>
   <i type="logical" name="LVTOT"> F  </i>
   <i type="logical" name="LVHAR"> F  </i>
   <i type="logical" name="LELF"> F  </i>
   <i type="logical" name="LOPTICS"> F  </i>
   <v name="STM">      0.00000000      0.00000000      0.00000000      0.00000000      0.00000000      0.00000000      0.00000000</v>
  </separator>
  <separator name="performance" >
   <i type="int" name="NPAR">     1</i>
   <i type="int" name="NSIM">     4</i>
   <i type="int" name="NBLK">    -1</i>
   <i type="logical" name="LPLANE"> T  </i>
   <i type="logical" name="LSCALAPACK"> T  </i>
   <i type="logical" name="LSCAAWARE"> F  </i>
   <i type="logical" name="LSCALU"> F  </i>
   <i type="logical" name="LASYNC"> F  </i>
   <i type="logical" name="LORBITALREAL"> F  </i>
  </separator>
  <separator name="miscellaneous" >
   <i type="int" name="IDIOT">     3</i>
   <i type="int" name="PHON_NSTRUCT">    -1</i>
   <i type="logical" name="LMUSIC"> F  </i>
   <v name="POMASS">    137.32700000</v>
   <v name="DARWINR">      0.00000000</v>
   <v name="DARWINV">      1.00000000</v>
   <i type="logical" name="LCORR"> T  </i>
  </separator>
  <i type="logical" name="GGA_COMPAT"> T  </i>
  <i type="logical" name="LBERRY"> F  </i>
  <i type="int" name="ICORELEVEL">     0</i>
  <i type="logical" name="LDAU"> F  </i>
  <i type="int" name="I_CONSTRAINED_M">     0</i>
  <separator name="electronic exchange-correlation" >
   <i type="string" name="GGA">--</i>
   <i type="int" name="VOSKOWN">     0</i>
   <i type="logical" name="LHFCALC"> F  </i>
   <i type="string" name="PRECFOCK"></i>
   <i type="logical" name="LSYMGRAD"> F  </i>
   <i type="logical" name="LHFONE"> F  </i>
   <i type="logical" name="LRHFCALC"> F  </i>
   <i type="logical" name="LTHOMAS"> F  </i>
   <i type="logical" name="LMODELHF"> F  </i>
   <i type="logical" name="LFOCKACE"> F  </i>
   <i name="ENCUT4O">     -1.00000000</i>
   <i type="int" name="EXXOEP">     0</i>
   <i type="int" name="FOURORBIT">     0</i>
   <i name="AEXX">      0.00000000</i>
   <i name="HFALPHA">      0.00000000</i>
   <i name="MCALPHA">      0.00000000</i>
   <i name="ALDAX">      1.00000000</i>
   <i name="AGGAX">      1.00000000</i>
   <i name="ALDAC">      1.00000000</i>
   <i name="AGGAC">      1.00000000</i>
   <i type="int" name="NKREDX">     1</i>
   <i type="int" name="NKREDY">     1</i>
   <i type="int" name="NKREDZ">     1</i>
   <i type="logical" name="SHIFTRED"> F  </i>
   <i type="logical" name="ODDONLY"> F  </i>
   <i type="logical" name="EVENONLY"> F  </i>
   <i type="int" name="LMAXFOCK">     0</i>
   <i type="int" name="NMAXFOCKAE">     0</i>
   <i type="logical" name="LFOCKAEDFT"> F  </i>
   <i name="HFSCREEN">      0.00000000</i>
   <i name="HFSCREENC">      0.00000000</i>
   <i type="int" name="NBANDSGWLOW">     0</i>
  </separator>
  <separator name="vdW DFT" >
   <i type="logical" name="LUSE_VDW"> F  </i>
   <i type="int" name="IVDW_NL">     1</i>
   <i type="logical" name="LSPIN_VDW"> F  </i>
   <i name="Zab_VDW">     -0.84910000</i>
   <i name="PARAM1">      0.12340000</i>
   <i name="PARAM2">      1.00000000</i>
   <i name="PARAM3">      0.00000000</i>
  </separator>
  <separator name="model GW" >
   <i type="int" name="MODEL_GW">     0</i>
   <i name="MODEL_EPS0">     31.59394917</i>
   <i name="MODEL_ALPHA">      1.00000000</i>
  </separator>
  <separator name="linear response parameters" >
   <i type="logical" name="LEPSILON"> F  </i>
   <i type="logical" name="LRPA"> F  </i>
   <i type="logical" name="LNABLA"> F  </i>
   <i type="logical" name="LVEL"> F  </i>
   <i name="CSHIFT">      0.10000000</i>
   <i name="OMEGAMAX">     -1.00000000</i>
   <i name="DEG_THRESHOLD">      0.00200000</i>
   <i name="RTIME">     -0.10000000</i>
   <i name="WPLASMAI">      0.00000000</i>
   <v name="DFIELD">      0.00000000      0.00000000      0.00000000</v>
   <v name="WPLASMA">      0.00000000      0.00000000      0.00000000      0.00000000      0.00000000      0.00000000      0.00000000      0.00000000      0.00000000</v>
  </separator>
  <separator name="orbital magnetization" >
   <i type="logical" name="NUCIND"> F  </i>
   <v name="MAGPOS">      0.00000000      0.00000000      0.00000000</v>
   <i type="logical" name="LNICSALL"> T  </i>
   <i type="logical" name="ORBITALMAG"> F  </i>
   <i type="logical" name="LMAGBLOCH"> F  </i>
   <i type="logical" name="LCHIMAG"> F  </i>
   <i type="logical" name="LGAUGE"> T  </i>
   <i type="int" name="MAGATOM">     0</i>
   <v name="MAGDIPOL">      0.00000000      0.00000000      0.00000000</v>
   <v name="AVECCONST">      0.00000000      0.00000000      0.00000000</v>
  </separator>
  <separator name="response functions" >
   <i type="logical" name="LALL_IN_ONE"> F  </i>
   <i type="int" name="IALL_IN_ONE">    -1</i>
   <i type="int" name="NBANDS_WAVE">    -1</i>
   <i type="logical" name="LFINITE_TEMPERATURE"> F  </i>
   <i type="logical" name="LADDER"> F  </i>
   <i type="logical" name="LRPAFORCE"> F  </i>
   <i type="logical" name="LFXC"> F  </i>
   <i type="logical" name="LHARTREE"> T  </i>
   <i type="int" name="IBSE">     0</i>
   <v type="int" name="KPOINT">    -1     0     0     0</v>
   <i type="logical" name="LTCTC"> F  </i>
   <i type="logical" name="LTCTE"> F  </i>
   <i type="logical" name="LTETE"> F  </i>
   <i type="logical" name="LTRIPLET"> F  </i>
   <i type="logical" name="LFXCEPS"> F  </i>
   <i type="logical" name="LFXHEG"> F  </i>
   <i type="int" name="NATURALO">     2</i>
   <i type="logical" name="LHOLEGF"> F  </i>
   <i type="logical" name="L2ORDER"> F  </i>
   <i type="logical" name="LDMP1"> F  </i>
   <i type="logical" name="LMP2LT"> F  </i>
   <i type="logical" name="LSMP2LT"> F  </i>
   <i type="logical" name="LGWLF"> F  </i>
   <i name="ENCUTGW">     -1.60000002</i>
   <i name="ENCUTGWSOFT">     -1.60000002</i>
   <i name="ENCUTLF">     -1.00000000</i>
   <i type="logical" name="LESF_SPLINES"> F  </i>
   <i type="int" name="LMAXMP2">    -1</i>
   <i name="SCISSOR">      0.00000000</i>
   <i type="int" name="NOMEGA">     0</i>
   <i type="int" name="NOMEGAR">     0</i>
   <i type="int" name="NBANDSGW">    -1</i>
   <i type="int" name="NBANDSO">    -1</i>
   <i type="int" name="NBANDSV">    -1</i>
   <i type="int" name="NELMGW">     1</i>
   <i type="int" name="NELMHF">     1</i>
   <i type="int" name="DIM">     3</i>
   <i type="int" name="IESPILON">     4</i>
   <i type="int" name="ANTIRES">     0</i>
   <i name="OMEGAMAX">    -30.00000000</i>
   <i name="OMEGAMIN">    -30.00000000</i>
   <i name="OMEGATL">   -200.00000000</i>
   <i type="int" name="OMEGAGRID">     0</i>
   <i name="CSHIFT">     -0.10000000</i>
   <i type="logical" name="LSELFENERGY"> F  </i>
   <i type="logical" name="LSPECTRAL"> F  </i>
   <i type="logical" name="LSPECTRALGW"> F  </i>
   <i type="logical" name="LSINGLES"> F  </i>
   <i type="logical" name="LFERMIGW"> F  </i>
   <i type="logical" name="ODDONLYGW"> F  </i>
   <i type="logical" name="EVENONLYGW"> F  </i>
   <i type="int" name="NKREDLFX">     1</i>
   <i type="int" name="NKREDLFY">     1</i>
   <i type="int" name="NKREDLFZ">     1</i>
   <i type="int" name="MAXMEM">  2800</i>
   <i type="int" name="TELESCOPE">     0</i>
   <i type="int" name="NTAUPAR">    -1</i>
   <i type="int" name="NOMEGAPAR">    -1</i>
   <i name="DAMP_NEWTON">      0.80000001</i>
   <i name="LAMBDA">      1.00000000</i>
  </separator>
  <separator name="External order field" >
   <i name="OFIELD_KAPPA">      0.00000000</i>
   <v name="OFIELD_K">      0.00000000      0.00000000      0.00000000</v>
   <i name="OFIELD_Q6_NEAR">      0.00000000</i>
   <i name="OFIELD_Q6_FAR">      0.00000000</i>
   <i name="OFIELD_A">      0.00000000</i>
  </separator>
  <separator name="optional k-points parameters" >
   <i type="int" name="KPOINTS_OPT_MODE">     1</i>
   <i type="logical" name="LKPOINTS_OPT"> F  </i>
  </separator>
 </parameters>
 <atominfo>
  <atoms>       2 </atoms>
  <types>       1 </types>
  <array name="atoms" >
   <dimension dim="1">ion</dimension>
   <field type="string">element</field>
   <field type="int">atomtype</field>
   <set>
    <rc><c>Ba</c><c>   1</c></rc>
    <rc><c>Ba</c><c>   1</c></rc>
   </set>
  </array>
  <array name="atomtypes" >
   <dimension dim="1">type</dimension>
   <field type="int">atomspertype</field>
   <field type="string">element</field>
   <field>mass</field>
   <field>valence</field>
   <field type="string">pseudopotential</field>
   <set>
    <rc><c>   2</c><c>Ba</c><c>    137.32700000</c><c>     10.00000000</c><c>  PAW_PBE Ba_sv 06Sep2000               </c></rc>
   </set>
  </array>
 </atominfo>
 <structure name="initialpos" >
  <crystal>
   <varray name="basis" >
    <v>       4.72237952       0.00000000       0.00000000 </v>
    <v>       0.00000000       4.72237952       0.00000000 </v>
    <v>       0.00000000       0.00000000       4.72237952 </v>
   </varray>
   <i name="volume">    105.31316388 </i>
   <varray name="rec_basis" >
    <v>       0.21175765       0.00000000       0.00000000 </v>
    <v>       0.00000000       0.21175765       0.00000000 </v>
    <v>       0.00000000       0.00000000       0.21175765 </v>
   </varray>
  </crystal>
  <varray name="positions" >
   <v>       0.00000000       0.00000000       0.00000000 </v>
   <v>       0.50000000       0.50000000       0.50000000 </v>
  </varray>
 </structure>
 <calculation>
  <scstep>
   <time name="dav">    1.61    1.61</time>
   <time name="total">    1.64    1.64</time>
   <energy>
    <i name="alphaZ">     99.67389463 </i>
    <i name="ewald">  -1109.69876933 </i>
    <i name="hartreedc">   -214.43177925 </i>
    <i name="XCdc">     49.49176305 </i>
    <i name="pawpsdc">   1034.69261413 </i>
    <i name="pawaedc">  -1029.43834999 </i>
    <i name="eentropy">     -0.00436866 </i>
    <i name="bandstr">   -112.39957682 </i>
    <i name="atom">   1401.70739034 </i>
    <i name="e_fr_energy">    119.59281809 </i>
    <i name="e_wo_entrp">    119.59718675 </i>
    <i name="e_0_energy">    119.59427431 </i>
   </energy>
  </scstep>
  <scstep>
   <time name="dav">    2.05    2.05</time>
   <time name="total">    2.05    2.05</time>
   <energy>
    <i name="e_fr_energy">      3.38685833 </i>
    <i name="e_wo_entrp">      3.37515779 </i>
    <i name="e_0_energy">      3.38295815 </i>
   </energy>
  </scstep>
  <scstep>
   <time name="dav">    1.92    1.92</time>
   <time name="total">    1.92    1.92</time>
   <energy>
    <i name="e_fr_energy">     -3.53413537 </i>
    <i name="e_wo_entrp">     -3.53678744 </i>
    <i name="e_0_energy">     -3.53501939 </i>
   </energy>
  </scstep>
  <scstep>
   <time name="dav">    1.97    1.97</time>
   <time name="total">    1.97    1.97</time>
   <energy>
    <i name="e_fr_energy">     -3.69457782 </i>
    <i name="e_wo_entrp">     -3.69786541 </i>
    <i name="e_0_energy">     -3.69567368 </i>
   </energy>
  </scstep>
  <scstep>
   <time name="dav">    1.83    1.84</time>
   <time name="total">    2.01    2.01</time>
   <energy>
    <i name="e_fr_energy">     -3.69613004 </i>
    <i name="e_wo_entrp">     -3.69941777 </i>
    <i name="e_0_energy">     -3.69722595 </i>
   </energy>
  </scstep>
  <scstep>
   <time name="dav">    1.69    1.69</time>
   <time name="total">    1.87    1.86</time>
   <energy>
    <i name="e_fr_energy">     -3.68699253 </i>
    <i name="e_wo_entrp">     -3.69046609 </i>
    <i name="e_0_energy">     -3.68815038 </i>
   </energy>
  </scstep>
  <scstep>
   <time name="dav">    1.93    1.93</time>
   <time name="total">    2.11    2.11</time>
   <energy>
    <i name="e_fr_energy">     -3.68321907 </i>
    <i name="e_wo_entrp">     -3.68701797 </i>
    <i name="e_0_energy">     -3.68448537 </i>
   </energy>
  </scstep>
  <scstep>
   <time name="dav">    1.78    1.78</time>
   <time name="total">    1.96    1.95</time>
   <energy>
    <i name="e_fr_energy">     -3.68362144 </i>
    <i name="e_wo_entrp">     -3.68750555 </i>
    <i name="e_0_energy">     -3.68491614 </i>
   </energy>
  </scstep>
  <scstep>
   <time name="dav">    1.69    1.69</time>
   <time name="total">    1.87    1.86</time>
   <energy>
    <i name="e_fr_energy">     -3.68363581 </i>
    <i name="e_wo_entrp">     -3.68753986 </i>
    <i name="e_0_energy">     -3.68493716 </i>
   </energy>
  </scstep>
  <scstep>
   <time name="dav">    1.36    1.36</time>
   <time name="total">    1.55    1.54</time>
   <energy>
    <i name="e_fr_energy">     -3.68363086 </i>
    <i name="e_wo_entrp">     -3.68753689 </i>
    <i name="e_0_energy">     -3.68493287 </i>
   </energy>
  </scstep>
  <scstep>
   <time name="dav">    1.08    1.08</time>
   <time name="total">    1.09    1.09</time>
   <energy>
    <i name="alphaZ">     99.67389463 </i>
    <i name="ewald">  -1109.69876933 </i>
    <i name="hartreedc">   -211.16476482 </i>
    <i name="XCdc">     49.54316453 </i>
    <i name="pawpsdc">   1286.31787561 </i>
    <i name="pawaedc">  -1283.66777822 </i>
    <i name="eentropy">      0.00390760 </i>
    <i name="bandstr">   -236.39855033 </i>
    <i name="atom">   1401.70739034 </i>
    <i name="e_fr_energy">     -3.68362999 </i>
    <i name="e_wo_entrp">     -3.68753759 </i>
    <i name="e_0_energy">     -3.68493252 </i>
   </energy>
  </scstep>
  <structure>
   <crystal>
    <varray name="basis" >
     <v>       4.72237952       0.00000000       0.00000000 </v>
     <v>       0.00000000       4.72237952       0.00000000 </v>
     <v>       0.00000000       0.00000000       4.72237952 </v>
    </varray>
    <i name="volume">    105.31316388 </i>
    <varray name="rec_basis" >
     <v>       0.21175765       0.00000000       0.00000000 </v>
     <v>       0.00000000       0.21175765       0.00000000 </v>
     <v>       0.00000000       0.00000000       0.21175765 </v>
    </varray>
   </crystal>
   <varray name="positions" >
    <v>       0.00000000       0.00000000       0.00000000 </v>
    <v>       0.50000000       0.50000000       0.50000000 </v>
   </varray>
  </structure>
  <varray name="forces" >
   <v>       0.00000000       0.00000000       0.00000000 </v>
   <v>      -0.00000000      -0.00000000      -0.00000000 </v>
  </varray>
  <varray name="stress" >
   <v>      21.71468597       0.00000000      -0.00000000 </v>
   <v>      -0.00000000      21.71468597      -0.00000000 </v>
   <v>       0.00000000       0.00000000      21.71468597 </v>
  </varray>
  <energy>
   <i name="e_fr_energy">     -3.68362999 </i>
   <i name="e_wo_entrp">     -3.68753759 </i>
   <i name="e_0_energy">     -3.68493252 </i>
  </energy>
  <time name="totalsc">   24.27   24.01</time>
  <eigenvalues>
   <array>
    <dimension dim="1">band</dimension>
    <dimension dim="2">kpoint</dimension>
    <dimension dim="3">spin</dimension>
    <field>eigene</field>
    <field>occ</field>
    <set>
     <set comment="spin 1">
      <set comment="kpoint 1">
       <r>  -26.3276    1.0000 </r>
       <r>  -26.1673    1.0000 </r>
       <r>  -11.6772    1.0000 </r>
       <r>  -11.6772    1.0000 </r>
       <r>  -11.6772    1.0000 </r>
       <r>  -11.1348    1.0000 </r>
       <r>  -11.1348    1.0000 </r>
       <r>  -11.1348    1.0000 </r>
       <r>   -0.5130    1.0000 </r>
       <r>    1.4562    1.0000 </r>
       <r>    1.4562    1.0000 </r>
       <r>    4.3156   -0.0000 </r>
       <r>    4.3156   -0.0000 </r>
       <r>    4.3156   -0.0000 </r>
      </set>
      <set comment="kpoint 2">
       <r>  -26.3245    1.0000 </r>
       <r>  -26.1697    1.0000 </r>
       <r>  -11.6790    1.0000 </r>
       <r>  -11.6678    1.0000 </r>
       <r>  -11.6678    1.0000 </r>
       <r>  -11.1566    1.0000 </r>
       <r>  -11.1437    1.0000 </r>
       <r>  -11.1437    1.0000 </r>
       <r>   -0.4306    1.0000 </r>
       <r>    1.4988    1.0000 </r>
       <r>    1.5237    1.0000 </r>
       <r>    4.2898   -0.0000 </r>
       <r>    4.2898   -0.0000 </r>
       <r>    4.3542   -0.0000 </r>
      </set>
      <set comment="kpoint 3">
       <r>  -26.3154    1.0000 </r>
       <r>  -26.1765    1.0000 </r>
       <r>  -11.6822    1.0000 </r>
       <r>  -11.6401    1.0000 </r>
       <r>  -11.6401    1.0000 </r>
       <r>  -11.2175    1.0000 </r>
       <r>  -11.1699    1.0000 </r>
       <r>  -11.1699    1.0000 </r>
       <r>   -0.1918    1.0000 </r>
       <r>    1.6263    1.0000 </r>
       <r>    1.7050    1.0002 </r>
       <r>    4.2310   -0.0000 </r>
       <r>    4.2310   -0.0000 </r>
       <r>    4.4695   -0.0000 </r>
      </set>
      <set comment="kpoint 4">
       <r>  -26.3011    1.0000 </r>
       <r>  -26.1877    1.0000 </r>
       <r>  -11.6806    1.0000 </r>
       <r>  -11.5962    1.0000 </r>
       <r>  -11.5962    1.0000 </r>
       <r>  -11.3052    1.0000 </r>
       <r>  -11.2120    1.0000 </r>
       <r>  -11.2120    1.0000 </r>
       <r>    0.1789    1.0000 </r>
       <r>    1.8379    1.0042 </r>
       <r>    1.9285    1.0172 </r>
       <r>    4.1802   -0.0000 </r>
       <r>    4.1802   -0.0000 </r>
       <r>    4.6619   -0.0000 </r>
      </set>
      <set comment="kpoint 5">
       <r>  -26.2830    1.0000 </r>
       <r>  -26.2027    1.0000 </r>
       <r>  -11.6665    1.0000 </r>
       <r>  -11.5391    1.0000 </r>
       <r>  -11.5391    1.0000 </r>
       <r>  -11.4037    1.0000 </r>
       <r>  -11.2672    1.0000 </r>
       <r>  -11.2672    1.0000 </r>
       <r>    0.6437    1.0000 </r>
       <r>    2.0615    1.0307 </r>
       <r>    2.1321    0.9644 </r>
       <r>    4.0544   -0.0000 </r>
       <r>    4.1788   -0.0000 </r>
       <r>    4.1788   -0.0000 </r>
      </set>
      <set comment="kpoint 6">
       <r>  -26.2625    1.0000 </r>
       <r>  -26.2209    1.0000 </r>
       <r>  -11.6331    1.0000 </r>
       <r>  -11.4981    1.0000 </r>
       <r>  -11.4729    1.0000 </r>
       <r>  -11.4729    1.0000 </r>
       <r>  -11.3320    1.0000 </r>
       <r>  -11.3320    1.0000 </r>
       <r>    1.1506    1.0000 </r>
       <r>    1.9646    1.0253 </r>
       <r>    2.5065   -0.0347 </r>
       <r>    3.4768   -0.0000 </r>
       <r>    4.2565   -0.0000 </r>
       <r>    4.2565   -0.0000 </r>
      </set>
      <set comment="kpoint 7">
       <r>  -26.2413    1.0000 </r>
       <r>  -26.2413    1.0000 </r>
       <r>  -11.5766    1.0000 </r>
       <r>  -11.5766    1.0000 </r>
       <r>  -11.4022    1.0000 </r>
       <r>  -11.4022    1.0000 </r>
       <r>  -11.4022    1.0000 </r>
       <r>  -11.4022    1.0000 </r>
       <r>    1.6260    1.0000 </r>
       <r>    1.6260    1.0000 </r>
       <r>    2.9569   -0.0000 </r>
       <r>    2.9569   -0.0000 </r>
       <r>    4.4319   -0.0000 </r>
       <r>    4.4319   -0.0000 </r>
      </set>
      <set comment="kpoint 8">
       <r>  -26.3214    1.0000 </r>
       <r>  -26.1719    1.0000 </r>
       <r>  -11.6954    1.0000 </r>
       <r>  -11.6586    1.0000 </r>
       <r>  -11.6442    1.0000 </r>
       <r>  -11.1946    1.0000 </r>
       <r>  -11.1522    1.0000 </r>
       <r>  -11.1354    1.0000 </r>
       <r>   -0.3504    1.0000 </r>
       <r>    1.5514    1.0000 </r>
       <r>    1.5803    1.0000 </r>
       <r>    4.1816   -0.0000 </r>
       <r>    4.2468   -0.0000 </r>
       <r>    4.4801   -0.0000 </r>
      </set>
      <set comment="kpoint 9">
       <r>  -26.3126    1.0000 </r>
       <r>  -26.1784    1.0000 </r>
       <r>  -11.7101    1.0000 </r>
       <r>  -11.6317    1.0000 </r>
       <r>  -11.6062    1.0000 </r>
       <r>  -11.2662    1.0000 </r>
       <r>  -11.1774    1.0000 </r>
       <r>  -11.1480    1.0000 </r>
       <r>   -0.1185    1.0000 </r>
       <r>    1.6771    1.0001 </r>
       <r>    1.7595    1.0008 </r>
       <r>    4.0661   -0.0000 </r>
       <r>    4.1406   -0.0000 </r>
       <r>    4.6639   -0.0000 </r>
      </set>
      <set comment="kpoint 10">
       <r>  -26.2987    1.0000 </r>
       <r>  -26.1891    1.0000 </r>
       <r>  -11.7159    1.0000 </r>
       <r>  -11.5890    1.0000 </r>
       <r>  -11.5569    1.0000 </r>
       <r>  -11.3579    1.0000 </r>
       <r>  -11.2177    1.0000 </r>
       <r>  -11.1817    1.0000 </r>
       <r>    0.2407    1.0000 </r>
       <r>    1.8749    1.0080 </r>
       <r>    1.9863    1.0301 </r>
       <r>    3.9875   -0.0000 </r>
       <r>    3.9969   -0.0000 </r>
       <r>    4.9040   -0.0000 </r>
      </set>
      <set comment="kpoint 11">
       <r>  -26.2812    1.0000 </r>
       <r>  -26.2036    1.0000 </r>
       <r>  -11.7070    1.0000 </r>
       <r>  -11.5336    1.0000 </r>
       <r>  -11.4975    1.0000 </r>
       <r>  -11.4566    1.0000 </r>
       <r>  -11.2708    1.0000 </r>
       <r>  -11.2316    1.0000 </r>
       <r>    0.6893    1.0000 </r>
       <r>    2.0688    1.0280 </r>
       <r>    2.1947    0.8104 </r>
       <r>    3.7642   -0.0000 </r>
       <r>    3.9715   -0.0000 </r>
       <r>    4.5606   -0.0000 </r>
      </set>
      <set comment="kpoint 12">
       <r>  -26.2613    1.0000 </r>
       <r>  -26.2212    1.0000 </r>
       <r>  -11.6777    1.0000 </r>
       <r>  -11.5491    1.0000 </r>
       <r>  -11.4694    1.0000 </r>
       <r>  -11.4308    1.0000 </r>
       <r>  -11.3333    1.0000 </r>
       <r>  -11.2930    1.0000 </r>
       <r>    1.1770    1.0000 </r>
       <r>    1.9735    1.0274 </r>
       <r>    2.5296   -0.0351 </r>
       <r>    3.3781   -0.0000 </r>
       <r>    4.0395   -0.0000 </r>
       <r>    4.4637   -0.0000 </r>
      </set>
      <set comment="kpoint 13">
       <r>  -26.2408    1.0000 </r>
       <r>  -26.2408    1.0000 </r>
       <r>  -11.6248    1.0000 </r>
       <r>  -11.6248    1.0000 </r>
       <r>  -11.4010    1.0000 </r>
       <r>  -11.4010    1.0000 </r>
       <r>  -11.3610    1.0000 </r>
       <r>  -11.3610    1.0000 </r>
       <r>    1.6368    1.0000 </r>
       <r>    1.6368    1.0000 </r>
       <r>    2.9384   -0.0000 </r>
       <r>    2.9384   -0.0000 </r>
       <r>    4.2056   -0.0000 </r>
       <r>    4.2056   -0.0000 </r>
      </set>
      <set comment="kpoint 14">
       <r>  -26.3045    1.0000 </r>
       <r>  -26.1842    1.0000 </r>
       <r>  -11.7444    1.0000 </r>
       <r>  -11.6070    1.0000 </r>
       <r>  -11.5522    1.0000 </r>
       <r>  -11.3529    1.0000 </r>
       <r>  -11.1994    1.0000 </r>
       <r>  -11.1371    1.0000 </r>
       <r>    0.0925    1.0000 </r>
       <r>    1.7876    1.0015 </r>
       <r>    1.9400    1.0197 </r>
       <r>    3.8631   -0.0000 </r>
       <r>    3.9540   -0.0000 </r>
       <r>    4.9646   -0.0000 </r>
      </set>
      <set comment="kpoint 15">
       <r>  -26.2919    1.0000 </r>
       <r>  -26.1936    1.0000 </r>
       <r>  -11.7679    1.0000 </r>
       <r>  -11.5680    1.0000 </r>
       <r>  -11.4914    1.0000 </r>
       <r>  -11.4532    1.0000 </r>
       <r>  -11.2348    1.0000 </r>
       <r>  -11.1497    1.0000 </r>
       <r>    0.4150    1.0000 </r>
       <r>    1.9244    1.0164 </r>
       <r>    2.1935    0.8142 </r>
       <r>    3.7161   -0.0000 </r>
       <r>    3.7546   -0.0000 </r>
       <r>    4.8313   -0.0000 </r>
      </set>
      <set comment="kpoint 16">
       <r>  -26.2759    1.0000 </r>
       <r>  -26.2063    1.0000 </r>
       <r>  -11.7737    1.0000 </r>
       <r>  -11.5542    1.0000 </r>
       <r>  -11.5175    1.0000 </r>
       <r>  -11.4258    1.0000 </r>
       <r>  -11.2817    1.0000 </r>
       <r>  -11.1829    1.0000 </r>
       <r>    0.8100    1.0000 </r>
       <r>    2.0158    1.0348 </r>
       <r>    2.4361    0.0083 </r>
       <r>    3.5445   -0.0000 </r>
       <r>    3.6489   -0.0000 </r>
       <r>    4.3931   -0.0000 </r>
      </set>
      <set comment="kpoint 17">
       <r>  -26.2579    1.0000 </r>
       <r>  -26.2219    1.0000 </r>
       <r>  -11.7564    1.0000 </r>
       <r>  -11.6438    1.0000 </r>
       <r>  -11.4594    1.0000 </r>
       <r>  -11.3581    1.0000 </r>
       <r>  -11.3372    1.0000 </r>
       <r>  -11.2319    1.0000 </r>
       <r>    1.2304    1.0000 </r>
       <r>    1.9171    1.0149 </r>
       <r>    2.6909   -0.0061 </r>
       <r>    3.2895   -0.0000 </r>
       <r>    3.6766   -0.0000 </r>
       <r>    4.0478   -0.0000 </r>
      </set>
      <set comment="kpoint 18">
       <r>  -26.2395    1.0000 </r>
       <r>  -26.2395    1.0000 </r>
       <r>  -11.7129    1.0000 </r>
       <r>  -11.7129    1.0000 </r>
       <r>  -11.3978    1.0000 </r>
       <r>  -11.3978    1.0000 </r>
       <r>  -11.2920    1.0000 </r>
       <r>  -11.2920    1.0000 </r>
       <r>    1.6231    1.0000 </r>
       <r>    1.6231    1.0000 </r>
       <r>    2.9895   -0.0000 </r>
       <r>    2.9895   -0.0000 </r>
       <r>    3.8084   -0.0000 </r>
       <r>    3.8084   -0.0000 </r>
      </set>
      <set comment="kpoint 19">
       <r>  -26.2812    1.0000 </r>
       <r>  -26.2009    1.0000 </r>
       <r>  -11.8099    1.0000 </r>
       <r>  -11.5579    1.0000 </r>
       <r>  -11.5349    1.0000 </r>
       <r>  -11.4221    1.0000 </r>
       <r>  -11.2625    1.0000 </r>
       <r>  -11.1395    1.0000 </r>
       <r>    0.6708    1.0000 </r>
       <r>    1.9485    1.0216 </r>
       <r>    2.4974   -0.0332 </r>
       <r>    3.5036   -0.0000 </r>
       <r>    3.5817   -0.0000 </r>
       <r>    4.3542   -0.0000 </r>
      </set>
      <set comment="kpoint 20">
       <r>  -26.2678    1.0000 </r>
       <r>  -26.2109    1.0000 </r>
       <r>  -11.8331    1.0000 </r>
       <r>  -11.6576    1.0000 </r>
       <r>  -11.4925    1.0000 </r>
       <r>  -11.3534    1.0000 </r>
       <r>  -11.2996    1.0000 </r>
       <r>  -11.1516    1.0000 </r>
       <r>    0.9657    1.0000 </r>
       <r>    1.9023    1.0122 </r>
       <r>    2.7980   -0.0007 </r>
       <r>    3.3795   -0.0000 </r>
       <r>    3.4733   -0.0000 </r>
       <r>    3.9491   -0.0000 </r>
      </set>
      <set comment="kpoint 21">
       <r>  -26.2528    1.0000 </r>
       <r>  -26.2234    1.0000 </r>
       <r>  -11.8312    1.0000 </r>
       <r>  -11.7412    1.0000 </r>
       <r>  -11.4441    1.0000 </r>
       <r>  -11.3441    1.0000 </r>
       <r>  -11.2882    1.0000 </r>
       <r>  -11.1831    1.0000 </r>
       <r>    1.2610    1.0000 </r>
       <r>    1.7560    1.0008 </r>
       <r>    3.0416   -0.0000 </r>
       <r>    3.3575   -0.0000 </r>
       <r>    3.3771   -0.0000 </r>
       <r>    3.6428   -0.0000 </r>
      </set>
      <set comment="kpoint 22">
       <r>  -26.2377    1.0000 </r>
       <r>  -26.2377    1.0000 </r>
       <r>  -11.8005    1.0000 </r>
       <r>  -11.8005    1.0000 </r>
       <r>  -11.3934    1.0000 </r>
       <r>  -11.3934    1.0000 </r>
       <r>  -11.2301    1.0000 </r>
       <r>  -11.2301    1.0000 </r>
       <r>    1.5314    1.0000 </r>
       <r>    1.5314    1.0000 </r>
       <r>    3.2363   -0.0000 </r>
       <r>    3.2363   -0.0000 </r>
       <r>    3.4446   -0.0000 </r>
       <r>    3.4446   -0.0000 </r>
      </set>
      <set comment="kpoint 23">
       <r>  -26.2577    1.0000 </r>
       <r>  -26.2175    1.0000 </r>
       <r>  -11.8738    1.0000 </r>
       <r>  -11.7518    1.0000 </r>
       <r>  -11.4608    1.0000 </r>
       <r>  -11.3242    1.0000 </r>
       <r>  -11.2865    1.0000 </r>
       <r>  -11.1420    1.0000 </r>
       <r>    1.1179    1.0000 </r>
       <r>    1.7424    1.0005 </r>
       <r>    3.1829   -0.0000 </r>
       <r>    3.2008   -0.0000 </r>
       <r>    3.5335   -0.0000 </r>
       <r>    3.5843   -0.0000 </r>
      </set>
      <set comment="kpoint 24">
       <r>  -26.2467    1.0000 </r>
       <r>  -26.2259    1.0000 </r>
       <r>  -11.8884    1.0000 </r>
       <r>  -11.8259    1.0000 </r>
       <r>  -11.4253    1.0000 </r>
       <r>  -11.3545    1.0000 </r>
       <r>  -11.2287    1.0000 </r>
       <r>  -11.1533    1.0000 </r>
       <r>    1.2581    1.0000 </r>
       <r>    1.5670    1.0000 </r>
       <r>    3.1278   -0.0000 </r>
       <r>    3.3204   -0.0000 </r>
       <r>    3.4801   -0.0000 </r>
       <r>    3.6301   -0.0000 </r>
      </set>
      <set comment="kpoint 25">
       <r>  -26.2359    1.0000 </r>
       <r>  -26.2359    1.0000 </r>
       <r>  -11.8726    1.0000 </r>
       <r>  -11.8726    1.0000 </r>
       <r>  -11.3890    1.0000 </r>
       <r>  -11.3890    1.0000 </r>
       <r>  -11.1832    1.0000 </r>
       <r>  -11.1832    1.0000 </r>
       <r>    1.4032    1.0000 </r>
       <r>    1.4032    1.0000 </r>
       <r>    3.1671   -0.0000 </r>
       <r>    3.1671   -0.0000 </r>
       <r>    3.6326   -0.0000 </r>
       <r>    3.6326   -0.0000 </r>
      </set>
      <set comment="kpoint 26">
       <r>  -26.2404    1.0000 </r>
       <r>  -26.2296    1.0000 </r>
       <r>  -11.9197    1.0000 </r>
       <r>  -11.8877    1.0000 </r>
       <r>  -11.4052    1.0000 </r>
       <r>  -11.3685    1.0000 </r>
       <r>  -11.1833    1.0000 </r>
       <r>  -11.1439    1.0000 </r>
       <r>    1.2593    1.0000 </r>
       <r>    1.4071    1.0000 </r>
       <r>    3.0045   -0.0000 </r>
       <r>    3.1015   -0.0000 </r>
       <r>    3.8562   -0.0000 </r>
       <r>    3.9084   -0.0000 </r>
      </set>
      <set comment="kpoint 27">
       <r>  -26.2345    1.0000 </r>
       <r>  -26.2345    1.0000 </r>
       <r>  -11.9198    1.0000 </r>
       <r>  -11.9198    1.0000 </r>
       <r>  -11.3858    1.0000 </r>
       <r>  -11.3858    1.0000 </r>
       <r>  -11.1543    1.0000 </r>
       <r>  -11.1543    1.0000 </r>
       <r>    1.3032    1.0000 </r>
       <r>    1.3032    1.0000 </r>
       <r>    2.9951   -0.0000 </r>
       <r>    2.9951   -0.0000 </r>
       <r>    4.0186   -0.0000 </r>
       <r>    4.0186   -0.0000 </r>
      </set>
      <set comment="kpoint 28">
       <r>  -26.2341    1.0000 </r>
       <r>  -26.2341    1.0000 </r>
       <r>  -11.9362    1.0000 </r>
       <r>  -11.9362    1.0000 </r>
       <r>  -11.3846    1.0000 </r>
       <r>  -11.3846    1.0000 </r>
       <r>  -11.1446    1.0000 </r>
       <r>  -11.1446    1.0000 </r>
       <r>    1.2664    1.0000 </r>
       <r>    1.2664    1.0000 </r>
       <r>    2.9369   -0.0000 </r>
       <r>    2.9369   -0.0000 </r>
       <r>    4.1862   -0.0000 </r>
       <r>    4.1862   -0.0000 </r>
      </set>
      <set comment="kpoint 29">
       <r>  -26.3185    1.0000 </r>
       <r>  -26.1740    1.0000 </r>
       <r>  -11.6857    1.0000 </r>
       <r>  -11.6857    1.0000 </r>
       <r>  -11.6110    1.0000 </r>
       <r>  -11.2299    1.0000 </r>
       <r>  -11.1446    1.0000 </r>
       <r>  -11.1446    1.0000 </r>
       <r>   -0.2720    1.0000 </r>
       <r>    1.6201    1.0000 </r>
       <r>    1.6201    1.0000 </r>
       <r>    4.1367   -0.0000 </r>
       <r>    4.1367   -0.0000 </r>
       <r>    4.6075   -0.0000 </r>
      </set>
      <set comment="kpoint 30">
       <r>  -26.3099    1.0000 </r>
       <r>  -26.1803    1.0000 </r>
       <r>  -11.7117    1.0000 </r>
       <r>  -11.6572    1.0000 </r>
       <r>  -11.5653    1.0000 </r>
       <r>  -11.3033    1.0000 </r>
       <r>  -11.1718    1.0000 </r>
       <r>  -11.1496    1.0000 </r>
       <r>   -0.0457    1.0000 </r>
       <r>    1.7388    1.0005 </r>
       <r>    1.8035    1.0021 </r>
       <r>    3.9892   -0.0000 </r>
       <r>    4.0181   -0.0000 </r>
       <r>    4.8260   -0.0000 </r>
      </set>
      <set comment="kpoint 31">
       <r>  -26.2964    1.0000 </r>
       <r>  -26.1905    1.0000 </r>
       <r>  -11.7268    1.0000 </r>
       <r>  -11.6120    1.0000 </r>
       <r>  -11.5124    1.0000 </r>
       <r>  -11.3955    1.0000 </r>
       <r>  -11.2154    1.0000 </r>
       <r>  -11.1739    1.0000 </r>
       <r>    0.3038    1.0000 </r>
       <r>    1.9340    1.0184 </r>
       <r>    2.0235    1.0353 </r>
       <r>    3.8488   -0.0000 </r>
       <r>    3.8915   -0.0000 </r>
       <r>    4.7230   -0.0000 </r>
      </set>
      <set comment="kpoint 32">
       <r>  -26.2794    1.0000 </r>
       <r>  -26.2045    1.0000 </r>
       <r>  -11.7255    1.0000 </r>
       <r>  -11.5532    1.0000 </r>
       <r>  -11.4928    1.0000 </r>
       <r>  -11.4534    1.0000 </r>
       <r>  -11.2725    1.0000 </r>
       <r>  -11.2144    1.0000 </r>
       <r>    0.7385    1.0000 </r>
       <r>    2.1328    0.9632 </r>
       <r>    2.2013    0.7889 </r>
       <r>    3.6155   -0.0000 </r>
       <r>    3.8717   -0.0000 </r>
       <r>    4.4032   -0.0000 </r>
      </set>
      <set comment="kpoint 33">
       <r>  -26.2602    1.0000 </r>
       <r>  -26.2214    1.0000 </r>
       <r>  -11.7022    1.0000 </r>
       <r>  -11.5825    1.0000 </r>
       <r>  -11.4849    1.0000 </r>
       <r>  -11.3904    1.0000 </r>
       <r>  -11.3396    1.0000 </r>
       <r>  -11.2668    1.0000 </r>
       <r>    1.2100    1.0000 </r>
       <r>    2.0008    1.0328 </r>
       <r>    2.5315   -0.0350 </r>
       <r>    3.2891   -0.0000 </r>
       <r>    3.9385   -0.0000 </r>
       <r>    4.2260   -0.0000 </r>
      </set>
      <set comment="kpoint 34">
       <r>  -26.2403    1.0000 </r>
       <r>  -26.2403    1.0000 </r>
       <r>  -11.6542    1.0000 </r>
       <r>  -11.6542    1.0000 </r>
       <r>  -11.4120    1.0000 </r>
       <r>  -11.4120    1.0000 </r>
       <r>  -11.3269    1.0000 </r>
       <r>  -11.3269    1.0000 </r>
       <r>    1.6580    1.0001 </r>
       <r>    1.6580    1.0001 </r>
       <r>    2.9066   -0.0000 </r>
       <r>    2.9066   -0.0000 </r>
       <r>    4.0731   -0.0000 </r>
       <r>    4.0731   -0.0000 </r>
      </set>
      <set comment="kpoint 35">
       <r>  -26.3020    1.0000 </r>
       <r>  -26.1857    1.0000 </r>
       <r>  -11.7340    1.0000 </r>
       <r>  -11.6486    1.0000 </r>
       <r>  -11.5092    1.0000 </r>
       <r>  -11.3824    1.0000 </r>
       <r>  -11.1899    1.0000 </r>
       <r>  -11.1473    1.0000 </r>
       <r>    0.1633    1.0000 </r>
       <r>    1.8626    1.0065 </r>
       <r>    1.9711    1.0268 </r>
       <r>    3.8023   -0.0000 </r>
       <r>    3.8435   -0.0000 </r>
       <r>    4.6407   -0.0000 </r>
      </set>
      <set comment="kpoint 36">
       <r>  -26.2897    1.0000 </r>
       <r>  -26.1948    1.0000 </r>
       <r>  -11.7605    1.0000 </r>
       <r>  -11.6082    1.0000 </r>
       <r>  -11.4773    1.0000 </r>
       <r>  -11.4500    1.0000 </r>
       <r>  -11.2291    1.0000 </r>
       <r>  -11.1571    1.0000 </r>
       <r>    0.4816    1.0000 </r>
       <r>    2.0059    1.0336 </r>
       <r>    2.2130    0.7481 </r>
       <r>    3.6310   -0.0000 </r>
       <r>    3.6766   -0.0000 </r>
       <r>    4.2020   -0.0000 </r>
      </set>
      <set comment="kpoint 37">
       <r>  -26.2742    1.0000 </r>
       <r>  -26.2070    1.0000 </r>
       <r>  -11.7717    1.0000 </r>
       <r>  -11.5733    1.0000 </r>
       <r>  -11.5518    1.0000 </r>
       <r>  -11.3894    1.0000 </r>
       <r>  -11.2823    1.0000 </r>
       <r>  -11.1832    1.0000 </r>
       <r>    0.8697    1.0000 </r>
       <r>    2.1023    1.0043 </r>
       <r>    2.4214    0.0291 </r>
       <r>    3.4261   -0.0000 </r>
       <r>    3.6189   -0.0000 </r>
       <r>    3.9740   -0.0000 </r>
      </set>
      <set comment="kpoint 38">
       <r>  -26.2568    1.0000 </r>
       <r>  -26.2220    1.0000 </r>
       <r>  -11.7600    1.0000 </r>
       <r>  -11.6579    1.0000 </r>
       <r>  -11.4857    1.0000 </r>
       <r>  -11.3458    1.0000 </r>
       <r>  -11.3295    1.0000 </r>
       <r>  -11.2229    1.0000 </r>
       <r>    1.2814    1.0000 </r>
       <r>    1.9797    1.0287 </r>
       <r>    2.6493   -0.0118 </r>
       <r>    3.1897   -0.0000 </r>
       <r>    3.6599   -0.0000 </r>
       <r>    3.8825   -0.0000 </r>
      </set>
      <set comment="kpoint 39">
       <r>  -26.2390    1.0000 </r>
       <r>  -26.2390    1.0000 </r>
       <r>  -11.7219    1.0000 </r>
       <r>  -11.7219    1.0000 </r>
       <r>  -11.4153    1.0000 </r>
       <r>  -11.4153    1.0000 </r>
       <r>  -11.2729    1.0000 </r>
       <r>  -11.2729    1.0000 </r>
       <r>    1.6705    1.0001 </r>
       <r>    1.6705    1.0001 </r>
       <r>    2.9211   -0.0000 </r>
       <r>    2.9211   -0.0000 </r>
       <r>    3.7690   -0.0000 </r>
       <r>    3.7690   -0.0000 </r>
      </set>
      <set comment="kpoint 40">
       <r>  -26.2794    1.0000 </r>
       <r>  -26.2018    1.0000 </r>
       <r>  -11.7986    1.0000 </r>
       <r>  -11.5759    1.0000 </r>
       <r>  -11.5730    1.0000 </r>
       <r>  -11.3872    1.0000 </r>
       <r>  -11.2588    1.0000 </r>
       <r>  -11.1509    1.0000 </r>
       <r>    0.7417    1.0000 </r>
       <r>    2.0351    1.0353 </r>
       <r>    2.5131   -0.0353 </r>
       <r>    3.4500   -0.0000 </r>
       <r>    3.4975   -0.0000 </r>
       <r>    3.8255   -0.0000 </r>
      </set>
      <set comment="kpoint 41">
       <r>  -26.2663    1.0000 </r>
       <r>  -26.2114    1.0000 </r>
       <r>  -11.8231    1.0000 </r>
       <r>  -11.6658    1.0000 </r>
       <r>  -11.5277    1.0000 </r>
       <r>  -11.3271    1.0000 </r>
       <r>  -11.3008    1.0000 </r>
       <r>  -11.1611    1.0000 </r>
       <r>    1.0390    1.0000 </r>
       <r>    1.9866    1.0302 </r>
       <r>    2.7869   -0.0009 </r>
       <r>    3.3046   -0.0000 </r>
       <r>    3.4243   -0.0000 </r>
       <r>    3.6435   -0.0000 </r>
      </set>
      <set comment="kpoint 42">
       <r>  -26.2519    1.0000 </r>
       <r>  -26.2234    1.0000 </r>
       <r>  -11.8244    1.0000 </r>
       <r>  -11.7436    1.0000 </r>
       <r>  -11.4707    1.0000 </r>
       <r>  -11.3525    1.0000 </r>
       <r>  -11.2721    1.0000 </r>
       <r>  -11.1864    1.0000 </r>
       <r>    1.3328    1.0000 </r>
       <r>    1.8309    1.0037 </r>
       <r>    2.9692   -0.0000 </r>
       <r>    3.1974   -0.0000 </r>
       <r>    3.4343   -0.0000 </r>
       <r>    3.5675   -0.0000 </r>
      </set>
      <set comment="kpoint 43">
       <r>  -26.2372    1.0000 </r>
       <r>  -26.2372    1.0000 </r>
       <r>  -11.7979    1.0000 </r>
       <r>  -11.7979    1.0000 </r>
       <r>  -11.4106    1.0000 </r>
       <r>  -11.4106    1.0000 </r>
       <r>  -11.2243    1.0000 </r>
       <r>  -11.2243    1.0000 </r>
       <r>    1.6015    1.0000 </r>
       <r>    1.6015    1.0000 </r>
       <r>    3.0973   -0.0000 </r>
       <r>    3.0973   -0.0000 </r>
       <r>    3.4919   -0.0000 </r>
       <r>    3.4919   -0.0000 </r>
      </set>
      <set comment="kpoint 44">
       <r>  -26.2566    1.0000 </r>
       <r>  -26.2177    1.0000 </r>
       <r>  -11.8616    1.0000 </r>
       <r>  -11.7524    1.0000 </r>
       <r>  -11.4907    1.0000 </r>
       <r>  -11.3278    1.0000 </r>
       <r>  -11.2713    1.0000 </r>
       <r>  -11.1546    1.0000 </r>
       <r>    1.2008    1.0000 </r>
       <r>    1.8225    1.0031 </r>
       <r>    3.1632   -0.0000 </r>
       <r>    3.1742   -0.0000 </r>
       <r>    3.4033   -0.0000 </r>
       <r>    3.4548   -0.0000 </r>
      </set>
      <set comment="kpoint 45">
       <r>  -26.2459    1.0000 </r>
       <r>  -26.2258    1.0000 </r>
       <r>  -11.8770    1.0000 </r>
       <r>  -11.8210    1.0000 </r>
       <r>  -11.4477    1.0000 </r>
       <r>  -11.3626    1.0000 </r>
       <r>  -11.2243    1.0000 </r>
       <r>  -11.1641    1.0000 </r>
       <r>    1.3427    1.0000 </r>
       <r>    1.6457    1.0000 </r>
       <r>    3.0872   -0.0000 </r>
       <r>    3.2066   -0.0000 </r>
       <r>    3.4871   -0.0000 </r>
       <r>    3.5685   -0.0000 </r>
      </set>
      <set comment="kpoint 46">
       <r>  -26.2354    1.0000 </r>
       <r>  -26.2354    1.0000 </r>
       <r>  -11.8637    1.0000 </r>
       <r>  -11.8637    1.0000 </r>
       <r>  -11.4036    1.0000 </r>
       <r>  -11.4036    1.0000 </r>
       <r>  -11.1879    1.0000 </r>
       <r>  -11.1879    1.0000 </r>
       <r>    1.4847    1.0000 </r>
       <r>    1.4847    1.0000 </r>
       <r>    3.1041   -0.0000 </r>
       <r>    3.1041   -0.0000 </r>
       <r>    3.6086   -0.0000 </r>
       <r>    3.6086   -0.0000 </r>
      </set>
      <set comment="kpoint 47">
       <r>  -26.2398    1.0000 </r>
       <r>  -26.2293    1.0000 </r>
       <r>  -11.9068    1.0000 </r>
       <r>  -11.8782    1.0000 </r>
       <r>  -11.4221    1.0000 </r>
       <r>  -11.3776    1.0000 </r>
       <r>  -11.1884    1.0000 </r>
       <r>  -11.1574    1.0000 </r>
       <r>    1.3476    1.0000 </r>
       <r>    1.4899    1.0000 </r>
       <r>    2.9799   -0.0000 </r>
       <r>    3.0579   -0.0000 </r>
       <r>    3.8123   -0.0000 </r>
       <r>    3.8351   -0.0000 </r>
      </set>
      <set comment="kpoint 48">
       <r>  -26.2341    1.0000 </r>
       <r>  -26.2341    1.0000 </r>
       <r>  -11.9077    1.0000 </r>
       <r>  -11.9077    1.0000 </r>
       <r>  -11.3979    1.0000 </r>
       <r>  -11.3979    1.0000 </r>
       <r>  -11.1658    1.0000 </r>
       <r>  -11.1658    1.0000 </r>
       <r>    1.3899    1.0000 </r>
       <r>    1.3899    1.0000 </r>
       <r>    2.9685   -0.0000 </r>
       <r>    2.9685   -0.0000 </r>
       <r>    3.9572   -0.0000 </r>
       <r>    3.9572   -0.0000 </r>
      </set>
      <set comment="kpoint 49">
       <r>  -26.2336    1.0000 </r>
       <r>  -26.2336    1.0000 </r>
       <r>  -11.9232    1.0000 </r>
       <r>  -11.9232    1.0000 </r>
       <r>  -11.3957    1.0000 </r>
       <r>  -11.3957    1.0000 </r>
       <r>  -11.1584    1.0000 </r>
       <r>  -11.1584    1.0000 </r>
       <r>    1.3547    1.0000 </r>
       <r>    1.3547    1.0000 </r>
       <r>    2.9171   -0.0000 </r>
       <r>    2.9171   -0.0000 </r>
       <r>    4.1166   -0.0000 </r>
       <r>    4.1166   -0.0000 </r>
      </set>
      <set comment="kpoint 50">
       <r>  -26.2948    1.0000 </r>
       <r>  -26.1905    1.0000 </r>
       <r>  -11.7034    1.0000 </r>
       <r>  -11.7034    1.0000 </r>
       <r>  -11.4518    1.0000 </r>
       <r>  -11.4486    1.0000 </r>
       <r>  -11.1771    1.0000 </r>
       <r>  -11.1771    1.0000 </r>
       <r>    0.3653    1.0000 </r>
       <r>    2.0627    1.0303 </r>
       <r>    2.0627    1.0303 </r>
       <r>    3.6488   -0.0000 </r>
       <r>    3.6488   -0.0000 </r>
       <r>    4.0718   -0.0000 </r>
      </set>
      <set comment="kpoint 51">
       <r>  -26.2836    1.0000 </r>
       <r>  -26.1984    1.0000 </r>
       <r>  -11.7479    1.0000 </r>
       <r>  -11.6548    1.0000 </r>
       <r>  -11.5375    1.0000 </r>
       <r>  -11.3893    1.0000 </r>
       <r>  -11.2247    1.0000 </r>
       <r>  -11.1745    1.0000 </r>
       <r>    0.6691    1.0000 </r>
       <r>    2.2087    0.7633 </r>
       <r>    2.2870    0.4484 </r>
       <r>    3.4554   -0.0000 </r>
       <r>    3.5058   -0.0000 </r>
       <r>    3.6637   -0.0000 </r>
      </set>
      <set comment="kpoint 52">
       <r>  -26.2695    1.0000 </r>
       <r>  -26.2092    1.0000 </r>
       <r>  -11.7739    1.0000 </r>
       <r>  -11.6235    1.0000 </r>
       <r>  -11.5914    1.0000 </r>
       <r>  -11.3339    1.0000 </r>
       <r>  -11.2871    1.0000 </r>
       <r>  -11.1850    1.0000 </r>
       <r>    1.0313    1.0000 </r>
       <r>    2.3151    0.3330 </r>
       <r>    2.3983    0.0721 </r>
       <r>    3.2547   -0.0000 </r>
       <r>    3.4646   -0.0000 </r>
       <r>    3.5523   -0.0000 </r>
      </set>
      <set comment="kpoint 53">
       <r>  -26.2538    1.0000 </r>
       <r>  -26.2225    1.0000 </r>
       <r>  -11.7756    1.0000 </r>
       <r>  -11.6974    1.0000 </r>
       <r>  -11.5177    1.0000 </r>
       <r>  -11.3601    1.0000 </r>
       <r>  -11.2841    1.0000 </r>
       <r>  -11.2078    1.0000 </r>
       <r>    1.4062    1.0000 </r>
       <r>    2.0874    1.0172 </r>
       <r>    2.6147   -0.0186 </r>
       <r>    3.0512   -0.0000 </r>
       <r>    3.5262   -0.0000 </r>
       <r>    3.6359   -0.0000 </r>
      </set>
      <set comment="kpoint 54">
       <r>  -26.2377    1.0000 </r>
       <r>  -26.2377    1.0000 </r>
       <r>  -11.7498    1.0000 </r>
       <r>  -11.7498    1.0000 </r>
       <r>  -11.4388    1.0000 </r>
       <r>  -11.4388    1.0000 </r>
       <r>  -11.2414    1.0000 </r>
       <r>  -11.2414    1.0000 </r>
       <r>    1.7637    1.0009 </r>
       <r>    1.7637    1.0009 </r>
       <r>    2.8375   -0.0003 </r>
       <r>    2.8375   -0.0003 </r>
       <r>    3.6258   -0.0000 </r>
       <r>    3.6258   -0.0000 </r>
      </set>
      <set comment="kpoint 55">
       <r>  -26.2741    1.0000 </r>
       <r>  -26.2045    1.0000 </r>
       <r>  -11.7653    1.0000 </r>
       <r>  -11.6458    1.0000 </r>
       <r>  -11.6136    1.0000 </r>
       <r>  -11.3332    1.0000 </r>
       <r>  -11.2493    1.0000 </r>
       <r>  -11.1843    1.0000 </r>
       <r>    0.9409    1.0000 </r>
       <r>    2.2810    0.4736 </r>
       <r>    2.5571   -0.0313 </r>
       <r>    3.2895   -0.0000 </r>
       <r>    3.3174   -0.0000 </r>
       <r>    3.3180   -0.0000 </r>
      </set>
      <set comment="kpoint 56">
       <r>  -26.2622    1.0000 </r>
       <r>  -26.2130    1.0000 </r>
       <r>  -11.7952    1.0000 </r>
       <r>  -11.6895    1.0000 </r>
       <r>  -11.5922    1.0000 </r>
       <r>  -11.3027    1.0000 </r>
       <r>  -11.2852    1.0000 </r>
       <r>  -11.1883    1.0000 </r>
       <r>    1.2431    1.0000 </r>
       <r>    2.2213    0.7176 </r>
       <r>    2.7346   -0.0027 </r>
       <r>    3.1519   -0.0000 </r>
       <r>    3.2684   -0.0000 </r>
       <r>    3.2850   -0.0000 </r>
      </set>
      <set comment="kpoint 57">
       <r>  -26.2491    1.0000 </r>
       <r>  -26.2236    1.0000 </r>
       <r>  -11.8072    1.0000 </r>
       <r>  -11.7524    1.0000 </r>
       <r>  -11.5223    1.0000 </r>
       <r>  -11.3709    1.0000 </r>
       <r>  -11.2465    1.0000 </r>
       <r>  -11.1983    1.0000 </r>
       <r>    1.5277    1.0000 </r>
       <r>    2.0241    1.0353 </r>
       <r>    2.8108   -0.0005 </r>
       <r>    3.0176   -0.0000 </r>
       <r>    3.3600   -0.0000 </r>
       <r>    3.4401   -0.0000 </r>
      </set>
      <set comment="kpoint 58">
       <r>  -26.2359    1.0000 </r>
       <r>  -26.2359    1.0000 </r>
       <r>  -11.7931    1.0000 </r>
       <r>  -11.7931    1.0000 </r>
       <r>  -11.4463    1.0000 </r>
       <r>  -11.4463    1.0000 </r>
       <r>  -11.2175    1.0000 </r>
       <r>  -11.2175    1.0000 </r>
       <r>    1.7836    1.0014 </r>
       <r>    1.7836    1.0014 </r>
       <r>    2.9064   -0.0000 </r>
       <r>    2.9064   -0.0000 </r>
       <r>    3.4597   -0.0000 </r>
       <r>    3.4597   -0.0000 </r>
      </set>
      <set comment="kpoint 59">
       <r>  -26.2533    1.0000 </r>
       <r>  -26.2184    1.0000 </r>
       <r>  -11.8257    1.0000 </r>
       <r>  -11.7554    1.0000 </r>
       <r>  -11.5558    1.0000 </r>
       <r>  -11.3346    1.0000 </r>
       <r>  -11.2474    1.0000 </r>
       <r>  -11.1916    1.0000 </r>
       <r>    1.4376    1.0000 </r>
       <r>    2.0420    1.0348 </r>
       <r>    3.0717   -0.0000 </r>
       <r>    3.0990   -0.0000 </r>
       <r>    3.1461   -0.0000 </r>
       <r>    3.2595   -0.0000 </r>
      </set>
      <set comment="kpoint 60">
       <r>  -26.2436    1.0000 </r>
       <r>  -26.2256    1.0000 </r>
       <r>  -11.8439    1.0000 </r>
       <r>  -11.8081    1.0000 </r>
       <r>  -11.5010    1.0000 </r>
       <r>  -11.3822    1.0000 </r>
       <r>  -11.2209    1.0000 </r>
       <r>  -11.1958    1.0000 </r>
       <r>    1.5845    1.0000 </r>
       <r>    1.8623    1.0065 </r>
       <r>    2.9937   -0.0000 </r>
       <r>    3.0161   -0.0000 </r>
       <r>    3.4011   -0.0000 </r>
       <r>    3.4364   -0.0000 </r>
      </set>
      <set comment="kpoint 61">
       <r>  -26.2341    1.0000 </r>
       <r>  -26.2341    1.0000 </r>
       <r>  -11.8388    1.0000 </r>
       <r>  -11.8388    1.0000 </r>
       <r>  -11.4401    1.0000 </r>
       <r>  -11.4401    1.0000 </r>
       <r>  -11.2045    1.0000 </r>
       <r>  -11.2045    1.0000 </r>
       <r>    1.7131    1.0003 </r>
       <r>    1.7131    1.0003 </r>
       <r>    2.9765   -0.0000 </r>
       <r>    2.9765   -0.0000 </r>
       <r>    3.5122   -0.0000 </r>
       <r>    3.5122   -0.0000 </r>
      </set>
      <set comment="kpoint 62">
       <r>  -26.2379    1.0000 </r>
       <r>  -26.2286    1.0000 </r>
       <r>  -11.8691    1.0000 </r>
       <r>  -11.8511    1.0000 </r>
       <r>  -11.4665    1.0000 </r>
       <r>  -11.4011    1.0000 </r>
       <r>  -11.2064    1.0000 </r>
       <r>  -11.1969    1.0000 </r>
       <r>    1.6025    1.0000 </r>
       <r>    1.7232    1.0003 </r>
       <r>    2.9218   -0.0000 </r>
       <r>    2.9642   -0.0000 </r>
       <r>    3.6412   -0.0000 </r>
       <r>    3.6887   -0.0000 </r>
      </set>
      <set comment="kpoint 63">
       <r>  -26.2328    1.0000 </r>
       <r>  -26.2328    1.0000 </r>
       <r>  -11.8725    1.0000 </r>
       <r>  -11.8725    1.0000 </r>
       <r>  -11.4304    1.0000 </r>
       <r>  -11.4304    1.0000 </r>
       <r>  -11.1998    1.0000 </r>
       <r>  -11.1998    1.0000 </r>
       <r>    1.6381    1.0000 </r>
       <r>    1.6381    1.0000 </r>
       <r>    2.9083   -0.0000 </r>
       <r>    2.9083   -0.0000 </r>
       <r>    3.7898   -0.0000 </r>
       <r>    3.7898   -0.0000 </r>
      </set>
      <set comment="kpoint 64">
       <r>  -26.2323    1.0000 </r>
       <r>  -26.2323    1.0000 </r>
       <r>  -11.8848    1.0000 </r>
       <r>  -11.8848    1.0000 </r>
       <r>  -11.4259    1.0000 </r>
       <r>  -11.4259    1.0000 </r>
       <r>  -11.1989    1.0000 </r>
       <r>  -11.1989    1.0000 </r>
       <r>    1.6088    1.0000 </r>
       <r>    1.6088    1.0000 </r>
       <r>    2.8715   -0.0001 </r>
       <r>    2.8715   -0.0001 </r>
       <r>    3.9313   -0.0000 </r>
       <r>    3.9313   -0.0000 </r>
      </set>
      <set comment="kpoint 65">
       <r>  -26.2660    1.0000 </r>
       <r>  -26.2091    1.0000 </r>
       <r>  -11.7122    1.0000 </r>
       <r>  -11.7122    1.0000 </r>
       <r>  -11.6686    1.0000 </r>
       <r>  -11.2870    1.0000 </r>
       <r>  -11.2375    1.0000 </r>
       <r>  -11.2375    1.0000 </r>
       <r>    1.2258    1.0000 </r>
       <r>    2.6206   -0.0173 </r>
       <r>    2.6206   -0.0173 </r>
       <r>    2.8635   -0.0001 </r>
       <r>    3.1623   -0.0000 </r>
       <r>    3.1623   -0.0000 </r>
      </set>
      <set comment="kpoint 66">
       <r>  -26.2560    1.0000 </r>
       <r>  -26.2157    1.0000 </r>
       <r>  -11.7633    1.0000 </r>
       <r>  -11.7247    1.0000 </r>
       <r>  -11.6428    1.0000 </r>
       <r>  -11.3070    1.0000 </r>
       <r>  -11.2528    1.0000 </r>
       <r>  -11.2268    1.0000 </r>
       <r>    1.5255    1.0000 </r>
       <r>    2.4527   -0.0096 </r>
       <r>    2.6918   -0.0060 </r>
       <r>    3.0226   -0.0000 </r>
       <r>    3.0651   -0.0000 </r>
       <r>    3.1208   -0.0000 </r>
      </set>
      <set comment="kpoint 67">
       <r>  -26.2450    1.0000 </r>
       <r>  -26.2242    1.0000 </r>
       <r>  -11.7916    1.0000 </r>
       <r>  -11.7694    1.0000 </r>
       <r>  -11.5619    1.0000 </r>
       <r>  -11.3880    1.0000 </r>
       <r>  -11.2312    1.0000 </r>
       <r>  -11.2204    1.0000 </r>
       <r>    1.7727    1.0011 </r>
       <r>    2.1826    0.8478 </r>
       <r>    2.7619   -0.0015 </r>
       <r>    2.9141   -0.0000 </r>
       <r>    3.2199   -0.0000 </r>
       <r>    3.3316   -0.0000 </r>
      </set>
      <set comment="kpoint 68">
       <r>  -26.2341    1.0000 </r>
       <r>  -26.2341    1.0000 </r>
       <r>  -11.7935    1.0000 </r>
       <r>  -11.7935    1.0000 </r>
       <r>  -11.4750    1.0000 </r>
       <r>  -11.4750    1.0000 </r>
       <r>  -11.2210    1.0000 </r>
       <r>  -11.2210    1.0000 </r>
       <r>    1.9713    1.0269 </r>
       <r>    1.9713    1.0269 </r>
       <r>    2.8320   -0.0003 </r>
       <r>    2.8320   -0.0003 </r>
       <r>    3.3562   -0.0000 </r>
       <r>    3.3562   -0.0000 </r>
      </set>
      <set comment="kpoint 69">
       <r>  -26.2483    1.0000 </r>
       <r>  -26.2199    1.0000 </r>
       <r>  -11.7683    1.0000 </r>
       <r>  -11.7624    1.0000 </r>
       <r>  -11.6284    1.0000 </r>
       <r>  -11.3364    1.0000 </r>
       <r>  -11.2503    1.0000 </r>
       <r>  -11.2347    1.0000 </r>
       <r>    1.7874    1.0015 </r>
       <r>    2.3034    0.3801 </r>
       <r>    2.9058   -0.0000 </r>
       <r>    2.9704   -0.0000 </r>
       <r>    3.0358   -0.0000 </r>
       <r>    3.0954   -0.0000 </r>
      </set>
      <set comment="kpoint 70">
       <r>  -26.2402    1.0000 </r>
       <r>  -26.2255    1.0000 </r>
       <r>  -11.7937    1.0000 </r>
       <r>  -11.7918    1.0000 </r>
       <r>  -11.5622    1.0000 </r>
       <r>  -11.4025    1.0000 </r>
       <r>  -11.2460    1.0000 </r>
       <r>  -11.2301    1.0000 </r>
       <r>    1.9414    1.0200 </r>
       <r>    2.1393    0.9517 </r>
       <r>    2.8974   -0.0000 </r>
       <r>    2.9035   -0.0000 </r>
       <r>    3.1830   -0.0000 </r>
       <r>    3.3312   -0.0000 </r>
      </set>
      <set comment="kpoint 71">
       <r>  -26.2324    1.0000 </r>
       <r>  -26.2324    1.0000 </r>
       <r>  -11.8036    1.0000 </r>
       <r>  -11.8036    1.0000 </r>
       <r>  -11.4822    1.0000 </r>
       <r>  -11.4822    1.0000 </r>
       <r>  -11.2357    1.0000 </r>
       <r>  -11.2357    1.0000 </r>
       <r>    2.0301    1.0355 </r>
       <r>    2.0301    1.0355 </r>
       <r>    2.8824   -0.0001 </r>
       <r>    2.8824   -0.0001 </r>
       <r>    3.3538   -0.0000 </r>
       <r>    3.3538   -0.0000 </r>
      </set>
      <set comment="kpoint 72">
       <r>  -26.2353    1.0000 </r>
       <r>  -26.2277    1.0000 </r>
       <r>  -11.8107    1.0000 </r>
       <r>  -11.8087    1.0000 </r>
       <r>  -11.5249    1.0000 </r>
       <r>  -11.4283    1.0000 </r>
       <r>  -11.2597    1.0000 </r>
       <r>  -11.2403    1.0000 </r>
       <r>    1.9917    1.0312 </r>
       <r>    2.0544    1.0327 </r>
       <r>    2.8647   -0.0001 </r>
       <r>    2.8981   -0.0000 </r>
       <r>    3.3836   -0.0000 </r>
       <r>    3.5089   -0.0000 </r>
      </set>
      <set comment="kpoint 73">
       <r>  -26.2311    1.0000 </r>
       <r>  -26.2311    1.0000 </r>
       <r>  -11.8172    1.0000 </r>
       <r>  -11.8172    1.0000 </r>
       <r>  -11.4733    1.0000 </r>
       <r>  -11.4733    1.0000 </r>
       <r>  -11.2542    1.0000 </r>
       <r>  -11.2542    1.0000 </r>
       <r>    2.0085    1.0340 </r>
       <r>    2.0085    1.0340 </r>
       <r>    2.8581   -0.0001 </r>
       <r>    2.8581   -0.0001 </r>
       <r>    3.5593   -0.0000 </r>
       <r>    3.5593   -0.0000 </r>
      </set>
      <set comment="kpoint 74">
       <r>  -26.2306    1.0000 </r>
       <r>  -26.2306    1.0000 </r>
       <r>  -11.8234    1.0000 </r>
       <r>  -11.8234    1.0000 </r>
       <r>  -11.4666    1.0000 </r>
       <r>  -11.4666    1.0000 </r>
       <r>  -11.2632    1.0000 </r>
       <r>  -11.2632    1.0000 </r>
       <r>    1.9940    1.0316 </r>
       <r>    1.9940    1.0316 </r>
       <r>    2.8314   -0.0003 </r>
       <r>    2.8314   -0.0003 </r>
       <r>    3.6824   -0.0000 </r>
       <r>    3.6824   -0.0000 </r>
      </set>
      <set comment="kpoint 75">
       <r>  -26.2424    1.0000 </r>
       <r>  -26.2223    1.0000 </r>
       <r>  -11.7721    1.0000 </r>
       <r>  -11.6933    1.0000 </r>
       <r>  -11.6933    1.0000 </r>
       <r>  -11.3268    1.0000 </r>
       <r>  -11.3268    1.0000 </r>
       <r>  -11.2377    1.0000 </r>
       <r>    2.1481    0.9344 </r>
       <r>    2.3662    0.1544 </r>
       <r>    2.8963   -0.0001 </r>
       <r>    2.8963   -0.0001 </r>
       <r>    3.0251   -0.0000 </r>
       <r>    3.0251   -0.0000 </r>
      </set>
      <set comment="kpoint 76">
       <r>  -26.2363    1.0000 </r>
       <r>  -26.2259    1.0000 </r>
       <r>  -11.7772    1.0000 </r>
       <r>  -11.7416    1.0000 </r>
       <r>  -11.6055    1.0000 </r>
       <r>  -11.4157    1.0000 </r>
       <r>  -11.3058    1.0000 </r>
       <r>  -11.2542    1.0000 </r>
       <r>    2.3062    0.3686 </r>
       <r>    2.3130    0.3415 </r>
       <r>    2.8691   -0.0001 </r>
       <r>    2.9496   -0.0000 </r>
       <r>    3.0088   -0.0000 </r>
       <r>    3.2362   -0.0000 </r>
      </set>
      <set comment="kpoint 77">
       <r>  -26.2306    1.0000 </r>
       <r>  -26.2306    1.0000 </r>
       <r>  -11.7691    1.0000 </r>
       <r>  -11.7691    1.0000 </r>
       <r>  -11.5108    1.0000 </r>
       <r>  -11.5108    1.0000 </r>
       <r>  -11.2792    1.0000 </r>
       <r>  -11.2792    1.0000 </r>
       <r>    2.3000    0.3941 </r>
       <r>    2.3000    0.3941 </r>
       <r>    2.8907   -0.0001 </r>
       <r>    2.8907   -0.0001 </r>
       <r>    3.2258   -0.0000 </r>
       <r>    3.2258   -0.0000 </r>
      </set>
      <set comment="kpoint 78">
       <r>  -26.2325    1.0000 </r>
       <r>  -26.2271    1.0000 </r>
       <r>  -11.7645    1.0000 </r>
       <r>  -11.7297    1.0000 </r>
       <r>  -11.5846    1.0000 </r>
       <r>  -11.4445    1.0000 </r>
       <r>  -11.3413    1.0000 </r>
       <r>  -11.2887    1.0000 </r>
       <r>    2.3646    0.1591 </r>
       <r>    2.4549   -0.0115 </r>
       <r>    2.8418   -0.0002 </r>
       <r>    2.9502   -0.0000 </r>
       <r>    3.1178   -0.0000 </r>
       <r>    3.3069   -0.0000 </r>
      </set>
      <set comment="kpoint 79">
       <r>  -26.2293    1.0000 </r>
       <r>  -26.2293    1.0000 </r>
       <r>  -11.7484    1.0000 </r>
       <r>  -11.7484    1.0000 </r>
       <r>  -11.5136    1.0000 </r>
       <r>  -11.5136    1.0000 </r>
       <r>  -11.3243    1.0000 </r>
       <r>  -11.3243    1.0000 </r>
       <r>    2.4145    0.0406 </r>
       <r>    2.4145    0.0406 </r>
       <r>    2.8704   -0.0001 </r>
       <r>    2.8704   -0.0001 </r>
       <r>    3.3170   -0.0000 </r>
       <r>    3.3170   -0.0000 </r>
      </set>
      <set comment="kpoint 80">
       <r>  -26.2288    1.0000 </r>
       <r>  -26.2288    1.0000 </r>
       <r>  -11.7429    1.0000 </r>
       <r>  -11.7429    1.0000 </r>
       <r>  -11.5067    1.0000 </r>
       <r>  -11.5067    1.0000 </r>
       <r>  -11.3466    1.0000 </r>
       <r>  -11.3466    1.0000 </r>
       <r>    2.4430    0.0002 </r>
       <r>    2.4430    0.0002 </r>
       <r>    2.8279   -0.0003 </r>
       <r>    2.8279   -0.0003 </r>
       <r>    3.4213   -0.0000 </r>
       <r>    3.4213   -0.0000 </r>
      </set>
      <set comment="kpoint 81">
       <r>  -26.2299    1.0000 </r>
       <r>  -26.2271    1.0000 </r>
       <r>  -11.7205    1.0000 </r>
       <r>  -11.6370    1.0000 </r>
       <r>  -11.6370    1.0000 </r>
       <r>  -11.4359    1.0000 </r>
       <r>  -11.4359    1.0000 </r>
       <r>  -11.3454    1.0000 </r>
       <r>    2.5483   -0.0329 </r>
       <r>    2.8736   -0.0001 </r>
       <r>    2.8736   -0.0001 </r>
       <r>    2.8979   -0.0000 </r>
       <r>    3.1172   -0.0000 </r>
       <r>    3.1172   -0.0000 </r>
      </set>
      <set comment="kpoint 82">
       <r>  -26.2280    1.0000 </r>
       <r>  -26.2280    1.0000 </r>
       <r>  -11.6803    1.0000 </r>
       <r>  -11.6803    1.0000 </r>
       <r>  -11.5368    1.0000 </r>
       <r>  -11.5368    1.0000 </r>
       <r>  -11.3993    1.0000 </r>
       <r>  -11.3993    1.0000 </r>
       <r>    2.6951   -0.0057 </r>
       <r>    2.6951   -0.0057 </r>
       <r>    2.9672   -0.0000 </r>
       <r>    2.9672   -0.0000 </r>
       <r>    3.1445   -0.0000 </r>
       <r>    3.1445   -0.0000 </r>
      </set>
      <set comment="kpoint 83">
       <r>  -26.2276    1.0000 </r>
       <r>  -26.2276    1.0000 </r>
       <r>  -11.6484    1.0000 </r>
       <r>  -11.6484    1.0000 </r>
       <r>  -11.5357    1.0000 </r>
       <r>  -11.5357    1.0000 </r>
       <r>  -11.4432    1.0000 </r>
       <r>  -11.4432    1.0000 </r>
       <r>    2.8367   -0.0003 </r>
       <r>    2.8367   -0.0003 </r>
       <r>    2.8819   -0.0001 </r>
       <r>    2.8819   -0.0001 </r>
       <r>    3.1863   -0.0000 </r>
       <r>    3.1863   -0.0000 </r>
      </set>
      <set comment="kpoint 84">
       <r>  -26.2271    1.0000 </r>
       <r>  -26.2271    1.0000 </r>
       <r>  -11.5462    1.0000 </r>
       <r>  -11.5462    1.0000 </r>
       <r>  -11.5462    1.0000 </r>
       <r>  -11.5462    1.0000 </r>
       <r>  -11.5462    1.0000 </r>
       <r>  -11.5462    1.0000 </r>
       <r>    3.0022   -0.0000 </r>
       <r>    3.0022   -0.0000 </r>
       <r>    3.0022   -0.0000 </r>
       <r>    3.0022   -0.0000 </r>
       <r>    3.0022   -0.0000 </r>
       <r>    3.0022   -0.0000 </r>
      </set>
     </set>
    </set>
   </array>
  </eigenvalues>
  <separator name="orbital magnetization" >
   <v name="MAGDIPOLOUT">      0.00000000      0.00000000      0.00000000</v>
  </separator>
  <dos>
   <i name="efermi">      2.27475837 </i>
   <total>
    <array>
     <dimension dim="1">gridpoints</dimension>
     <dimension dim="2">spin</dimension>
     <field>energy</field>
     <field>total</field>
     <field>integrated</field>
     <set>
      <set comment="spin 1">
       <r>   -28.3276     0.0000     0.0000 </r>
       <r>   -28.2099     0.0000     0.0000 </r>
       <r>   -28.0923     0.0000     0.0000 </r>
       <r>   -27.9747    -0.0000    -0.0000 </r>
       <r>   -27.8570    -0.0000    -0.0000 </r>
       <r>   -27.7394    -0.0000    -0.0000 </r>
       <r>   -27.6217    -0.0000    -0.0000 </r>
       <r>   -27.5041    -0.0000    -0.0000 </r>
       <r>   -27.3865    -0.0000    -0.0000 </r>
       <r>   -27.2688    -0.0000    -0.0000 </r>
       <r>   -27.1512    -0.0000    -0.0000 </r>
       <r>   -27.0335    -0.0000    -0.0000 </r>
       <r>   -26.9159    -0.0005    -0.0001 </r>
       <r>   -26.7983    -0.0114    -0.0014 </r>
       <r>   -26.6806    -0.1320    -0.0169 </r>
       <r>   -26.5630    -0.5975    -0.0872 </r>
       <r>   -26.4453    -0.0244    -0.0901 </r>
       <r>   -26.3277     6.4589     0.6697 </r>
       <r>   -26.2101    15.0796     2.4437 </r>
       <r>   -26.0924    11.8417     3.8368 </r>
       <r>   -25.9748     2.4895     4.1296 </r>
       <r>   -25.8571    -0.7129     4.0458 </r>
       <r>   -25.7395    -0.3410     4.0057 </r>
       <r>   -25.6219    -0.0455     4.0003 </r>
       <r>   -25.5042    -0.0026     4.0000 </r>
       <r>   -25.3866    -0.0001     4.0000 </r>
       <r>   -25.2689    -0.0000     4.0000 </r>
       <r>   -25.1513    -0.0000     4.0000 </r>
       <r>   -25.0336    -0.0000     4.0000 </r>
       <r>   -24.9160    -0.0000     4.0000 </r>
       <r>   -24.7984     0.0000     4.0000 </r>
       <r>   -24.6807     0.0000     4.0000 </r>
       <r>   -24.5631     0.0000     4.0000 </r>
       <r>   -24.4454     0.0000     4.0000 </r>
       <r>   -24.3278     0.0000     4.0000 </r>
       <r>   -24.2102     0.0000     4.0000 </r>
       <r>   -24.0925     0.0000     4.0000 </r>
       <r>   -23.9749     0.0000     4.0000 </r>
       <r>   -23.8572     0.0000     4.0000 </r>
       <r>   -23.7396     0.0000     4.0000 </r>
       <r>   -23.6220     0.0000     4.0000 </r>
       <r>   -23.5043     0.0000     4.0000 </r>
       <r>   -23.3867     0.0000     4.0000 </r>
       <r>   -23.2690     0.0000     4.0000 </r>
       <r>   -23.1514     0.0000     4.0000 </r>
       <r>   -23.0338     0.0000     4.0000 </r>
       <r>   -22.9161     0.0000     4.0000 </r>
       <r>   -22.7985     0.0000     4.0000 </r>
       <r>   -22.6808     0.0000     4.0000 </r>
       <r>   -22.5632     0.0000     4.0000 </r>
       <r>   -22.4456     0.0000     4.0000 </r>
       <r>   -22.3279     0.0000     4.0000 </r>
       <r>   -22.2103     0.0000     4.0000 </r>
       <r>   -22.0926     0.0000     4.0000 </r>
       <r>   -21.9750     0.0000     4.0000 </r>
       <r>   -21.8574     0.0000     4.0000 </r>
       <r>   -21.7397     0.0000     4.0000 </r>
       <r>   -21.6221     0.0000     4.0000 </r>
       <r>   -21.5044     0.0000     4.0000 </r>
       <r>   -21.3868     0.0000     4.0000 </r>
       <r>   -21.2692     0.0000     4.0000 </r>
       <r>   -21.1515     0.0000     4.0000 </r>
       <r>   -21.0339     0.0000     4.0000 </r>
       <r>   -20.9162     0.0000     4.0000 </r>
       <r>   -20.7986     0.0000     4.0000 </r>
       <r>   -20.6810     0.0000     4.0000 </r>
       <r>   -20.5633     0.0000     4.0000 </r>
       <r>   -20.4457     0.0000     4.0000 </r>
       <r>   -20.3280     0.0000     4.0000 </r>
       <r>   -20.2104     0.0000     4.0000 </r>
       <r>   -20.0927     0.0000     4.0000 </r>
       <r>   -19.9751     0.0000     4.0000 </r>
       <r>   -19.8575     0.0000     4.0000 </r>
       <r>   -19.7398     0.0000     4.0000 </r>
       <r>   -19.6222     0.0000     4.0000 </r>
       <r>   -19.5045     0.0000     4.0000 </r>
       <r>   -19.3869     0.0000     4.0000 </r>
       <r>   -19.2693     0.0000     4.0000 </r>
       <r>   -19.1516     0.0000     4.0000 </r>
       <r>   -19.0340     0.0000     4.0000 </r>
       <r>   -18.9163     0.0000     4.0000 </r>
       <r>   -18.7987     0.0000     4.0000 </r>
       <r>   -18.6811     0.0000     4.0000 </r>
       <r>   -18.5634     0.0000     4.0000 </r>
       <r>   -18.4458     0.0000     4.0000 </r>
       <r>   -18.3281     0.0000     4.0000 </r>
       <r>   -18.2105     0.0000     4.0000 </r>
       <r>   -18.0929     0.0000     4.0000 </r>
       <r>   -17.9752     0.0000     4.0000 </r>
       <r>   -17.8576     0.0000     4.0000 </r>
       <r>   -17.7399     0.0000     4.0000 </r>
       <r>   -17.6223     0.0000     4.0000 </r>
       <r>   -17.5047     0.0000     4.0000 </r>
       <r>   -17.3870     0.0000     4.0000 </r>
       <r>   -17.2694     0.0000     4.0000 </r>
       <r>   -17.1517     0.0000     4.0000 </r>
       <r>   -17.0341     0.0000     4.0000 </r>
       <r>   -16.9165     0.0000     4.0000 </r>
       <r>   -16.7988     0.0000     4.0000 </r>
       <r>   -16.6812     0.0000     4.0000 </r>
       <r>   -16.5635     0.0000     4.0000 </r>
       <r>   -16.4459     0.0000     4.0000 </r>
       <r>   -16.3283     0.0000     4.0000 </r>
       <r>   -16.2106     0.0000     4.0000 </r>
       <r>   -16.0930     0.0000     4.0000 </r>
       <r>   -15.9753     0.0000     4.0000 </r>
       <r>   -15.8577     0.0000     4.0000 </r>
       <r>   -15.7401     0.0000     4.0000 </r>
       <r>   -15.6224     0.0000     4.0000 </r>
       <r>   -15.5048     0.0000     4.0000 </r>
       <r>   -15.3871     0.0000     4.0000 </r>
       <r>   -15.2695     0.0000     4.0000 </r>
       <r>   -15.1518     0.0000     4.0000 </r>
       <r>   -15.0342     0.0000     4.0000 </r>
       <r>   -14.9166     0.0000     4.0000 </r>
       <r>   -14.7989     0.0000     4.0000 </r>
       <r>   -14.6813     0.0000     4.0000 </r>
       <r>   -14.5636     0.0000     4.0000 </r>
       <r>   -14.4460     0.0000     4.0000 </r>
       <r>   -14.3284     0.0000     4.0000 </r>
       <r>   -14.2107     0.0000     4.0000 </r>
       <r>   -14.0931     0.0000     4.0000 </r>
       <r>   -13.9754     0.0000     4.0000 </r>
       <r>   -13.8578     0.0000     4.0000 </r>
       <r>   -13.7402     0.0000     4.0000 </r>
       <r>   -13.6225    -0.0000     4.0000 </r>
       <r>   -13.5049    -0.0000     4.0000 </r>
       <r>   -13.3872    -0.0000     4.0000 </r>
       <r>   -13.2696    -0.0000     4.0000 </r>
       <r>   -13.1520    -0.0000     4.0000 </r>
       <r>   -13.0343    -0.0000     4.0000 </r>
       <r>   -12.9167    -0.0000     4.0000 </r>
       <r>   -12.7990    -0.0000     4.0000 </r>
       <r>   -12.6814    -0.0000     4.0000 </r>
       <r>   -12.5638    -0.0001     4.0000 </r>
       <r>   -12.4461    -0.0017     3.9998 </r>
       <r>   -12.3285    -0.0253     3.9968 </r>
       <r>   -12.2108    -0.1772     3.9760 </r>
       <r>   -12.0932    -0.4318     3.9252 </r>
       <r>   -11.9756     0.8047     4.0199 </r>
       <r>   -11.8579     5.9999     4.7257 </r>
       <r>   -11.7403    11.7677     6.1100 </r>
       <r>   -11.6226    12.7701     7.6123 </r>
       <r>   -11.5050    12.8319     9.1219 </r>
       <r>   -11.3874    15.7684    10.9769 </r>
       <r>   -11.2697    18.8576    13.1953 </r>
       <r>   -11.1521    16.5666    15.1442 </r>
       <r>   -11.0344     7.5769    16.0355 </r>
       <r>   -10.9168     0.5868    16.1046 </r>
       <r>   -10.7991    -0.6583    16.0271 </r>
       <r>   -10.6815    -0.2059    16.0029 </r>
       <r>   -10.5639    -0.0235    16.0001 </r>
       <r>   -10.4462    -0.0012    16.0000 </r>
       <r>   -10.3286    -0.0000    16.0000 </r>
       <r>   -10.2109    -0.0000    16.0000 </r>
       <r>   -10.0933    -0.0000    16.0000 </r>
       <r>    -9.9757    -0.0000    16.0000 </r>
       <r>    -9.8580    -0.0000    16.0000 </r>
       <r>    -9.7404     0.0000    16.0000 </r>
       <r>    -9.6227     0.0000    16.0000 </r>
       <r>    -9.5051     0.0000    16.0000 </r>
       <r>    -9.3875     0.0000    16.0000 </r>
       <r>    -9.2698     0.0000    16.0000 </r>
       <r>    -9.1522     0.0000    16.0000 </r>
       <r>    -9.0345     0.0000    16.0000 </r>
       <r>    -8.9169     0.0000    16.0000 </r>
       <r>    -8.7993     0.0000    16.0000 </r>
       <r>    -8.6816     0.0000    16.0000 </r>
       <r>    -8.5640     0.0000    16.0000 </r>
       <r>    -8.4463     0.0000    16.0000 </r>
       <r>    -8.3287     0.0000    16.0000 </r>
       <r>    -8.2111     0.0000    16.0000 </r>
       <r>    -8.0934     0.0000    16.0000 </r>
       <r>    -7.9758     0.0000    16.0000 </r>
       <r>    -7.8581     0.0000    16.0000 </r>
       <r>    -7.7405     0.0000    16.0000 </r>
       <r>    -7.6229     0.0000    16.0000 </r>
       <r>    -7.5052     0.0000    16.0000 </r>
       <r>    -7.3876     0.0000    16.0000 </r>
       <r>    -7.2699     0.0000    16.0000 </r>
       <r>    -7.1523     0.0000    16.0000 </r>
       <r>    -7.0347     0.0000    16.0000 </r>
       <r>    -6.9170     0.0000    16.0000 </r>
       <r>    -6.7994     0.0000    16.0000 </r>
       <r>    -6.6817     0.0000    16.0000 </r>
       <r>    -6.5641     0.0000    16.0000 </r>
       <r>    -6.4465     0.0000    16.0000 </r>
       <r>    -6.3288     0.0000    16.0000 </r>
       <r>    -6.2112     0.0000    16.0000 </r>
       <r>    -6.0935     0.0000    16.0000 </r>
       <r>    -5.9759     0.0000    16.0000 </r>
       <r>    -5.8582     0.0000    16.0000 </r>
       <r>    -5.7406     0.0000    16.0000 </r>
       <r>    -5.6230     0.0000    16.0000 </r>
       <r>    -5.5053     0.0000    16.0000 </r>
       <r>    -5.3877     0.0000    16.0000 </r>
       <r>    -5.2700     0.0000    16.0000 </r>
       <r>    -5.1524     0.0000    16.0000 </r>
       <r>    -5.0348     0.0000    16.0000 </r>
       <r>    -4.9171     0.0000    16.0000 </r>
       <r>    -4.7995     0.0000    16.0000 </r>
       <r>    -4.6818     0.0000    16.0000 </r>
       <r>    -4.5642     0.0000    16.0000 </r>
       <r>    -4.4466     0.0000    16.0000 </r>
       <r>    -4.3289     0.0000    16.0000 </r>
       <r>    -4.2113     0.0000    16.0000 </r>
       <r>    -4.0936     0.0000    16.0000 </r>
       <r>    -3.9760     0.0000    16.0000 </r>
       <r>    -3.8584     0.0000    16.0000 </r>
       <r>    -3.7407     0.0000    16.0000 </r>
       <r>    -3.6231     0.0000    16.0000 </r>
       <r>    -3.5054     0.0000    16.0000 </r>
       <r>    -3.3878     0.0000    16.0000 </r>
       <r>    -3.2702     0.0000    16.0000 </r>
       <r>    -3.1525     0.0000    16.0000 </r>
       <r>    -3.0349     0.0000    16.0000 </r>
       <r>    -2.9172     0.0000    16.0000 </r>
       <r>    -2.7996     0.0000    16.0000 </r>
       <r>    -2.6820     0.0000    16.0000 </r>
       <r>    -2.5643     0.0000    16.0000 </r>
       <r>    -2.4467     0.0000    16.0000 </r>
       <r>    -2.3290     0.0000    16.0000 </r>
       <r>    -2.2114    -0.0000    16.0000 </r>
       <r>    -2.0938    -0.0000    16.0000 </r>
       <r>    -1.9761    -0.0000    16.0000 </r>
       <r>    -1.8585    -0.0000    16.0000 </r>
       <r>    -1.7408    -0.0000    16.0000 </r>
       <r>    -1.6232    -0.0000    16.0000 </r>
       <r>    -1.5055    -0.0000    16.0000 </r>
       <r>    -1.3879    -0.0000    16.0000 </r>
       <r>    -1.2703    -0.0000    16.0000 </r>
       <r>    -1.1526    -0.0000    16.0000 </r>
       <r>    -1.0350    -0.0000    16.0000 </r>
       <r>    -0.9173    -0.0002    16.0000 </r>
       <r>    -0.7997    -0.0013    15.9998 </r>
       <r>    -0.6821    -0.0037    15.9994 </r>
       <r>    -0.5644     0.0034    15.9998 </r>
       <r>    -0.4468     0.0418    16.0047 </r>
       <r>    -0.3291     0.0995    16.0164 </r>
       <r>    -0.2115     0.1564    16.0348 </r>
       <r>    -0.0939     0.2215    16.0609 </r>
       <r>     0.0238     0.2412    16.0892 </r>
       <r>     0.1414     0.2651    16.1204 </r>
       <r>     0.2591     0.3535    16.1620 </r>
       <r>     0.3767     0.4100    16.2102 </r>
       <r>     0.4943     0.4058    16.2580 </r>
       <r>     0.6120     0.4253    16.3080 </r>
       <r>     0.7296     0.5855    16.3769 </r>
       <r>     0.8473     0.6983    16.4590 </r>
       <r>     0.9649     0.6712    16.5380 </r>
       <r>     1.0825     0.7193    16.6226 </r>
       <r>     1.2002     1.2185    16.7660 </r>
       <r>     1.3178     1.9709    16.9978 </r>
       <r>     1.4355     2.2473    17.2622 </r>
       <r>     1.5531     2.5317    17.5600 </r>
       <r>     1.6707     3.0806    17.9224 </r>
       <r>     1.7884     3.2140    18.3005 </r>
       <r>     1.9060     3.5155    18.7141 </r>
       <r>     2.0237     4.1877    19.2067 </r>
       <r>     2.1413     3.7768    19.6510 </r>
       <r>     2.2589     2.6658    19.9646 </r>
       <r>     2.3766     2.0777    20.2091 </r>
       <r>     2.4942     1.7330    20.4129 </r>
       <r>     2.6119     1.3193    20.5681 </r>
       <r>     2.7295     1.7226    20.7708 </r>
       <r>     2.8471     3.9645    21.2372 </r>
       <r>     2.9648     6.3852    21.9883 </r>
       <r>     3.0824     6.5030    22.7533 </r>
       <r>     3.2001     5.5844    23.4103 </r>
       <r>     3.3177     5.5525    24.0635 </r>
       <r>     3.4354     6.1005    24.7811 </r>
       <r>     3.5530     6.0867    25.4972 </r>
       <r>     3.6706     5.1158    26.0990 </r>
       <r>     3.7883     3.7193    26.5366 </r>
       <r>     3.9059     2.9247    26.8806 </r>
       <r>     4.0236     2.6158    27.1883 </r>
       <r>     4.1412     2.0266    27.4268 </r>
       <r>     4.2588     1.3564    27.5863 </r>
       <r>     4.3765     0.8652    27.6881 </r>
       <r>     4.4941     0.6106    27.7599 </r>
       <r>     4.6118     0.5401    27.8235 </r>
       <r>     4.7294     0.5348    27.8864 </r>
       <r>     4.8470     0.4968    27.9448 </r>
       <r>     4.9647     0.3526    27.9863 </r>
       <r>     5.0823     0.1318    28.0018 </r>
       <r>     5.2000     0.0021    28.0020 </r>
       <r>     5.3176    -0.0133    28.0005 </r>
       <r>     5.4352    -0.0037    28.0001 </r>
       <r>     5.5529    -0.0004    28.0000 </r>
       <r>     5.6705    -0.0000    28.0000 </r>
       <r>     5.7882    -0.0000    28.0000 </r>
       <r>     5.9058    -0.0000    28.0000 </r>
       <r>     6.0234    -0.0000    28.0000 </r>
       <r>     6.1411    -0.0000    28.0000 </r>
       <r>     6.2587    -0.0000    28.0000 </r>
       <r>     6.3764     0.0000    28.0000 </r>
       <r>     6.4940     0.0000    28.0000 </r>
       <r>     6.6116     0.0000    28.0000 </r>
       <r>     6.7293     0.0000    28.0000 </r>
       <r>     6.8469     0.0000    28.0000 </r>
       <r>     6.9646     0.0000    28.0000 </r>
      </set>
     </set>
    </array>
   </total>
  </dos>
 </calculation>
 <structure name="finalpos" >
  <crystal>
   <varray name="basis" >
    <v>       4.72237952       0.00000000       0.00000000 </v>
    <v>       0.00000000       4.72237952       0.00000000 </v>
    <v>       0.00000000       0.00000000       4.72237952 </v>
   </varray>
   <i name="volume">    105.31316388 </i>
   <varray name="rec_basis" >
    <v>       0.21175765       0.00000000       0.00000000 </v>
    <v>       0.00000000       0.21175765       0.00000000 </v>
    <v>       0.00000000       0.00000000       0.21175765 </v>
   </varray>
  </crystal>
  <varray name="positions" >
   <v>       0.00000000       0.00000000       0.00000000 </v>
   <v>       0.50000000       0.50000000       0.50000000 </v>
  </varray>
 </structure>
</modeling>
