   1   1   0   0
  0.1697083E+02  0.2884514E-09  0.2884514E-09  0.2884515E-09  0.5000000E-15
   1.0000000000000000E-004
  CAR 
 Al FCC - EOS calculation                
     24.00786207     -4.52830216  301      7.70274091      1.00000000
     -4.528  0.0000E+00  0.0000E+00
     -4.433  0.0000E+00  0.0000E+00
     -4.338  0.0000E+00  0.0000E+00
     -4.243  0.0000E+00  0.0000E+00
     -4.148  0.0000E+00  0.0000E+00
     -4.053 -0.4105E-31 -0.3905E-32
     -3.958 -0.9000E-25 -0.8561E-26
     -3.862 -0.3175E-19 -0.3020E-20
     -3.767 -0.1732E-14 -0.1647E-15
     -3.672 -0.1528E-10 -0.1454E-11
     -3.577 -0.2097E-07 -0.1996E-08
     -3.482 -0.4433E-05 -0.4237E-06
     -3.387 -0.1543E-03 -0.1510E-04
     -3.292 -0.8560E-03 -0.9652E-04
     -3.197  0.7821E-02  0.6475E-03
     -3.101  0.3373E-01  0.3856E-02
     -3.006  0.3938E-01  0.7602E-02
     -2.911  0.8555E-01  0.1574E-01
     -2.816  0.5162E-01  0.2065E-01
     -2.721  0.6766E-01  0.2709E-01
     -2.626  0.1213E+00  0.3863E-01
     -2.531  0.9820E-01  0.4797E-01
     -2.436  0.9191E-01  0.5671E-01
     -2.341  0.4931E-01  0.6140E-01
     -2.245  0.1847E+00  0.7897E-01
     -2.150  0.1409E+00  0.9237E-01
     -2.055  0.1161E+00  0.1034E+00
     -1.960  0.1017E+00  0.1131E+00
     -1.865  0.8584E-01  0.1213E+00
     -1.770  0.1840E+00  0.1388E+00
     -1.675  0.1809E+00  0.1560E+00
     -1.580  0.2297E+00  0.1778E+00
     -1.484  0.5968E-01  0.1835E+00
     -1.389  0.1218E+00  0.1951E+00
     -1.294  0.1739E+00  0.2116E+00
     -1.199  0.1900E+00  0.2297E+00
     -1.104  0.1892E+00  0.2477E+00
     -1.009  0.1450E+00  0.2615E+00
     -0.914  0.3123E+00  0.2912E+00
     -0.819  0.1494E+00  0.3054E+00
     -0.723  0.1351E+00  0.3182E+00
     -0.628  0.8187E-01  0.3260E+00
     -0.533  0.2154E+00  0.3465E+00
     -0.438  0.2534E+00  0.3706E+00
     -0.343  0.2952E+00  0.3987E+00
     -0.248  0.2628E+00  0.4237E+00
     -0.153  0.6809E-01  0.4302E+00
     -0.058  0.2835E+00  0.4571E+00
      0.037  0.2307E+00  0.4791E+00
      0.133  0.1724E+00  0.4955E+00
      0.228  0.6060E-01  0.5012E+00
      0.323  0.2951E+00  0.5293E+00
      0.418  0.3664E+00  0.5642E+00
      0.513  0.2420E+00  0.5872E+00
      0.608  0.3098E+00  0.6166E+00
      0.703  0.1543E+00  0.6313E+00
      0.798  0.2161E+00  0.6519E+00
      0.894  0.2322E+00  0.6740E+00
      0.989  0.3316E+00  0.7055E+00
      1.084  0.1347E+00  0.7183E+00
      1.179  0.1930E+00  0.7367E+00
      1.274  0.3006E+00  0.7653E+00
      1.369  0.3097E+00  0.7947E+00
      1.464  0.3434E+00  0.8274E+00
      1.559  0.1941E+00  0.8459E+00
      1.655  0.4907E+00  0.8925E+00
      1.750  0.2653E+00  0.9178E+00
      1.845  0.1620E+00  0.9332E+00
      1.940  0.5355E-01  0.9383E+00
      2.035  0.2770E+00  0.9646E+00
      2.130  0.3571E+00  0.9986E+00
      2.225  0.3919E+00  0.1036E+01
      2.320  0.3419E+00  0.1068E+01
      2.415  0.1696E+00  0.1085E+01
      2.511  0.3861E+00  0.1121E+01
      2.606  0.3677E+00  0.1156E+01
      2.701  0.3274E+00  0.1187E+01
      2.796  0.1780E+00  0.1204E+01
      2.891  0.4382E+00  0.1246E+01
      2.986  0.2729E+00  0.1272E+01
      3.081  0.2347E+00  0.1294E+01
      3.176  0.2163E+00  0.1315E+01
      3.272  0.1978E+00  0.1334E+01
      3.367  0.4444E+00  0.1376E+01
      3.462  0.4808E+00  0.1422E+01
      3.557  0.3935E+00  0.1459E+01
      3.652  0.1781E+00  0.1476E+01
      3.747  0.4754E+00  0.1521E+01
      3.842  0.4154E+00  0.1561E+01
      3.937  0.2156E+00  0.1581E+01
      4.033  0.2220E+00  0.1602E+01
      4.128  0.5013E+00  0.1650E+01
      4.223  0.3413E+00  0.1683E+01
      4.318  0.2651E+00  0.1708E+01
      4.413  0.2432E+00  0.1731E+01
      4.508  0.2176E+00  0.1752E+01
      4.603  0.4513E+00  0.1795E+01
      4.698  0.5906E+00  0.1851E+01
      4.794  0.4147E+00  0.1890E+01
      4.889  0.3788E+00  0.1926E+01
      4.984  0.4560E+00  0.1970E+01
      5.079  0.4343E+00  0.2011E+01
      5.174  0.2818E+00  0.2038E+01
      5.269  0.3353E+00  0.2070E+01
      5.364  0.3960E+00  0.2107E+01
      5.459  0.3435E+00  0.2140E+01
      5.554  0.1781E+00  0.2157E+01
      5.650  0.4873E+00  0.2203E+01
      5.745  0.3795E+00  0.2239E+01
      5.840  0.4060E+00  0.2278E+01
      5.935  0.3599E+00  0.2312E+01
      6.030  0.2494E+00  0.2336E+01
      6.125  0.1957E+00  0.2354E+01
      6.220  0.6430E+00  0.2416E+01
      6.315  0.6186E+00  0.2474E+01
      6.411  0.3152E+00  0.2504E+01
      6.506  0.1581E+00  0.2520E+01
      6.601  0.4034E+00  0.2558E+01
      6.696  0.5926E+00  0.2614E+01
      6.791  0.2720E+00  0.2640E+01
      6.886  0.2306E+00  0.2662E+01
      6.981  0.2737E+00  0.2688E+01
      7.076  0.4070E+00  0.2727E+01
      7.172  0.5399E+00  0.2778E+01
      7.267  0.3285E+00  0.2809E+01
      7.362  0.3360E+00  0.2841E+01
      7.457  0.5718E+00  0.2896E+01
      7.552  0.4533E+00  0.2939E+01
      7.647  0.3112E+00  0.2968E+01
      7.742  0.5875E+00  0.3024E+01
      7.837  0.4925E+00  0.3071E+01
      7.932  0.3118E+00  0.3101E+01
      8.028  0.4338E+00  0.3142E+01
      8.123  0.5083E+00  0.3190E+01
      8.218  0.3341E+00  0.3222E+01
      8.313  0.2626E+00  0.3247E+01
      8.408  0.2170E+00  0.3268E+01
      8.503  0.3738E+00  0.3303E+01
      8.598  0.3701E+00  0.3339E+01
      8.693  0.5538E+00  0.3391E+01
      8.789  0.6844E+00  0.3456E+01
      8.884  0.5719E+00  0.3511E+01
      8.979  0.6081E+00  0.3569E+01
      9.074  0.4273E+00  0.3609E+01
      9.169  0.2218E+00  0.3630E+01
      9.264  0.3962E+00  0.3668E+01
      9.359  0.5119E+00  0.3717E+01
      9.454  0.4142E+00  0.3756E+01
      9.550  0.5091E+00  0.3805E+01
      9.645  0.3243E+00  0.3835E+01
      9.740  0.3278E+00  0.3867E+01
      9.835  0.3169E+00  0.3897E+01
      9.930  0.5854E+00  0.3952E+01
     10.025  0.3671E+00  0.3987E+01
     10.120  0.5197E+00  0.4037E+01
     10.215  0.7353E+00  0.4107E+01
     10.311  0.7120E+00  0.4174E+01
     10.406  0.4187E+00  0.4214E+01
     10.501  0.3639E+00  0.4249E+01
     10.596  0.3720E+00  0.4284E+01
     10.691  0.3508E+00  0.4318E+01
     10.786  0.6596E+00  0.4380E+01
     10.881  0.4035E+00  0.4419E+01
     10.976  0.2116E+00  0.4439E+01
     11.071  0.6607E+00  0.4502E+01
     11.167  0.5610E+00  0.4555E+01
     11.262  0.3753E+00  0.4591E+01
     11.357  0.7356E+00  0.4661E+01
     11.452  0.5492E+00  0.4713E+01
     11.547  0.3433E+00  0.4746E+01
     11.642  0.2266E+00  0.4767E+01
     11.737  0.7741E+00  0.4841E+01
     11.832  0.7559E+00  0.4913E+01
     11.928  0.4246E+00  0.4953E+01
     12.023  0.2383E+00  0.4976E+01
     12.118  0.4045E+00  0.5014E+01
     12.213  0.7800E+00  0.5089E+01
     12.308  0.6705E+00  0.5152E+01
     12.403  0.4136E+00  0.5192E+01
     12.498  0.3682E+00  0.5227E+01
     12.593  0.5862E+00  0.5282E+01
     12.689  0.4797E+00  0.5328E+01
     12.784  0.3494E+00  0.5361E+01
     12.879  0.7528E+00  0.5433E+01
     12.974  0.9522E+00  0.5523E+01
     13.069  0.5737E+00  0.5578E+01
     13.164  0.4880E+00  0.5624E+01
     13.259  0.3004E+00  0.5653E+01
     13.354  0.6843E+00  0.5718E+01
     13.449  0.6833E+00  0.5783E+01
     13.545  0.2887E+00  0.5811E+01
     13.640  0.4423E+00  0.5853E+01
     13.735  0.9077E+00  0.5939E+01
     13.830  0.7234E+00  0.6008E+01
     13.925  0.5150E+00  0.6057E+01
     14.020  0.6881E+00  0.6122E+01
     14.115  0.6095E+00  0.6180E+01
     14.210  0.4291E+00  0.6221E+01
     14.306  0.4090E+00  0.6260E+01
     14.401  0.4484E+00  0.6303E+01
     14.496  0.5408E+00  0.6354E+01
     14.591  0.3941E+00  0.6392E+01
     14.686  0.4896E+00  0.6438E+01
     14.781  0.8228E+00  0.6516E+01
     14.876  0.8047E+00  0.6593E+01
     14.971  0.5948E+00  0.6649E+01
     15.067  0.4480E+00  0.6692E+01
     15.162  0.5692E+00  0.6746E+01
     15.257  0.4764E+00  0.6792E+01
     15.352  0.4220E+00  0.6832E+01
     15.447  0.4538E+00  0.6875E+01
     15.542  0.4317E+00  0.6916E+01
     15.637  0.3492E+00  0.6949E+01
     15.732  0.6965E+00  0.7015E+01
     15.827  0.7880E+00  0.7090E+01
     15.923  0.4960E+00  0.7138E+01
     16.018  0.5572E+00  0.7191E+01
     16.113  0.5282E+00  0.7241E+01
     16.208  0.3204E+00  0.7271E+01
     16.303  0.6666E+00  0.7335E+01
     16.398  0.8796E+00  0.7418E+01
     16.493  0.5521E+00  0.7471E+01
     16.588  0.2279E+00  0.7493E+01
     16.684  0.6334E+00  0.7553E+01
     16.779  0.5287E+00  0.7603E+01
     16.874  0.2930E+00  0.7631E+01
     16.969  0.3750E+00  0.7667E+01
     17.064  0.5640E+00  0.7720E+01
     17.159  0.7611E+00  0.7793E+01
     17.254  0.8387E+00  0.7872E+01
     17.349  0.5671E+00  0.7926E+01
     17.445  0.3450E+00  0.7959E+01
     17.540  0.5327E+00  0.8010E+01
     17.635  0.5636E+00  0.8063E+01
     17.730  0.2501E+00  0.8087E+01
     17.825  0.3875E+00  0.8124E+01
     17.920  0.6135E+00  0.8182E+01
     18.015  0.8488E+00  0.8263E+01
     18.110  0.6111E+00  0.8321E+01
     18.206  0.3491E+00  0.8355E+01
     18.301  0.4375E+00  0.8396E+01
     18.396  0.4390E+00  0.8438E+01
     18.491  0.3574E+00  0.8472E+01
     18.586  0.7100E+00  0.8539E+01
     18.681  0.8333E+00  0.8619E+01
     18.776  0.7107E+00  0.8686E+01
     18.871  0.6276E+00  0.8746E+01
     18.966  0.4804E+00  0.8792E+01
     19.062  0.3423E+00  0.8824E+01
     19.157  0.5319E+00  0.8875E+01
     19.252  0.6455E+00  0.8936E+01
     19.347  0.4408E+00  0.8978E+01
     19.442  0.6764E+00  0.9043E+01
     19.537  0.6060E+00  0.9100E+01
     19.632  0.6941E+00  0.9166E+01
     19.727  0.7149E+00  0.9234E+01
     19.823  0.2702E+00  0.9260E+01
     19.918  0.4791E+00  0.9305E+01
     20.013  0.6320E+00  0.9366E+01
     20.108  0.4507E+00  0.9408E+01
     20.203  0.3424E+00  0.9441E+01
     20.298  0.4858E+00  0.9487E+01
     20.393  0.5649E+00  0.9541E+01
     20.488  0.3440E+00  0.9574E+01
     20.584  0.3602E+00  0.9608E+01
     20.679  0.3449E+00  0.9641E+01
     20.774  0.2287E+00  0.9663E+01
     20.869  0.2372E+00  0.9685E+01
     20.964  0.6502E+00  0.9747E+01
     21.059  0.4713E+00  0.9792E+01
     21.154  0.6089E-01  0.9798E+01
     21.249  0.2452E+00  0.9821E+01
     21.344  0.3471E+00  0.9854E+01
     21.440  0.2865E+00  0.9881E+01
     21.535  0.2699E+00  0.9907E+01
     21.630  0.1041E+00  0.9917E+01
     21.725  0.5689E-01  0.9922E+01
     21.820  0.8758E-01  0.9930E+01
     21.915  0.6178E-01  0.9936E+01
     22.010  0.1583E+00  0.9951E+01
     22.105  0.2177E+00  0.9972E+01
     22.201  0.1113E+00  0.9983E+01
     22.296  0.6434E-01  0.9989E+01
     22.391  0.3389E-01  0.9992E+01
     22.486 -0.2532E-02  0.9992E+01
     22.581 -0.3360E-02  0.9991E+01
     22.676  0.2253E-01  0.9994E+01
     22.771  0.6027E-01  0.9999E+01
     22.866  0.8886E-02  0.1000E+02
     22.962 -0.2073E-02  0.1000E+02
     23.057 -0.9629E-04  0.1000E+02
     23.152 -0.4940E-06  0.1000E+02
     23.247 -0.3655E-09  0.1000E+02
     23.342 -0.4154E-13  0.1000E+02
     23.437  0.0000E+00  0.1000E+02
     23.532  0.0000E+00  0.1000E+02
     23.627  0.0000E+00  0.1000E+02
     23.723  0.0000E+00  0.1000E+02
     23.818  0.0000E+00  0.1000E+02
     23.913  0.0000E+00  0.1000E+02
     24.008  0.0000E+00  0.1000E+02
