   1   1   0   0
  0.1718435E+02  0.2815692E-09  0.2815691E-09  0.2815690E-09  0.5000000E-15
   1.0000000000000000E-004
  CAR 
 BCC Nb EOS calculation (scale=0.980)    
     18.91654665    -27.85753286  301      5.36517681      1.00000000
    -27.858  0.0000E+00  0.0000E+00
    -27.702  0.0000E+00  0.0000E+00
    -27.546  0.0000E+00  0.0000E+00
    -27.390 -0.1188E-30 -0.1852E-31
    -27.234 -0.2805E-25 -0.4374E-26
    -27.078 -0.1975E-20 -0.3079E-21
    -26.922 -0.4153E-16 -0.6475E-17
    -26.766 -0.2523E-12 -0.3934E-13
    -26.610 -0.4707E-09 -0.7342E-10
    -26.454 -0.2626E-06 -0.4102E-07
    -26.298 -0.4374E-04 -0.6860E-05
    -26.142 -0.2148E-02 -0.3418E-03
    -25.987 -0.2924E-01 -0.4900E-02
    -25.831 -0.6446E-01 -0.1495E-01
    -25.675  0.4916E+00  0.6169E-01
    -25.519  0.2423E+01  0.4394E+00
    -25.363  0.4116E+01  0.1081E+01
    -25.207  0.3378E+01  0.1608E+01
    -25.051  0.2587E+01  0.2011E+01
    -24.895  0.3078E+01  0.2491E+01
    -24.739  0.3966E+01  0.3109E+01
    -24.583  0.4350E+01  0.3788E+01
    -24.427  0.4722E+01  0.4524E+01
    -24.272  0.5681E+01  0.5410E+01
    -24.116  0.3565E+01  0.5965E+01
    -23.960  0.4127E+00  0.6030E+01
    -23.804 -0.1635E+00  0.6004E+01
    -23.648 -0.2608E-01  0.6000E+01
    -23.492 -0.8971E-03  0.6000E+01
    -23.336 -0.8527E-05  0.6000E+01
    -23.180 -0.2351E-07  0.6000E+01
    -23.024 -0.1907E-10  0.6000E+01
    -22.868 -0.4564E-14  0.6000E+01
    -22.712  0.0000E+00  0.6000E+01
    -22.556  0.0000E+00  0.6000E+01
    -22.401  0.0000E+00  0.6000E+01
    -22.245  0.0000E+00  0.6000E+01
    -22.089  0.0000E+00  0.6000E+01
    -21.933  0.0000E+00  0.6000E+01
    -21.777  0.0000E+00  0.6000E+01
    -21.621  0.0000E+00  0.6000E+01
    -21.465  0.0000E+00  0.6000E+01
    -21.309  0.0000E+00  0.6000E+01
    -21.153  0.0000E+00  0.6000E+01
    -20.997  0.0000E+00  0.6000E+01
    -20.841  0.0000E+00  0.6000E+01
    -20.686  0.0000E+00  0.6000E+01
    -20.530  0.0000E+00  0.6000E+01
    -20.374  0.0000E+00  0.6000E+01
    -20.218  0.0000E+00  0.6000E+01
    -20.062  0.0000E+00  0.6000E+01
    -19.906  0.0000E+00  0.6000E+01
    -19.750  0.0000E+00  0.6000E+01
    -19.594  0.0000E+00  0.6000E+01
    -19.438  0.0000E+00  0.6000E+01
    -19.282  0.0000E+00  0.6000E+01
    -19.126  0.0000E+00  0.6000E+01
    -18.970  0.0000E+00  0.6000E+01
    -18.815  0.0000E+00  0.6000E+01
    -18.659  0.0000E+00  0.6000E+01
    -18.503  0.0000E+00  0.6000E+01
    -18.347  0.0000E+00  0.6000E+01
    -18.191  0.0000E+00  0.6000E+01
    -18.035  0.0000E+00  0.6000E+01
    -17.879  0.0000E+00  0.6000E+01
    -17.723  0.0000E+00  0.6000E+01
    -17.567  0.0000E+00  0.6000E+01
    -17.411  0.0000E+00  0.6000E+01
    -17.255  0.0000E+00  0.6000E+01
    -17.099  0.0000E+00  0.6000E+01
    -16.944  0.0000E+00  0.6000E+01
    -16.788  0.0000E+00  0.6000E+01
    -16.632  0.0000E+00  0.6000E+01
    -16.476  0.0000E+00  0.6000E+01
    -16.320  0.0000E+00  0.6000E+01
    -16.164  0.0000E+00  0.6000E+01
    -16.008  0.0000E+00  0.6000E+01
    -15.852  0.0000E+00  0.6000E+01
    -15.696  0.0000E+00  0.6000E+01
    -15.540  0.0000E+00  0.6000E+01
    -15.384  0.0000E+00  0.6000E+01
    -15.229  0.0000E+00  0.6000E+01
    -15.073  0.0000E+00  0.6000E+01
    -14.917  0.0000E+00  0.6000E+01
    -14.761  0.0000E+00  0.6000E+01
    -14.605  0.0000E+00  0.6000E+01
    -14.449  0.0000E+00  0.6000E+01
    -14.293  0.0000E+00  0.6000E+01
    -14.137  0.0000E+00  0.6000E+01
    -13.981  0.0000E+00  0.6000E+01
    -13.825  0.0000E+00  0.6000E+01
    -13.669  0.0000E+00  0.6000E+01
    -13.513  0.0000E+00  0.6000E+01
    -13.358  0.0000E+00  0.6000E+01
    -13.202  0.0000E+00  0.6000E+01
    -13.046  0.0000E+00  0.6000E+01
    -12.890  0.0000E+00  0.6000E+01
    -12.734  0.0000E+00  0.6000E+01
    -12.578  0.0000E+00  0.6000E+01
    -12.422  0.0000E+00  0.6000E+01
    -12.266  0.0000E+00  0.6000E+01
    -12.110  0.0000E+00  0.6000E+01
    -11.954  0.0000E+00  0.6000E+01
    -11.798  0.0000E+00  0.6000E+01
    -11.643  0.0000E+00  0.6000E+01
    -11.487  0.0000E+00  0.6000E+01
    -11.331  0.0000E+00  0.6000E+01
    -11.175  0.0000E+00  0.6000E+01
    -11.019  0.0000E+00  0.6000E+01
    -10.863  0.0000E+00  0.6000E+01
    -10.707  0.0000E+00  0.6000E+01
    -10.551  0.0000E+00  0.6000E+01
    -10.395  0.0000E+00  0.6000E+01
    -10.239  0.0000E+00  0.6000E+01
    -10.083  0.0000E+00  0.6000E+01
     -9.927  0.0000E+00  0.6000E+01
     -9.772  0.0000E+00  0.6000E+01
     -9.616  0.0000E+00  0.6000E+01
     -9.460  0.0000E+00  0.6000E+01
     -9.304  0.0000E+00  0.6000E+01
     -9.148  0.0000E+00  0.6000E+01
     -8.992  0.0000E+00  0.6000E+01
     -8.836  0.0000E+00  0.6000E+01
     -8.680  0.0000E+00  0.6000E+01
     -8.524  0.0000E+00  0.6000E+01
     -8.368  0.0000E+00  0.6000E+01
     -8.212  0.0000E+00  0.6000E+01
     -8.057  0.0000E+00  0.6000E+01
     -7.901  0.0000E+00  0.6000E+01
     -7.745  0.0000E+00  0.6000E+01
     -7.589  0.0000E+00  0.6000E+01
     -7.433  0.0000E+00  0.6000E+01
     -7.277  0.0000E+00  0.6000E+01
     -7.121  0.0000E+00  0.6000E+01
     -6.965  0.0000E+00  0.6000E+01
     -6.809  0.0000E+00  0.6000E+01
     -6.653  0.0000E+00  0.6000E+01
     -6.497  0.0000E+00  0.6000E+01
     -6.341  0.0000E+00  0.6000E+01
     -6.186  0.0000E+00  0.6000E+01
     -6.030  0.0000E+00  0.6000E+01
     -5.874  0.0000E+00  0.6000E+01
     -5.718  0.0000E+00  0.6000E+01
     -5.562  0.0000E+00  0.6000E+01
     -5.406  0.0000E+00  0.6000E+01
     -5.250  0.0000E+00  0.6000E+01
     -5.094  0.0000E+00  0.6000E+01
     -4.938  0.0000E+00  0.6000E+01
     -4.782  0.0000E+00  0.6000E+01
     -4.626  0.0000E+00  0.6000E+01
     -4.470  0.0000E+00  0.6000E+01
     -4.315  0.0000E+00  0.6000E+01
     -4.159  0.0000E+00  0.6000E+01
     -4.003  0.0000E+00  0.6000E+01
     -3.847  0.0000E+00  0.6000E+01
     -3.691  0.0000E+00  0.6000E+01
     -3.535  0.0000E+00  0.6000E+01
     -3.379  0.0000E+00  0.6000E+01
     -3.223  0.0000E+00  0.6000E+01
     -3.067  0.0000E+00  0.6000E+01
     -2.911  0.0000E+00  0.6000E+01
     -2.755  0.0000E+00  0.6000E+01
     -2.600  0.0000E+00  0.6000E+01
     -2.444  0.0000E+00  0.6000E+01
     -2.288 -0.2409E-31  0.6000E+01
     -2.132 -0.4094E-26  0.6000E+01
     -1.976 -0.2095E-21  0.6000E+01
     -1.820 -0.3183E-17  0.6000E+01
     -1.664 -0.1479E-13  0.6000E+01
     -1.508 -0.2111E-10  0.6000E+01
     -1.352 -0.9144E-08  0.6000E+01
     -1.196 -0.1187E-05  0.6000E+01
     -1.040 -0.4460E-04  0.6000E+01
     -0.884 -0.4272E-03  0.6000E+01
     -0.729 -0.3965E-04  0.6000E+01
     -0.573  0.8147E-02  0.6001E+01
     -0.417  0.2355E-01  0.6005E+01
     -0.261  0.3625E-01  0.6011E+01
     -0.105  0.4550E-01  0.6018E+01
      0.051  0.5528E-01  0.6026E+01
      0.207  0.6255E-01  0.6036E+01
      0.363  0.7463E-01  0.6048E+01
      0.519  0.7984E-01  0.6060E+01
      0.675  0.9563E-01  0.6075E+01
      0.831  0.1025E+00  0.6091E+01
      0.986  0.1159E+00  0.6109E+01
      1.142  0.1339E+00  0.6130E+01
      1.298  0.1366E+00  0.6151E+01
      1.454  0.2724E+00  0.6194E+01
      1.610  0.5342E+00  0.6277E+01
      1.766  0.8485E+00  0.6409E+01
      1.922  0.9777E+00  0.6562E+01
      2.078  0.1020E+01  0.6721E+01
      2.234  0.1102E+01  0.6893E+01
      2.390  0.1212E+01  0.7081E+01
      2.546  0.1350E+01  0.7292E+01
      2.702  0.1366E+01  0.7505E+01
      2.857  0.1341E+01  0.7714E+01
      3.013  0.1263E+01  0.7911E+01
      3.169  0.9570E+00  0.8060E+01
      3.325  0.5695E+00  0.8149E+01
      3.481  0.5403E+00  0.8233E+01
      3.637  0.1052E+01  0.8397E+01
      3.793  0.1771E+01  0.8673E+01
      3.949  0.2105E+01  0.9002E+01
      4.105  0.1824E+01  0.9286E+01
      4.261  0.1312E+01  0.9491E+01
      4.417  0.1089E+01  0.9660E+01
      4.572  0.1021E+01  0.9819E+01
      4.728  0.9737E+00  0.9971E+01
      4.884  0.1148E+01  0.1015E+02
      5.040  0.1671E+01  0.1041E+02
      5.196  0.1964E+01  0.1072E+02
      5.352  0.1692E+01  0.1098E+02
      5.508  0.1320E+01  0.1119E+02
      5.664  0.1033E+01  0.1135E+02
      5.820  0.7148E+00  0.1146E+02
      5.976  0.5471E+00  0.1154E+02
      6.132  0.4692E+00  0.1162E+02
      6.288  0.4257E+00  0.1168E+02
      6.443  0.5320E+00  0.1177E+02
      6.599  0.4890E+00  0.1184E+02
      6.755  0.4098E+00  0.1191E+02
      6.911  0.4139E+00  0.1197E+02
      7.067  0.5430E+00  0.1206E+02
      7.223  0.8012E+00  0.1218E+02
      7.379  0.8454E+00  0.1231E+02
      7.535  0.7515E+00  0.1243E+02
      7.691  0.8376E+00  0.1256E+02
      7.847  0.1032E+01  0.1272E+02
      8.003  0.1054E+01  0.1289E+02
      8.159  0.1048E+01  0.1305E+02
      8.314  0.1177E+01  0.1323E+02
      8.470  0.1213E+01  0.1342E+02
      8.626  0.1170E+01  0.1360E+02
      8.782  0.1338E+01  0.1381E+02
      8.938  0.1492E+01  0.1405E+02
      9.094  0.1376E+01  0.1426E+02
      9.250  0.1280E+01  0.1446E+02
      9.406  0.1415E+01  0.1468E+02
      9.562  0.2170E+01  0.1502E+02
      9.718  0.2470E+01  0.1540E+02
      9.874  0.1616E+01  0.1566E+02
     10.029  0.1047E+01  0.1582E+02
     10.185  0.8396E+00  0.1595E+02
     10.341  0.7637E+00  0.1607E+02
     10.497  0.5877E+00  0.1616E+02
     10.653  0.7194E+00  0.1627E+02
     10.809  0.8069E+00  0.1640E+02
     10.965  0.5361E+00  0.1648E+02
     11.121  0.4177E+00  0.1655E+02
     11.277  0.4803E+00  0.1662E+02
     11.433  0.6253E+00  0.1672E+02
     11.589  0.5042E+00  0.1680E+02
     11.745  0.2666E+00  0.1684E+02
     11.900  0.2660E+00  0.1688E+02
     12.056  0.3401E+00  0.1693E+02
     12.212  0.3759E+00  0.1699E+02
     12.368  0.4156E+00  0.1706E+02
     12.524  0.3115E+00  0.1711E+02
     12.680  0.2568E+00  0.1715E+02
     12.836  0.2730E+00  0.1719E+02
     12.992  0.2818E+00  0.1723E+02
     13.148  0.3497E+00  0.1729E+02
     13.304  0.3379E+00  0.1734E+02
     13.460  0.2297E+00  0.1738E+02
     13.615  0.2415E+00  0.1741E+02
     13.771  0.2754E+00  0.1746E+02
     13.927  0.3105E+00  0.1750E+02
     14.083  0.2885E+00  0.1755E+02
     14.239  0.2425E+00  0.1759E+02
     14.395  0.2089E+00  0.1762E+02
     14.551  0.2451E+00  0.1766E+02
     14.707  0.2996E+00  0.1771E+02
     14.863  0.2383E+00  0.1774E+02
     15.019  0.1942E+00  0.1777E+02
     15.175  0.1987E+00  0.1780E+02
     15.331  0.2044E+00  0.1784E+02
     15.486  0.1778E+00  0.1786E+02
     15.642  0.1552E+00  0.1789E+02
     15.798  0.1572E+00  0.1791E+02
     15.954  0.1767E+00  0.1794E+02
     16.110  0.1579E+00  0.1796E+02
     16.266  0.1082E+00  0.1798E+02
     16.422  0.6170E-01  0.1799E+02
     16.578  0.3297E-01  0.1800E+02
     16.734  0.1996E-01  0.1800E+02
     16.890  0.7686E-02  0.1800E+02
     17.046  0.2824E-03  0.1800E+02
     17.201 -0.4215E-03  0.1800E+02
     17.357 -0.4930E-04  0.1800E+02
     17.513 -0.1371E-05  0.1800E+02
     17.669 -0.1072E-07  0.1800E+02
     17.825 -0.2439E-10  0.1800E+02
     17.981 -0.1624E-13  0.1800E+02
     18.137 -0.3114E-17  0.1800E+02
     18.293  0.0000E+00  0.1800E+02
     18.449  0.0000E+00  0.1800E+02
     18.605  0.0000E+00  0.1800E+02
     18.761  0.0000E+00  0.1800E+02
     18.917  0.0000E+00  0.1800E+02
