LiMn2O4 Spinel Structure Relaxation     
            1
    -5.699031    0.023885   -0.154986
    -0.033522   -8.067594   -0.010520
     2.633110    4.011227    8.634275
   Li   Mn   O 
     5    12    24
Direct configuration=     1
   0.58335526  0.70911487  0.16676469
   0.08323822  0.95802295  0.16684024
   0.75056154  0.62548778  0.49989611
   0.41715766  0.29060308  0.83357001
   0.25003958  0.37445342  0.50018293
   0.83358214  0.33306641  0.16680334
   0.50070403  0.99972330  0.00020421
   0.66809993  0.66615172  0.83358383
   0.16707531  0.66622817  0.33349613
   0.16797705  0.66624466  0.83358751
   0.00077602  0.49968002  0.00022251
   0.00039185  0.99958913  0.50013453
   0.33359680  0.33299799  0.16683103
   0.83417104  0.33282978  0.66685445
   0.50029665  0.99960030  0.50012492
   0.33430183  0.83272152  0.66698147
   0.66698763  0.16655350  0.33349705
   0.82542226  0.08711994  0.65018107
   0.14258653  0.42877551  0.83357077
   0.50865415  0.24534957  0.01687179
   0.49291906  0.75395612  0.98347559
   0.97542250  0.23692762  0.50009031
   0.35872214  0.09551602  0.16675809
   0.47548904  0.76218014  0.50013846
   0.00871754  0.27056033  0.01682709
   0.30894205  0.57045269  0.16695366
   0.67541170  0.93741069  0.35024778
   0.15852979  0.42048160  0.31679160
   0.32540385  0.06180908  0.65010675
   0.65862057  0.39554984  0.31685382
   0.64264563  0.90368470  0.83363130
   0.99298078  0.72871349  0.98362566
   0.34299453  0.60372501  0.68359964
   0.02584613  0.76221785  0.50030835
   0.17534743  0.91197518  0.35010492
   0.69255997  0.42879261  0.83354118
   0.19251743  0.90360317  0.83355327
   0.85869384  0.57047595  0.16677477
   0.80876520  0.09575025  0.16693826
   0.84299557  0.57868936  0.68355179
   0.52556405  0.23711750  0.50026589
LiMn2O4 Spinel Structure Relaxation     
            1
    -6.026671    0.021231   -0.162746
    -0.041536   -8.604042   -0.008059
     2.786222    4.276671    9.112413
   Li   Mn   O 
     5    12    24
Direct configuration=     2
   0.58331843  0.70892086  0.16741810
   0.08388543  0.95883384  0.16685941
   0.75032575  0.62533561  0.49965195
   0.41747348  0.28986930  0.83401495
   0.24961005  0.37423161  0.49918182
   0.83540534  0.33264703  0.16557791
   0.49930594  0.99801233  0.99741777
   0.66784447  0.66883521  0.83365551
   0.16736032  0.66568410  0.33351699
   0.16799104  0.66857201  0.83368429
   0.00135845  0.49817908  0.00161795
   0.99832772  0.00008790  0.50121808
   0.33057223  0.33263467  0.16590403
   0.83360812  0.33026287  0.66603239
   0.50367546  0.00023647  0.50126719
   0.33608025  0.83406208  0.67014750
   0.66603345  0.16605729  0.33234550
   0.82598065  0.08693825  0.65117983
   0.15152158  0.42713124  0.83348418
   0.50720776  0.24530424  0.01119898
   0.49592604  0.75312762  0.98932679
   0.98214125  0.24139262  0.49913759
   0.35431949  0.08776254  0.16646737
   0.48220620  0.75807781  0.50100576
   0.00834074  0.26965038  0.01597609
   0.31521765  0.57881064  0.16839207
   0.67335105  0.92715868  0.34702479
   0.15951076  0.41574993  0.32192123
   0.32813363  0.06746343  0.65466221
   0.65952658  0.40598988  0.31870062
   0.64512498  0.90419399  0.83346172
   0.99575238  0.73329346  0.98955832
   0.34015957  0.59727180  0.67769006
   0.02082934  0.75692076  0.50011229
   0.17429002  0.91980843  0.34800971
   0.68371670  0.42702261  0.83343535
   0.19000981  0.90410191  0.83345188
   0.85158765  0.57619104  0.16712321
   0.81388809  0.08954769  0.16631869
   0.83973378  0.57729462  0.67749761
   0.51741265  0.24123701  0.49968910
LiMn2O4 Spinel Structure Relaxation     
            1
    -5.861371    0.022570   -0.158831
    -0.037493   -8.333394   -0.009300
     2.708974    4.142750    8.871184
   Li   Mn   O 
     5    12    24
Direct configuration=     3
   0.58333552  0.70901103  0.16710570
   0.08357709  0.95845043  0.16685043
   0.75043829  0.62540811  0.49976863
   0.41732217  0.29021537  0.83380214
   0.24981541  0.37433883  0.49966034
   0.83453603  0.33284881  0.16616378
   0.49997359  0.99882795  0.99874946
   0.66796773  0.66756575  0.83362169
   0.16722405  0.66594145  0.33350694
   0.16798555  0.66747100  0.83363843
   0.00107900  0.49888577  0.00095062
   0.99931209  0.99984885  0.50070004
   0.33201547  0.33280798  0.16634694
   0.83387576  0.33147880  0.66642490
   0.50206324  0.99993368  0.50072143
   0.33523075  0.83342084  0.66863430
   0.66648904  0.16629452  0.33289586
   0.82571360  0.08702192  0.65070237
   0.14725817  0.42791141  0.83352583
   0.50790098  0.24533901  0.01391081
   0.49448775  0.75350611  0.98652962
   0.97893891  0.23928479  0.49959423
   0.35641586  0.09142932  0.16660474
   0.47899901  0.76001771  0.50059084
   0.00852050  0.27008272  0.01638274
   0.31222743  0.57485566  0.16770626
   0.67433047  0.93201487  0.34856366
   0.15903734  0.41797575  0.31946821
   0.32683178  0.06477876  0.65248559
   0.65909888  0.40104778  0.31781961
   0.64394254  0.90395415  0.83354303
   0.99442923  0.73111363  0.98672313
   0.34151194  0.60033755  0.68051388
   0.02321995  0.75942535  0.50020479
   0.17479984  0.91610830  0.34901263
   0.68793461  0.42785779  0.83348510
   0.19120643  0.90386563  0.83350029
   0.85498061  0.57348530  0.16695720
   0.81144119  0.09248413  0.16661411
   0.84129255  0.57796808  0.68039141
   0.52130391  0.23928791  0.49996506
LiMn2O4 Spinel Structure Relaxation     
            1
    -5.859540    0.022585   -0.158788
    -0.037448   -8.330397   -0.009314
     2.708119    4.141266    8.868512
   Li   Mn   O 
     5    12    24
Direct configuration=     4
   0.58333572  0.70901207  0.16710214
   0.08357358  0.95844604  0.16685032
   0.75043958  0.62540894  0.49976996
   0.41732045  0.29021933  0.83379971
   0.24981775  0.37434004  0.49966579
   0.83452613  0.33285109  0.16617044
   0.49998118  0.99883724  0.99876462
   0.66796913  0.66755123  0.83362131
   0.16722250  0.66594439  0.33350682
   0.16798548  0.66745841  0.83363790
   0.00107583  0.49889387  0.00094303
   0.99932331  0.99984614  0.50069415
   0.33203191  0.33280995  0.16635198
   0.83387882  0.33149269  0.66642937
   0.50204488  0.99993023  0.50071522
   0.33522108  0.83341354  0.66861708
   0.66649423  0.16629722  0.33290212
   0.82571056  0.08702289  0.65069693
   0.14720962  0.42792032  0.83352630
   0.50790885  0.24533933  0.01394167
   0.49447140  0.75351052  0.98649780
   0.97890242  0.23926067  0.49959942
   0.35643976  0.09147126  0.16660631
   0.47896250  0.76003990  0.50058612
   0.00852254  0.27008765  0.01638736
   0.31219336  0.57481044  0.16769845
   0.67434164  0.93207037  0.34858118
   0.15903198  0.41800128  0.31944031
   0.32681696  0.06474812  0.65246082
   0.65909398  0.40099129  0.31780958
   0.64392907  0.90395140  0.83354395
   0.99441416  0.73108878  0.98669087
   0.34152734  0.60037253  0.68054602
   0.02324719  0.75945400  0.50020585
   0.17480562  0.91606595  0.34902404
   0.68798265  0.42786735  0.83348567
   0.19122005  0.90386293  0.83350084
   0.85501923  0.57345438  0.16695530
   0.81141334  0.09251770  0.16661748
   0.84131029  0.57797571  0.68042434
   0.52134821  0.23926563  0.49996820
LiMn2O4 Spinel Structure Relaxation     
            1
    -5.873914    0.023765   -0.158737
    -0.036129   -8.406326   -0.010280
     2.713500    4.179567    8.886906
   Li   Mn   O 
     5    12    24
Direct configuration=     5
   0.58342295  0.70902654  0.16732278
   0.08366577  0.95852197  0.16668596
   0.75056365  0.62553179  0.49993518
   0.41741103  0.28978500  0.83374782
   0.24975488  0.37431226  0.49954104
   0.83418451  0.33283379  0.16644440
   0.50037364  0.99841321  0.99927254
   0.66806077  0.66746302  0.83354664
   0.16766862  0.66699477  0.33440500
   0.16769840  0.66724273  0.83356732
   0.00136363  0.49975920  0.00162748
   0.99960778  0.99959840  0.50032287
   0.33261885  0.33281359  0.16674598
   0.83335266  0.33150426  0.66555723
   0.50151415  0.99977447  0.50049723
   0.33511055  0.83267774  0.66799124
   0.66611951  0.16617187  0.33236892
   0.82424246  0.08836717  0.64767094
   0.14531250  0.43073441  0.83386461
   0.50934392  0.24441017  0.01533951
   0.49427711  0.75474328  0.98575168
   0.97519706  0.23883357  0.49911217
   0.36084807  0.09082325  0.16616859
   0.47596651  0.76120736  0.50148263
   0.01016365  0.27461755  0.01952107
   0.30842248  0.57564175  0.16812010
   0.67543296  0.93177062  0.35131095
   0.15697824  0.41556764  0.31701895
   0.32629783  0.06286269  0.65078496
   0.65713096  0.40081396  0.31397862
   0.63973266  0.90101960  0.83360692
   0.99374420  0.72810148  0.98595060
   0.34207899  0.60200844  0.68144368
   0.02782832  0.75971588  0.50033994
   0.17667194  0.91933971  0.35282007
   0.69059056  0.43055251  0.83370021
   0.19549792  0.90088750  0.83355557
   0.85739536  0.57284764  0.16671126
   0.80741286  0.09261127  0.16577237
   0.84135218  0.57555358  0.68102606
   0.52365419  0.23844722  0.49970570
LiMn2O4 Spinel Structure Relaxation     
            1
    -5.888675    0.024977   -0.158684
    -0.034773   -8.484302   -0.011271
     2.719026    4.218900    8.905795
   Li   Mn   O 
     5    12    24
Direct configuration=     6
   0.58351231  0.70904207  0.16754890
   0.08376024  0.95859865  0.16651752
   0.75069078  0.62565742  0.50010451
   0.41750368  0.28934280  0.83369460
   0.24969046  0.37428352  0.49941320
   0.83383454  0.33281713  0.16672517
   0.50077550  0.99798355  0.99979300
   0.66815461  0.66737299  0.83347010
   0.16812592  0.66806706  0.33532555
   0.16740423  0.66702293  0.83349497
   0.00165871  0.50064237  0.00232900
   0.99989914  0.99934496  0.49994234
   0.33322009  0.33281879  0.16714973
   0.83281373  0.33151282  0.66466346
   0.50097042  0.99961509  0.50027383
   0.33499712  0.83192661  0.66734980
   0.66573563  0.16604232  0.33182248
   0.82273916  0.08972415  0.64457005
   0.14337001  0.43359940  0.83421170
   0.51081362  0.24346976  0.01677188
   0.49407855  0.75599516  0.98498719
   0.97140115  0.23839672  0.49861297
   0.36536378  0.09016267  0.16571971
   0.47289774  0.76239843  0.50240167
   0.01184615  0.27923927  0.02273296
   0.30455983  0.57648889  0.16855250
   0.67655063  0.93147557  0.35410839
   0.15487370  0.41308186  0.31453734
   0.32576550  0.06093771  0.64906733
   0.65512021  0.40061938  0.31005266
   0.63543283  0.89803559  0.83367135
   0.99305693  0.72505847  0.98519168
   0.34264459  0.60367666  0.68236377
   0.03252135  0.75998339  0.50047715
   0.17858468  0.92268544  0.35671057
   0.69326301  0.43328633  0.83392023
   0.19987918  0.89786001  0.83361112
   0.85982930  0.57222953  0.16646097
   0.80331483  0.09270299  0.16490649
   0.84139424  0.57309070  0.68164245
   0.52601619  0.23761362  0.49943648
LiMn2O4 Spinel Structure Relaxation     
            1
    -5.890107    0.025094   -0.158679
    -0.034642   -8.491867   -0.011367
     2.719562    4.222716    8.907628
   Li   Mn   O 
     5    12    24
Direct configuration=     7
   0.58352096  0.70904365  0.16757079
   0.08376939  0.95860597  0.16650121
   0.75070309  0.62566956  0.50012091
   0.41751263  0.28930026  0.83368944
   0.24968423  0.37428072  0.49940083
   0.83380067  0.33281562  0.16675235
   0.50081438  0.99794242  0.99984339
   0.66816369  0.66736431  0.83346269
   0.16817021  0.66817047  0.33541469
   0.16737576  0.66700177  0.83348797
   0.00168729  0.50072753  0.00239693
   0.99992733  0.99932046  0.49990549
   0.33327828  0.33281943  0.16718882
   0.83276157  0.33151333  0.66457693
   0.50091779  0.99959969  0.50025220
   0.33498612  0.83185417  0.66728768
   0.66569848  0.16602967  0.33176957
   0.82259373  0.08985352  0.64426983
   0.14318210  0.43387494  0.83424535
   0.51095582  0.24337986  0.01691055
   0.49405937  0.75611525  0.98491318
   0.97103376  0.23835451  0.49856465
   0.36580081  0.09009905  0.16567621
   0.47260077  0.76251323  0.50249068
   0.01200911  0.27968474  0.02304398
   0.30418601  0.57657045  0.16859440
   0.67665878  0.93144818  0.35437924
   0.15466995  0.41284199  0.31429705
   0.32571393  0.06075203  0.64890101
   0.65492562  0.40059929  0.30967255
   0.63501659  0.89774868  0.83367758
   0.99299032  0.72476564  0.98511817
   0.34269938  0.60383737  0.68245287
   0.03297556  0.76000921  0.50049041
   0.17876989  0.92300848  0.35708729
   0.69352174  0.43354927  0.83394154
   0.20030311  0.89756901  0.83361645
   0.86006485  0.57217004  0.16643672
   0.80291822  0.09271146  0.16482268
   0.84139822  0.57285413  0.68170210
   0.52624476  0.23753341  0.49941039
LiMn2O4 Spinel Structure Relaxation     
            1
    -5.898556    0.028228   -0.159158
    -0.030150   -8.493517   -0.012541
     2.721838    4.223315    8.911523
   Li   Mn   O 
     5    12    24
Direct configuration=     8
   0.58338782  0.70920787  0.16804537
   0.08427370  0.95877629  0.16657648
   0.75082234  0.62569387  0.49995504
   0.41771784  0.28869824  0.83368751
   0.24925062  0.37411460  0.49894946
   0.83454167  0.33348620  0.16667836
   0.50083001  0.99704767  0.00001899
   0.66731220  0.66670687  0.83351081
   0.16772254  0.66658122  0.33409550
   0.16826958  0.66657964  0.83361249
   0.00268578  0.50223247  0.00408625
   0.99920426  0.00037559  0.50018911
   0.33231332  0.33368812  0.16706445
   0.83223928  0.33167666  0.66370916
   0.50175732  0.00041671  0.50040076
   0.33517421  0.83081409  0.66751468
   0.66563852  0.16553059  0.33182748
   0.82238821  0.09262138  0.64434912
   0.14199553  0.43498287  0.83457605
   0.51122464  0.24057311  0.01596147
   0.49555713  0.75792799  0.98558447
   0.96989984  0.23925180  0.49916400
   0.36589464  0.08786335  0.16457886
   0.47478611  0.76425548  0.50384223
   0.01166324  0.28254388  0.02293908
   0.30143746  0.57809872  0.16775074
   0.67682297  0.92905955  0.35521583
   0.15284108  0.41030442  0.31357767
   0.32609135  0.05992657  0.64941961
   0.65534042  0.40287547  0.30943740
   0.63501682  0.89553595  0.83366315
   0.99213478  0.72427300  0.98563185
   0.34338281  0.60438085  0.68212921
   0.03344699  0.76028091  0.50161166
   0.17925541  0.92583390  0.35748779
   0.69502755  0.43439096  0.83397326
   0.20070069  0.89521957  0.83371265
   0.85979082  0.57041032  0.16515159
   0.80369059  0.09338667  0.16369315
   0.83980762  0.57125767  0.68075979
   0.52672656  0.23702174  0.50020423
LiMn2O4 Spinel Structure Relaxation     
            1
    -5.906144    0.031042   -0.159588
    -0.026116   -8.494999   -0.013595
     2.723883    4.223853    8.915021
   Li   Mn   O 
     5    12    24
Direct configuration=     9
   0.58326863  0.70935522  0.16847141
   0.08472610  0.95892940  0.16664408
   0.75092927  0.62571575  0.49980615
   0.41790142  0.28815771  0.83368571
   0.24886157  0.37396534  0.49854424
   0.83520669  0.33408861  0.16661204
   0.50084339  0.99624420  0.00017651
   0.66654810  0.66611623  0.83355389
   0.16731967  0.66515417  0.33291108
   0.16907085  0.66620086  0.83372424
   0.00358262  0.50358395  0.00560292
   0.99855665  0.00132277  0.50044382
   0.33144858  0.33446785  0.16695289
   0.83177088  0.33182326  0.66293020
   0.50251082  0.00115063  0.50053425
   0.33534215  0.82988018  0.66771832
   0.66558438  0.16508240  0.33187939
   0.82220597  0.09510672  0.64442066
   0.14093231  0.43597730  0.83487302
   0.51146346  0.23805299  0.01510915
   0.49690177  0.75955617  0.98618735
   0.96888373  0.24005706  0.49970211
   0.36597694  0.08585597  0.16359350
   0.47674742  0.76582052  0.50505576
   0.01135517  0.28511115  0.02284527
   0.29897359  0.57947022  0.16699354
   0.67696858  0.92691460  0.35596650
   0.15119896  0.40802526  0.31293153
   0.32642929  0.05918541  0.64988505
   0.65571406  0.40491955  0.30922663
   0.63501537  0.89354901  0.83364991
   0.99136727  0.72383027  0.98609289
   0.34399604  0.60486914  0.68183876
   0.03387016  0.76052489  0.50261822
   0.17969300  0.92837112  0.35784769
   0.69637857  0.43514727  0.83400189
   0.20105550  0.89310999  0.83379870
   0.85954356  0.56883024  0.16399773
   0.80438356  0.09399338  0.16267932
   0.83837985  0.56982370  0.67991366
   0.52715837  0.23656235  0.50091678
LiMn2O4 Spinel Structure Relaxation     
            1
    -5.908196    0.033175   -0.159715
    -0.023043   -8.493941   -0.013985
     2.723569    4.222755    8.912087
   Li   Mn   O 
     5    12    24
Direct configuration=    10
   0.58313615  0.70946191  0.16870395
   0.08503661  0.95900292  0.16666367
   0.75106184  0.62576777  0.49975009
   0.41804111  0.28782507  0.83369737
   0.24857218  0.37387451  0.49830104
   0.83476254  0.33393602  0.16639473
   0.50100263  0.99600926  0.00028345
   0.66673894  0.66573235  0.83358395
   0.16742125  0.66531510  0.33321419
   0.16889119  0.66587513  0.83381858
   0.00344882  0.50424078  0.00547272
   0.99897055  0.00152122  0.50064975
   0.33161774  0.33444281  0.16671952
   0.83171512  0.33255353  0.66311918
   0.50227768  0.00119657  0.50069002
   0.33545747  0.82951076  0.66764940
   0.66534203  0.16478259  0.33146119
   0.82219183  0.09632175  0.64477198
   0.14042810  0.43615303  0.83498519
   0.51170573  0.23671798  0.01459545
   0.49834348  0.76030786  0.98682402
   0.96842668  0.24084185  0.49996234
   0.36634092  0.08457226  0.16324372
   0.47780396  0.76695455  0.50564373
   0.01101585  0.28606194  0.02251971
   0.29810749  0.58071907  0.16665302
   0.67677568  0.92576822  0.35623501
   0.15016721  0.40684671  0.31271819
   0.32681080  0.05873174  0.65023541
   0.65593688  0.40589993  0.30904925
   0.63521182  0.89279475  0.83363678
   0.99050893  0.72382191  0.98642418
   0.34463458  0.60485285  0.68138400
   0.03438079  0.76038651  0.50298055
   0.18000757  0.92968606  0.35810880
   0.69685845  0.43518500  0.83401018
   0.20115150  0.89232392  0.83385216
   0.85862614  0.56778263  0.16334832
   0.80500409  0.09473607  0.16223048
   0.83704571  0.56914884  0.67936450
   0.52708622  0.23623907  0.50138699
LiMn2O4 Spinel Structure Relaxation     
            1
    -5.914350    0.039572   -0.160095
    -0.013821   -8.490769   -0.015152
     2.722626    4.219464    8.903285
   Li   Mn   O 
     5    12    24
Direct configuration=    11
   0.58273912  0.70978194  0.16940180
   0.08596794  0.95922374  0.16672249
   0.75145950  0.62592394  0.49958187
   0.41845948  0.28682710  0.83373230
   0.24770409  0.37360175  0.49757118
   0.83343026  0.33347784  0.16574252
   0.50147983  0.99530445  0.00060432
   0.66731062  0.66458071  0.83367412
   0.16772624  0.66579808  0.33412384
   0.16835186  0.66489767  0.83410163
   0.00304860  0.50621145  0.00508208
   0.00021219  0.00211701  0.50126777
   0.33212494  0.33436776  0.16601918
   0.83154916  0.33474467  0.66368642
   0.50157862  0.00133427  0.50115749
   0.33580265  0.82840241  0.66744250
   0.66461463  0.16388277  0.33020613
   0.82215149  0.09996743  0.64582648
   0.13891634  0.43667994  0.83532184
   0.51242996  0.23271246  0.01305363
   0.50266856  0.76256444  0.98873484
   0.96705739  0.24319625  0.50074343
   0.36743030  0.08072076  0.16219383
   0.48097451  0.77035805  0.50740842
   0.00999969  0.28891443  0.02154286
   0.29551204  0.58446552  0.16563130
   0.67619540  0.92232845  0.35704062
   0.14707102  0.40330970  0.31207776
   0.32795432  0.05737087  0.65128675
   0.65660664  0.40884169  0.30851712
   0.63579973  0.89053176  0.83359727
   0.98793488  0.72379620  0.98741838
   0.34654935  0.60480440  0.68001930
   0.03591203  0.75997174  0.50406788
   0.18095318  0.93363174  0.35889262
   0.69829767  0.43529855  0.83403508
   0.20143815  0.88996543  0.83401245
   0.85587295  0.56463856  0.16139925
   0.80686612  0.09696494  0.16088364
   0.83304341  0.56712288  0.67771633
   0.52686944  0.23526908  0.50279804
LiMn2O4 Spinel Structure Relaxation     
            1
    -5.910051    0.042815   -0.158849
    -0.009185   -8.494833   -0.014936
     2.716842    4.219804    8.889182
   Li   Mn   O 
     5    12    24
Direct configuration=    12
   0.58254016  0.70990548  0.16959339
   0.08630716  0.95927985  0.16671568
   0.75181675  0.62612060  0.49962400
   0.41866260  0.28641543  0.83373785
   0.24724998  0.37344138  0.49736399
   0.83273818  0.33287747  0.16509932
   0.50204179  0.99491739  0.00023719
   0.66760473  0.66465407  0.83364573
   0.16778329  0.66692395  0.33525061
   0.16803340  0.66480041  0.83417506
   0.00191573  0.50617890  0.00420287
   0.00086209  0.00229066  0.50181523
   0.33225526  0.33395050  0.16540678
   0.83137454  0.33496213  0.66391185
   0.50162963  0.00123013  0.50164927
   0.33612653  0.82850013  0.66742138
   0.66482187  0.16359409  0.32998841
   0.82212183  0.10044267  0.64649748
   0.13871974  0.43620577  0.83522063
   0.51255414  0.23216304  0.01262527
   0.50534592  0.76243277  0.98943489
   0.96612572  0.24503958  0.50083355
   0.36830942  0.07959250  0.16229946
   0.48169636  0.77174148  0.50769883
   0.00977921  0.28872428  0.02103735
   0.29531047  0.58608806  0.16568456
   0.67521645  0.92205190  0.35725193
   0.14620957  0.40278427  0.31170057
   0.32899636  0.05702035  0.65192709
   0.65639858  0.40893468  0.30800518
   0.63625521  0.89065132  0.83360029
   0.98602496  0.72441252  0.98767412
   0.34809958  0.60435066  0.67945466
   0.03728813  0.75862324  0.50403664
   0.18149451  0.93414879  0.35916129
   0.69781541  0.43462586  0.83402105
   0.20165508  0.89002311  0.83402472
   0.85414111  0.56354139  0.16098924
   0.80769066  0.09823206  0.16075047
   0.83062295  0.56728656  0.67733166
   0.52642920  0.23474338  0.50323722
LiMn2O4 Spinel Structure Relaxation     
            1
    -5.900139    0.050290   -0.155977
     0.001500   -8.504200   -0.014437
     2.703509    4.220589    8.856671
   Li   Mn   O 
     5    12    24
Direct configuration=    13
   0.58208135  0.71019033  0.17003579
   0.08708975  0.95940938  0.16669984
   0.75264116  0.62657407  0.49972118
   0.41913041  0.28546707  0.83375062
   0.24620230  0.37307115  0.49688576
   0.83114107  0.33149243  0.16361450
   0.50333759  0.99402529  0.99938940
   0.66828331  0.66482327  0.83358008
   0.16791627  0.66952020  0.33785206
   0.16729858  0.66457624  0.83434471
   0.99930297  0.50610141  0.00217326
   0.00236120  0.00269229  0.50307904
   0.33255547  0.33298805  0.16399283
   0.83097200  0.33546348  0.66443235
   0.50174681  0.00099116  0.50278471
   0.33687380  0.82872550  0.66737252
   0.66529951  0.16292870  0.32948568
   0.82205388  0.10153890  0.64804669
   0.13826547  0.43511292  0.83498703
   0.51283984  0.23089641  0.01163626
   0.51152119  0.76213272  0.99105039
   0.96397990  0.24928624  0.50104185
   0.37033521  0.07699374  0.16254309
   0.48336378  0.77493008  0.50836909
   0.00927059  0.28828503  0.01987031
   0.29484839  0.58982643  0.16580756
   0.67295767  0.92141440  0.35774008
   0.14422174  0.40157228  0.31082995
   0.33139906  0.05621473  0.65340521
   0.65591910  0.40914780  0.30682325
   0.63730608  0.89092712  0.83360714
   0.98162027  0.72583163  0.98826514
   0.35167505  0.60330529  0.67815057
   0.04045997  0.75551716  0.50396416
   0.18274398  0.93534104  0.35978141
   0.69670178  0.43307555  0.83398881
   0.20215558  0.89015618  0.83405299
   0.85014452  0.56101137  0.16004313
   0.80959498  0.10115197  0.16044273
   0.82504018  0.56766118  0.67644423
   0.52541251  0.23353265  0.50425136
LiMn2O4 Spinel Structure Relaxation     
            1
    -5.894074    0.053868   -0.154015
     0.006596   -8.507585   -0.013077
     2.695602    4.219257    8.841975
   Li   Mn   O 
     5    12    24
Direct configuration=    14
   0.58190886  0.71023171  0.17024246
   0.08746109  0.95955998  0.16677555
   0.75310990  0.62681426  0.49972313
   0.41940831  0.28499520  0.83378889
   0.24557524  0.37275261  0.49662012
   0.83179229  0.33183804  0.16299445
   0.50478090  0.99377852  0.99941371
   0.66754035  0.66509382  0.83335620
   0.16742347  0.66917917  0.33681515
   0.16787288  0.66480645  0.83424578
   0.99856180  0.50550040  0.00328876
   0.00191521  0.00348293  0.50393456
   0.33136894  0.33297901  0.16326512
   0.82951563  0.33425370  0.66357718
   0.50309294  0.00170295  0.50341774
   0.33806096  0.82900914  0.66763968
   0.66609778  0.16297208  0.33023052
   0.82252908  0.10146167  0.64913857
   0.13833519  0.43480340  0.83448117
   0.51199861  0.23075707  0.01083790
   0.51449524  0.76131310  0.99104172
   0.96267634  0.25203124  0.50108480
   0.37148037  0.07604651  0.16262639
   0.48450720  0.77590840  0.50862401
   0.00931162  0.28718310  0.01886212
   0.29354404  0.59102480  0.16599591
   0.67221705  0.92254704  0.35820007
   0.14425691  0.40213361  0.31005117
   0.33272549  0.05610497  0.65477335
   0.65496824  0.40812699  0.30617949
   0.63837625  0.89170989  0.83338607
   0.97911237  0.72660071  0.98785399
   0.35387582  0.60327742  0.67824476
   0.04187137  0.75310435  0.50435244
   0.18305361  0.93474316  0.36004614
   0.69480386  0.43229780  0.83377625
   0.20250226  0.89040021  0.83402185
   0.84839281  0.56004906  0.15972675
   0.81059341  0.10178996  0.16027044
   0.82232085  0.56866734  0.67669536
   0.52462973  0.23287106  0.50473704
LiMn2O4 Spinel Structure Relaxation     
            1
    -5.888122    0.057380   -0.152089
     0.011597   -8.510907   -0.011742
     2.687842    4.217948    8.827552
   Li   Mn   O 
     5    12    24
Direct configuration=    15
   0.58173932  0.71027237  0.17044567
   0.08782595  0.95970789  0.16684987
   0.75357056  0.62705004  0.49972492
   0.41968093  0.28453241  0.83382653
   0.24495914  0.37243974  0.49635914
   0.83243265  0.33217690  0.16238472
   0.50619857  0.99353692  0.99943734
   0.66681083  0.66535885  0.83313622
   0.16693967  0.66884379  0.33579594
   0.16843729  0.66503241  0.83414838
   0.99783257  0.50491130  0.00438562
   0.00147721  0.00425896  0.50477559
   0.33020373  0.33296930  0.16254996
   0.82808448  0.33306588  0.66273694
   0.50441555  0.00240205  0.50403969
   0.33922726  0.82928794  0.66790203
   0.66688159  0.16301537  0.33096258
   0.82299522  0.10138676  0.65021189
   0.13840374  0.43449945  0.83398390
   0.51117255  0.23061959  0.01005323
   0.51741625  0.76050999  0.99103271
   0.96139789  0.25472371  0.50112691
   0.37260455  0.07511769  0.16270819
   0.48563109  0.77686867  0.50887426
   0.00935164  0.28610147  0.01787114
   0.29226350  0.59220011  0.16618117
   0.67149011  0.92365823  0.35865226
   0.14429235  0.40268378  0.30928547
   0.33402768  0.05599860  0.65611810
   0.65403371  0.40712484  0.30554695
   0.63942830  0.89247798  0.83316843
   0.97664950  0.72735412  0.98745019
   0.35603774  0.60325085  0.67833692
   0.04325577  0.75073808  0.50473420
   0.18335717  0.93415692  0.36030641
   0.69293891  0.43153407  0.83356778
   0.20284303  0.89063970  0.83399113
   0.84667139  0.55910426  0.15941621
   0.81157485  0.10241604  0.16010077
   0.81965008  0.56965369  0.67694265
   0.52385995  0.23222210  0.50521475
LiMn2O4 Spinel Structure Relaxation     
            1
    -5.889951    0.058686   -0.150677
     0.013522   -8.502671   -0.009773
     2.685494    4.211210    8.830035
   Li   Mn   O 
     5    12    24
Direct configuration=    16
   0.58159413  0.71031487  0.17057518
   0.08809332  0.95984463  0.16690465
   0.75392603  0.62717690  0.49972465
   0.41981217  0.28424386  0.83386739
   0.24448559  0.37229634  0.49615205
   0.83137825  0.33178912  0.16195264
   0.50780386  0.99379361  0.99994406
   0.66697016  0.66505420  0.83287198
   0.16671778  0.66879393  0.33528253
   0.16835954  0.66486285  0.83391975
   0.99620625  0.50471486  0.00370586
   0.00229880  0.00440229  0.50573850
   0.33024441  0.33234029  0.16185341
   0.82690649  0.33431442  0.66372755
   0.50403062  0.00250821  0.50483988
   0.34059733  0.82934536  0.66780105
   0.66670355  0.16341972  0.33090459
   0.82402583  0.10113537  0.65131615
   0.13764898  0.43479193  0.83351178
   0.51012725  0.23079463  0.00957626
   0.51882605  0.76013170  0.99075077
   0.96086102  0.25684100  0.50110466
   0.37385179  0.07467282  0.16289714
   0.48721068  0.77712101  0.50889721
   0.00917044  0.28474147  0.01655842
   0.29093061  0.59250266  0.16608840
   0.67219110  0.92561237  0.35896225
   0.14553679  0.40426302  0.30865856
   0.33445981  0.05598204  0.65721613
   0.65291062  0.40553686  0.30496321
   0.64098540  0.89338032  0.83293209
   0.97560132  0.72693632  0.98667101
   0.35699089  0.60378934  0.67883085
   0.04421896  0.74855076  0.50503884
   0.18305927  0.93290249  0.36084652
   0.69127214  0.43123394  0.83343665
   0.20385312  0.89080028  0.83420134
   0.84482254  0.55875080  0.15925184
   0.81295071  0.10243984  0.15995972
   0.81816185  0.56995451  0.67734212
   0.52226884  0.23182192  0.50555914
LiMn2O4 Spinel Structure Relaxation     
            1
    -5.892408    0.060441   -0.148780
     0.016106   -8.491608   -0.007128
     2.682340    4.202158    8.833370
   Li   Mn   O 
     5    12    24
Direct configuration=    17
   0.58139910  0.71037182  0.17074912
   0.08845230  0.96002842  0.16697810
   0.75440335  0.62734747  0.49972417
   0.41998827  0.28385591  0.83392231
   0.24384987  0.37210377  0.49587410
   0.82996271  0.33126825  0.16137279
   0.50995896  0.99413819  0.00062405
   0.66718418  0.66464498  0.83251722
   0.16642021  0.66872753  0.33459318
   0.16825526  0.66463518  0.83361281
   0.99402305  0.50445149  0.00279350
   0.00340128  0.00459382  0.50703128
   0.33029934  0.33149555  0.16091825
   0.82532450  0.33599155  0.66505765
   0.50351324  0.00264988  0.50591443
   0.34243700  0.82942279  0.66766513
   0.66646468  0.16396337  0.33082663
   0.82540873  0.10079611  0.65279882
   0.13663600  0.43518565  0.83287791
   0.50872415  0.23103045  0.00893596
   0.52071906  0.75962362  0.99037197
   0.96014084  0.25968738  0.50107428
   0.37552615  0.07407463  0.16315072
   0.48933162  0.77746036  0.50892759
   0.00892768  0.28291478  0.01479613
   0.28914111  0.59290938  0.16596404
   0.67313267  0.92823912  0.35937777
   0.14720860  0.40638700  0.30781600
   0.33503923  0.05595842  0.65869048
   0.65140258  0.40340268  0.30418007
   0.64307654  0.89459383  0.83261413
   0.97419437  0.72637553  0.98562506
   0.35827047  0.60451273  0.67949373
   0.04551131  0.74560992  0.50544835
   0.18265852  0.93121539  0.36157221
   0.68903419  0.43083045  0.83326102
   0.20520926  0.89101598  0.83448334
   0.84234014  0.55827565  0.15903165
   0.81479817  0.10247213  0.15976999
   0.81616344  0.57035828  0.67787877
   0.52013211  0.23128336  0.50602207
LiMn2O4 Spinel Structure Relaxation     
            1
    -5.896006    0.059742   -0.147558
     0.015261   -8.472177   -0.005186
     2.682203    4.190779    8.846192
   Li   Mn   O 
     5    12    24
Direct configuration=    18
   0.58116061  0.71063543  0.17092023
   0.08874422  0.96001865  0.16699351
   0.75466532  0.62724240  0.49971710
   0.41971128  0.28371773  0.83393154
   0.24349030  0.37235212  0.49564958
   0.82995353  0.33069208  0.16054535
   0.51110503  0.99328832  0.99983145
   0.66667555  0.66569032  0.83272010
   0.16599781  0.66880329  0.33515478
   0.16861015  0.66523995  0.83338511
   0.99254053  0.50408714  0.00199376
   0.00344230  0.00472670  0.50835905
   0.32902701  0.33029773  0.15943679
   0.82407862  0.33587217  0.66469148
   0.50470429  0.00289074  0.50693047
   0.34393285  0.82885482  0.66789388
   0.66682440  0.16496449  0.33168484
   0.82589773  0.10113422  0.65331196
   0.13466334  0.43557282  0.83255744
   0.50839713  0.23131029  0.00915309
   0.52079371  0.75996049  0.99021764
   0.95856385  0.26123464  0.50169209
   0.37642677  0.07356318  0.16318814
   0.49182719  0.77722896  0.50926069
   0.00791207  0.28243620  0.01398987
   0.28716233  0.59242560  0.16459459
   0.67515345  0.93128166  0.36024647
   0.14840668  0.40856444  0.30694027
   0.33455017  0.05582155  0.65912216
   0.65083486  0.40151043  0.30402310
   0.64470619  0.89510342  0.83267064
   0.97527201  0.72538244  0.98479737
   0.35784337  0.60509671  0.68019738
   0.04706285  0.74398646  0.50562365
   0.18190680  0.92920972  0.36233457
   0.68750585  0.43092253  0.83343223
   0.20783133  0.89121938  0.83508990
   0.83969255  0.55767984  0.15783822
   0.81685905  0.10198564  0.15923360
   0.81580709  0.57011385  0.67767075
   0.51832413  0.23178430  0.50731193
LiMn2O4 Spinel Structure Relaxation     
            1
    -5.900377    0.058894   -0.146073
     0.014234   -8.448566   -0.002828
     2.682037    4.176953    8.861773
   Li   Mn   O 
     5    12    24
Direct configuration=    19
   0.58087078  0.71095607  0.17112782
   0.08909869  0.96000665  0.16701216
   0.75498347  0.62711441  0.49970849
   0.41937494  0.28354948  0.83394283
   0.24305379  0.37265520  0.49537713
   0.82994325  0.32999249  0.15954149
   0.51249765  0.99225511  0.99886973
   0.66605742  0.66696295  0.83296608
   0.16548438  0.66889422  0.33583629
   0.16904112  0.66597695  0.83310859
   0.99074101  0.50364572  0.00102373
   0.00349095  0.00488518  0.50997011
   0.32748356  0.32884298  0.15763975
   0.82256604  0.33572795  0.66424742
   0.50614969  0.00318127  0.50816305
   0.34574929  0.82816226  0.66817133
   0.66726021  0.16618144  0.33272584
   0.82649100  0.10154460  0.65393443
   0.13226802  0.43604552  0.83216885
   0.50799976  0.23165061  0.00941654
   0.52088438  0.76037110  0.99003028
   0.95664786  0.26311767  0.50244161
   0.37752055  0.07294005  0.16323352
   0.49485745  0.77694582  0.50966448
   0.00667958  0.28185559  0.01301188
   0.28476070  0.59184026  0.16293340
   0.67760575  0.93498434  0.36129937
   0.14986167  0.41121814  0.30587686
   0.33395597  0.05565388  0.65964608
   0.65014612  0.39920650  0.30383324
   0.64668495  0.89572356  0.83273877
   0.97658163  0.72417489  0.98379313
   0.35732395  0.60580619  0.68105111
   0.04894729  0.74200862  0.50583651
   0.18099389  0.92676541  0.36326028
   0.68564974  0.43103454  0.83364023
   0.21101486  0.89146504  0.83582536
   0.83647864  0.55695778  0.15639077
   0.81936227  0.10139412  0.15858251
   0.81537461  0.56981677  0.67741847
   0.51612738  0.23239146  0.50887722
LiMn2O4 Spinel Structure Relaxation     
            1
    -5.902828    0.058531   -0.145099
     0.013791   -8.440115   -0.002231
     2.681471    4.172282    8.879042
   Li   Mn   O 
     5    12    24
Direct configuration=    20
   0.58041169  0.71133278  0.17126378
   0.08946317  0.95970333  0.16696914
   0.75516521  0.62662830  0.49967121
   0.41879533  0.28370407  0.83399171
   0.24272530  0.37321683  0.49519714
   0.82985579  0.32974995  0.15879815
   0.51421881  0.99305926  0.99975381
   0.66751381  0.66673239  0.83312782
   0.16542788  0.66821154  0.33519956
   0.16823518  0.66572205  0.83300076
   0.98955229  0.50341448  0.00077583
   0.00396468  0.00478198  0.51090663
   0.32675001  0.32800464  0.15657339
   0.82119985  0.33619234  0.66434342
   0.50671845  0.00341070  0.50887005
   0.34681594  0.82790136  0.66784971
   0.66683991  0.16707477  0.33282638
   0.82606436  0.10188195  0.65411483
   0.13028511  0.43572791  0.83166391
   0.50853078  0.23158351  0.00970956
   0.52082728  0.76075137  0.99026744
   0.95558127  0.26396248  0.50325660
   0.37868722  0.07226202  0.16296923
   0.49786565  0.77688824  0.51097843
   0.00505300  0.28165568  0.01257670
   0.28277626  0.59143926  0.16160313
   0.67952169  0.93781224  0.36235842
   0.15024105  0.41303740  0.30519828
   0.33336849  0.05520536  0.65936396
   0.65007118  0.39712449  0.30359011
   0.64782036  0.89593893  0.83269410
   0.97788572  0.72406247  0.98294722
   0.35645187  0.60566930  0.68165210
   0.05047919  0.74150285  0.50671697
   0.18080352  0.92472562  0.36419999
   0.68473801  0.43149081  0.83361235
   0.21331803  0.89244495  0.83613060
   0.83367356  0.55613615  0.15439638
   0.82094957  0.10036420  0.15724628
   0.81501260  0.56992176  0.67708732
   0.51440523  0.23347309  0.51088438
LiMn2O4 Spinel Structure Relaxation     
            1
    -5.905482    0.058138   -0.144044
     0.013311   -8.430958   -0.001584
     2.680858    4.167222    8.897751
   Li   Mn   O 
     5    12    24
Direct configuration=    21
   0.57991435  0.71174112  0.17141082
   0.08985793  0.95937442  0.16692261
   0.75536211  0.62610118  0.49963091
   0.41816761  0.28387170  0.83404463
   0.24236972  0.37382623  0.49500253
   0.82976191  0.32948816  0.15799442
   0.51608159  0.99392966  0.00070946
   0.66909076  0.66648193  0.83330253
   0.16536745  0.66747228  0.33451114
   0.16736259  0.66544591  0.83288428
   0.98826533  0.50316426  0.00050795
   0.00447669  0.00466845  0.51191920
   0.32595690  0.32709737  0.15542052
   0.81972027  0.33669594  0.66444735
   0.50733356  0.00365827  0.50963441
   0.34797137  0.82761885  0.66750184
   0.66638456  0.16804342  0.33293507
   0.82560212  0.10224753  0.65430992
   0.12813843  0.43538455  0.83111821
   0.50910551  0.23151020  0.01002633
   0.52076514  0.76116336  0.99052385
   0.95442530  0.26487740  0.50413789
   0.37995094  0.07152704  0.16268337
   0.50112179  0.77682327  0.51239878
   0.00329208  0.28143979  0.01210637
   0.28062881  0.59100682  0.16016503
   0.68159498  0.94087696  0.36350310
   0.15065240  0.41501135  0.30446437
   0.33273266  0.05471950  0.65905901
   0.64999052  0.39486708  0.30332739
   0.64904990  0.89617244  0.83264565
   0.97929882  0.72394180  0.98203240
   0.35550688  0.60551995  0.68230205
   0.05213719  0.74095274  0.50766883
   0.18059659  0.92251203  0.36521624
   0.68375068  0.43198576  0.83358229
   0.21581168  0.89350684  0.83646029
   0.83063820  0.55524876  0.15224031
   0.82266999  0.09924935  0.15580133
   0.81462093  0.57003620  0.67672930
   0.51253806  0.23464291  0.51305479
LiMn2O4 Spinel Structure Relaxation     
            1
    -5.903366    0.059007   -0.142406
     0.014579   -8.430870   -0.002885
     2.676567    4.168139    8.908306
   Li   Mn   O 
     5    12    24
Direct configuration=    22
   0.57924796  0.71225672  0.17132186
   0.09026587  0.95874569  0.16675592
   0.75572371  0.62546002  0.49973186
   0.41739611  0.28421288  0.83400532
   0.24199924  0.37462948  0.49518774
   0.82918507  0.32930781  0.15772362
   0.51692963  0.99316143  0.00047467
   0.66823958  0.66656058  0.83323951
   0.16578506  0.66742122  0.33409045
   0.16792153  0.66578756  0.83279327
   0.98752415  0.50306959  0.00002390
   0.00487400  0.00455867  0.51211549
   0.32635158  0.32713959  0.15551932
   0.81888470  0.33710038  0.66477466
   0.50708678  0.00380421  0.50996614
   0.34891931  0.82764117  0.66832198
   0.66640749  0.16829631  0.33313435
   0.82443064  0.10242158  0.65427449
   0.12717184  0.43404511  0.83080438
   0.50999084  0.23164320  0.01013663
   0.52188973  0.76124557  0.99080029
   0.95429206  0.26477542  0.50445156
   0.38012010  0.07125976  0.16254963
   0.50311265  0.77730888  0.51371927
   0.00234021  0.28138708  0.01215280
   0.28032972  0.59100131  0.15961982
   0.68165248  0.94207630  0.36388237
   0.14994784  0.41527204  0.30412472
   0.33290970  0.05452618  0.65850647
   0.65013371  0.39343827  0.30283710
   0.64886403  0.89573225  0.83268990
   0.97998805  0.72484047  0.98175979
   0.35569368  0.60503223  0.68315792
   0.05262305  0.74128121  0.50805782
   0.18135427  0.92104530  0.36532340
   0.68413146  0.43242401  0.83359319
   0.21666095  0.89450034  0.83642308
   0.82867935  0.55463148  0.15063402
   0.82373844  0.09894529  0.15460129
   0.81382094  0.57042304  0.67642402
   0.51144672  0.23549323  0.51463276
LiMn2O4 Spinel Structure Relaxation     
            1
    -5.901581    0.059739   -0.141024
     0.015649   -8.430795   -0.003982
     2.672948    4.168912    8.917210
   Li   Mn   O 
     5    12    24
Direct configuration=    23
   0.57868586  0.71269173  0.17124707
   0.09061013  0.95821533  0.16661533
   0.75602857  0.62491906  0.49981678
   0.41674524  0.28450071  0.83397237
   0.24168662  0.37530706  0.49534394
   0.82869858  0.32915576  0.15749552
   0.51764529  0.99251343  0.00027661
   0.66752143  0.66662694  0.83318655
   0.16613788  0.66737831  0.33373592
   0.16839335  0.66607585  0.83271654
   0.98689923  0.50298991  0.99961617
   0.00520902  0.00446597  0.51228080
   0.32668453  0.32717517  0.15560251
   0.81817938  0.33744144  0.66505061
   0.50687822  0.00392720  0.51024571
   0.34971831  0.82765967  0.66901285
   0.66642669  0.16850958  0.33330229
   0.82344222  0.10256842  0.65424484
   0.12635624  0.43291521  0.83053994
   0.51073781  0.23175536  0.01022945
   0.52283839  0.76131482  0.99103306
   0.95417926  0.26468925  0.50471586
   0.38026292  0.07103433  0.16243688
   0.50479127  0.77771804  0.51483162
   0.00153695  0.28134258  0.01219205
   0.28007793  0.59099689  0.15916050
   0.68170088  0.94308795  0.36420207
   0.14935376  0.41549210  0.30383869
   0.33305964  0.05436332  0.65804087
   0.65025471  0.39223305  0.30242380
   0.64870704  0.89536085  0.83272715
   0.98057015  0.72559876  0.98153011
   0.35585028  0.60462040  0.68387895
   0.05303269  0.74155817  0.50838553
   0.18199315  0.91980784  0.36541338
   0.68445286  0.43279374  0.83360238
   0.21737785  0.89533853  0.83639173
   0.82702803  0.55411135  0.14928084
   0.82464124  0.09868929  0.15358999
   0.81314633  0.57074951  0.67616697
   0.51052435  0.23620992  0.51596256
LiMn2O4 Spinel Structure Relaxation     
            1
    -5.896780    0.059891   -0.138777
     0.015949   -8.423397   -0.004800
     2.667148    4.166011    8.921118
   Li   Mn   O 
     5    12    24
Direct configuration=    24
   0.57799173  0.71329387  0.17105337
   0.09111321  0.95748819  0.16636097
   0.75663260  0.62431923  0.50001983
   0.41587104  0.28488474  0.83387845
   0.24112990  0.37610885  0.49570870
   0.82860925  0.32896923  0.15694543
   0.51793467  0.99287106  0.00056142
   0.66849614  0.66651613  0.83328401
   0.16641242  0.66752562  0.33407447
   0.16788975  0.66588783  0.83275450
   0.98724328  0.50303572  0.99938737
   0.00457359  0.00442364  0.51209265
   0.32639613  0.32719260  0.15561915
   0.81813557  0.33736138  0.66487608
   0.50712459  0.00404876  0.51048367
   0.34929309  0.82792734  0.66865770
   0.66667055  0.16797649  0.33353109
   0.82255723  0.10262188  0.65411949
   0.12631975  0.43230958  0.83040587
   0.51101565  0.23159440  0.01007577
   0.52428345  0.76118644  0.99147248
   0.95432274  0.26428909  0.50481985
   0.38035545  0.07092768  0.16223780
   0.50566134  0.77832587  0.51584980
   0.00188518  0.28167036  0.01255047
   0.28051401  0.59097033  0.15887739
   0.68088267  0.94337322  0.36406400
   0.14862645  0.41536039  0.30385974
   0.33357026  0.05436323  0.65807722
   0.65045697  0.39170522  0.30244419
   0.64857254  0.89482025  0.83277854
   0.98064212  0.72602231  0.98076350
   0.35566128  0.60432758  0.68473661
   0.05363154  0.74211908  0.50850755
   0.18276942  0.91899808  0.36483071
   0.68460559  0.43319080  0.83377908
   0.21734971  0.89577357  0.83646142
   0.82595971  0.55390244  0.14854485
   0.82508238  0.09857609  0.15273649
   0.81212981  0.57099573  0.67625539
   0.50969151  0.23664851  0.51679969
LiMn2O4 Spinel Structure Relaxation     
            1
    -5.894958    0.059949   -0.137924
     0.016063   -8.420589   -0.005110
     2.664947    4.164910    8.922601
   Li   Mn   O 
     5    12    24
Direct configuration=    25
   0.57772814  0.71352274  0.17097995
   0.09130442  0.95721192  0.16626438
   0.75686195  0.62409123  0.50009681
   0.41553899  0.28503072  0.83384291
   0.24091826  0.37641346  0.49584719
   0.82857556  0.32889848  0.15673669
   0.51804448  0.99300688  0.00066948
   0.66886638  0.66647397  0.83332090
   0.16651658  0.66758151  0.33420292
   0.16769841  0.66581640  0.83276894
   0.98737409  0.50305317  0.99930052
   0.00433228  0.00440761  0.51202132
   0.32628657  0.32719923  0.15562550
   0.81811900  0.33733100  0.66480986
   0.50721809  0.00409490  0.51057394
   0.34913171  0.82802914  0.66852299
   0.66676307  0.16777386  0.33361787
   0.82222107  0.10264225  0.65407201
   0.12630592  0.43207948  0.83035498
   0.51112127  0.23153326  0.01001742
   0.52483224  0.76113750  0.99163909
   0.95437719  0.26413701  0.50485928
   0.38039069  0.07088720  0.16216224
   0.50599144  0.77855659  0.51623611
   0.00201733  0.28179483  0.01268646
   0.28067980  0.59096029  0.15876992
   0.68057191  0.94348167  0.36401170
   0.14835013  0.41531037  0.30386779
   0.33376422  0.05436317  0.65809096
   0.65053377  0.39150464  0.30245189
   0.64852140  0.89461482  0.83279804
   0.98066982  0.72618342  0.98047261
   0.35558908  0.60421612  0.68506207
   0.05385902  0.74233218  0.50855382
   0.18306456  0.91869048  0.36460951
   0.68466355  0.43334163  0.83384613
   0.21733900  0.89593887  0.83648788
   0.82555418  0.55382325  0.14826566
   0.82525036  0.09853325  0.15241257
   0.81174360  0.57108931  0.67628905
   0.50937476  0.23681502  0.51711745
LiMn2O4 Spinel Structure Relaxation     
            1
    -5.893687    0.058606   -0.136343
     0.014179   -8.415632   -0.004534
     2.662787    4.162437    8.927608
   Li   Mn   O 
     5    12    24
Direct configuration=    26
   0.57703960  0.71412063  0.17065006
   0.09185793  0.95645659  0.16591013
   0.75757814  0.62351225  0.50034417
   0.41461703  0.28549172  0.83375899
   0.24029141  0.37726009  0.49636511
   0.82833560  0.32896645  0.15647390
   0.51784328  0.99275530  0.00040039
   0.66851380  0.66684436  0.83364625
   0.16674858  0.66726065  0.33413562
   0.16800562  0.66595989  0.83283297
   0.98803347  0.50325878  0.99949231
   0.00403163  0.00430115  0.51158239
   0.32636319  0.32719335  0.15580732
   0.81795174  0.33738512  0.66482819
   0.50688291  0.00430224  0.51067994
   0.34913650  0.82823415  0.66913472
   0.66657401  0.16719058  0.33325830
   0.82205777  0.10247225  0.65399480
   0.12659958  0.43169832  0.83017066
   0.51082166  0.23146513  0.00970480
   0.52626391  0.76125043  0.99213013
   0.95476106  0.26360029  0.50479456
   0.38053486  0.07095585  0.16227730
   0.50661563  0.77879716  0.51667537
   0.00310174  0.28207604  0.01276841
   0.28114767  0.59094917  0.15877799
   0.67966043  0.94321333  0.36360840
   0.14781228  0.41530886  0.30413405
   0.33382352  0.05466047  0.65828913
   0.65058832  0.39122553  0.30265847
   0.64835485  0.89436076  0.83263883
   0.98128266  0.72621614  0.97975727
   0.35487291  0.60432554  0.68585776
   0.05364258  0.74280035  0.50846500
   0.18346432  0.91851522  0.36410828
   0.68494731  0.43332202  0.83405499
   0.21697511  0.89605402  0.83666096
   0.82537401  0.55399408  0.14807903
   0.82562874  0.09837611  0.15195236
   0.81107241  0.57073656  0.67598019
   0.50885651  0.23703590  0.51749726
LiMn2O4 Spinel Structure Relaxation     
            1
    -5.892886    0.057759   -0.135347
     0.012991   -8.412508   -0.004170
     2.661425    4.160877    8.930765
   Li   Mn   O 
     5    12    24
Direct configuration=    27
   0.57660547  0.71449799  0.17044226
   0.09220724  0.95598020  0.16568691
   0.75802973  0.62314685  0.50049997
   0.41403565  0.28578268  0.83370620
   0.23989578  0.37779402  0.49669148
   0.82818439  0.32900946  0.15630834
   0.51771658  0.99259674  0.00023087
   0.66829128  0.66707792  0.83385126
   0.16689496  0.66705826  0.33409320
   0.16819927  0.66605034  0.83287327
   0.98844909  0.50338831  0.99961308
   0.00384227  0.00423420  0.51130588
   0.32641144  0.32718957  0.15592187
   0.81784626  0.33741927  0.66483976
   0.50667149  0.00443304  0.51074675
   0.34913924  0.82836323  0.66952014
   0.66645507  0.16682282  0.33303179
   0.82195488  0.10236508  0.65394618
   0.12678490  0.43145791  0.83005452
   0.51063288  0.23142232  0.00950786
   0.52716637  0.76132126  0.99243936
   0.95500324  0.26326170  0.50475377
   0.38062570  0.07099909  0.16234977
   0.50700895  0.77894864  0.51695205
   0.00378538  0.28225323  0.01281992
   0.28144267  0.59094208  0.15878302
   0.67908595  0.94304435  0.36335441
   0.14747306  0.41530789  0.30430188
   0.33386077  0.05484792  0.65841396
   0.65062269  0.39104940  0.30278864
   0.64824995  0.89420059  0.83253856
   0.98166934  0.72623695  0.97930649
   0.35442103  0.60439437  0.68635918
   0.05350604  0.74309573  0.50840905
   0.18371661  0.91840480  0.36379244
   0.68512615  0.43330952  0.83418656
   0.21674557  0.89612665  0.83677005
   0.82526044  0.55410192  0.14796145
   0.82586754  0.09827710  0.15166237
   0.81064942  0.57051428  0.67578568
   0.50852955  0.23717516  0.51773661
LiMn2O4 Spinel Structure Relaxation     
            1
    -5.890158    0.055177   -0.134062
     0.009254   -8.412438   -0.002081
     2.660105    4.159806    8.928690
   Li   Mn   O 
     5    12    24
Direct configuration=    28
   0.57601515  0.71509292  0.17014088
   0.09281717  0.95522381  0.16526259
   0.75880754  0.62263397  0.50076058
   0.41296709  0.28633022  0.83359012
   0.23917978  0.37861648  0.49733658
   0.82789328  0.32896815  0.15630991
   0.51784176  0.99292004  0.00037963
   0.66853447  0.66641479  0.83367649
   0.16734443  0.66706004  0.33422678
   0.16800815  0.66572406  0.83287480
   0.98895248  0.50344011  0.99947411
   0.00380902  0.00411437  0.51080614
   0.32697039  0.32720130  0.15635074
   0.81766959  0.33724184  0.66489713
   0.50622625  0.00443440  0.51079930
   0.34869862  0.82869038  0.66939591
   0.66670460  0.16653538  0.33281855
   0.82221953  0.10187047  0.65359758
   0.12711324  0.43135945  0.82992496
   0.51024455  0.23146671  0.00935686
   0.52820215  0.76186073  0.99307450
   0.95478757  0.26252677  0.50442939
   0.38062420  0.07085476  0.16222568
   0.50692633  0.77886241  0.51718082
   0.00500429  0.28248266  0.01289889
   0.28188872  0.59092984  0.15900431
   0.67829951  0.94269139  0.36291968
   0.14702570  0.41537459  0.30446647
   0.33334098  0.05500185  0.65850771
   0.65044600  0.39066891  0.30273976
   0.64806501  0.89450707  0.83238938
   0.98271450  0.72608576  0.97875195
   0.35346390  0.60476009  0.68710480
   0.05338527  0.74348884  0.50846309
   0.18363512  0.91858096  0.36364689
   0.68574612  0.43333155  0.83461401
   0.21646546  0.89649318  0.83725179
   0.82585898  0.55457286  0.14812765
   0.82572785  0.09797210  0.15118382
   0.80995927  0.57005994  0.67552957
   0.50848025  0.23745766  0.51784696
LiMn2O4 Spinel Structure Relaxation     
            1
    -5.889569    0.054620   -0.133784
     0.008446   -8.412422   -0.001630
     2.659820    4.159575    8.928242
   Li   Mn   O 
     5    12    24
Direct configuration=    29
   0.57588750  0.71522146  0.17007575
   0.09294911  0.95506040  0.16517093
   0.75897570  0.62252314  0.50081689
   0.41273609  0.28644856  0.83356505
   0.23902491  0.37879417  0.49747593
   0.82783039  0.32895926  0.15631026
   0.51786875  0.99298985  0.00041175
   0.66858714  0.66627155  0.83363876
   0.16744155  0.66706039  0.33425563
   0.16796690  0.66565361  0.83287515
   0.98906125  0.50345126  0.99944407
   0.00380187  0.00408849  0.51069818
   0.32709116  0.32720379  0.15644338
   0.81763144  0.33720353  0.66490954
   0.50613003  0.00443473  0.51081067
   0.34860336  0.82876107  0.66936906
   0.66675857  0.16647328  0.33277249
   0.82227681  0.10176362  0.65352228
   0.12718421  0.43133815  0.82989697
   0.51016063  0.23147633  0.00932424
   0.52842587  0.76197716  0.99321166
   0.95474109  0.26236805  0.50435935
   0.38062390  0.07082359  0.16219888
   0.50690849  0.77884380  0.51723026
   0.00526764  0.28253211  0.01291590
   0.28198510  0.59092716  0.15905211
   0.67812963  0.94261522  0.36282580
   0.14692901  0.41538904  0.30450205
   0.33322863  0.05503514  0.65852797
   0.65040787  0.39058674  0.30272922
   0.64802500  0.89457328  0.83235714
   0.98294039  0.72605302  0.97863212
   0.35325700  0.60483915  0.68726591
   0.05335911  0.74357376  0.50847475
   0.18361749  0.91861902  0.36361544
   0.68588007  0.43333625  0.83470634
   0.21640486  0.89657236  0.83735586
   0.82598824  0.55467452  0.14816351
   0.82569772  0.09790624  0.15108044
   0.80981022  0.56996187  0.67547428
   0.50846955  0.23751868  0.51787079
LiMn2O4 Spinel Structure Relaxation     
            1
    -5.888759    0.052222   -0.132885
     0.004934   -8.416134    0.000645
     2.659879    4.160107    8.924328
   Li   Mn   O 
     5    12    24
Direct configuration=    30
   0.57562133  0.71562287  0.16994096
   0.09340841  0.95455458  0.16478269
   0.75952832  0.62226676  0.50096787
   0.41179718  0.28688043  0.83348809
   0.23843340  0.37935094  0.49803262
   0.82822625  0.32903897  0.15619429
   0.51775471  0.99289134  0.00010863
   0.66836489  0.66652649  0.83365977
   0.16765944  0.66722365  0.33437253
   0.16814640  0.66588268  0.83295265
   0.98985994  0.50323998  0.99972123
   0.00342609  0.00400641  0.51031506
   0.32711471  0.32722421  0.15668704
   0.81769098  0.33636968  0.66465109
   0.50632741  0.00438772  0.51068523
   0.34813652  0.82921730  0.66967604
   0.66687300  0.16615711  0.33265927
   0.82253196  0.10125934  0.65308221
   0.12735530  0.43107628  0.82972367
   0.51011595  0.23179780  0.00947222
   0.52904463  0.76256345  0.99345067
   0.95428717  0.26191635  0.50411218
   0.38054917  0.07072135  0.16214046
   0.50633640  0.77856665  0.51708969
   0.00587452  0.28273783  0.01313881
   0.28232380  0.59093147  0.15929854
   0.67766179  0.94249035  0.36261448
   0.14676858  0.41547231  0.30464239
   0.33259410  0.05507706  0.65844262
   0.65043139  0.39039071  0.30271270
   0.64771333  0.89463108  0.83215398
   0.98369126  0.72576965  0.97842283
   0.35267399  0.60510498  0.68753881
   0.05315411  0.74365531  0.50850560
   0.18330608  0.91893433  0.36375204
   0.68628498  0.43319882  0.83501927
   0.21645451  0.89695540  0.83779396
   0.82695398  0.55502004  0.14846482
   0.82562573  0.09778932  0.15092383
   0.80925716  0.56934789  0.67511734
   0.50870542  0.23765394  0.51782859
LiMn2O4 Spinel Structure Relaxation     
            1
    -5.888704    0.052061   -0.132825
     0.004699   -8.416382    0.000798
     2.659883    4.160142    8.924065
   Li   Mn   O 
     5    12    24
Direct configuration=    31
   0.57560349  0.71564973  0.16993193
   0.09343917  0.95452073  0.16475669
   0.75956533  0.62224960  0.50097798
   0.41173431  0.28690933  0.83348293
   0.23839378  0.37938821  0.49806989
   0.82825274  0.32904429  0.15618651
   0.51774708  0.99288475  0.00008833
   0.66835000  0.66654355  0.83366117
   0.16767402  0.66723457  0.33438035
   0.16815841  0.66589800  0.83295783
   0.98991342  0.50322584  0.99973979
   0.00340093  0.00400092  0.51028941
   0.32711629  0.32722558  0.15670336
   0.81769501  0.33631389  0.66463379
   0.50634062  0.00438456  0.51067683
   0.34810525  0.82924784  0.66969660
   0.66688068  0.16613596  0.33265169
   0.82254906  0.10122559  0.65305275
   0.12736676  0.43105875  0.82971207
   0.51011294  0.23181930  0.00948212
   0.52908603  0.76260266  0.99346666
   0.95425680  0.26188613  0.50409564
   0.38054417  0.07071451  0.16213655
   0.50629812  0.77854812  0.51708029
   0.00591514  0.28275159  0.01315373
   0.28234648  0.59093176  0.15931504
   0.67763047  0.94248201  0.36260034
   0.14675784  0.41547789  0.30465179
   0.33255162  0.05507987  0.65843691
   0.65043298  0.39037760  0.30271160
   0.64769246  0.89463495  0.83214038
   0.98374154  0.72575068  0.97840881
   0.35263496  0.60512278  0.68755708
   0.05314039  0.74366077  0.50850767
   0.18328522  0.91895543  0.36376119
   0.68631210  0.43318962  0.83504023
   0.21645783  0.89698103  0.83782329
   0.82701861  0.55504314  0.14848498
   0.82562091  0.09778150  0.15091335
   0.80922016  0.56930682  0.67509345
   0.50872120  0.23766298  0.51782576
LiMn2O4 Spinel Structure Relaxation     
            1
    -5.890491    0.050812   -0.132252
     0.002864   -8.419320    0.001932
     2.660728    4.160972    8.923345
   Li   Mn   O 
     5    12    24
Direct configuration=    32
   0.57564639  0.71580678  0.16994747
   0.09367162  0.95430743  0.16447426
   0.75975700  0.62217161  0.50099015
   0.41109159  0.28718015  0.83345665
   0.23801893  0.37963728  0.49842548
   0.82839559  0.32903155  0.15624415
   0.51779409  0.99331132  0.00018238
   0.66868869  0.66654526  0.83362195
   0.16764440  0.66744446  0.33458670
   0.16796471  0.66598139  0.83300279
   0.99026111  0.50310634  0.99969628
   0.00329523  0.00382353  0.51008548
   0.32733814  0.32718333  0.15689307
   0.81787153  0.33635229  0.66485443
   0.50616874  0.00419120  0.51051548
   0.34759888  0.82952798  0.66975284
   0.66649465  0.16592659  0.33229391
   0.82262852  0.10074751  0.65282134
   0.12748421  0.43075403  0.82955898
   0.51032067  0.23214207  0.00968483
   0.52932207  0.76298420  0.99346764
   0.95417923  0.26168466  0.50392668
   0.38057377  0.07067734  0.16209757
   0.50561086  0.77844947  0.51685678
   0.00596766  0.28270439  0.01325724
   0.28286226  0.59100887  0.15957038
   0.67737304  0.94239430  0.36242534
   0.14689829  0.41554800  0.30481971
   0.33223550  0.05505184  0.65827608
   0.65069361  0.39031376  0.30272020
   0.64750145  0.89452143  0.83190593
   0.98392208  0.72546268  0.97841972
   0.35247970  0.60536864  0.68752476
   0.05292828  0.74361166  0.50856516
   0.18308087  0.91921353  0.36388147
   0.68658762  0.43316522  0.83517270
   0.21646279  0.89737226  0.83803883
   0.82782102  0.55522636  0.14881549
   0.82567182  0.09787328  0.15092193
   0.80887597  0.56865862  0.67490145
   0.50888169  0.23744020  0.51768310
LiMn2O4 Spinel Structure Relaxation     
            1
    -5.890641    0.050708   -0.132204
     0.002710   -8.419566    0.002027
     2.660799    4.161042    8.923285
   Li   Mn   O 
     5    12    24
Direct configuration=    33
   0.57564998  0.71581991  0.16994877
   0.09369106  0.95428958  0.16445063
   0.75977304  0.62216508  0.50099117
   0.41103781  0.28720281  0.83345446
   0.23798757  0.37965813  0.49845524
   0.82840754  0.32903048  0.15624897
   0.51779802  0.99334700  0.00019025
   0.66871702  0.66654540  0.83361867
   0.16764192  0.66746202  0.33460396
   0.16794851  0.66598837  0.83300656
   0.99029020  0.50309634  0.99969264
   0.00328639  0.00380869  0.51006841
   0.32735670  0.32717980  0.15690894
   0.81788630  0.33635550  0.66487289
   0.50615436  0.00417502  0.51050198
   0.34755651  0.82955142  0.66975755
   0.66646236  0.16590908  0.33226397
   0.82263518  0.10070751  0.65280198
   0.12749404  0.43072854  0.82954617
   0.51033804  0.23216907  0.00970179
   0.52934181  0.76301611  0.99346772
   0.95417274  0.26166781  0.50391254
   0.38057625  0.07067423  0.16209431
   0.50555336  0.77844122  0.51683808
   0.00597206  0.28270044  0.01326590
   0.28290541  0.59101532  0.15959175
   0.67735151  0.94238697  0.36241069
   0.14691004  0.41555387  0.30483376
   0.33220905  0.05504950  0.65826263
   0.65071542  0.39030842  0.30272092
   0.64748547  0.89451193  0.83188631
   0.98393719  0.72543859  0.97842064
   0.35246671  0.60538921  0.68752206
   0.05291053  0.74360755  0.50856997
   0.18306377  0.91923513  0.36389153
   0.68661068  0.43316318  0.83518378
   0.21646320  0.89740499  0.83805687
   0.82788815  0.55524168  0.14884315
   0.82567608  0.09788095  0.15092265
   0.80884719  0.56860440  0.67488539
   0.50889512  0.23742156  0.51767116
LiMn2O4 Spinel Structure Relaxation     
            1
    -5.891511    0.050663   -0.131928
     0.002652   -8.419136    0.001924
     2.660817    4.160957    8.922740
   Li   Mn   O 
     5    12    24
Direct configuration=    34
   0.57588166  0.71583021  0.17002900
   0.09375330  0.95426623  0.16428174
   0.75966781  0.62216674  0.50091899
   0.41064270  0.28732335  0.83343488
   0.23778369  0.37968418  0.49864968
   0.82869016  0.32921467  0.15651357
   0.51799470  0.99354056  0.00016149
   0.66853986  0.66652872  0.83357293
   0.16755454  0.66743150  0.33461991
   0.16805295  0.66602579  0.83296244
   0.99054789  0.50299509  0.99982696
   0.00305786  0.00381546  0.51000960
   0.32745845  0.32732467  0.15709305
   0.81784972  0.33601153  0.66473119
   0.50605290  0.00417849  0.51042829
   0.34740118  0.82959108  0.66969613
   0.66648137  0.16593956  0.33236217
   0.82249771  0.10042726  0.65270319
   0.12760490  0.43062361  0.82949761
   0.51056266  0.23243281  0.00983603
   0.52938154  0.76321550  0.99331617
   0.95401685  0.26155645  0.50381476
   0.38046138  0.07067867  0.16197433
   0.50495497  0.77840549  0.51666431
   0.00593155  0.28261367  0.01332363
   0.28314874  0.59102692  0.15972424
   0.67716773  0.94228641  0.36222361
   0.14716085  0.41554410  0.30494108
   0.33217413  0.05504337  0.65817614
   0.65098172  0.39030765  0.30276012
   0.64735648  0.89439603  0.83172309
   0.98388072  0.72528114  0.97848406
   0.35256561  0.60567354  0.68755210
   0.05262373  0.74357115  0.50864380
   0.18294543  0.91932015  0.36383455
   0.68676889  0.43325495  0.83526214
   0.21637280  0.89766695  0.83814147
   0.82844085  0.55527779  0.14906066
   0.82576698  0.09800930  0.15095711
   0.80881036  0.56830488  0.67481939
   0.50907696  0.23711721  0.51761117
LiMn2O4 Spinel Structure Relaxation     
            1
    -5.891608    0.050658   -0.131897
     0.002646   -8.419088    0.001912
     2.660819    4.160947    8.922679
   Li   Mn   O 
     5    12    24
Direct configuration=    35
   0.57590762  0.71583136  0.17003799
   0.09376027  0.95426361  0.16426281
   0.75965602  0.62216692  0.50091091
   0.41059845  0.28733686  0.83343269
   0.23776085  0.37968710  0.49867147
   0.82872182  0.32923530  0.15654322
   0.51801673  0.99356225  0.00015827
   0.66852002  0.66652686  0.83356780
   0.16754475  0.66742808  0.33462170
   0.16806465  0.66602998  0.83295750
   0.99057675  0.50298375  0.99984201
   0.00303226  0.00381622  0.51000302
   0.32746985  0.32734090  0.15711367
   0.81784562  0.33597299  0.66471531
   0.50604153  0.00417887  0.51042003
   0.34738378  0.82959552  0.66968924
   0.66648350  0.16594297  0.33237318
   0.82248231  0.10039586  0.65269212
   0.12761732  0.43061185  0.82949217
   0.51058782  0.23246236  0.00985106
   0.52938599  0.76323784  0.99329919
   0.95399939  0.26154397  0.50380380
   0.38044851  0.07067917  0.16196089
   0.50488794  0.77840149  0.51664484
   0.00592702  0.28260395  0.01333010
   0.28317600  0.59102822  0.15973909
   0.67714714  0.94227514  0.36220265
   0.14718895  0.41554300  0.30495311
   0.33217022  0.05504268  0.65816645
   0.65101155  0.39030756  0.30276451
   0.64734203  0.89438305  0.83170480
   0.98387440  0.72526350  0.97849116
   0.35257669  0.60570539  0.68755547
   0.05259161  0.74356707  0.50865207
   0.18293217  0.91932968  0.36382816
   0.68678662  0.43326523  0.83527091
   0.21636267  0.89769630  0.83815095
   0.82850276  0.55528183  0.14908503
   0.82577716  0.09802368  0.15096097
   0.80880623  0.56827132  0.67481200
   0.50909733  0.23708311  0.51760444
LiMn2O4 Spinel Structure Relaxation     
            1
    -5.891468    0.051263   -0.131883
     0.003528   -8.418412    0.001398
     2.660321    4.160879    8.921987
   Li   Mn   O 
     5    12    24
Direct configuration=    36
   0.57619145  0.71577423  0.17009454
   0.09371745  0.95433098  0.16416610
   0.75938426  0.62220510  0.50083996
   0.41043111  0.28736423  0.83343244
   0.23771189  0.37960264  0.49875479
   0.82886545  0.32925412  0.15667596
   0.51807497  0.99366331  0.00007668
   0.66862179  0.66641894  0.83353260
   0.16748208  0.66743699  0.33464597
   0.16799781  0.66608248  0.83297509
   0.99061997  0.50295010  0.99981124
   0.00296267  0.00375199  0.50993610
   0.32760325  0.32739520  0.15713344
   0.81787344  0.33592782  0.66480225
   0.50579308  0.00402358  0.51031098
   0.34733644  0.82964097  0.66965875
   0.66640201  0.16593212  0.33235501
   0.82229404  0.10025302  0.65269246
   0.12765814  0.43063073  0.82949123
   0.51079498  0.23269047  0.00997229
   0.52928471  0.76324855  0.99323880
   0.95399896  0.26148815  0.50380312
   0.38052902  0.07079511  0.16191614
   0.50459690  0.77832443  0.51650446
   0.00601310  0.28255905  0.01343728
   0.28324772  0.59098901  0.15978248
   0.67704535  0.94220521  0.36209370
   0.14745323  0.41550067  0.30509630
   0.33221778  0.05509825  0.65815270
   0.65119651  0.39041543  0.30293094
   0.64733549  0.89439453  0.83160386
   0.98376548  0.72520555  0.97847702
   0.35261723  0.60574475  0.68750564
   0.05237712  0.74356563  0.50865066
   0.18283314  0.91932427  0.36373204
   0.68681955  0.43326322  0.83528195
   0.21634808  0.89776285  0.83811999
   0.82871756  0.55535770  0.14924171
   0.82587692  0.09811664  0.15100928
   0.80891715  0.56822789  0.67480876
   0.50905701  0.23698692  0.51759207
LiMn2O4 Spinel Structure Relaxation     
            1
    -5.891394    0.051580   -0.131876
     0.003990   -8.418059    0.001129
     2.660062    4.160843    8.921625
   Li   Mn   O 
     5    12    24
Direct configuration=    37
   0.57633967  0.71574440  0.17012408
   0.09369509  0.95436616  0.16411559
   0.75924234  0.62222503  0.50080291
   0.41034372  0.28737852  0.83343232
   0.23768631  0.37955853  0.49879830
   0.82894046  0.32926395  0.15674528
   0.51810539  0.99371610  0.00003408
   0.66867493  0.66636259  0.83351420
   0.16744935  0.66744164  0.33465865
   0.16796290  0.66610990  0.83298428
   0.99064253  0.50293252  0.99979516
   0.00292633  0.00371845  0.50990115
   0.32767292  0.32742356  0.15714376
   0.81788797  0.33590422  0.66484766
   0.50566333  0.00394246  0.51025403
   0.34731173  0.82966471  0.66964283
   0.66635945  0.16592645  0.33234553
   0.82219571  0.10017841  0.65269263
   0.12767946  0.43064060  0.82949073
   0.51090318  0.23280961  0.01003562
   0.52923183  0.76325414  0.99320725
   0.95399873  0.26145899  0.50380276
   0.38057108  0.07085566  0.16189278
   0.50444491  0.77828416  0.51643114
   0.00605805  0.28253560  0.01349326
   0.28328517  0.59096853  0.15980514
   0.67699218  0.94216868  0.36203679
   0.14759124  0.41547858  0.30517108
   0.33224263  0.05512727  0.65814553
   0.65129311  0.39047177  0.30301786
   0.64733207  0.89440053  0.83155114
   0.98370859  0.72517528  0.97846963
   0.35263840  0.60576530  0.68747961
   0.05226510  0.74356488  0.50864992
   0.18278142  0.91932144  0.36368183
   0.68683675  0.43326217  0.83528772
   0.21634047  0.89779761  0.83810382
   0.82882974  0.55539733  0.14932354
   0.82592902  0.09816520  0.15103450
   0.80897508  0.56820522  0.67480707
   0.50903595  0.23693669  0.51758560
LiMn2O4 Spinel Structure Relaxation     
            1
    -5.891401    0.052156   -0.131754
     0.004817   -8.418282    0.000872
     2.659482    4.160964    8.921236
   Li   Mn   O 
     5    12    24
Direct configuration=    38
   0.57665954  0.71565850  0.17015934
   0.09362695  0.95448379  0.16403436
   0.75887997  0.62226748  0.50073328
   0.41024910  0.28738374  0.83344289
   0.23770064  0.37942816  0.49885256
   0.82921148  0.32936164  0.15692154
   0.51816403  0.99371546  0.99995999
   0.66854462  0.66640958  0.83345722
   0.16733892  0.66736130  0.33464047
   0.16801289  0.66619129  0.83296856
   0.99069048  0.50289877  0.99988574
   0.00274886  0.00367374  0.50985445
   0.32786528  0.32753313  0.15724929
   0.81784927  0.33576990  0.66479663
   0.50560129  0.00391381  0.51014036
   0.34723803  0.82963699  0.66963620
   0.66634096  0.16594172  0.33237160
   0.82201306  0.10006210  0.65266958
   0.12771697  0.43068879  0.82952563
   0.51110048  0.23299247  0.01008903
   0.52911575  0.76322696  0.99316045
   0.95399568  0.26139349  0.50388153
   0.38063406  0.07097277  0.16182359
   0.50426927  0.77813018  0.51629010
   0.00617948  0.28253818  0.01357423
   0.28329531  0.59092709  0.15979506
   0.67688271  0.94209582  0.36196163
   0.14782483  0.41542074  0.30529131
   0.33222972  0.05517836  0.65813950
   0.65142765  0.39059371  0.30319691
   0.64741938  0.89443712  0.83147975
   0.98368271  0.72521939  0.97848836
   0.35263051  0.60570679  0.68742670
   0.05211757  0.74361313  0.50862269
   0.18262612  0.91928805  0.36356225
   0.68676951  0.43316949  0.83529596
   0.21635487  0.89782201  0.83804388
   0.82896978  0.55546337  0.14943100
   0.82599230  0.09817354  0.15105218
   0.80913423  0.56823483  0.67481155
   0.50896003  0.23692541  0.51761939
LiMn2O4 Spinel Structure Relaxation     
            1
    -5.891402    0.052284   -0.131727
     0.005001   -8.418332    0.000815
     2.659354    4.160991    8.921149
   Li   Mn   O 
     5    12    24
Direct configuration=    39
   0.57673046  0.71563946  0.17016716
   0.09361185  0.95450987  0.16401635
   0.75879962  0.62227688  0.50071784
   0.41022812  0.28738490  0.83344524
   0.23770381  0.37939926  0.49886459
   0.82927158  0.32938331  0.15696063
   0.51817704  0.99371532  0.99994356
   0.66851573  0.66642000  0.83344458
   0.16731443  0.66734349  0.33463643
   0.16802398  0.66620934  0.83296507
   0.99070111  0.50289129  0.99990583
   0.00270951  0.00366383  0.50984410
   0.32790793  0.32755743  0.15727269
   0.81784069  0.33574012  0.66478532
   0.50558754  0.00390746  0.51011516
   0.34722169  0.82963085  0.66963474
   0.66633686  0.16594511  0.33237738
   0.82197256  0.10003631  0.65266447
   0.12772529  0.43069948  0.82953337
   0.51114423  0.23303301  0.01010088
   0.52909001  0.76322094  0.99315007
   0.95399500  0.26137896  0.50389900
   0.38064803  0.07099874  0.16180825
   0.50423032  0.77809604  0.51625883
   0.00620640  0.28253875  0.01359219
   0.28329756  0.59091790  0.15979282
   0.67685843  0.94207966  0.36194497
   0.14787662  0.41540792  0.30531797
   0.33222686  0.05518969  0.65813816
   0.65145748  0.39062075  0.30323661
   0.64743874  0.89444523  0.83146392
   0.98367697  0.72522917  0.97849251
   0.35262876  0.60569381  0.68741496
   0.05208486  0.74362383  0.50861665
   0.18259168  0.91928065  0.36353573
   0.68675459  0.43314894  0.83529779
   0.21635806  0.89782742  0.83803059
   0.82900083  0.55547801  0.14945483
   0.82600633  0.09817539  0.15105610
   0.80916953  0.56824139  0.67481255
   0.50894320  0.23692291  0.51762688
LiMn2O4 Spinel Structure Relaxation     
            1
    -5.891095    0.052520   -0.131516
     0.005338   -8.417780    0.000974
     2.658748    4.160443    8.920097
   Li   Mn   O 
     5    12    24
Direct configuration=    40
   0.57700344  0.71553955  0.17016619
   0.09354523  0.95463923  0.16394989
   0.75843591  0.62231829  0.50067536
   0.41020309  0.28738198  0.83346216
   0.23776414  0.37925203  0.49889765
   0.82942937  0.32941417  0.15706780
   0.51828726  0.99377928  0.99996586
   0.66854953  0.66640470  0.83340206
   0.16727458  0.66732045  0.33463971
   0.16796786  0.66617726  0.83295371
   0.99065202  0.50292021  0.99987811
   0.00264809  0.00360333  0.50982503
   0.32816845  0.32766448  0.15739405
   0.81779776  0.33581528  0.66485646
   0.50546127  0.00387370  0.51005423
   0.34716341  0.82960252  0.66952661
   0.66636738  0.16597497  0.33239434
   0.82183318  0.09995204  0.65260827
   0.12769477  0.43075939  0.82958525
   0.51136950  0.23312694  0.01015643
   0.52899210  0.76321862  0.99312169
   0.95399185  0.26127257  0.50395845
   0.38068496  0.07108897  0.16174654
   0.50410501  0.77799052  0.51615298
   0.00636040  0.28258597  0.01367975
   0.28332762  0.59090647  0.15979891
   0.67674226  0.94203611  0.36188010
   0.14803002  0.41535687  0.30541081
   0.33212754  0.05513246  0.65807306
   0.65157631  0.39069820  0.30337438
   0.64750969  0.89447061  0.83141414
   0.98367059  0.72529048  0.97849662
   0.35255779  0.60560273  0.68735159
   0.05200996  0.74368789  0.50858263
   0.18242206  0.91924613  0.36346080
   0.68670247  0.43308373  0.83530661
   0.21641257  0.89784930  0.83798219
   0.82908191  0.55550784  0.14954960
   0.82600674  0.09815216  0.15105149
   0.80927519  0.56825677  0.67483572
   0.50886100  0.23694859  0.51764952
