   2   2   0   0
  0.3784348E+02  0.4230000E-09  0.4230000E-09  0.4230000E-09  0.5000000E-15
   1.0000000000000000E-004
  CAR 
 unknown system                          
      8.49934590     -3.25467340  301      0.48955032      1.00000000
     -3.255  0.0000E+00  0.0000E+00
     -3.215  0.0000E+00  0.0000E+00
     -3.176  0.0000E+00  0.0000E+00
     -3.137  0.0000E+00  0.0000E+00
     -3.098  0.0000E+00  0.0000E+00
     -3.059  0.0000E+00  0.0000E+00
     -3.020  0.0000E+00  0.0000E+00
     -2.980  0.1428E-13  0.5596E-15
     -2.941  0.3130E-10  0.1227E-11
     -2.902  0.2064E-07  0.8099E-09
     -2.863  0.4134E-05  0.1628E-06
     -2.824  0.2550E-03  0.1015E-04
     -2.785  0.4933E-02  0.2034E-03
     -2.745  0.3058E-01  0.1401E-02
     -2.706  0.6194E-01  0.3828E-02
     -2.667  0.4163E-01  0.5459E-02
     -2.628  0.1717E-01  0.6132E-02
     -2.589  0.8765E-01  0.9566E-02
     -2.549  0.3030E+00  0.2144E-01
     -2.510  0.3470E+00  0.3503E-01
     -2.471  0.1344E+00  0.4030E-01
     -2.432  0.8060E-01  0.4346E-01
     -2.393  0.3845E+00  0.5852E-01
     -2.354  0.7468E+00  0.8778E-01
     -2.314  0.4797E+00  0.1066E+00
     -2.275  0.1137E+00  0.1110E+00
     -2.236  0.1354E+00  0.1163E+00
     -2.197  0.4197E+00  0.1328E+00
     -2.158  0.4508E+00  0.1504E+00
     -2.118  0.1618E+00  0.1568E+00
     -2.079  0.5709E-01  0.1590E+00
     -2.040  0.2114E+00  0.1673E+00
     -2.001  0.3754E+00  0.1820E+00
     -1.962  0.2224E+00  0.1907E+00
     -1.923  0.9355E-01  0.1944E+00
     -1.883  0.4606E+00  0.2124E+00
     -1.844  0.1334E+01  0.2647E+00
     -1.805  0.1280E+01  0.3149E+00
     -1.766  0.4182E+00  0.3312E+00
     -1.727  0.2457E+00  0.3409E+00
     -1.687  0.9657E+00  0.3787E+00
     -1.648  0.1493E+01  0.4372E+00
     -1.609  0.7622E+00  0.4670E+00
     -1.570  0.1272E+00  0.4720E+00
     -1.531  0.6812E-02  0.4723E+00
     -1.492  0.1170E-03  0.4723E+00
     -1.452  0.3112E-03  0.4723E+00
     -1.413  0.1187E-01  0.4728E+00
     -1.374  0.1435E+00  0.4784E+00
     -1.335  0.5609E+00  0.5004E+00
     -1.296  0.7204E+00  0.5286E+00
     -1.256  0.3131E+00  0.5409E+00
     -1.217  0.1949E+00  0.5485E+00
     -1.178  0.9347E+00  0.5851E+00
     -1.139  0.1862E+01  0.6581E+00
     -1.100  0.1227E+01  0.7062E+00
     -1.061  0.3092E+00  0.7183E+00
     -1.021  0.4405E+00  0.7355E+00
     -0.982  0.1299E+01  0.7864E+00
     -0.943  0.1317E+01  0.8380E+00
     -0.904  0.4536E+00  0.8558E+00
     -0.865  0.2557E+00  0.8658E+00
     -0.826  0.9743E+00  0.9040E+00
     -0.786  0.1491E+01  0.9624E+00
     -0.747  0.7554E+00  0.9920E+00
     -0.708  0.1552E+00  0.9981E+00
     -0.669  0.2197E+00  0.1007E+01
     -0.630  0.4849E+00  0.1026E+01
     -0.590  0.3648E+00  0.1040E+01
     -0.551  0.1250E+00  0.1045E+01
     -0.512  0.3746E+00  0.1060E+01
     -0.473  0.1237E+01  0.1108E+01
     -0.434  0.1370E+01  0.1162E+01
     -0.395  0.5250E+00  0.1182E+01
     -0.355  0.4417E+00  0.1200E+01
     -0.316  0.1871E+01  0.1273E+01
     -0.277  0.2994E+01  0.1390E+01
     -0.238  0.1583E+01  0.1452E+01
     -0.199  0.2737E+00  0.1463E+01
     -0.159  0.1519E-01  0.1464E+01
     -0.120  0.2672E-03  0.1464E+01
     -0.081  0.2784E-03  0.1464E+01
     -0.042  0.9002E-02  0.1464E+01
     -0.003  0.9284E-01  0.1468E+01
      0.036  0.3104E+00  0.1480E+01
      0.076  0.3422E+00  0.1493E+01
      0.115  0.1555E+00  0.1499E+01
      0.154  0.4582E+00  0.1517E+01
      0.193  0.2003E+01  0.1596E+01
      0.232  0.2969E+01  0.1712E+01
      0.272  0.1462E+01  0.1769E+01
      0.311  0.4191E+00  0.1786E+01
      0.350  0.1141E+01  0.1830E+01
      0.389  0.2234E+01  0.1918E+01
      0.428  0.1465E+01  0.1975E+01
      0.467  0.3916E+00  0.1991E+01
      0.507  0.6033E+00  0.2014E+01
      0.546  0.1426E+01  0.2070E+01
      0.585  0.1153E+01  0.2115E+01
      0.624  0.3433E+00  0.2129E+01
      0.663  0.4065E+00  0.2145E+01
      0.703  0.1253E+01  0.2194E+01
      0.742  0.1358E+01  0.2247E+01
      0.781  0.5240E+00  0.2268E+01
      0.820  0.5651E+00  0.2290E+01
      0.859  0.2133E+01  0.2373E+01
      0.898  0.2930E+01  0.2488E+01
      0.938  0.1340E+01  0.2540E+01
      0.977  0.3747E+00  0.2555E+01
      1.016  0.9123E+00  0.2591E+01
      1.055  0.1501E+01  0.2650E+01
      1.094  0.8225E+00  0.2682E+01
      1.133  0.1476E+00  0.2688E+01
      1.173  0.8503E-02  0.2688E+01
      1.212  0.4678E-03  0.2688E+01
      1.251  0.1438E-01  0.2689E+01
      1.290  0.2208E+00  0.2697E+01
      1.329  0.1171E+01  0.2743E+01
      1.369  0.2180E+01  0.2829E+01
      1.408  0.1444E+01  0.2885E+01
      1.447  0.5736E+00  0.2908E+01
      1.486  0.1140E+01  0.2952E+01
      1.525  0.1736E+01  0.3020E+01
      1.564  0.1044E+01  0.3061E+01
      1.604  0.2859E+00  0.3072E+01
      1.643  0.2717E+00  0.3083E+01
      1.682  0.1045E+01  0.3124E+01
      1.721  0.1502E+01  0.3183E+01
      1.760  0.9626E+00  0.3221E+01
      1.800  0.1160E+01  0.3266E+01
      1.839  0.2093E+01  0.3348E+01
      1.878  0.2153E+01  0.3432E+01
      1.917  0.1463E+01  0.3490E+01
      1.956  0.2692E+01  0.3595E+01
      1.995  0.3673E+01  0.3739E+01
      2.035  0.1765E+01  0.3808E+01
      2.074  0.4492E+00  0.3826E+01
      2.113  0.8993E+00  0.3861E+01
      2.152  0.1502E+01  0.3920E+01
      2.191  0.8404E+00  0.3953E+01
      2.231  0.1540E+00  0.3959E+01
      2.270  0.9068E-02  0.3959E+01
      2.309  0.6913E-03  0.3959E+01
      2.348  0.2123E-01  0.3960E+01
      2.387  0.2774E+00  0.3971E+01
      2.426  0.1233E+01  0.4019E+01
      2.466  0.2027E+01  0.4099E+01
      2.505  0.1370E+01  0.4152E+01
      2.544  0.5583E+00  0.4174E+01
      2.583  0.1161E+01  0.4220E+01
      2.622  0.2438E+01  0.4315E+01
      2.662  0.1783E+01  0.4385E+01
      2.701  0.6526E+00  0.4411E+01
      2.740  0.1098E+01  0.4454E+01
      2.779  0.1712E+01  0.4521E+01
      2.818  0.9744E+00  0.4559E+01
      2.857  0.4582E+00  0.4577E+01
      2.897  0.1116E+01  0.4621E+01
      2.936  0.1449E+01  0.4677E+01
      2.975  0.6370E+00  0.4702E+01
      3.014  0.2592E+00  0.4712E+01
      3.053  0.8889E+00  0.4747E+01
      3.092  0.1503E+01  0.4806E+01
      3.132  0.8938E+00  0.4841E+01
      3.171  0.7969E+00  0.4872E+01
      3.210  0.2598E+01  0.4974E+01
      3.249  0.3677E+01  0.5118E+01
      3.288  0.2173E+01  0.5203E+01
      3.328  0.1362E+01  0.5257E+01
      3.367  0.2448E+01  0.5353E+01
      3.406  0.3446E+01  0.5488E+01
      3.445  0.2299E+01  0.5578E+01
      3.484  0.6185E+00  0.5602E+01
      3.523  0.2365E+00  0.5611E+01
      3.563  0.6335E+00  0.5636E+01
      3.602  0.8870E+00  0.5671E+01
      3.641  0.5395E+00  0.5692E+01
      3.680  0.2819E+00  0.5703E+01
      3.719  0.5940E+00  0.5726E+01
      3.759  0.7102E+00  0.5754E+01
      3.798  0.3354E+00  0.5767E+01
      3.837  0.5557E+00  0.5789E+01
      3.876  0.1683E+01  0.5855E+01
      3.915  0.1814E+01  0.5926E+01
      3.954  0.8584E+00  0.5960E+01
      3.994  0.1078E+01  0.6002E+01
      4.033  0.1490E+01  0.6060E+01
      4.072  0.8029E+00  0.6092E+01
      4.111  0.7278E+00  0.6120E+01
      4.150  0.1714E+01  0.6187E+01
      4.190  0.2250E+01  0.6276E+01
      4.229  0.1754E+01  0.6344E+01
      4.268  0.8084E+00  0.6376E+01
      4.307  0.1309E+01  0.6427E+01
      4.346  0.3136E+01  0.6550E+01
      4.385  0.2797E+01  0.6660E+01
      4.425  0.9255E+00  0.6696E+01
      4.464  0.3746E+00  0.6711E+01
      4.503  0.1094E+01  0.6754E+01
      4.542  0.1573E+01  0.6815E+01
      4.581  0.1542E+01  0.6876E+01
      4.621  0.2729E+01  0.6982E+01
      4.660  0.3477E+01  0.7119E+01
      4.699  0.2502E+01  0.7217E+01
      4.738  0.1084E+01  0.7259E+01
      4.777  0.1183E+01  0.7306E+01
      4.816  0.2662E+01  0.7410E+01
      4.856  0.2424E+01  0.7505E+01
      4.895  0.7890E+00  0.7536E+01
      4.934  0.9811E-01  0.7540E+01
      4.973  0.6126E-01  0.7542E+01
      5.012  0.1230E+00  0.7547E+01
      5.052  0.8649E-01  0.7550E+01
      5.091  0.3000E-01  0.7551E+01
      5.130  0.1015E+00  0.7555E+01
      5.169  0.3189E+00  0.7568E+01
      5.208  0.3346E+00  0.7581E+01
      5.247  0.1189E+00  0.7586E+01
      5.287  0.4579E-01  0.7587E+01
      5.326  0.1218E+00  0.7592E+01
      5.365  0.3381E+00  0.7605E+01
      5.404  0.1083E+01  0.7648E+01
      5.443  0.1771E+01  0.7717E+01
      5.482  0.1434E+01  0.7773E+01
      5.522  0.8246E+00  0.7806E+01
      5.561  0.1275E+01  0.7856E+01
      5.600  0.3405E+01  0.7989E+01
      5.639  0.3968E+01  0.8145E+01
      5.678  0.2159E+01  0.8229E+01
      5.718  0.1116E+01  0.8273E+01
      5.757  0.1862E+01  0.8346E+01
      5.796  0.2755E+01  0.8454E+01
      5.835  0.1816E+01  0.8525E+01
      5.874  0.9511E+00  0.8562E+01
      5.913  0.1990E+01  0.8640E+01
      5.953  0.2595E+01  0.8742E+01
      5.992  0.1290E+01  0.8792E+01
      6.031  0.7283E+00  0.8821E+01
      6.070  0.1503E+01  0.8880E+01
      6.109  0.1739E+01  0.8948E+01
      6.149  0.1102E+01  0.8991E+01
      6.188  0.3904E+00  0.9006E+01
      6.227  0.6388E-01  0.9009E+01
      6.266  0.1325E+00  0.9014E+01
      6.305  0.7698E+00  0.9044E+01
      6.344  0.1494E+01  0.9103E+01
      6.384  0.9570E+00  0.9140E+01
      6.423  0.2149E+00  0.9149E+01
      6.462  0.1832E+00  0.9156E+01
      6.501  0.6992E+00  0.9183E+01
      6.540  0.1047E+01  0.9224E+01
      6.580  0.6259E+00  0.9249E+01
      6.619  0.4331E+00  0.9266E+01
      6.658  0.1344E+01  0.9318E+01
      6.697  0.2166E+01  0.9403E+01
      6.736  0.1338E+01  0.9456E+01
      6.775  0.8261E+00  0.9488E+01
      6.815  0.1435E+01  0.9544E+01
      6.854  0.1166E+01  0.9590E+01
      6.893  0.3152E+00  0.9602E+01
      6.932  0.2758E-01  0.9603E+01
      6.971  0.7643E-03  0.9603E+01
      7.011  0.6575E-05  0.9603E+01
      7.050  0.8337E-06  0.9603E+01
      7.089  0.1561E-03  0.9604E+01
      7.128  0.9436E-02  0.9604E+01
      7.167  0.1855E+00  0.9611E+01
      7.206  0.1226E+01  0.9659E+01
      7.246  0.2797E+01  0.9769E+01
      7.285  0.2238E+01  0.9856E+01
      7.324  0.6254E+00  0.9881E+01
      7.363  0.5972E-01  0.9883E+01
      7.402  0.1890E-02  0.9883E+01
      7.441  0.1920E-04  0.9883E+01
      7.481  0.6103E-07  0.9883E+01
      7.520  0.5951E-10  0.9883E+01
      7.559  0.1784E-13  0.9883E+01
      7.598  0.6609E-16  0.9883E+01
      7.637  0.2519E-12  0.9883E+01
      7.677  0.4918E-09  0.9883E+01
      7.716  0.2891E-06  0.9883E+01
      7.755  0.5169E-04  0.9883E+01
      7.794  0.2851E-02  0.9883E+01
      7.833  0.4955E-01  0.9885E+01
      7.872  0.2824E+00  0.9897E+01
      7.912  0.6091E+00  0.9920E+01
      7.951  0.7971E+00  0.9952E+01
      7.990  0.8024E+00  0.9983E+01
      8.029  0.3707E+00  0.9998E+01
      8.068  0.5927E-01  0.1000E+02
      8.108  0.3061E-02  0.1000E+02
      8.147  0.4961E-04  0.1000E+02
      8.186  0.2477E-06  0.1000E+02
      8.225  0.3756E-09  0.1000E+02
      8.264  0.1713E-12  0.1000E+02
      8.303  0.0000E+00  0.1000E+02
      8.343  0.0000E+00  0.1000E+02
      8.382  0.0000E+00  0.1000E+02
      8.421  0.0000E+00  0.1000E+02
      8.460  0.0000E+00  0.1000E+02
      8.499  0.0000E+00  0.1000E+02
