       N       E                     dE             d eps       ncg     rms          ort
SDA:   1    -0.205260666488E+02   -0.20526E+02    0.00000E+00   968   0.463E+00 0.000E+00
CGA:   2    -0.205996990032E+02   -0.73632E-01   -0.73764E-01   968   0.139E+00 0.754E-03
CGA:   3    -0.206407729312E+02   -0.41074E-01   -0.40851E-01   968   0.790E-01 0.213E-02
CGA:   4    -0.206558079634E+02   -0.15035E-01   -0.15045E-01   968   0.218E-01 0.321E-03
CGA:   5    -0.206621122854E+02   -0.63043E-02   -0.62770E-02   968   0.138E-01 0.258E-03
CGA:   6    -0.206654865454E+02   -0.33743E-02   -0.33706E-02   968   0.410E-02 0.492E-04
CGA:   7    -0.206666090376E+02   -0.11225E-02   -0.11235E-02   968   0.193E-02-0.185E-04
CGA:   8    -0.206670177777E+02   -0.40874E-03   -0.40870E-03   968   0.476E-03 0.241E-04
CGA:   9    -0.206671513911E+02   -0.13361E-03   -0.13437E-03   968   0.192E-03-0.114E-04
CGA:  10    -0.206671932156E+02   -0.41824E-04   -0.41770E-04   968   0.647E-04 0.633E-05
CGA:  11    -0.206672148276E+02   -0.21612E-04   -0.22099E-04   968   0.335E-04-0.423E-05
CGA:  12    -0.206672223425E+02   -0.75148E-05   -0.74944E-05   968   0.136E-04 0.110E-05
CGA:  13    -0.206672256576E+02   -0.33151E-05   -0.33188E-05   968   0.641E-05-0.226E-06
CGA:  14    -0.206672272932E+02   -0.16357E-05   -0.16744E-05   968   0.338E-05-0.896E-06
CGA:  15    -0.206672279581E+02   -0.66486E-06   -0.66528E-06   968   0.106E-05-0.971E-07
   1 F= -.20667228E+02 E0= -.20667228E+02  d E =-.433156E-17
