    1    1    1    1
  0.2159309E+02  0.3038404E-09  0.3038404E-09  0.3038404E-09  0.5000000E-15
   1.0000000000000000E-004
  CAR 
 EOS Calculation scale_1.060             
      5    165      6
 
  0.1262379E-14  0.1262379E-14  0.1262379E-14  0.2035416E-03
      1         -2.856144   1.000000
      2          4.974559   0.000000
      3          4.974562   0.000000
      4          4.974571   0.000000
      5          7.624316   0.000000
      6          7.624319   0.000000
 
  0.5882353E-01  0.1262123E-14  0.1262379E-14  0.2442499E-02
      1         -2.732774   1.000000
      2          4.898509   0.000000
      3          4.953621   0.000000
      4          5.093200   0.000000
      5          7.508360   0.000000
      6          7.626334   0.000000
 
  0.1176471E+00  0.1257360E-14  0.1262379E-14  0.2442499E-02
      1         -2.372513   1.000000
      2          4.689351   0.000000
      3          4.862310   0.000000
      4          5.445125   0.000000
      5          7.264616   0.000000
      6          7.638175   0.000000
 
  0.1764706E+00  0.1254511E-14  0.1262379E-14  0.2442499E-02
      1         -1.807562   1.000000
      2          4.393864   0.028839
      3          4.653020   0.000000
      4          6.017801   0.000000
      5          7.099019   0.000000
      6          7.673590   0.000000
 
  0.2352941E+00  0.1223794E-14  0.1262379E-14  0.2442499E-02
      1         -1.102083   1.000000
      2          4.066396   1.000000
      3          4.370896   0.105922
      4          6.787682   0.000000
      5          7.114298   0.000000
      6          7.745901   0.000000
 
  0.2941176E+00  0.1248701E-14  0.1262379E-14  0.2442499E-02
      1         -0.370906   1.000000
      2          3.754399   1.000000
      3          4.186697   0.999963
      4          7.257250   0.000000
      5          7.714083   0.000000
      6          7.859094   0.000000
 
  0.3529412E+00  0.1249076E-14  0.1262379E-14  0.2442499E-02
      1          0.217525   1.000000
      2          3.493389   1.000000
      3          4.292616   0.832875
      4          7.418025   0.000000
      5          8.000713   0.000000
      6          8.723921   0.000000
 
  0.4117647E+00  0.1260105E-14  0.1262379E-14  0.2442499E-02
      1          0.544137   1.000000
      2          3.307402   1.000000
      3          4.729379   0.000000
      4          7.488771   0.000000
      5          8.138374   0.000000
      6          9.676114   0.000000
 
  0.4705882E+00  0.1215510E-14  0.1262379E-14  0.2442499E-02
      1          0.659253   1.000000
      2          3.211002   1.000000
      3          5.198897   0.000000
      4          7.440985   0.000000
      5          8.225797   0.000000
      6         10.307717   0.000000
 
  0.5882353E-01  0.5882353E-01  0.1262379E-14  0.4884999E-02
      1         -2.490718   1.000000
      2          4.791990   0.000000
      3          4.848698   0.000000
      4          5.342960   0.000000
      5          7.312005   0.000000
      6          7.649663   0.000000
 
  0.1176471E+00  0.5882353E-01  0.1262379E-14  0.9769998E-02
      1         -2.026138   1.000000
      2          4.543110   0.000000
      3          4.687098   0.000000
      4          5.817938   0.000000
      5          7.077098   0.000000
      6          7.705684   0.000000
 
  0.1764706E+00  0.5882353E-01  0.1262379E-14  0.9769998E-02
      1         -1.383672   1.000000
      2          4.225765   0.997858
      3          4.434308   0.001175
      4          6.496606   0.000000
      5          6.988628   0.000000
      6          7.786367   0.000000
 
  0.2352941E+00  0.5882353E-01  0.1262379E-14  0.9769998E-02
      1         -0.647489   1.000000
      2          3.903460   1.000000
      3          4.179266   0.999985
      4          7.060936   0.000000
      5          7.368321   0.000000
      6          7.888137   0.000000
 
  0.2941176E+00  0.5882353E-01  0.1262379E-14  0.9769998E-02
      1          0.038774   1.000000
      2          3.618482   1.000000
      3          4.109731   1.000000
      4          7.249031   0.000000
      5          8.001670   0.000000
      6          8.343819   0.000000
 
  0.3529412E+00  0.5882353E-01  0.1262379E-14  0.9769998E-02
      1          0.505970   1.000000
      2          3.398743   1.000000
      3          4.372442   0.098141
      4          7.408562   0.000000
      5          8.122297   0.000000
      6          9.345127   0.000000
 
  0.4117647E+00  0.5882353E-01  0.1262379E-14  0.9769998E-02
      1          0.713773   1.000000
      2          3.260699   1.000000
      3          4.858093   0.000000
      4          7.429557   0.000000
      5          8.248607   0.000000
      6         10.173176   0.000000
 
  0.4705882E+00  0.5882353E-01  0.1262379E-14  0.4884999E-02
      1          0.763457   1.000000
      2          3.213668   1.000000
      3          5.127939   0.000000
      4          7.384478   0.000000
      5          8.312585   0.000000
      6         10.514926   0.000000
 
  0.1176471E+00  0.1176471E+00  0.1262379E-14  0.4884999E-02
      1         -1.478796   1.000000
      2          4.337376   0.381937
      3          4.393763   0.029028
      4          6.426767   0.000000
      5          6.893918   0.000000
      6          7.837024   0.000000
 
  0.1764706E+00  0.1176471E+00  0.1262379E-14  0.9769998E-02
      1         -0.785606   1.000000
      2          4.030134   1.000000
      3          4.123953   1.000000
      4          6.862219   0.000000
      5          7.229483   0.000000
      6          7.971040   0.000000
 
  0.2352941E+00  0.1176471E+00  0.1262379E-14  0.9769998E-02
      1         -0.049662   1.000000
      2          3.720139   1.000000
      3          3.947266   1.000000
      4          6.992598   0.000000
      5          8.061831   0.000000
      6          8.194597   0.000000
 
  0.2941176E+00  0.1176471E+00  0.1262379E-14  0.9769998E-02
      1          0.561144   1.000000
      2          3.488446   1.000000
      3          3.986136   1.000000
      4          7.200695   0.000000
      5          8.149282   0.000000
      6          9.207008   0.000000
 
  0.3529412E+00  0.1176471E+00  0.1262379E-14  0.9769998E-02
      1          0.903099   1.000000
      2          3.334124   1.000000
      3          4.322249   0.550704
      4          7.340378   0.000000
      5          8.250040   0.000000
      6         10.165786   0.000000
 
  0.4117647E+00  0.1176471E+00  0.1262379E-14  0.9769998E-02
      1          1.019052   1.000000
      2          3.255096   1.000000
      3          4.700897   0.000000
      4          7.325485   0.000000
      5          8.394359   0.000000
      6         10.802120   0.000000
 
  0.1764706E+00  0.1764706E+00  0.1262379E-14  0.4884999E-02
      1         -0.074793   1.000000
      2          3.731726   1.000000
      3          3.914090   1.000000
      4          6.875434   0.000000
      5          8.063284   0.000000
      6          8.188845   0.000000
 
  0.2352941E+00  0.1764706E+00  0.1262379E-14  0.9769998E-02
      1          0.631209   1.000000
      2          3.467604   1.000000
      3          3.818380   1.000000
      4          7.022453   0.000000
      5          8.166518   0.000000
      6          9.184348   0.000000
 
  0.2941176E+00  0.1764706E+00  0.1262379E-14  0.9769998E-02
      1          1.149793   1.000000
      2          3.333347   1.000000
      3          3.896895   1.000000
      4          7.226946   0.000000
      5          8.191876   0.000000
      6         10.243822   0.000000
 
  0.3529412E+00  0.1764706E+00  0.1262379E-14  0.9769998E-02
      1          1.382542   1.000000
      2          3.279218   1.000000
      3          4.166407   0.999997
      4          7.324700   0.000000
      5          8.309044   0.000000
      6         11.143963   0.000000
 
  0.4117647E+00  0.1764706E+00  0.1262379E-14  0.4884999E-02
      1          1.434256   1.000000
      2          3.261948   1.000000
      3          4.330502   0.457796
      4          7.315658   0.000000
      5          8.425453   0.000000
      6         11.538561   0.000000
 
  0.2352941E+00  0.2352941E+00  0.1262379E-14  0.4884999E-02
      1          1.279115   1.000000
      2          3.255019   1.000000
      3          3.787766   1.000000
      4          7.174025   0.000000
      5          8.159128   0.000000
      6         10.287105   0.000000
 
  0.2941176E+00  0.2352941E+00  0.1262379E-14  0.9769998E-02
      1          1.719280   1.000000
      2          3.196676   1.000000
      3          3.828524   1.000000
      4          7.378769   0.000000
      5          8.150979   0.000000
      6         11.372845   0.000000
 
  0.3529412E+00  0.2352941E+00  0.1262379E-14  0.9769998E-02
      1          1.883889   1.000000
      2          3.240229   1.000000
      3          3.903420   1.000000
      4          7.470181   0.000000
      5          8.274735   0.000000
      6         11.813493   0.000000
 
  0.2941176E+00  0.2941176E+00  0.1262379E-14  0.4884999E-02
      1          2.130812   1.000000
      2          3.188038   1.000000
      3          3.702323   1.000000
      4          7.634276   0.000000
      5          8.108352   0.000000
      6         11.644670   0.000000
 
  0.3529412E+00  0.2941176E+00  0.1262379E-14  0.4884999E-02
      1          2.266342   1.000000
      2          3.281325   1.000000
      3          3.574859   1.000000
      4          7.771887   0.000000
      5          8.117099   0.000000
      6         11.213310   0.000000
 
  0.5882353E-01  0.5882353E-01  0.5882353E-01  0.1628333E-02
      1         -2.140549   1.000000
      2          4.604651   0.000000
      3          4.604653   0.000000
      4          5.803591   0.000000
      5          7.429892   0.000000
      6          7.429894   0.000000
 
  0.1176471E+00  0.5882353E-01  0.5882353E-01  0.4884999E-02
      1         -1.587220   1.000000
      2          4.286788   0.870856
      3          4.370514   0.107916
      4          6.441925   0.000000
      5          7.258659   0.000000
      6          7.573101   0.000000
 
  0.1764706E+00  0.5882353E-01  0.5882353E-01  0.4884999E-02
      1         -0.887126   1.000000
      2          3.957693   1.000000
      3          4.104697   1.000000
      4          7.183823   0.000000
      5          7.303192   0.000000
      6          7.722155   0.000000
 
  0.2352941E+00  0.5882353E-01  0.5882353E-01  0.4884999E-02
      1         -0.146932   1.000000
      2          3.658715   1.000000
      3          3.931134   1.000000
      4          7.329451   0.000000
      5          7.875336   0.000000
      6          8.208007   0.000000
 
  0.2941176E+00  0.5882353E-01  0.5882353E-01  0.4884999E-02
      1          0.460874   1.000000
      2          3.416087   1.000000
      3          4.028513   1.000000
      4          7.474549   0.000000
      5          8.028291   0.000000
      6          9.215925   0.000000
 
  0.3529412E+00  0.5882353E-01  0.5882353E-01  0.4884999E-02
      1          0.796869   1.000000
      2          3.246292   1.000000
      3          4.455398   0.000137
      4          7.556395   0.000000
      5          8.161451   0.000000
      6         10.148859   0.000000
 
  0.4117647E+00  0.5882353E-01  0.5882353E-01  0.4884999E-02
      1          0.910749   1.000000
      2          3.159105   1.000000
      3          4.914649   0.000000
      4          7.536997   0.000000
      5          8.241876   0.000000
      6         10.757633   0.000000
 
 -0.5882353E-01  0.5882353E-01  0.5882353E-01  0.1221250E-02
      1         -2.610224   1.000000
      2          4.943165   0.000000
      3          4.943169   0.000000
      4          5.093039   0.000000
      5          7.263395   0.000000
      6          7.750416   0.000000
 
  0.1176471E+00  0.1176471E+00  0.5882353E-01  0.4884999E-02
      1         -0.967968   1.000000
      2          4.012855   1.000000
      3          4.031092   1.000000
      4          7.236599   0.000000
      5          7.275286   0.000000
      6          7.679951   0.000000
 
  0.1764706E+00  0.1176471E+00  0.5882353E-01  0.9769998E-02
      1         -0.234449   1.000000
      2          3.705505   1.000000
      3          3.783794   1.000000
      4          7.309968   0.000000
      5          7.864433   0.000000
      6          8.174160   0.000000
 
  0.2352941E+00  0.1176471E+00  0.5882353E-01  0.9769998E-02
      1          0.482274   1.000000
      2          3.449418   1.000000
      3          3.700175   1.000000
      4          7.429752   0.000000
      5          8.023763   0.000000
      6          9.198150   0.000000
 
  0.2941176E+00  0.1176471E+00  0.5882353E-01  0.9769998E-02
      1          0.985756   1.000000
      2          3.266566   1.000000
      3          3.927352   1.000000
      4          7.564337   0.000000
      5          8.146674   0.000000
      6         10.209652   0.000000
 
  0.3529412E+00  0.1176471E+00  0.5882353E-01  0.9769998E-02
      1          1.199649   1.000000
      2          3.155874   1.000000
      3          4.394479   0.027713
      4          7.617028   0.000000
      5          8.244894   0.000000
      6         11.023720   0.000000
 
  0.4117647E+00  0.1176471E+00  0.5882353E-01  0.4884999E-02
      1          1.246116   1.000000
      2          3.118701   1.000000
      3          4.654309   0.000000
      4          7.603708   0.000000
      5          8.292343   0.000000
      6         11.354660   0.000000
 
 -0.1176471E+00  0.1176471E+00  0.5882353E-01  0.4884999E-02
      1         -2.252384   1.000000
      2          4.777428   0.000000
      3          4.879157   0.000000
      4          5.406638   0.000000
      5          6.910173   0.000000
      6          7.850384   0.000000
 
  0.1764706E+00  0.1764706E+00  0.5882353E-01  0.4884999E-02
      1          0.502102   1.000000
      2          3.452566   1.000000
      3          3.579965   1.000000
      4          7.384736   0.000000
      5          8.042406   0.000000
      6          9.204633   0.000000
 
  0.2352941E+00  0.1764706E+00  0.5882353E-01  0.9769998E-02
      1          1.167871   1.000000
      2          3.269410   1.000000
      3          3.562377   1.000000
      4          7.518847   0.000000
      5          8.152744   0.000000
      6         10.279189   0.000000
 
  0.2941176E+00  0.1764706E+00  0.5882353E-01  0.9769998E-02
      1          1.555160   1.000000
      2          3.170291   1.000000
      3          3.833061   1.000000
      4          7.651779   0.000000
      5          8.215787   0.000000
      6         11.269286   0.000000
 
  0.3529412E+00  0.1764706E+00  0.5882353E-01  0.9769998E-02
      1          1.673568   1.000000
      2          3.123827   1.000000
      3          4.187361   0.999960
      4          7.690645   0.000000
      5          8.291263   0.000000
      6         11.857319   0.000000
 
 -0.1764706E+00  0.1764706E+00  0.5882353E-01  0.4884999E-02
      1         -1.691140   1.000000
      2          4.492297   0.000001
      3          4.687816   0.000000
      4          5.975813   0.000000
      5          6.679064   0.000000
      6          7.932365   0.000000
 
 -0.1176471E+00  0.1764706E+00  0.5882353E-01  0.4884999E-02
      1         -1.795005   1.000000
      2          4.669827   0.000000
      3          4.737506   0.000000
      4          5.783589   0.000000
      5          6.530461   0.000000
      6          8.000084   0.000000
 
  0.2352941E+00  0.2352941E+00  0.5882353E-01  0.4884999E-02
      1          1.752052   1.000000
      2          3.169629   1.000000
      3          3.566939   1.000000
      4          7.662524   0.000000
      5          8.191322   0.000000
      6         11.369334   0.000000
 
  0.2941176E+00  0.2352941E+00  0.5882353E-01  0.9769998E-02
      1          2.048307   1.000000
      2          3.167104   1.000000
      3          3.733967   1.000000
      4          7.803959   0.000000
      5          8.210463   0.000000
      6         11.600926   0.000000
 
  0.3529412E+00  0.2352941E+00  0.5882353E-01  0.4884999E-02
      1          2.112954   1.000000
      2          3.175691   1.000000
      3          3.859676   1.000000
      4          7.844375   0.000000
      5          8.255748   0.000000
      6         11.138215   0.000000
 
 -0.2352941E+00  0.2352941E+00  0.5882353E-01  0.4884999E-02
      1         -0.989528   1.000000
      2          4.172085   0.999994
      3          4.386362   0.045903
      4          6.687973   0.000000
      5          6.745884   0.000000
      6          8.013757   0.000000
 
 -0.1764706E+00  0.2352941E+00  0.5882353E-01  0.9769998E-02
      1         -1.162111   1.000000
      2          4.401936   0.016733
      3          4.486327   0.000003
      4          6.369626   0.000000
      5          6.442661   0.000000
      6          8.114530   0.000000
 
  0.2941176E+00  0.2941176E+00  0.5882353E-01  0.4884999E-02
      1          2.306119   1.000000
      2          3.309061   1.000000
      3          3.590548   1.000000
      4          7.995367   0.000000
      5          8.164626   0.000000
      6         10.851886   0.000000
 
 -0.2941176E+00  0.2941176E+00  0.5882353E-01  0.4884999E-02
      1         -0.259708   1.000000
      2          3.865761   1.000000
      3          4.152974   1.000000
      4          6.878484   0.000000
      5          7.674100   0.000000
      6          8.090728   0.000000
 
 -0.2352941E+00  0.2941176E+00  0.5882353E-01  0.9769998E-02
      1         -0.434104   1.000000
      2          4.066946   1.000000
      3          4.209537   0.999542
      4          6.482819   0.000000
      5          7.289976   0.000000
      6          8.193110   0.000000
 
 -0.1764706E+00  0.2941176E+00  0.5882353E-01  0.4884999E-02
      1         -0.491030   1.000000
      2          4.098953   1.000000
      3          4.295698   0.810143
      4          6.296389   0.000000
      5          7.171756   0.000000
      6          8.236120   0.000000
 
 -0.3529412E+00  0.3529412E+00  0.5882353E-01  0.4884999E-02
      1          0.331850   1.000000
      2          3.608959   1.000000
      3          4.186589   0.999963
      4          7.122067   0.000000
      5          8.169558   0.000000
      6          8.687318   0.000000
 
 -0.2941176E+00  0.3529412E+00  0.5882353E-01  0.9769998E-02
      1          0.252498   1.000000
      2          3.790112   1.000000
      3          4.040330   1.000000
      4          6.746358   0.000000
      5          8.159134   0.000000
      6          8.352764   0.000000
 
 -0.2352941E+00  0.3529412E+00  0.5882353E-01  0.9769998E-02
      1          0.229189   1.000000
      2          3.742921   1.000000
      3          4.142160   1.000000
      4          6.448625   0.000000
      5          7.998850   0.000000
      6          8.377497   0.000000
 
 -0.4117647E+00  0.4117647E+00  0.5882353E-01  0.4884999E-02
      1          0.661502   1.000000
      2          3.425748   1.000000
      3          4.533225   0.000000
      4          7.241507   0.000000
      5          8.316192   0.000000
      6          9.644665   0.000000
 
 -0.3529412E+00  0.4117647E+00  0.5882353E-01  0.9769998E-02
      1          0.728191   1.000000
      2          3.600822   1.000000
      3          4.136352   1.000000
      4          6.981980   0.000000
      5          8.307507   0.000000
      6          9.315947   0.000000
 
 -0.2941176E+00  0.4117647E+00  0.5882353E-01  0.9769998E-02
      1          0.846728   1.000000
      2          3.534674   1.000000
      3          4.035571   1.000000
      4          6.720972   0.000000
      5          8.186447   0.000000
      6          9.236532   0.000000
 
 -0.2352941E+00  0.4117647E+00  0.5882353E-01  0.4884999E-02
      1          0.908486   1.000000
      2          3.415316   1.000000
      3          4.096075   1.000000
      4          6.602392   0.000000
      5          8.121121   0.000000
      6          9.237568   0.000000
 
 -0.4705882E+00  0.4705882E+00  0.5882353E-01  0.4884999E-02
      1          0.776625   1.000000
      2          3.330718   1.000000
      3          4.921502   0.000000
      4          7.183223   0.000000
      5          8.506675   0.000000
      6         10.281496   0.000000
 
 -0.4117647E+00  0.4705882E+00  0.5882353E-01  0.9769998E-02
      1          0.939776   1.000000
      2          3.479738   1.000000
      3          4.457072   0.000114
      4          6.998792   0.000000
      5          8.574334   0.000000
      6         10.166189   0.000000
 
 -0.3529412E+00  0.4705882E+00  0.5882353E-01  0.9769998E-02
      1          1.207812   1.000000
      2          3.500214   1.000000
      3          4.063697   1.000000
      4          6.889729   0.000000
      5          8.355683   0.000000
      6         10.244901   0.000000
 
 -0.2941176E+00  0.4705882E+00  0.5882353E-01  0.9769998E-02
      1          1.457557   1.000000
      2          3.251938   1.000000
      3          4.023914   1.000000
      4          6.866537   0.000000
      5          8.103286   0.000000
      6         10.344183   0.000000
 
 -0.4705882E+00 -0.4705882E+00  0.5882353E-01  0.4884999E-02
      1          0.989112   1.000000
      2          3.437579   1.000000
      3          4.645975   0.000000
      4          6.937793   0.000000
      5          8.760318   0.000000
      6         10.522887   0.000000
 
 -0.4117647E+00 -0.4705882E+00  0.5882353E-01  0.9769998E-02
      1          1.330202   1.000000
      2          3.503805   1.000000
      3          4.202339   0.999783
      4          6.862188   0.000000
      5          8.678417   0.000000
      6         10.964248   0.000000
 
 -0.3529412E+00 -0.4705882E+00  0.5882353E-01  0.9769998E-02
      1          1.737960   1.000000
      2          3.327617   1.000000
      3          3.914641   1.000000
      4          7.011566   0.000000
      5          8.316867   0.000000
      6         11.366784   0.000000
 
 -0.2941176E+00 -0.4705882E+00  0.5882353E-01  0.4884999E-02
      1          1.983296   1.000000
      2          3.095806   1.000000
      3          3.874755   1.000000
      4          7.179579   0.000000
      5          8.058135   0.000000
      6         11.502984   0.000000
 
 -0.4117647E+00 -0.4117647E+00  0.5882353E-01  0.4884999E-02
      1          1.802198   1.000000
      2          3.444399   1.000000
      3          3.829118   1.000000
      4          7.019110   0.000000
      5          8.530525   0.000000
      6         11.914065   0.000000
 
 -0.3529412E+00 -0.4117647E+00  0.5882353E-01  0.9769998E-02
      1          2.263043   1.000000
      2          3.198381   1.000000
      3          3.591198   1.000000
      4          7.407857   0.000000
      5          8.182158   0.000000
      6         11.783635   0.000000
 
 -0.3529412E+00 -0.3529412E+00  0.5882353E-01  0.1628333E-02
      1          2.566266   1.000000
      2          3.247199   1.000000
      3          3.247204   1.000000
      4          7.877978   0.000000
      5          7.877981   0.000000
      6         11.427882   0.000000
 
  0.1176471E+00  0.1176471E+00  0.1176471E+00  0.1628333E-02
      1         -0.296279   1.000000
      2          3.708672   1.000000
      3          3.708672   1.000000
      4          7.607328   0.000000
      5          7.607329   0.000000
      6          8.185436   0.000000
 
  0.1764706E+00  0.1176471E+00  0.1176471E+00  0.4884999E-02
      1          0.460058   1.000000
      2          3.446724   1.000000
      3          3.488533   1.000000
      4          7.636418   0.000000
      5          7.872128   0.000000
      6          9.229207   0.000000
 
  0.2352941E+00  0.1176471E+00  0.1176471E+00  0.4884999E-02
      1          1.132453   1.000000
      2          3.251174   1.000000
      3          3.497824   1.000000
      4          7.723823   0.000000
      5          8.071643   0.000000
      6         10.292236   0.000000
 
  0.2941176E+00  0.1176471E+00  0.1176471E+00  0.4884999E-02
      1          1.503390   1.000000
      2          3.122259   1.000000
      3          3.862254   1.000000
      4          7.796761   0.000000
      5          8.209114   0.000000
      6         11.239053   0.000000
 
  0.3529412E+00  0.1176471E+00  0.1176471E+00  0.4884999E-02
      1          1.608660   1.000000
      2          3.058418   1.000000
      3          4.301274   0.764459
      4          7.807541   0.000000
      5          8.280908   0.000000
      6         11.835894   0.000000
 
 -0.1176471E+00  0.1176471E+00  0.1176471E+00  0.1221250E-02
      1         -1.901792   1.000000
      2          4.902964   0.000000
      3          4.902967   0.000000
      4          5.442532   0.000000
      5          6.356503   0.000000
      6          8.069678   0.000000
 
  0.1764706E+00  0.1764706E+00  0.1176471E+00  0.4884999E-02
      1          1.214220   1.000000
      2          3.255639   1.000000
      3          3.302216   1.000000
      4          7.788048   0.000000
      5          8.031019   0.000000
      6         10.334027   0.000000
 
  0.2352941E+00  0.1764706E+00  0.1176471E+00  0.9769998E-02
      1          1.812580   1.000000
      2          3.133785   1.000000
      3          3.377726   1.000000
      4          7.891262   0.000000
      5          8.179381   0.000000
      6         11.389998   0.000000
 
  0.2941176E+00  0.1764706E+00  0.1176471E+00  0.9769998E-02
      1          2.041845   1.000000
      2          3.064486   1.000000
      3          3.781328   1.000000
      4          7.953149   0.000000
      5          8.269824   0.000000
      6         11.595346   0.000000
 
  0.3529412E+00  0.1764706E+00  0.1176471E+00  0.4884999E-02
      1          2.075554   1.000000
      2          3.042158   1.000000
      3          4.030348   1.000000
      4          7.960650   0.000000
      5          8.306505   0.000000
      6         11.122661   0.000000
 
 -0.1764706E+00  0.1764706E+00  0.1176471E+00  0.4884999E-02
      1         -1.352202   1.000000
      2          4.750464   0.000000
      3          4.798225   0.000000
      4          5.897516   0.000000
      5          5.960157   0.000000
      6          8.215050   0.000000
 
  0.2352941E+00  0.2352941E+00  0.1176471E+00  0.4884999E-02
      1          2.294394   1.000000
      2          3.141510   1.000000
      3          3.415867   1.000000
      4          8.022885   0.000000
      5          8.243875   0.000000
      6         11.495789   0.000000
 
  0.2941176E+00  0.2352941E+00  0.1176471E+00  0.9769998E-02
      1          2.433125   1.000000
      2          3.162458   1.000000
      3          3.650135   1.000000
      4          8.101639   0.000000
      5          8.279209   0.000000
      6         10.670453   0.000000
 
 -0.2352941E+00  0.2352941E+00  0.1176471E+00  0.4884999E-02
      1         -0.664095   1.000000
      2          4.432827   0.001349
      3          4.474084   0.000015
      4          5.979620   0.000000
      5          6.643830   0.000000
      6          8.292641   0.000000
 
 -0.1764706E+00  0.2352941E+00  0.1176471E+00  0.4884999E-02
      1         -0.740398   1.000000
      2          4.549356   0.000000
      3          4.709410   0.000000
      4          5.696983   0.000000
      5          6.392501   0.000000
      6          8.332756   0.000000
 
  0.2941176E+00  0.2941176E+00  0.1176471E+00  0.1628333E-02
      1          2.543839   1.000000
      2          3.424961   1.000000
      3          3.424965   1.000000
      4          8.227170   0.000000
      5          8.227171   0.000000
      6         10.299494   0.000000
 
 -0.2941176E+00  0.2941176E+00  0.1176471E+00  0.4884999E-02
      1          0.057951   1.000000
      2          4.054176   1.000000
      3          4.191874   0.999932
      4          6.264666   0.000000
      5          7.568149   0.000000
      6          8.313835   0.000000
 
 -0.2352941E+00  0.2941176E+00  0.1176471E+00  0.9769998E-02
      1         -0.034376   1.000000
      2          4.090967   1.000000
      3          4.527509   0.000000
      4          5.859758   0.000000
      5          7.183703   0.000000
      6          8.361430   0.000000
 
 -0.3529412E+00  0.3529412E+00  0.1176471E+00  0.4884999E-02
      1          0.655500   1.000000
      2          3.906468   1.000000
      3          3.950561   1.000000
      4          6.585038   0.000000
      5          8.370626   0.000000
      6          8.586527   0.000000
 
 -0.2941176E+00  0.3529412E+00  0.1176471E+00  0.9769998E-02
      1          0.644205   1.000000
      2          3.724314   1.000000
      3          4.313205   0.649237
      4          6.205555   0.000000
      5          8.036067   0.000000
      6          8.469555   0.000000
 
 -0.2352941E+00  0.3529412E+00  0.1176471E+00  0.4884999E-02
      1          0.647712   1.000000
      2          3.652521   1.000000
      3          4.502428   0.000000
      4          6.013893   0.000000
      5          7.856390   0.000000
      6          8.490528   0.000000
 
 -0.4117647E+00  0.4117647E+00  0.1176471E+00  0.4884999E-02
      1          0.992888   1.000000
      2          3.776917   1.000000
      3          4.059570   1.000000
      4          6.686674   0.000000
      5          8.674525   0.000000
      6          9.556244   0.000000
 
 -0.3529412E+00  0.4117647E+00  0.1176471E+00  0.9769998E-02
      1          1.132019   1.000000
      2          3.617309   1.000000
      3          4.132349   1.000000
      4          6.453373   0.000000
      5          8.408280   0.000000
      6          9.307322   0.000000
 
 -0.2941176E+00  0.4117647E+00  0.1176471E+00  0.9769998E-02
      1          1.262237   1.000000
      2          3.336245   1.000000
      3          4.371280   0.103948
      4          6.337411   0.000000
      5          8.047805   0.000000
      6          9.309459   0.000000
 
 -0.4705882E+00  0.4705882E+00  0.1176471E+00  0.4884999E-02
      1          1.106747   1.000000
      2          3.686495   1.000000
      3          4.305865   0.722696
      4          6.583774   0.000000
      5          9.118662   0.000000
      6         10.207210   0.000000
 
 -0.4117647E+00  0.4705882E+00  0.1176471E+00  0.9769998E-02
      1          1.348730   1.000000
      2          3.751100   1.000000
      3          4.014764   1.000000
      4          6.421729   0.000000
      5          8.930388   0.000000
      6         10.201729   0.000000
 
 -0.3529412E+00  0.4705882E+00  0.1176471E+00  0.9769998E-02
      1          1.654223   1.000000
      2          3.293770   1.000000
      3          4.163124   0.999998
      4          6.532924   0.000000
      5          8.350068   0.000000
      6         10.377727   0.000000
 
 -0.2941176E+00  0.4705882E+00  0.1176471E+00  0.4884999E-02
      1          1.832089   1.000000
      2          3.051334   1.000000
      3          4.217357   0.999013
      4          6.695946   0.000000
      5          8.007458   0.000000
      6         10.448095   0.000000
 
 -0.4705882E+00 -0.4705882E+00  0.1176471E+00  0.4884999E-02
      1          1.395475   1.000000
      2          3.857372   1.000000
      3          3.974499   1.000000
      4          6.346459   0.000000
      5          9.277562   0.000000
      6         10.612135   0.000000
 
 -0.4117647E+00 -0.4705882E+00  0.1176471E+00  0.9769998E-02
      1          1.784347   1.000000
      2          3.514500   1.000000
      3          3.902716   1.000000
      4          6.522545   0.000000
      5          8.852832   0.000000
      6         11.256555   0.000000
 
 -0.3529412E+00 -0.4705882E+00  0.1176471E+00  0.9769998E-02
      1          2.203557   1.000000
      2          3.040606   1.000000
      3          3.872258   1.000000
      4          6.991119   0.000000
      5          8.253819   0.000000
      6         11.572591   0.000000
 
 -0.4117647E+00 -0.4117647E+00  0.1176471E+00  0.4884999E-02
      1          2.284663   1.000000
      2          3.284770   1.000000
      3          3.539787   1.000000
      4          7.055904   0.000000
      5          8.514398   0.000000
      6         12.105245   0.000000
 
 -0.3529412E+00 -0.4117647E+00  0.1176471E+00  0.4884999E-02
      1          2.738573   1.000000
      2          2.932785   1.000000
      3          3.377787   1.000000
      4          7.571877   0.000000
      5          8.105964   0.000000
      6         11.843504   0.000000
 
  0.1764706E+00  0.1764706E+00  0.1764706E+00  0.1628333E-02
      1          1.976545   1.000000
      2          3.128659   1.000000
      3          3.128659   1.000000
      4          8.071294   0.000000
      5          8.071295   0.000000
      6         11.445387   0.000000
 
  0.2352941E+00  0.1764706E+00  0.1764706E+00  0.4884999E-02
      1          2.476154   1.000000
      2          3.056342   1.000000
      3          3.275760   1.000000
      4          8.124381   0.000000
      5          8.242763   0.000000
      6         11.466912   0.000000
 
  0.2941176E+00  0.1764706E+00  0.1764706E+00  0.4884999E-02
      1          2.543099   1.000000
      2          3.024490   1.000000
      3          3.686797   1.000000
      4          8.148169   0.000000
      5          8.321339   0.000000
      6         10.616291   0.000000
 
 -0.1764706E+00  0.1764706E+00  0.1764706E+00  0.1221250E-02
      1         -0.823282   1.000000
      2          4.971588   0.000000
      3          4.971590   0.000000
      4          5.221156   0.000000
      5          6.004041   0.000000
      6          8.371417   0.000000
 
  0.2352941E+00  0.2352941E+00  0.1764706E+00  0.4884999E-02
      1          2.820796   1.000000
      2          3.145338   1.000000
      3          3.322787   1.000000
      4          8.243090   0.000000
      5          8.303735   0.000000
      6         10.434810   0.000000
 
  0.2941176E+00  0.2352941E+00  0.1764706E+00  0.4884999E-02
      1          2.836509   1.000000
      2          3.170844   1.000000
      3          3.496647   1.000000
      4          8.273639   0.000000
      5          8.332942   0.000000
      6         10.027524   0.000000
 
 -0.2352941E+00  0.2352941E+00  0.1764706E+00  0.4884999E-02
      1         -0.164008   1.000000
      2          4.444086   0.000452
      3          4.905077   0.000000
      4          5.348700   0.000000
      5          6.568010   0.000000
      6          8.397259   0.000000
 
 -0.2941176E+00  0.2941176E+00  0.1764706E+00  0.4884999E-02
      1          0.530496   1.000000
      2          3.869575   1.000000
      3          4.703162   0.000000
      4          5.754511   0.000000
      5          7.439837   0.000000
      6          8.349014   0.000000
 
 -0.2352941E+00  0.2941176E+00  0.1764706E+00  0.4884999E-02
      1          0.494129   1.000000
      2          3.930816   1.000000
      3          4.972747   0.000000
      4          5.500917   0.000000
      5          7.146069   0.000000
      6          8.345359   0.000000
 
 -0.3529412E+00  0.3529412E+00  0.1764706E+00  0.4884999E-02
      1          1.120686   1.000000
      2          3.526724   1.000000
      3          4.501236   0.000000
      4          6.093841   0.000000
      5          8.447451   0.000000
      6          8.448918   0.000000
 
 -0.2941176E+00  0.3529412E+00  0.1764706E+00  0.9769998E-02
      1          1.131090   1.000000
      2          3.446350   1.000000
      3          4.852541   0.000000
      4          5.878448   0.000000
      5          7.872728   0.000000
      6          8.469298   0.000000
 
 -0.4117647E+00  0.4117647E+00  0.1764706E+00  0.4884999E-02
      1          1.461097   1.000000
      2          3.486402   1.000000
      3          4.348869   0.265829
      4          6.122499   0.000000
      5          8.999722   0.000000
      6          9.427248   0.000000
 
 -0.3529412E+00  0.4117647E+00  0.1764706E+00  0.9769998E-02
      1          1.610115   1.000000
      2          3.184581   1.000000
      3          4.666193   0.000000
      4          6.118014   0.000000
      5          8.364008   0.000000
      6          9.317396   0.000000
 
 -0.2941176E+00  0.4117647E+00  0.1764706E+00  0.4884999E-02
      1          1.687129   1.000000
      2          3.053627   1.000000
      3          4.759348   0.000000
      4          6.260037   0.000000
      5          7.952352   0.000000
      6          9.336431   0.000000
 
 -0.4705882E+00  0.4705882E+00  0.1764706E+00  0.4884999E-02
      1          1.565441   1.000000
      2          3.611077   1.000000
      3          4.268080   0.951499
      4          5.978128   0.000000
      5          9.765117   0.000000
      6         10.096780   0.000000
 
 -0.4117647E+00  0.4705882E+00  0.1764706E+00  0.9769998E-02
      1          1.818180   1.000000
      2          3.209360   1.000000
      3          4.484045   0.000004
      4          6.076777   0.000000
      5          9.096962   0.000000
      6         10.315631   0.000000
 
 -0.3529412E+00  0.4705882E+00  0.1764706E+00  0.9769998E-02
      1          2.084804   1.000000
      2          2.863247   1.000000
      3          4.467373   0.000035
      4          6.596061   0.000000
      5          8.287417   0.000000
      6         10.478598   0.000000
 
 -0.4705882E+00 -0.4705882E+00  0.1764706E+00  0.4884999E-02
      1          1.851741   1.000000
      2          3.293157   1.000000
      3          4.393271   0.029961
      4          6.016289   0.000000
      5          9.547575   0.000000
      6         10.899323   0.000000
 
 -0.4117647E+00 -0.4705882E+00  0.1764706E+00  0.9769998E-02
      1          2.195323   1.000000
      2          2.958964   1.000000
      3          4.181951   0.999979
      4          6.675831   0.000000
      5          8.869369   0.000000
      6         11.562567   0.000000
 
 -0.3529412E+00 -0.4705882E+00  0.1764706E+00  0.4884999E-02
      1          2.500587   1.000000
      2          2.666937   1.000000
      3          4.060944   1.000000
      4          7.255049   0.000000
      5          8.304300   0.000000
      6         11.676987   0.000000
 
 -0.4117647E+00 -0.4117647E+00  0.1764706E+00  0.4884999E-02
      1          2.547590   1.000000
      2          2.776945   1.000000
      3          3.819814   1.000000
      4          7.531755   0.000000
      5          8.397980   0.000000
      6         12.077535   0.000000
 
  0.2352941E+00  0.2352941E+00  0.2352941E+00  0.1628333E-02
      1          3.155496   1.000000
      2          3.155496   1.000000
      3          3.295542   1.000000
      4          8.341678   0.000000
      5          8.341679   0.000000
      6          9.796460   0.000000
 
 -0.2352941E+00  0.2352941E+00  0.2352941E+00  0.1221250E-02
      1          0.443547   1.000000
      2          4.090098   1.000000
      3          5.259359   0.000000
      4          5.259361   0.000000
      5          6.741288   0.000000
      6          8.331142   0.000000
 
 -0.2941176E+00  0.2941176E+00  0.2352941E+00  0.4884999E-02
      1          1.064738   1.000000
      2          3.537603   1.000000
      3          5.320168   0.000000
      4          5.594028   0.000000
      5          7.380621   0.000000
      6          8.217524   0.000000
 
 -0.3529412E+00  0.3529412E+00  0.2352941E+00  0.4884999E-02
      1          1.588736   1.000000
      2          3.105776   1.000000
      3          5.224833   0.000000
      4          5.889034   0.000000
      5          8.312933   0.000000
      6          8.397040   0.000000
 
 -0.2941176E+00  0.3529412E+00  0.2352941E+00  0.4884999E-02
      1          1.582141   1.000000
      2          3.080072   1.000000
      3          5.423985   0.000000
      4          5.950901   0.000000
      5          7.850128   0.000000
      6          8.371085   0.000000
 
 -0.4117647E+00  0.4117647E+00  0.2352941E+00  0.4884999E-02
      1          1.890446   1.000000
      2          2.923491   1.000000
      3          5.119485   0.000000
      4          5.863168   0.000000
      5          9.191126   0.000000
      6          9.281606   0.000000
 
 -0.3529412E+00  0.4117647E+00  0.2352941E+00  0.9769998E-02
      1          1.962246   1.000000
      2          2.740669   1.000000
      3          5.271407   0.000000
      4          6.289216   0.000000
      5          8.291337   0.000000
      6          9.291934   0.000000
 
 -0.4705882E+00  0.4705882E+00  0.2352941E+00  0.4884999E-02
      1          1.955711   1.000000
      2          2.954709   1.000000
      3          5.057870   0.000000
      4          5.718881   0.000000
      5          9.967059   0.000000
      6         10.285452   0.000000
 
 -0.4117647E+00  0.4705882E+00  0.2352941E+00  0.9769998E-02
      1          2.103735   1.000000
      2          2.647823   1.000000
      3          5.080013   0.000000
      4          6.350262   0.000000
      5          9.095484   0.000000
      6         10.431353   0.000000
 
 -0.3529412E+00  0.4705882E+00  0.2352941E+00  0.4884999E-02
      1          2.228520   1.000000
      2          2.469067   1.000000
      3          4.994998   0.000000
      4          6.983550   0.000000
      5          8.411697   0.000000
      6         10.501280   0.000000
 
 -0.4705882E+00 -0.4705882E+00  0.2352941E+00  0.4884999E-02
      1          2.098170   1.000000
      2          2.680003   1.000000
      3          4.993295   0.000000
      4          6.338777   0.000000
      5          9.568374   0.000000
      6         11.293744   0.000000
 
 -0.4117647E+00 -0.4705882E+00  0.2352941E+00  0.9769998E-02
      1          2.260215   1.000000
      2          2.449000   1.000000
      3          4.782416   0.000000
      4          7.330076   0.000000
      5          8.814063   0.000000
      6         11.746146   0.000000
 
 -0.4117647E+00 -0.4117647E+00  0.2352941E+00  0.1628333E-02
      1          2.350142   1.000000
      2          2.350144   1.000000
      3          4.657135   0.000000
      4          8.239339   0.000000
      5          8.239340   0.000000
      6         12.189897   0.000000
 
 -0.2941176E+00  0.2941176E+00  0.2941176E+00  0.1221250E-02
      1          1.544020   1.000000
      2          3.095196   1.000000
      3          5.837818   0.000000
      4          5.837820   0.000000
      5          7.593070   0.000000
      6          8.075252   0.000000
 
 -0.3529412E+00  0.3529412E+00  0.2941176E+00  0.4884999E-02
      1          1.886735   1.000000
      2          2.683776   1.000000
      3          6.039394   0.000000
      4          6.157978   0.000000
      5          8.259527   0.000000
      6          8.309522   0.000000
 
 -0.4117647E+00  0.4117647E+00  0.2941176E+00  0.4884999E-02
      1          2.052578   1.000000
      2          2.429228   1.000000
      3          6.050474   0.000000
      4          6.187023   0.000000
      5          9.149721   0.000000
      6          9.267271   0.000000
 
 -0.3529412E+00  0.4117647E+00  0.2941176E+00  0.4884999E-02
      1          2.039969   1.000000
      2          2.348197   1.000000
      3          6.044057   0.000000
      4          6.801845   0.000000
      5          8.453047   0.000000
      6          9.236347   0.000000
 
 -0.4705882E+00  0.4705882E+00  0.2941176E+00  0.4884999E-02
      1          2.037828   1.000000
      2          2.390722   1.000000
      3          6.029394   0.000000
      4          6.104810   0.000000
      5          9.836563   0.000000
      6         10.617526   0.000000
 
 -0.4117647E+00  0.4705882E+00  0.2941176E+00  0.9769998E-02
      1          2.054017   1.000000
      2          2.180311   1.000000
      3          5.924755   0.000000
      4          7.153727   0.000000
      5          9.069900   0.000000
      6         10.487137   0.000000
 
 -0.4705882E+00 -0.4705882E+00  0.2941176E+00  0.4884999E-02
      1          2.002496   1.000000
      2          2.174277   1.000000
      3          5.872080   0.000000
      4          7.219344   0.000000
      5          9.495499   0.000000
      6         11.614423   0.000000
 
 -0.4117647E+00 -0.4705882E+00  0.2941176E+00  0.4884999E-02
      1          2.030281   1.000000
      2          2.055044   1.000000
      3          5.801120   0.000000
      4          8.089981   0.000000
      5          8.880068   0.000000
      6         11.848132   0.000000
 
 -0.3529412E+00  0.3529412E+00  0.3529412E+00  0.1221250E-02
      1          1.973586   1.000000
      2          2.307667   1.000000
      3          6.738075   0.000000
      4          6.738076   0.000000
      5          8.461616   0.000000
      6          8.463617   0.000000
 
 -0.4117647E+00  0.4117647E+00  0.3529412E+00  0.4884999E-02
      1          1.945960   1.000000
      2          2.036759   1.000000
      3          7.045832   0.000000
      4          7.064901   0.000000
      5          9.079454   0.000000
      6          9.351592   0.000000
 
 -0.4705882E+00  0.4705882E+00  0.3529412E+00  0.4884999E-02
      1          1.855883   1.000000
      2          1.949172   1.000000
      3          7.079721   0.000000
      4          7.142829   0.000000
      5          9.722944   0.000000
      6         10.791984   0.000000
 
 -0.4117647E+00  0.4705882E+00  0.3529412E+00  0.4884999E-02
      1          1.832824   1.000000
      2          1.841691   1.000000
      3          7.069943   0.000000
      4          7.986238   0.000000
      5          9.239199   0.000000
      6         10.541247   0.000000
 
 -0.4705882E+00 -0.4705882E+00  0.3529412E+00  0.4884999E-02
      1          1.763535   1.000000
      2          1.799055   1.000000
      3          7.057354   0.000000
      4          8.326208   0.000000
      5          9.410487   0.000000
      6         11.809677   0.000000
 
 -0.4117647E+00  0.4117647E+00  0.4117647E+00  0.1221250E-02
      1          1.765945   1.000000
      2          1.766121   1.000000
      3          7.949332   0.000000
      4          7.949333   0.000000
      5          9.202999   0.000000
      6          9.774138   0.000000
 
 -0.4705882E+00  0.4705882E+00  0.4117647E+00  0.4884999E-02
      1          1.628596   1.000000
      2          1.649134   1.000000
      3          8.319002   0.000000
      4          8.325770   0.000000
      5          9.642677   0.000000
      6         10.914894   0.000000
 
 -0.4705882E+00 -0.4705882E+00  0.4117647E+00  0.1628333E-02
      1          1.568609   1.000000
      2          1.568610   1.000000
      3          8.370523   0.000000
      4          9.348607   0.000000
      5          9.348613   0.000000
      6         11.903005   0.000000
 
 -0.4705882E+00  0.4705882E+00  0.4705882E+00  0.1221250E-02
      1          1.490933   1.000000
      2          1.496869   1.000000
      3          9.326318   0.000000
      4          9.326320   0.000000
      5          9.641527   0.000000
      6         11.212600   0.000000
