 running    1 mpi-ranks, with    2 threads/rank, on    1 nodes
 distrk:  each k-point on    1 cores,    1 groups
 distr:  one band on    1 cores,    1 groups
 OpenACC runtime initialized ...    1 GPUs detected
 vasp.6.4.2 20Jul23 (build Mar  2 2025 11:04:54) complex                         
 POSCAR found type information on POSCAR Ta
 POSCAR found :  1 types and       1 ions
 scaLAPACK will be used selectively (only on CPU)
 LDA part: xc-table for Pade appr. of Perdew
 -----------------------------------------------------------------------------
|                                                                             |
|           W    W    AA    RRRRR   N    N  II  N    N   GGGG   !!!           |
|           W    W   A  A   R    R  NN   N  II  NN   N  G    G  !!!           |
|           W    W  A    A  R    R  N N  N  II  N N  N  G       !!!           |
|           W WW W  AAAAAA  RRRRR   N  N N  II  N  N N  G  GGG   !            |
|           WW  WW  A    A  R   R   N   NN  II  N   NN  G    G                |
|           W    W  A    A  R    R  N    N  II  N    N   GGGG   !!!           |
|                                                                             |
|     The requested file  could not be found or opened for reading            |
|     k-point information. Automatic k-point generation is used as a          |
|     fallback, which may lead to unwanted results.                           |
|                                                                             |
 -----------------------------------------------------------------------------

 POSCAR, INCAR and KPOINTS ok, starting setup
 FFT: planning ... GRIDC
 FFT: planning ... GRID_SOFT
 FFT: planning ... GRID
 WAVECAR not read
 entering main loop
       N       E                     dE             d eps       ncg     rms          rms(c)
DAV:   1    -0.203144511060E+01   -0.20314E+01   -0.16316E+03  1992   0.513E+02
DAV:   2    -0.121589394616E+02   -0.10127E+02   -0.96214E+01  3630   0.726E+01
DAV:   3    -0.122187975771E+02   -0.59858E-01   -0.59635E-01  2040   0.757E+00
DAV:   4    -0.122190367392E+02   -0.23916E-03   -0.23916E-03  2808   0.341E-01
DAV:   5    -0.122190369521E+02   -0.21288E-06   -0.21322E-06  2028   0.930E-03    0.993E+00
DAV:   6    -0.117287748252E+02    0.49026E+00   -0.42752E-01  2316   0.459E+00    0.442E+00
DAV:   7    -0.115480507411E+02    0.18072E+00   -0.48841E-01  2340   0.474E+00    0.640E-01
DAV:   8    -0.115474968083E+02    0.55393E-03   -0.26713E-03  2082   0.471E-01    0.124E-01
DAV:   9    -0.115471659660E+02    0.33084E-03   -0.91472E-04  2544   0.210E-01    0.266E-02
DAV:  10    -0.115471569083E+02    0.90577E-05   -0.30614E-05  2124   0.411E-02    0.151E-02
DAV:  11    -0.115471552138E+02    0.16945E-05   -0.77220E-07  1422   0.729E-03    0.425E-04
DAV:  12    -0.115471551300E+02    0.83847E-07   -0.38272E-08  1032   0.153E-03
   1 F= -.11547155E+02 E0= -.11546208E+02  d E =-.189505E-02
Warning: ieee_invalid is signaling
Warning: ieee_divide_by_zero is signaling
Warning: ieee_underflow is signaling
Warning: ieee_inexact is signaling
FORTRAN STOP
