   1   1   0   0
  0.1641551E+02  0.2852702E-09  0.2852703E-09  0.2852703E-09  0.5000000E-15
   1.0000000000000000E-004
  CAR 
 Rh FCC EOS static single-point          
     28.40389894      0.09491430  301      8.75273620      1.00000000
      0.095  0.0000E+00  0.0000E+00
      0.189  0.0000E+00  0.0000E+00
      0.284  0.0000E+00  0.0000E+00
      0.378  0.0000E+00  0.0000E+00
      0.472 -0.2169E-30 -0.2047E-31
      0.567 -0.3459E-27 -0.3266E-28
      0.661 -0.3519E-24 -0.3324E-25
      0.755 -0.2285E-21 -0.2160E-22
      0.850 -0.9474E-19 -0.8962E-20
      0.944 -0.2427E-16 -0.2299E-17
      1.039 -0.4090E-14 -0.3882E-15
      1.133 -0.4390E-12 -0.4181E-13
      1.227 -0.3014E-10 -0.2886E-11
      1.322 -0.1328E-08 -0.1282E-09
      1.416 -0.3778E-07 -0.3693E-08
      1.510 -0.6983E-06 -0.6959E-07
      1.605 -0.8428E-05 -0.8649E-06
      1.699 -0.6603E-04 -0.7096E-05
      1.793 -0.3239E-03 -0.3766E-04
      1.888 -0.8795E-03 -0.1207E-03
      1.982 -0.6181E-03 -0.1790E-03
      2.077  0.3657E-02  0.1661E-03
      2.171  0.1327E-01  0.1418E-02
      2.265  0.2505E-01  0.3782E-02
      2.360  0.3874E-01  0.7438E-02
      2.454  0.5194E-01  0.1234E-01
      2.548  0.5424E-01  0.1746E-01
      2.643  0.5464E-01  0.2261E-01
      2.737  0.7150E-01  0.2936E-01
      2.831  0.8981E-01  0.3784E-01
      2.926  0.8873E-01  0.4621E-01
      3.020  0.7705E-01  0.5348E-01
      3.115  0.8291E-01  0.6130E-01
      3.209  0.1170E+00  0.7234E-01
      3.303  0.1434E+00  0.8587E-01
      3.398  0.1344E+00  0.9855E-01
      3.492  0.1094E+00  0.1089E+00
      3.586  0.1124E+00  0.1195E+00
      3.681  0.1638E+00  0.1349E+00
      3.775  0.2085E+00  0.1546E+00
      3.869  0.2132E+00  0.1747E+00
      3.964  0.2816E+00  0.2013E+00
      4.058  0.5233E+00  0.2507E+00
      4.153  0.8721E+00  0.3330E+00
      4.247  0.1178E+01  0.4441E+00
      4.341  0.1406E+01  0.5768E+00
      4.436  0.1655E+01  0.7329E+00
      4.530  0.1970E+01  0.9188E+00
      4.624  0.2240E+01  0.1130E+01
      4.719  0.2369E+01  0.1354E+01
      4.813  0.2309E+01  0.1572E+01
      4.907  0.2125E+01  0.1772E+01
      5.002  0.1977E+01  0.1959E+01
      5.096  0.1849E+01  0.2133E+01
      5.191  0.1693E+01  0.2293E+01
      5.285  0.1560E+01  0.2440E+01
      5.379  0.1465E+01  0.2578E+01
      5.474  0.1453E+01  0.2716E+01
      5.568  0.1568E+01  0.2863E+01
      5.662  0.1686E+01  0.3023E+01
      5.757  0.1707E+01  0.3184E+01
      5.851  0.1681E+01  0.3342E+01
      5.945  0.1676E+01  0.3500E+01
      6.040  0.1735E+01  0.3664E+01
      6.134  0.1837E+01  0.3837E+01
      6.229  0.1884E+01  0.4015E+01
      6.323  0.1872E+01  0.4192E+01
      6.417  0.1992E+01  0.4380E+01
      6.512  0.2342E+01  0.4601E+01
      6.606  0.2789E+01  0.4864E+01
      6.700  0.3135E+01  0.5160E+01
      6.795  0.3135E+01  0.5456E+01
      6.889  0.2661E+01  0.5707E+01
      6.983  0.2025E+01  0.5898E+01
      7.078  0.1679E+01  0.6056E+01
      7.172  0.1618E+01  0.6209E+01
      7.267  0.1587E+01  0.6359E+01
      7.361  0.1603E+01  0.6510E+01
      7.455  0.1730E+01  0.6673E+01
      7.550  0.1822E+01  0.6845E+01
      7.644  0.1821E+01  0.7017E+01
      7.738  0.1845E+01  0.7191E+01
      7.833  0.1964E+01  0.7376E+01
      7.927  0.2142E+01  0.7578E+01
      8.021  0.2197E+01  0.7786E+01
      8.116  0.1938E+01  0.7969E+01
      8.210  0.1551E+01  0.8115E+01
      8.305  0.1445E+01  0.8251E+01
      8.399  0.1652E+01  0.8407E+01
      8.493  0.1792E+01  0.8576E+01
      8.588  0.1662E+01  0.8733E+01
      8.682  0.1558E+01  0.8880E+01
      8.776  0.1731E+01  0.9044E+01
      8.871  0.2070E+01  0.9239E+01
      8.965  0.2433E+01  0.9469E+01
      9.059  0.2683E+01  0.9722E+01
      9.154  0.2612E+01  0.9968E+01
      9.248  0.2175E+01  0.1017E+02
      9.343  0.1606E+01  0.1032E+02
      9.437  0.1152E+01  0.1043E+02
      9.531  0.8085E+00  0.1051E+02
      9.626  0.4997E+00  0.1056E+02
      9.720  0.2681E+00  0.1058E+02
      9.814  0.1474E+00  0.1060E+02
      9.909  0.9881E-01  0.1061E+02
     10.003  0.8512E-01  0.1061E+02
     10.097  0.1084E+00  0.1062E+02
     10.192  0.2219E+00  0.1064E+02
     10.286  0.4065E+00  0.1068E+02
     10.381  0.5055E+00  0.1073E+02
     10.475  0.4391E+00  0.1077E+02
     10.569  0.3121E+00  0.1080E+02
     10.664  0.2241E+00  0.1082E+02
     10.758  0.1660E+00  0.1084E+02
     10.852  0.1232E+00  0.1085E+02
     10.947  0.1412E+00  0.1086E+02
     11.041  0.2381E+00  0.1089E+02
     11.135  0.3580E+00  0.1092E+02
     11.230  0.4307E+00  0.1096E+02
     11.324  0.4010E+00  0.1100E+02
     11.419  0.2966E+00  0.1103E+02
     11.513  0.2151E+00  0.1105E+02
     11.607  0.1797E+00  0.1106E+02
     11.702  0.1715E+00  0.1108E+02
     11.796  0.2349E+00  0.1110E+02
     11.890  0.3467E+00  0.1113E+02
     11.985  0.3643E+00  0.1117E+02
     12.079  0.2794E+00  0.1120E+02
     12.173  0.2381E+00  0.1122E+02
     12.268  0.2863E+00  0.1124E+02
     12.362  0.3361E+00  0.1128E+02
     12.457  0.3224E+00  0.1131E+02
     12.551  0.2647E+00  0.1133E+02
     12.645  0.2120E+00  0.1135E+02
     12.740  0.1881E+00  0.1137E+02
     12.834  0.1968E+00  0.1139E+02
     12.928  0.2537E+00  0.1141E+02
     13.023  0.3144E+00  0.1144E+02
     13.117  0.2857E+00  0.1147E+02
     13.211  0.2277E+00  0.1149E+02
     13.306  0.2622E+00  0.1152E+02
     13.400  0.3309E+00  0.1155E+02
     13.495  0.3167E+00  0.1158E+02
     13.589  0.2293E+00  0.1160E+02
     13.683  0.1538E+00  0.1161E+02
     13.778  0.1463E+00  0.1163E+02
     13.872  0.1761E+00  0.1164E+02
     13.966  0.1860E+00  0.1166E+02
     14.061  0.1997E+00  0.1168E+02
     14.155  0.2416E+00  0.1170E+02
     14.249  0.2641E+00  0.1173E+02
     14.344  0.2451E+00  0.1175E+02
     14.438  0.2166E+00  0.1177E+02
     14.532  0.1839E+00  0.1179E+02
     14.627  0.1377E+00  0.1180E+02
     14.721  0.1237E+00  0.1181E+02
     14.816  0.1683E+00  0.1183E+02
     14.910  0.2100E+00  0.1185E+02
     15.004  0.2045E+00  0.1187E+02
     15.099  0.1646E+00  0.1188E+02
     15.193  0.1046E+00  0.1189E+02
     15.287  0.5616E-01  0.1190E+02
     15.382  0.6194E-01  0.1190E+02
     15.476  0.1172E+00  0.1192E+02
     15.570  0.1724E+00  0.1193E+02
     15.665  0.2129E+00  0.1195E+02
     15.759  0.3041E+00  0.1198E+02
     15.854  0.4471E+00  0.1202E+02
     15.948  0.5159E+00  0.1207E+02
     16.042  0.4762E+00  0.1212E+02
     16.137  0.4186E+00  0.1216E+02
     16.231  0.3880E+00  0.1219E+02
     16.325  0.3805E+00  0.1223E+02
     16.420  0.3764E+00  0.1226E+02
     16.514  0.3463E+00  0.1230E+02
     16.608  0.3191E+00  0.1233E+02
     16.703  0.3266E+00  0.1236E+02
     16.797  0.3359E+00  0.1239E+02
     16.892  0.3102E+00  0.1242E+02
     16.986  0.2539E+00  0.1244E+02
     17.080  0.2346E+00  0.1246E+02
     17.175  0.3181E+00  0.1249E+02
     17.269  0.4254E+00  0.1253E+02
     17.363  0.4092E+00  0.1257E+02
     17.458  0.3055E+00  0.1260E+02
     17.552  0.2584E+00  0.1263E+02
     17.646  0.2489E+00  0.1265E+02
     17.741  0.2068E+00  0.1267E+02
     17.835  0.2061E+00  0.1269E+02
     17.930  0.2800E+00  0.1271E+02
     18.024  0.3244E+00  0.1275E+02
     18.118  0.3100E+00  0.1277E+02
     18.213  0.3158E+00  0.1280E+02
     18.307  0.3354E+00  0.1284E+02
     18.401  0.3033E+00  0.1286E+02
     18.496  0.2729E+00  0.1289E+02
     18.590  0.2898E+00  0.1292E+02
     18.684  0.2713E+00  0.1294E+02
     18.779  0.2182E+00  0.1296E+02
     18.873  0.2639E+00  0.1299E+02
     18.968  0.4403E+00  0.1303E+02
     19.062  0.6103E+00  0.1309E+02
     19.156  0.6367E+00  0.1315E+02
     19.251  0.5698E+00  0.1320E+02
     19.345  0.5552E+00  0.1325E+02
     19.439  0.5646E+00  0.1331E+02
     19.534  0.4720E+00  0.1335E+02
     19.628  0.3443E+00  0.1338E+02
     19.722  0.3053E+00  0.1341E+02
     19.817  0.3157E+00  0.1344E+02
     19.911  0.3692E+00  0.1348E+02
     20.006  0.5385E+00  0.1353E+02
     20.100  0.7291E+00  0.1360E+02
     20.194  0.7348E+00  0.1367E+02
     20.289  0.5344E+00  0.1372E+02
     20.383  0.3078E+00  0.1375E+02
     20.477  0.2145E+00  0.1377E+02
     20.572  0.2525E+00  0.1379E+02
     20.666  0.3189E+00  0.1382E+02
     20.760  0.3779E+00  0.1386E+02
     20.855  0.4523E+00  0.1390E+02
     20.949  0.5200E+00  0.1395E+02
     21.044  0.5453E+00  0.1400E+02
     21.138  0.5263E+00  0.1405E+02
     21.232  0.4639E+00  0.1409E+02
     21.327  0.3563E+00  0.1413E+02
     21.421  0.2573E+00  0.1415E+02
     21.515  0.2336E+00  0.1417E+02
     21.610  0.2720E+00  0.1420E+02
     21.704  0.3430E+00  0.1423E+02
     21.798  0.4501E+00  0.1427E+02
     21.893  0.5175E+00  0.1432E+02
     21.987  0.4448E+00  0.1436E+02
     22.082  0.3298E+00  0.1440E+02
     22.176  0.3290E+00  0.1443E+02
     22.270  0.3688E+00  0.1446E+02
     22.365  0.3028E+00  0.1449E+02
     22.459  0.1939E+00  0.1451E+02
     22.553  0.1852E+00  0.1453E+02
     22.648  0.3010E+00  0.1455E+02
     22.742  0.4621E+00  0.1460E+02
     22.836  0.5385E+00  0.1465E+02
     22.931  0.4922E+00  0.1469E+02
     23.025  0.4128E+00  0.1473E+02
     23.120  0.3186E+00  0.1476E+02
     23.214  0.1867E+00  0.1478E+02
     23.308  0.1214E+00  0.1479E+02
     23.403  0.2121E+00  0.1481E+02
     23.497  0.3737E+00  0.1485E+02
     23.591  0.4673E+00  0.1489E+02
     23.686  0.4608E+00  0.1494E+02
     23.780  0.4157E+00  0.1498E+02
     23.874  0.3793E+00  0.1501E+02
     23.969  0.3421E+00  0.1504E+02
     24.063  0.3137E+00  0.1507E+02
     24.158  0.3428E+00  0.1511E+02
     24.252  0.4315E+00  0.1515E+02
     24.346  0.5392E+00  0.1520E+02
     24.441  0.6229E+00  0.1526E+02
     24.535  0.6288E+00  0.1531E+02
     24.629  0.5553E+00  0.1537E+02
     24.724  0.4951E+00  0.1541E+02
     24.818  0.4650E+00  0.1546E+02
     24.912  0.3899E+00  0.1549E+02
     25.007  0.3203E+00  0.1552E+02
     25.101  0.3529E+00  0.1556E+02
     25.196  0.4155E+00  0.1560E+02
     25.290  0.4488E+00  0.1564E+02
     25.384  0.6616E+00  0.1570E+02
     25.479  0.1080E+01  0.1580E+02
     25.573  0.1160E+01  0.1591E+02
     25.667  0.6816E+00  0.1598E+02
     25.762  0.1854E+00  0.1600E+02
     25.856  0.1012E-01  0.1600E+02
     25.950  0.1247E-02  0.1600E+02
     26.045  0.6208E-02  0.1600E+02
     26.139  0.5372E-02  0.1600E+02
     26.234  0.4437E-02  0.1600E+02
     26.328  0.5388E-02  0.1600E+02
     26.422  0.7733E-02  0.1600E+02
     26.517  0.6737E-02  0.1600E+02
     26.611  0.2628E-02  0.1600E+02
     26.705 -0.4047E-04  0.1600E+02
     26.800 -0.4109E-03  0.1600E+02
     26.894 -0.1551E-03  0.1600E+02
     26.988 -0.2824E-04  0.1600E+02
     27.083 -0.2927E-05  0.1600E+02
     27.177 -0.1823E-06  0.1600E+02
     27.272 -0.6990E-08  0.1600E+02
     27.366 -0.1672E-09  0.1600E+02
     27.460 -0.2513E-11  0.1600E+02
     27.555 -0.2386E-13  0.1600E+02
     27.649 -0.1453E-15  0.1600E+02
     27.743  0.0000E+00  0.1600E+02
     27.838  0.0000E+00  0.1600E+02
     27.932  0.0000E+00  0.1600E+02
     28.026  0.0000E+00  0.1600E+02
     28.121  0.0000E+00  0.1600E+02
     28.215  0.0000E+00  0.1600E+02
     28.310  0.0000E+00  0.1600E+02
     28.404  0.0000E+00  0.1600E+02
