<?xml version="1.0" encoding="ISO-8859-1"?>
<modeling>
 <generator>
  <i name="program" type="string">vasp </i>
  <i name="version" type="string">6.5.1  </i>
  <i name="subversion" type="string">10Mar25 (build Apr 15 2026 12:55:44) complex                          parallel </i>
  <i name="platform" type="string">LinuxNV </i>
  <i name="date" type="string">2026 04 19 </i>
  <i name="time" type="string">00:37:24 </i>
 </generator>
 <incar>
  <i type="string" name="SYSTEM">HSE06 Band Gap Calculation (restart from PBE)</i>
  <i type="int" name="ISTART">     1</i>
  <i type="string" name="PREC">Accurate</i>
  <i type="string" name="ALGO">Damped</i>
  <i type="int" name="ICHARG">     2</i>
  <i type="int" name="NELM">   100</i>
  <i name="EDIFF">      0.00001000</i>
  <i name="ENCUT">    350.00000000</i>
  <i name="TIME">      0.40000000</i>
  <i type="int" name="ISMEAR">     0</i>
  <i name="SIGMA">      0.05000000</i>
  <i name="KSPACING">      0.25000000</i>
  <i type="logical" name="KGAMMA"> T  </i>
  <i type="logical" name="LWAVE"> F  </i>
  <i type="logical" name="LCHARG"> F  </i>
  <i name="HFSCREEN">      0.20000000</i>
  <i type="logical" name="LHFCALC"> T  </i>
  <i name="AEXX">      0.25000000</i>
  <i type="string" name="PRECFOCK">Fast</i>
 </incar>
 <primitive_cell>
  <structure name="primitive_cell" >
   <crystal>
    <varray name="basis" >
     <v>       3.12858800       0.00000000       0.00000000 </v>
     <v>      -1.56429400       2.70943700       0.00000000 </v>
     <v>       0.00000000       0.00000000       5.01695500 </v>
    </varray>
    <i name="volume">     42.52728308 </i>
    <varray name="rec_basis" >
     <v>       0.31963301       0.18454018      -0.00000000 </v>
     <v>       0.00000000       0.36908037       0.00000000 </v>
     <v>       0.00000000      -0.00000000       0.19932409 </v>
    </varray>
   </crystal>
   <varray name="positions" >
    <v>       0.66666700       0.33333300       0.49928700 </v>
    <v>       0.33333300       0.66666700       0.99928700 </v>
    <v>       0.66666700       0.33333300       0.88071300 </v>
    <v>       0.33333300       0.66666700       0.38071300 </v>
   </varray>
  </structure>
  <varray name="primitive_index" >
   <v type="int" >        1 </v>
   <v type="int" >        2 </v>
   <v type="int" >        3 </v>
   <v type="int" >        4 </v>
  </varray>
 </primitive_cell>
 <kpoints>
  <generation param="Gamma">
   <v type="int" name="divisions">      10       10        6 </v>
   <v name="usershift">      0.00000000       0.00000000       0.00000000 </v>
   <v name="genvec1">      0.10000000      -0.00000000       0.00000000 </v>
   <v name="genvec2">      0.00000000       0.10000000       0.00000000 </v>
   <v name="genvec3">      0.00000000       0.00000000       0.16666667 </v>
   <v name="shift">      0.00000000       0.00000000       0.00000000 </v>
  </generation>
  <varray name="kpointlist" >
   <v>       0.00000000       0.00000000       0.00000000 </v>
   <v>       0.10000000       0.00000000       0.00000000 </v>
   <v>       0.20000000       0.00000000       0.00000000 </v>
   <v>       0.30000000       0.00000000       0.00000000 </v>
   <v>       0.40000000       0.00000000       0.00000000 </v>
   <v>       0.50000000       0.00000000       0.00000000 </v>
   <v>       0.10000000       0.10000000       0.00000000 </v>
   <v>       0.20000000       0.10000000       0.00000000 </v>
   <v>       0.30000000       0.10000000       0.00000000 </v>
   <v>       0.40000000       0.10000000       0.00000000 </v>
   <v>       0.20000000       0.20000000       0.00000000 </v>
   <v>       0.30000000       0.20000000       0.00000000 </v>
   <v>       0.40000000       0.20000000       0.00000000 </v>
   <v>       0.30000000       0.30000000       0.00000000 </v>
   <v>       0.00000000       0.00000000       0.16666667 </v>
   <v>       0.10000000       0.00000000       0.16666667 </v>
   <v>       0.20000000       0.00000000       0.16666667 </v>
   <v>       0.30000000       0.00000000       0.16666667 </v>
   <v>       0.40000000       0.00000000       0.16666667 </v>
   <v>       0.50000000       0.00000000       0.16666667 </v>
   <v>       0.10000000       0.10000000       0.16666667 </v>
   <v>       0.20000000       0.10000000       0.16666667 </v>
   <v>       0.30000000       0.10000000       0.16666667 </v>
   <v>       0.40000000       0.10000000       0.16666667 </v>
   <v>       0.20000000       0.20000000       0.16666667 </v>
   <v>       0.30000000       0.20000000       0.16666667 </v>
   <v>       0.40000000       0.20000000       0.16666667 </v>
   <v>       0.30000000       0.30000000       0.16666667 </v>
   <v>       0.00000000       0.00000000       0.33333333 </v>
   <v>       0.10000000       0.00000000       0.33333333 </v>
   <v>       0.20000000       0.00000000       0.33333333 </v>
   <v>       0.30000000       0.00000000       0.33333333 </v>
   <v>       0.40000000       0.00000000       0.33333333 </v>
   <v>       0.50000000       0.00000000       0.33333333 </v>
   <v>       0.10000000       0.10000000       0.33333333 </v>
   <v>       0.20000000       0.10000000       0.33333333 </v>
   <v>       0.30000000       0.10000000       0.33333333 </v>
   <v>       0.40000000       0.10000000       0.33333333 </v>
   <v>       0.20000000       0.20000000       0.33333333 </v>
   <v>       0.30000000       0.20000000       0.33333333 </v>
   <v>       0.40000000       0.20000000       0.33333333 </v>
   <v>       0.30000000       0.30000000       0.33333333 </v>
   <v>       0.00000000       0.00000000       0.50000000 </v>
   <v>       0.10000000       0.00000000       0.50000000 </v>
   <v>       0.20000000       0.00000000       0.50000000 </v>
   <v>       0.30000000       0.00000000       0.50000000 </v>
   <v>       0.40000000       0.00000000       0.50000000 </v>
   <v>       0.50000000       0.00000000       0.50000000 </v>
   <v>       0.10000000       0.10000000       0.50000000 </v>
   <v>       0.20000000       0.10000000       0.50000000 </v>
   <v>       0.30000000       0.10000000       0.50000000 </v>
   <v>       0.40000000       0.10000000       0.50000000 </v>
   <v>       0.20000000       0.20000000       0.50000000 </v>
   <v>       0.30000000       0.20000000       0.50000000 </v>
   <v>       0.40000000       0.20000000       0.50000000 </v>
   <v>       0.30000000       0.30000000       0.50000000 </v>
  </varray>
  <varray name="weights" >
   <v>       0.00166667 </v>
   <v>       0.01000000 </v>
   <v>       0.01000000 </v>
   <v>       0.01000000 </v>
   <v>       0.01000000 </v>
   <v>       0.00500000 </v>
   <v>       0.01000000 </v>
   <v>       0.02000000 </v>
   <v>       0.02000000 </v>
   <v>       0.02000000 </v>
   <v>       0.01000000 </v>
   <v>       0.02000000 </v>
   <v>       0.01000000 </v>
   <v>       0.01000000 </v>
   <v>       0.00333333 </v>
   <v>       0.02000000 </v>
   <v>       0.02000000 </v>
   <v>       0.02000000 </v>
   <v>       0.02000000 </v>
   <v>       0.01000000 </v>
   <v>       0.02000000 </v>
   <v>       0.04000000 </v>
   <v>       0.04000000 </v>
   <v>       0.04000000 </v>
   <v>       0.02000000 </v>
   <v>       0.04000000 </v>
   <v>       0.02000000 </v>
   <v>       0.02000000 </v>
   <v>       0.00333333 </v>
   <v>       0.02000000 </v>
   <v>       0.02000000 </v>
   <v>       0.02000000 </v>
   <v>       0.02000000 </v>
   <v>       0.01000000 </v>
   <v>       0.02000000 </v>
   <v>       0.04000000 </v>
   <v>       0.04000000 </v>
   <v>       0.04000000 </v>
   <v>       0.02000000 </v>
   <v>       0.04000000 </v>
   <v>       0.02000000 </v>
   <v>       0.02000000 </v>
   <v>       0.00166667 </v>
   <v>       0.01000000 </v>
   <v>       0.01000000 </v>
   <v>       0.01000000 </v>
   <v>       0.01000000 </v>
   <v>       0.00500000 </v>
   <v>       0.01000000 </v>
   <v>       0.02000000 </v>
   <v>       0.02000000 </v>
   <v>       0.02000000 </v>
   <v>       0.01000000 </v>
   <v>       0.02000000 </v>
   <v>       0.01000000 </v>
   <v>       0.01000000 </v>
  </varray>
 </kpoints>
 <parameters>
  <separator name="general" >
   <i type="string" name="SYSTEM">HSE06 Band Gap Calculation (restart from</i>
   <i type="logical" name="LCOMPAT"> F  </i>
  </separator>
  <separator name="electronic" >
   <i type="string" name="PREC">accura</i>
   <i name="ENMAX">    350.00000000</i>
   <i name="ENAUG">    627.11200000</i>
   <i name="EDIFF">      0.00001000</i>
   <i type="int" name="IALGO">    53</i>
   <i type="int" name="IWAVPR">    10</i>
   <i type="int" name="NBANDS">    12</i>
   <i type="int" name="NBANDSLOW">    -1</i>
   <i type="int" name="NBANDSHIGH">    -1</i>
   <i name="NELECT">     16.00000000</i>
   <i type="int" name="TURBO">     0</i>
   <i type="int" name="IRESTART">     0</i>
   <i type="int" name="NREBOOT">     0</i>
   <i type="int" name="NMIN">     0</i>
   <i name="EREF">      0.00000000</i>
   <separator name="electronic smearing" >
    <i type="int" name="ISMEAR">     0</i>
    <i name="SIGMA">      0.05000000</i>
    <i name="KSPACING">      0.25000000</i>
    <i type="logical" name="KGAMMA"> T  </i>
    <i type="logical" name="KBLOWUP"> T  </i>
   </separator>
   <separator name="electronic projectors" >
    <i type="logical" name="LREAL"> F  </i>
    <v name="ROPT">      0.00000000      0.00000000</v>
    <i type="int" name="LMAXPAW">  -100</i>
    <i type="int" name="LMAXMIX">     2</i>
    <i type="logical" name="NLSPLINE"> F  </i>
   </separator>
   <separator name="electronic startup" >
    <i type="int" name="ISTART">     1</i>
    <i type="int" name="ICHARG">     2</i>
    <i type="int" name="INIWAV">     1</i>
   </separator>
   <separator name="electronic spin" >
    <i type="int" name="ISPIN">     1</i>
    <i type="logical" name="LNONCOLLINEAR"> F  </i>
    <v name="MAGMOM">      1.00000000      1.00000000      1.00000000      1.00000000</v>
    <i name="NUPDOWN">     -1.00000000</i>
    <i type="logical" name="LSORBIT"> F  </i>
    <v name="SAXIS">      0.00000000      0.00000000      1.00000000</v>
    <i type="logical" name="LSPIRAL"> F  </i>
    <v name="QSPIRAL">      0.00000000      0.00000000      0.00000000</v>
    <i type="logical" name="LZEROZ"> F  </i>
   </separator>
   <separator name="electronic exchange-correlation" >
    <i type="logical" name="LASPH"> F  </i>
   </separator>
   <separator name="electronic convergence" >
    <i type="int" name="NELM">   100</i>
    <i type="int" name="NELMDL">     0</i>
    <i type="int" name="NELMIN">     2</i>
    <i name="ENINI">    350.00000000</i>
    <separator name="electronic convergence detail" >
     <i type="logical" name="LDIAG"> T  </i>
     <i type="logical" name="LSUBROT"> F  </i>
     <i type="logical" name="LROBUST"> F  </i>
     <i type="int" name="ISEARCH">     0</i>
     <i name="WEIMIN">      0.00000000</i>
     <i name="EBREAK">      0.00000021</i>
     <i name="DEPER">      0.30000000</i>
     <i type="int" name="NRMM">     4</i>
     <i name="TIME">      0.40000000</i>
    </separator>
   </separator>
   <separator name="electronic mixer" >
    <i name="AMIX">      0.40000000</i>
    <i name="BMIX">      1.00000000</i>
    <i name="AMIN">      0.10000000</i>
    <i name="AMIX_MAG">      1.60000000</i>
    <i name="BMIX_MAG">      1.00000000</i>
    <separator name="electronic mixer details" >
     <i type="int" name="IMIX">     4</i>
     <i type="logical" name="MIXFIRST"> F  </i>
     <i type="int" name="MAXMIX">   -45</i>
     <i name="WC">    100.00000000</i>
     <i type="int" name="INIMIX">     1</i>
     <i type="int" name="MIXPRE">     1</i>
     <i type="int" name="MREMOVE">     5</i>
    </separator>
   </separator>
   <separator name="electronic dipolcorrection" >
    <i type="logical" name="LDIPOL"> F  </i>
    <i type="logical" name="LMONO"> F  </i>
    <i type="int" name="IDIPOL">     0</i>
    <i name="EPSILON">      1.00000000</i>
    <v name="DIPOL">   -100.00000000   -100.00000000   -100.00000000</v>
    <i name="EFIELD">      0.00000000</i>
    <i type="logical" name="LVACPOTAV"> F  </i>
   </separator>
  </separator>
  <separator name="grids" >
   <i type="int" name="NGX">    20</i>
   <i type="int" name="NGY">    20</i>
   <i type="int" name="NGZ">    32</i>
   <i type="int" name="NGXF">    40</i>
   <i type="int" name="NGYF">    40</i>
   <i type="int" name="NGZF">    64</i>
   <i type="logical" name="ADDGRID"> F  </i>
  </separator>
  <separator name="ionic" >
   <i type="int" name="NSW">     0</i>
   <i type="int" name="IBRION">    -1</i>
   <i type="int" name="MDALGO">     0</i>
   <i type="int" name="ISIF">     0</i>
   <i name="PSTRESS">      0.00000000</i>
   <i name="EDIFFG">      0.00010000</i>
   <i type="int" name="NFREE">     0</i>
   <i name="POTIM">      0.50000000</i>
   <i name="SMASS">     -3.00000000</i>
   <i name="SCALEE">      1.00000000</i>
  </separator>
  <separator name="ionic md" >
   <i name="TEBEG">      0.00010000</i>
   <i name="TEEND">      0.00010000</i>
   <i type="int" name="NBLOCK">     1</i>
   <i type="int" name="KBLOCK">     1</i>
   <i type="int" name="NPACO">   256</i>
   <i name="APACO">     10.00000000</i>
  </separator>
  <separator name="symmetry" >
   <i type="int" name="ISYM">     3</i>
   <i name="SYMPREC">      0.00001000</i>
  </separator>
  <separator name="dos" >
   <i type="int" name="LORBIT">     0</i>
   <v name="RWIGS">     -1.00000000     -1.00000000</v>
   <i type="int" name="NEDOS">   301</i>
   <i name="EMIN">     10.00000000</i>
   <i name="EMAX">    -10.00000000</i>
   <i name="EFERMI">      0.00000000</i>
  </separator>
  <separator name="writing" >
   <i type="int" name="NWRITE">     2</i>
   <i type="logical" name="LWAVE"> F  </i>
   <i type="logical" name="LDOWNSAMPLE"> F  </i>
   <i type="logical" name="LCHARG"> F  </i>
   <i type="logical" name="LPARD"> F  </i>
   <i type="logical" name="LVTOT"> F  </i>
   <i type="logical" name="LVHAR"> F  </i>
   <i type="logical" name="LELF"> F  </i>
   <i type="logical" name="LOPTICS"> F  </i>
   <v name="STM">      0.00000000      0.00000000      0.00000000      0.00000000      0.00000000      0.00000000      0.00000000</v>
  </separator>
  <separator name="performance" >
   <i type="int" name="NPAR">     1</i>
   <i type="int" name="NSIM">     4</i>
   <i type="int" name="NBLK">    -1</i>
   <i type="logical" name="LPLANE"> T  </i>
   <i type="logical" name="LSCALAPACK"> T  </i>
   <i type="logical" name="LSCAAWARE"> F  </i>
   <i type="logical" name="LSCALU"> F  </i>
   <i type="logical" name="LASYNC"> F  </i>
   <i type="logical" name="LORBITALREAL"> F  </i>
  </separator>
  <separator name="miscellaneous" >
   <i type="int" name="IDIOT">     3</i>
   <i type="int" name="PHON_NSTRUCT">    -1</i>
   <i type="logical" name="LMUSIC"> F  </i>
   <v name="POMASS">     26.98100000     14.00100000</v>
   <v name="DARWINR">      0.00000000      0.00000000</v>
   <v name="DARWINV">      1.00000000      1.00000000</v>
   <i type="logical" name="LCORR"> T  </i>
  </separator>
  <i type="logical" name="GGA_COMPAT"> T  </i>
  <i type="logical" name="LBERRY"> F  </i>
  <i type="int" name="ICORELEVEL">     0</i>
  <i type="logical" name="LDAU"> F  </i>
  <i type="int" name="I_CONSTRAINED_M">     0</i>
  <separator name="electronic exchange-correlation" >
   <i type="string" name="GGA    ">PE</i>
   <i type="string" name="XC_C">1</i>
   <i type="int" name="VOSKOWN">     0</i>
   <i type="logical" name="LHFCALC"> T  </i>
   <i type="string" name="PRECFOCK">fast</i>
   <i type="logical" name="LSYMGRAD"> F  </i>
   <i type="logical" name="LHFONE"> F  </i>
   <i type="logical" name="LRHFCALC"> F  </i>
   <i type="logical" name="LTHOMAS"> F  </i>
   <i type="logical" name="LMODELHF"> F  </i>
   <i type="logical" name="LFOCKACE"> T  </i>
   <i name="ENCUT4O">     -1.00000000</i>
   <i type="int" name="EXXOEP">     0</i>
   <i type="int" name="FOURORBIT">     0</i>
   <i name="AEXX">      0.25000000</i>
   <i name="HFALPHA">     -1.00000000</i>
   <i name="MCALPHA">      0.00000000</i>
   <i name="ALDAX">      0.75000000</i>
   <i name="AGGAX">      0.75000000</i>
   <i name="AMGGAX">      0.75000000</i>
   <i name="ALDAC">      1.00000000</i>
   <i name="AGGAC">      1.00000000</i>
   <i name="AMGGAC">      1.00000000</i>
   <i type="int" name="NKREDX">     1</i>
   <i type="int" name="NKREDY">     1</i>
   <i type="int" name="NKREDZ">     1</i>
   <i type="logical" name="SHIFTRED"> F  </i>
   <i type="logical" name="ODDONLY"> F  </i>
   <i type="logical" name="EVENONLY"> F  </i>
   <i type="int" name="LMAXFOCK">     4</i>
   <i type="int" name="NMAXFOCKAE">     1</i>
   <i type="logical" name="LFOCKAEDFT"> F  </i>
   <i name="HFSCREEN">      0.20000000</i>
   <i name="HFSCREENC">      0.20000000</i>
   <i type="int" name="NBANDSGWLOW">     1</i>
  </separator>
  <separator name="vdW DFT" >
   <i type="logical" name="LUSE_VDW"> F  </i>
   <i type="int" name="IVDW_NL">    -1</i>
   <i type="logical" name="LSPIN_VDW"> F  </i>
   <i name="ZAB_VDW">     -0.84910000</i>
   <i name="GAMMA_VDW">      1.39626340</i>
   <i name="ALPHA_VDW">      0.00000000</i>
   <i name="PARAM1">      0.12340000</i>
   <i name="PARAM2">      1.00000000</i>
   <i name="BPARAM">      6.30000000</i>
   <i name="CPARAM">      0.00930000</i>
  </separator>
  <separator name="model GW" >
   <i type="int" name="MODEL_GW">     0</i>
   <i name="MODEL_EPS0">      6.37909246</i>
   <i name="MODEL_ALPHA">      1.00000000</i>
  </separator>
  <separator name="linear response parameters" >
   <i type="logical" name="LEPSILON"> F  </i>
   <i type="logical" name="LRPA"> F  </i>
   <i type="logical" name="LNABLA"> F  </i>
   <i type="logical" name="LVEL"> F  </i>
   <i name="CSHIFT">      0.10000000</i>
   <i name="OMEGAMAX">     -1.00000000</i>
   <i name="DEG_THRESHOLD">      0.00200000</i>
   <i name="RTIME">     -0.10000000</i>
   <i name="WPLASMAI">      0.00000000</i>
   <v name="DFIELD">      0.00000000      0.00000000      0.00000000</v>
   <v name="WPLASMA">      0.00000000      0.00000000      0.00000000      0.00000000      0.00000000      0.00000000      0.00000000      0.00000000      0.00000000</v>
  </separator>
  <separator name="orbital magnetization" >
   <i type="logical" name="NUCIND"> F  </i>
   <v name="MAGPOS">      0.00000000      0.00000000      0.00000000</v>
   <i type="logical" name="LNICSALL"> T  </i>
   <i type="logical" name="ORBITALMAG"> F  </i>
   <i type="logical" name="LMAGBLOCH"> F  </i>
   <i type="logical" name="LCHIMAG"> F  </i>
   <i type="logical" name="LGAUGE"> T  </i>
   <i type="int" name="MAGATOM">     0</i>
   <v name="MAGDIPOL">      0.00000000      0.00000000      0.00000000</v>
   <v name="AVECCONST">      0.00000000      0.00000000      0.00000000</v>
  </separator>
  <separator name="response functions" >
   <i type="logical" name="LALL_IN_ONE"> F  </i>
   <i type="int" name="IALL_IN_ONE">    -1</i>
   <i type="int" name="NBANDS_WAVE">    -1</i>
   <i type="logical" name="LFINITE_TEMPERATURE"> F  </i>
   <i type="logical" name="LADDER"> F  </i>
   <i type="logical" name="LRPAFORCE"> F  </i>
   <i type="logical" name="LFXC"> F  </i>
   <i type="logical" name="LHARTREE"> T  </i>
   <i type="int" name="IBSE">     2</i>
   <v type="int" name="KPOINT">    -1     0     0     0</v>
   <i type="logical" name="LTCTC"> F  </i>
   <i type="logical" name="LTCTE"> F  </i>
   <i type="logical" name="LTETE"> F  </i>
   <i type="logical" name="LTRIPLET"> F  </i>
   <i type="logical" name="LFXCEPS"> F  </i>
   <i type="logical" name="LFXHEG"> F  </i>
   <i type="int" name="NATURALO">     2</i>
   <i type="logical" name="LHOLEGF"> F  </i>
   <i type="logical" name="L2ORDER"> F  </i>
   <i type="logical" name="LDMP1"> F  </i>
   <i type="logical" name="LMP2LT"> F  </i>
   <i type="logical" name="LSMP2LT"> F  </i>
   <i type="logical" name="LGWLF"> F  </i>
   <i name="ENCUTGW">     -1.60000002</i>
   <i name="ENCUTGWSOFT">     -1.60000002</i>
   <i name="ENCUTLF">     -1.00000000</i>
   <i type="logical" name="ESF_SPLINES"> F  </i>
   <i name="ESF_CONV">      0.01000000</i>
   <i type="int" name="ESF_NINTER">    15</i>
   <i type="int" name="LMAXMP2">    -1</i>
   <i name="SCISSOR">      0.00000000</i>
   <i type="int" name="NOMEGA">     0</i>
   <i type="int" name="NOMEGAR">     0</i>
   <i type="int" name="NBANDSGW">    -1</i>
   <i type="int" name="NBANDSO">    -1</i>
   <i type="int" name="NBANDSV">    -1</i>
   <i type="int" name="NELMGW">     1</i>
   <i type="int" name="NELMHF">     1</i>
   <i type="int" name="DIM">     3</i>
   <i type="int" name="IESPILON">     4</i>
   <i type="int" name="ANTIRES">     0</i>
   <i name="OMEGAMAX">    -30.00000000</i>
   <i name="OMEGAMIN">    -30.00000000</i>
   <i name="OMEGATL">   -200.00000000</i>
   <i type="int" name="OMEGAGRID">     0</i>
   <i name="CSHIFT">     -0.10000000</i>
   <i type="logical" name="LSELFENERGY"> F  </i>
   <i type="logical" name="LSPECTRAL"> F  </i>
   <i type="logical" name="LSPECTRALGW"> F  </i>
   <i type="logical" name="LSINGLES"> F  </i>
   <i type="logical" name="LFERMIGW"> F  </i>
   <i type="logical" name="ODDONLYGW"> F  </i>
   <i type="logical" name="EVENONLYGW"> F  </i>
   <i type="int" name="NKREDLFX">     1</i>
   <i type="int" name="NKREDLFY">     1</i>
   <i type="int" name="NKREDLFZ">     1</i>
   <i type="int" name="MAXMEM">  2800</i>
   <i type="int" name="TELESCOPE">     0</i>
   <i type="int" name="NTAUPAR">    -1</i>
   <i type="int" name="NOMEGAPAR">    -1</i>
   <i name="DAMP_NEWTON">      0.80000001</i>
   <i name="LAMBDA">      1.00000000</i>
  </separator>
  <separator name="External order field" >
   <i name="OFIELD_KAPPA">      0.00000000</i>
   <v name="OFIELD_K">      0.00000000      0.00000000      0.00000000</v>
   <i name="OFIELD_Q6_NEAR">      0.00000000</i>
   <i name="OFIELD_Q6_FAR">      0.00000000</i>
   <i name="OFIELD_A">      0.00000000</i>
  </separator>
  <separator name="optional k-points parameters" >
   <i type="int" name="KPOINTS_OPT_MODE">     1</i>
   <i type="logical" name="LKPOINTS_OPT"> F  </i>
  </separator>
 </parameters>
 <atominfo>
  <atoms>       4 </atoms>
  <types>       2 </types>
  <array name="atoms" >
   <dimension dim="1">ion</dimension>
   <field type="string">element</field>
   <field type="int">atomtype</field>
   <set>
    <rc><c>Al</c><c>   1</c></rc>
    <rc><c>Al</c><c>   1</c></rc>
    <rc><c>N </c><c>   2</c></rc>
    <rc><c>N </c><c>   2</c></rc>
   </set>
  </array>
  <array name="atomtypes" >
   <dimension dim="1">type</dimension>
   <field type="int">atomspertype</field>
   <field type="string">element</field>
   <field>mass</field>
   <field>valence</field>
   <field type="string">pseudopotential</field>
   <set>
    <rc><c>   2</c><c>Al</c><c>     26.98100000</c><c>      3.00000000</c><c>  PAW_PBE Al 04Jan2001                  </c></rc>
    <rc><c>   2</c><c>N </c><c>     14.00100000</c><c>      5.00000000</c><c>  PAW_PBE N 08Apr2002                   </c></rc>
   </set>
  </array>
 </atominfo>
 <structure name="initialpos" >
  <crystal>
   <varray name="basis" >
    <v>       3.12858800       0.00000000       0.00000000 </v>
    <v>      -1.56429400       2.70943700       0.00000000 </v>
    <v>       0.00000000       0.00000000       5.01695500 </v>
   </varray>
   <i name="volume">     42.52728308 </i>
   <varray name="rec_basis" >
    <v>       0.31963301       0.18454018      -0.00000000 </v>
    <v>       0.00000000       0.36908037       0.00000000 </v>
    <v>       0.00000000      -0.00000000       0.19932409 </v>
   </varray>
  </crystal>
  <varray name="positions" >
   <v>       0.66666700       0.33333300       0.49928700 </v>
   <v>       0.33333300       0.66666700       0.99928700 </v>
   <v>       0.66666700       0.33333300       0.88071300 </v>
   <v>       0.33333300       0.66666700       0.38071300 </v>
  </varray>
 </structure>
 <calculation>
  <scstep>
   <time name="total">  188.35  188.16</time>
   <energy>
    <i name="alphaZ">     15.37241317 </i>
    <i name="ewald">   -588.30353609 </i>
    <i name="hartreedc">   -156.23124110 </i>
    <i name="XCdc">     -8.41999885 </i>
    <i name="pawpsdc">   1414.08677426 </i>
    <i name="pawaedc">  -1365.51923567 </i>
    <i name="eentropy">     -0.00000000 </i>
    <i name="bandstr">    -10.91032010 </i>
    <i name="atom">    629.47271184 </i>
    <i name="e_fr_energy">    -34.77719392 </i>
    <i name="e_wo_entrp">    -34.77719392 </i>
    <i name="e_0_energy">    -34.77719392 </i>
   </energy>
  </scstep>
  <scstep>
   <time name="total">  186.96  186.81</time>
   <energy>
    <i name="e_fr_energy">    -34.82900601 </i>
    <i name="e_wo_entrp">    -34.82900601 </i>
    <i name="e_0_energy">    -34.82900601 </i>
   </energy>
  </scstep>
  <scstep>
   <time name="total">  187.49  187.36</time>
   <energy>
    <i name="e_fr_energy">    -34.86127897 </i>
    <i name="e_wo_entrp">    -34.86127897 </i>
    <i name="e_0_energy">    -34.86127897 </i>
   </energy>
  </scstep>
  <scstep>
   <time name="total">  187.75  187.60</time>
   <energy>
    <i name="e_fr_energy">    -34.87546462 </i>
    <i name="e_wo_entrp">    -34.87546462 </i>
    <i name="e_0_energy">    -34.87546462 </i>
   </energy>
  </scstep>
  <scstep>
   <time name="total">  187.46  187.31</time>
   <energy>
    <i name="e_fr_energy">    -34.88288087 </i>
    <i name="e_wo_entrp">    -34.88288087 </i>
    <i name="e_0_energy">    -34.88288087 </i>
   </energy>
  </scstep>
  <scstep>
   <time name="total">  187.89  187.73</time>
   <energy>
    <i name="e_fr_energy">    -34.88714310 </i>
    <i name="e_wo_entrp">    -34.88714310 </i>
    <i name="e_0_energy">    -34.88714310 </i>
   </energy>
  </scstep>
  <scstep>
   <time name="total">  187.75  187.58</time>
   <energy>
    <i name="e_fr_energy">    -34.88944472 </i>
    <i name="e_wo_entrp">    -34.88944472 </i>
    <i name="e_0_energy">    -34.88944472 </i>
   </energy>
  </scstep>
  <scstep>
   <time name="total">  188.48  188.33</time>
   <energy>
    <i name="e_fr_energy">    -34.89061944 </i>
    <i name="e_wo_entrp">    -34.89061944 </i>
    <i name="e_0_energy">    -34.89061944 </i>
   </energy>
  </scstep>
  <scstep>
   <time name="total">  187.01  186.86</time>
   <energy>
    <i name="e_fr_energy">    -34.89121075 </i>
    <i name="e_wo_entrp">    -34.89121075 </i>
    <i name="e_0_energy">    -34.89121075 </i>
   </energy>
  </scstep>
  <scstep>
   <time name="total">  187.08  186.93</time>
   <energy>
    <i name="e_fr_energy">    -34.89149442 </i>
    <i name="e_wo_entrp">    -34.89149442 </i>
    <i name="e_0_energy">    -34.89149442 </i>
   </energy>
  </scstep>
  <scstep>
   <time name="total">  187.14  187.01</time>
   <energy>
    <i name="e_fr_energy">    -34.89162715 </i>
    <i name="e_wo_entrp">    -34.89162715 </i>
    <i name="e_0_energy">    -34.89162715 </i>
   </energy>
  </scstep>
  <scstep>
   <time name="total">  187.78  187.62</time>
   <energy>
    <i name="e_fr_energy">    -34.89169078 </i>
    <i name="e_wo_entrp">    -34.89169078 </i>
    <i name="e_0_energy">    -34.89169078 </i>
   </energy>
  </scstep>
  <scstep>
   <time name="total">  185.71  185.57</time>
   <energy>
    <i name="e_fr_energy">    -34.89172274 </i>
    <i name="e_wo_entrp">    -34.89172274 </i>
    <i name="e_0_energy">    -34.89172274 </i>
   </energy>
  </scstep>
  <scstep>
   <time name="total">  185.52  185.32</time>
   <energy>
    <i name="e_fr_energy">    -34.89173966 </i>
    <i name="e_wo_entrp">    -34.89173966 </i>
    <i name="e_0_energy">    -34.89173966 </i>
   </energy>
  </scstep>
  <scstep>
   <time name="total">  372.61  372.49</time>
   <energy>
    <i name="alphaZ">     15.37241317 </i>
    <i name="ewald">   -588.30353609 </i>
    <i name="hartreedc">   -156.77678814 </i>
    <i name="XCdc">     -8.35630799 </i>
    <i name="pawpsdc">   4478.41828408 </i>
    <i name="pawaedc">  -4429.84489270 </i>
    <i name="eentropy">     -0.00000000 </i>
    <i name="bandstr">    -10.69469099 </i>
    <i name="atom">    629.47271184 </i>
    <i name="e_fr_energy">    -34.89174921 </i>
    <i name="e_wo_entrp">    -34.89174921 </i>
    <i name="e_0_energy">    -34.89174921 </i>
   </energy>
  </scstep>
  <structure>
   <crystal>
    <varray name="basis" >
     <v>       3.12858800       0.00000000       0.00000000 </v>
     <v>      -1.56429400       2.70943700       0.00000000 </v>
     <v>       0.00000000       0.00000000       5.01695500 </v>
    </varray>
    <i name="volume">     42.52728308 </i>
    <varray name="rec_basis" >
     <v>       0.31963301       0.18454018      -0.00000000 </v>
     <v>       0.00000000       0.36908037       0.00000000 </v>
     <v>       0.00000000      -0.00000000       0.19932409 </v>
    </varray>
   </crystal>
   <varray name="positions" >
    <v>       0.66666700       0.33333300       0.49928700 </v>
    <v>       0.33333300       0.66666700       0.99928700 </v>
    <v>       0.66666700       0.33333300       0.88071300 </v>
    <v>       0.33333300       0.66666700       0.38071300 </v>
   </varray>
  </structure>
  <varray name="forces" >
   <v>       0.00000000       0.00000000      -0.00470039 </v>
   <v>       0.00000000       0.00000000      -0.00470039 </v>
   <v>       0.00000000      -0.00000000       0.00470039 </v>
   <v>      -0.00000000       0.00000000       0.00470039 </v>
  </varray>
  <energy>
   <i name="e_fr_energy">    -34.89174921 </i>
   <i name="e_wo_entrp">    -34.89174921 </i>
   <i name="e_0_energy">    -34.89174921 </i>
  </energy>
  <time name="totalsc"> 3290.46 3287.97</time>
  <eigenvalues>
   <array>
    <dimension dim="1">band</dimension>
    <dimension dim="2">kpoint</dimension>
    <dimension dim="3">spin</dimension>
    <field>eigene</field>
    <field>occ</field>
    <set>
     <set comment="spin 1">
      <set comment="kpoint 1">
       <r>  -11.5560    1.0000 </r>
       <r>   -9.3408    1.0000 </r>
       <r>   -1.3499    1.0000 </r>
       <r>    4.1472    1.0000 </r>
       <r>    4.1473    1.0000 </r>
       <r>    4.8489    1.0000 </r>
       <r>    4.8489    1.0000 </r>
       <r>    5.0703    1.0000 </r>
       <r>   10.4486    0.0000 </r>
       <r>   13.0507    0.0000 </r>
       <r>   17.4873    0.0000 </r>
       <r>   17.7312    0.0000 </r>
      </set>
      <set comment="kpoint 2">
       <r>  -11.4226    1.0000 </r>
       <r>   -9.2664    1.0000 </r>
       <r>   -1.1925    1.0000 </r>
       <r>    3.5228    1.0000 </r>
       <r>    3.9619    1.0000 </r>
       <r>    4.2581    1.0000 </r>
       <r>    4.8252    1.0000 </r>
       <r>    5.0092    1.0000 </r>
       <r>   11.0488    0.0000 </r>
       <r>   13.5943    0.0000 </r>
       <r>   16.8342    0.0000 </r>
       <r>   16.9248    0.0000 </r>
      </set>
      <set comment="kpoint 3">
       <r>  -11.0408    1.0000 </r>
       <r>   -9.0716    1.0000 </r>
       <r>   -0.7171    1.0000 </r>
       <r>    2.1278    1.0000 </r>
       <r>    3.0588    1.0000 </r>
       <r>    3.5781    1.0000 </r>
       <r>    4.7090    1.0000 </r>
       <r>    4.7846    1.0000 </r>
       <r>   12.1612    0.0000 </r>
       <r>   14.2854    0.0000 </r>
       <r>   15.3040    0.0000 </r>
       <r>   16.3451    0.0000 </r>
      </set>
      <set comment="kpoint 4">
       <r>  -10.4718    1.0000 </r>
       <r>   -8.8517    1.0000 </r>
       <r>    0.0260    1.0000 </r>
       <r>    0.6728    1.0000 </r>
       <r>    1.8382    1.0000 </r>
       <r>    3.1840    1.0000 </r>
       <r>    4.3434    1.0000 </r>
       <r>    4.5381    1.0000 </r>
       <r>   12.7031    0.0000 </r>
       <r>   13.5413    0.0000 </r>
       <r>   14.4176    0.0000 </r>
       <r>   17.0016    0.0000 </r>
      </set>
      <set comment="kpoint 5">
       <r>   -9.8548    1.0000 </r>
       <r>   -8.7547    1.0000 </r>
       <r>   -0.3910    1.0000 </r>
       <r>    0.8481    1.0000 </r>
       <r>    0.9925    1.0000 </r>
       <r>    2.9029    1.0000 </r>
       <r>    3.6738    1.0000 </r>
       <r>    4.3730    1.0000 </r>
       <r>   12.3898    0.0000 </r>
       <r>   12.5631    0.0000 </r>
       <r>   14.5767    0.0000 </r>
       <r>   17.0286    0.0000 </r>
      </set>
      <set comment="kpoint 6">
       <r>   -9.5183    1.0000 </r>
       <r>   -8.7982    1.0000 </r>
       <r>   -0.7856    1.0000 </r>
       <r>    0.5622    1.0000 </r>
       <r>    1.4709    1.0000 </r>
       <r>    2.7994    1.0000 </r>
       <r>    3.1915    1.0000 </r>
       <r>    4.3030    1.0000 </r>
       <r>   12.2014    0.0000 </r>
       <r>   12.2062    0.0000 </r>
       <r>   14.6392    0.0000 </r>
       <r>   17.0524    0.0000 </r>
      </set>
      <set comment="kpoint 7">
       <r>  -11.1647    1.0000 </r>
       <r>   -9.1312    1.0000 </r>
       <r>   -0.8745    1.0000 </r>
       <r>    2.7322    1.0000 </r>
       <r>    3.0266    1.0000 </r>
       <r>    3.9568    1.0000 </r>
       <r>    4.6319    1.0000 </r>
       <r>    4.8670    1.0000 </r>
       <r>   11.9101    0.0000 </r>
       <r>   14.4061    0.0000 </r>
       <r>   15.8607    0.0000 </r>
       <r>   15.9596    0.0000 </r>
      </set>
      <set comment="kpoint 8">
       <r>  -10.6869    1.0000 </r>
       <r>   -8.9213    1.0000 </r>
       <r>   -0.2636    1.0000 </r>
       <r>    1.4095    1.0000 </r>
       <r>    2.0299    1.0000 </r>
       <r>    3.3568    1.0000 </r>
       <r>    4.3583    1.0000 </r>
       <r>    4.5401    1.0000 </r>
       <r>   12.9019    0.0000 </r>
       <r>   14.3331    0.0000 </r>
       <r>   14.6388    0.0000 </r>
       <r>   16.1244    0.0000 </r>
      </set>
      <set comment="kpoint 9">
       <r>  -10.0823    1.0000 </r>
       <r>   -8.7600    1.0000 </r>
       <r>    0.1468    1.0000 </r>
       <r>    0.5699    1.0000 </r>
       <r>    1.2333    1.0000 </r>
       <r>    2.7673    1.0000 </r>
       <r>    3.9784    1.0000 </r>
       <r>    4.1111    1.0000 </r>
       <r>   12.8910    0.0000 </r>
       <r>   13.1690    0.0000 </r>
       <r>   14.6578    0.0000 </r>
       <r>   16.8379    0.0000 </r>
      </set>
      <set comment="kpoint 10">
       <r>   -9.5526    1.0000 </r>
       <r>   -8.7683    1.0000 </r>
       <r>   -0.5768    1.0000 </r>
       <r>    0.7191    1.0000 </r>
       <r>    1.4045    1.0000 </r>
       <r>    2.4384    1.0000 </r>
       <r>    3.3134    1.0000 </r>
       <r>    3.9661    1.0000 </r>
       <r>   12.2143    0.0000 </r>
       <r>   12.8378    0.0000 </r>
       <r>   14.9062    0.0000 </r>
       <r>   16.9570    0.0000 </r>
      </set>
      <set comment="kpoint 11">
       <r>  -10.1657    1.0000 </r>
       <r>   -8.7651    1.0000 </r>
       <r>    0.4364    1.0000 </r>
       <r>    0.8078    1.0000 </r>
       <r>    0.9890    1.0000 </r>
       <r>    2.7700    1.0000 </r>
       <r>    3.7387    1.0000 </r>
       <r>    4.1068    1.0000 </r>
       <r>   13.1442    0.0000 </r>
       <r>   13.8275    0.0000 </r>
       <r>   15.0520    0.0000 </r>
       <r>   16.1457    0.0000 </r>
      </set>
      <set comment="kpoint 12">
       <r>   -9.6034    1.0000 </r>
       <r>   -8.7262    1.0000 </r>
       <r>   -0.0455    1.0000 </r>
       <r>    0.7826    1.0000 </r>
       <r>    1.3024    1.0000 </r>
       <r>    1.9931    1.0000 </r>
       <r>    3.2774    1.0000 </r>
       <r>    3.4940    1.0000 </r>
       <r>   12.1469    0.0000 </r>
       <r>   14.1114    0.0000 </r>
       <r>   15.4127    0.0000 </r>
       <r>   16.5967    0.0000 </r>
      </set>
      <set comment="kpoint 13">
       <r>   -9.2816    1.0000 </r>
       <r>   -8.8030    1.0000 </r>
       <r>   -0.3835    1.0000 </r>
       <r>    0.8704    1.0000 </r>
       <r>    1.5525    1.0000 </r>
       <r>    1.8629    1.0000 </r>
       <r>    3.0029    1.0000 </r>
       <r>    3.1418    1.0000 </r>
       <r>   11.7673    0.0000 </r>
       <r>   14.0684    0.0000 </r>
       <r>   15.6600    0.0000 </r>
       <r>   16.7198    0.0000 </r>
      </set>
      <set comment="kpoint 14">
       <r>   -9.1647    1.0000 </r>
       <r>   -8.8291    1.0000 </r>
       <r>   -0.0745    1.0000 </r>
       <r>    0.8020    1.0000 </r>
       <r>    1.2710    1.0000 </r>
       <r>    2.0685    1.0000 </r>
       <r>    2.5808    1.0000 </r>
       <r>    2.8939    1.0000 </r>
       <r>   11.5332    0.0000 </r>
       <r>   14.8556    0.0000 </r>
       <r>   16.0961    0.0000 </r>
       <r>   16.4843    0.0000 </r>
      </set>
      <set comment="kpoint 15">
       <r>  -11.4451    1.0000 </r>
       <r>   -9.5517    1.0000 </r>
       <r>   -0.9687    1.0000 </r>
       <r>    4.1806    1.0000 </r>
       <r>    4.1806    1.0000 </r>
       <r>    4.4380    1.0000 </r>
       <r>    4.7941    1.0000 </r>
       <r>    4.7941    1.0000 </r>
       <r>   10.9629    0.0000 </r>
       <r>   13.1209    0.0000 </r>
       <r>   17.2355    0.0000 </r>
       <r>   17.6950    0.0000 </r>
      </set>
      <set comment="kpoint 16">
       <r>  -11.3136    1.0000 </r>
       <r>   -9.4683    1.0000 </r>
       <r>   -0.8262    1.0000 </r>
       <r>    3.5760    1.0000 </r>
       <r>    3.9290    1.0000 </r>
       <r>    4.0119    1.0000 </r>
       <r>    4.7582    1.0000 </r>
       <r>    4.7639    1.0000 </r>
       <r>   11.4447    0.0000 </r>
       <r>   13.6564    0.0000 </r>
       <r>   16.5362    0.0000 </r>
       <r>   16.9336    0.0000 </r>
      </set>
      <set comment="kpoint 17">
       <r>  -10.9377    1.0000 </r>
       <r>   -9.2475    1.0000 </r>
       <r>   -0.4421    1.0000 </r>
       <r>    2.2306    1.0000 </r>
       <r>    2.8314    1.0000 </r>
       <r>    3.6422    1.0000 </r>
       <r>    4.6231    1.0000 </r>
       <r>    4.6422    1.0000 </r>
       <r>   12.2637    0.0000 </r>
       <r>   14.3402    0.0000 </r>
       <r>   15.2114    0.0000 </r>
       <r>   16.3692    0.0000 </r>
      </set>
      <set comment="kpoint 18">
       <r>  -10.3811    1.0000 </r>
       <r>   -8.9839    1.0000 </r>
       <r>   -0.1091    1.0000 </r>
       <r>    1.0384    1.0000 </r>
       <r>    1.7086    1.0000 </r>
       <r>    3.2571    1.0000 </r>
       <r>    4.3562    1.0000 </r>
       <r>    4.4269    1.0000 </r>
       <r>   12.3780    0.0000 </r>
       <r>   13.4505    0.0000 </r>
       <r>   14.9395    0.0000 </r>
       <r>   16.9186    0.0000 </r>
      </set>
      <set comment="kpoint 19">
       <r>   -9.7847    1.0000 </r>
       <r>   -8.8305    1.0000 </r>
       <r>   -0.6102    1.0000 </r>
       <r>    0.4923    1.0000 </r>
       <r>    1.5444    1.0000 </r>
       <r>    2.9833    1.0000 </r>
       <r>    3.8802    1.0000 </r>
       <r>    4.2528    1.0000 </r>
       <r>   11.9286    0.0000 </r>
       <r>   12.5675    0.0000 </r>
       <r>   15.2912    0.0000 </r>
       <r>   16.5266    0.0000 </r>
      </set>
      <set comment="kpoint 20">
       <r>   -9.4648    1.0000 </r>
       <r>   -8.8386    1.0000 </r>
       <r>   -0.9379    1.0000 </r>
       <r>    0.1859    1.0000 </r>
       <r>    1.8887    1.0000 </r>
       <r>    2.8856    1.0000 </r>
       <r>    3.5449    1.0000 </r>
       <r>    4.1927    1.0000 </r>
       <r>   11.7029    0.0000 </r>
       <r>   12.2673    0.0000 </r>
       <r>   15.4314    0.0000 </r>
       <r>   16.4092    0.0000 </r>
      </set>
      <set comment="kpoint 21">
       <r>  -11.0596    1.0000 </r>
       <r>   -9.3159    1.0000 </r>
       <r>   -0.5622    1.0000 </r>
       <r>    2.8479    1.0000 </r>
       <r>    2.8855    1.0000 </r>
       <r>    3.8290    1.0000 </r>
       <r>    4.5471    1.0000 </r>
       <r>    4.7248    1.0000 </r>
       <r>   12.1273    0.0000 </r>
       <r>   14.4477    0.0000 </r>
       <r>   15.5714    0.0000 </r>
       <r>   16.0619    0.0000 </r>
      </set>
      <set comment="kpoint 22">
       <r>  -10.5911    1.0000 </r>
       <r>   -9.0710    1.0000 </r>
       <r>   -0.1426    1.0000 </r>
       <r>    1.5392    1.0000 </r>
       <r>    2.0135    1.0000 </r>
       <r>    3.2871    1.0000 </r>
       <r>    4.2267    1.0000 </r>
       <r>    4.5526    1.0000 </r>
       <r>   12.7659    0.0000 </r>
       <r>   14.1842    0.0000 </r>
       <r>   14.9021    0.0000 </r>
       <r>   16.1965    0.0000 </r>
      </set>
      <set comment="kpoint 23">
       <r>  -10.0031    1.0000 </r>
       <r>   -8.8586    1.0000 </r>
       <r>   -0.1930    1.0000 </r>
       <r>    0.7142    1.0000 </r>
       <r>    1.5137    1.0000 </r>
       <r>    2.7798    1.0000 </r>
       <r>    3.9075    1.0000 </r>
       <r>    4.2100    1.0000 </r>
       <r>   12.4630    0.0000 </r>
       <r>   13.2914    0.0000 </r>
       <r>   15.0027    0.0000 </r>
       <r>   16.7423    0.0000 </r>
      </set>
      <set comment="kpoint 24">
       <r>   -9.4967    1.0000 </r>
       <r>   -8.8148    1.0000 </r>
       <r>   -0.7342    1.0000 </r>
       <r>    0.3315    1.0000 </r>
       <r>    1.7798    1.0000 </r>
       <r>    2.5963    1.0000 </r>
       <r>    3.5529    1.0000 </r>
       <r>    3.9059    1.0000 </r>
       <r>   11.9281    0.0000 </r>
       <r>   12.8830    0.0000 </r>
       <r>   15.3832    0.0000 </r>
       <r>   16.4304    0.0000 </r>
      </set>
      <set comment="kpoint 25">
       <r>  -10.0836    1.0000 </r>
       <r>   -8.8724    1.0000 </r>
       <r>    0.1123    1.0000 </r>
       <r>    0.7338    1.0000 </r>
       <r>    1.6422    1.0000 </r>
       <r>    2.5794    1.0000 </r>
       <r>    3.5954    1.0000 </r>
       <r>    4.2887    1.0000 </r>
       <r>   13.1886    0.0000 </r>
       <r>   13.5118    0.0000 </r>
       <r>   15.1648    0.0000 </r>
       <r>   16.2451    0.0000 </r>
      </set>
      <set comment="kpoint 26">
       <r>   -9.5436    1.0000 </r>
       <r>   -8.7816    1.0000 </r>
       <r>   -0.1860    1.0000 </r>
       <r>    0.3806    1.0000 </r>
       <r>    1.6814    1.0000 </r>
       <r>    2.1399    1.0000 </r>
       <r>    3.0855    1.0000 </r>
       <r>    3.8511    1.0000 </r>
       <r>   12.3034    0.0000 </r>
       <r>   13.9645    0.0000 </r>
       <r>   15.1898    0.0000 </r>
       <r>   16.4495    0.0000 </r>
      </set>
      <set comment="kpoint 27">
       <r>   -9.2418    1.0000 </r>
       <r>   -8.8253    1.0000 </r>
       <r>   -0.4739    1.0000 </r>
       <r>    0.4823    1.0000 </r>
       <r>    1.2868    1.0000 </r>
       <r>    2.5500    1.0000 </r>
       <r>    2.8447    1.0000 </r>
       <r>    3.5169    1.0000 </r>
       <r>   11.9553    0.0000 </r>
       <r>   14.0369    0.0000 </r>
       <r>   15.4062    0.0000 </r>
       <r>   16.2265    0.0000 </r>
      </set>
      <set comment="kpoint 28">
       <r>   -9.1331    1.0000 </r>
       <r>   -8.8408    1.0000 </r>
       <r>   -0.0220    1.0000 </r>
       <r>    0.3780    1.0000 </r>
       <r>    0.9382    1.0000 </r>
       <r>    2.3157    1.0000 </r>
       <r>    2.7221    1.0000 </r>
       <r>    3.3757    1.0000 </r>
       <r>   11.9152    0.0000 </r>
       <r>   14.7411    0.0000 </r>
       <r>   15.4950    0.0000 </r>
       <r>   16.0056    0.0000 </r>
      </set>
      <set comment="kpoint 29">
       <r>  -11.1238    1.0000 </r>
       <r>  -10.0561    1.0000 </r>
       <r>    0.0694    1.0000 </r>
       <r>    3.0474    1.0000 </r>
       <r>    4.2996    1.0000 </r>
       <r>    4.2997    1.0000 </r>
       <r>    4.6567    1.0000 </r>
       <r>    4.6567    1.0000 </r>
       <r>   11.9876    0.0000 </r>
       <r>   13.1905    0.0000 </r>
       <r>   16.8642    0.0000 </r>
       <r>   17.7225    0.0000 </r>
      </set>
      <set comment="kpoint 30">
       <r>  -10.9982    1.0000 </r>
       <r>   -9.9558    1.0000 </r>
       <r>    0.1432    1.0000 </r>
       <r>    2.8221    1.0000 </r>
       <r>    3.8111    1.0000 </r>
       <r>    4.1612    1.0000 </r>
       <r>    4.4162    1.0000 </r>
       <r>    4.5891    1.0000 </r>
       <r>   12.3159    0.0000 </r>
       <r>   13.6632    0.0000 </r>
       <r>   16.1019    0.0000 </r>
       <r>   16.7780    0.0000 </r>
      </set>
      <set comment="kpoint 31">
       <r>  -10.6414    1.0000 </r>
       <r>   -9.6819    1.0000 </r>
       <r>    0.2528    1.0000 </r>
       <r>    1.9597    1.0000 </r>
       <r>    2.8562    1.0000 </r>
       <r>    3.8283    1.0000 </r>
       <r>    4.1711    1.0000 </r>
       <r>    4.3944    1.0000 </r>
       <r>   12.6313    0.0000 </r>
       <r>   14.0159    0.0000 </r>
       <r>   15.3794    0.0000 </r>
       <r>   16.3333    0.0000 </r>
      </set>
      <set comment="kpoint 32">
       <r>  -10.1231    1.0000 </r>
       <r>   -9.3228    1.0000 </r>
       <r>   -0.0601    1.0000 </r>
       <r>    0.8032    1.0000 </r>
       <r>    2.3404    1.0000 </r>
       <r>    3.4737    1.0000 </r>
       <r>    4.1007    1.0000 </r>
       <r>    4.1420    1.0000 </r>
       <r>   12.1723    0.0000 </r>
       <r>   13.1732    0.0000 </r>
       <r>   15.5186    0.0000 </r>
       <r>   16.7073    0.0000 </r>
      </set>
      <set comment="kpoint 33">
       <r>   -9.5896    1.0000 </r>
       <r>   -9.0370    1.0000 </r>
       <r>   -0.7645    1.0000 </r>
       <r>   -0.1104    1.0000 </r>
       <r>    2.5530    1.0000 </r>
       <r>    3.2164    1.0000 </r>
       <r>    3.9455    1.0000 </r>
       <r>    4.0007    1.0000 </r>
       <r>   11.5524    0.0000 </r>
       <r>   12.4665    0.0000 </r>
       <r>   15.5844    0.0000 </r>
       <r>   16.4730    0.0000 </r>
      </set>
      <set comment="kpoint 34">
       <r>   -9.3222    1.0000 </r>
       <r>   -8.9570    1.0000 </r>
       <r>   -1.0876    1.0000 </r>
       <r>   -0.4677    1.0000 </r>
       <r>    2.7754    1.0000 </r>
       <r>    3.1261    1.0000 </r>
       <r>    3.8741    1.0000 </r>
       <r>    3.8986    1.0000 </r>
       <r>   11.3013    0.0000 </r>
       <r>   12.2117    0.0000 </r>
       <r>   15.5864    0.0000 </r>
       <r>   16.3294    0.0000 </r>
      </set>
      <set comment="kpoint 35">
       <r>  -10.7567    1.0000 </r>
       <r>   -9.7685    1.0000 </r>
       <r>    0.2433    1.0000 </r>
       <r>    2.2654    1.0000 </r>
       <r>    3.1779    1.0000 </r>
       <r>    3.7834    1.0000 </r>
       <r>    4.3386    1.0000 </r>
       <r>    4.3409    1.0000 </r>
       <r>   12.6948    0.0000 </r>
       <r>   14.1965    0.0000 </r>
       <r>   15.3983    0.0000 </r>
       <r>   16.1661    0.0000 </r>
      </set>
      <set comment="kpoint 36">
       <r>  -10.3168    1.0000 </r>
       <r>   -9.4492    1.0000 </r>
       <r>    0.1903    1.0000 </r>
       <r>    1.2537    1.0000 </r>
       <r>    2.5332    1.0000 </r>
       <r>    3.3231    1.0000 </r>
       <r>    3.9351    1.0000 </r>
       <r>    4.3042    1.0000 </r>
       <r>   12.7442    0.0000 </r>
       <r>   13.7210    0.0000 </r>
       <r>   15.4644    0.0000 </r>
       <r>   16.2866    0.0000 </r>
      </set>
      <set comment="kpoint 37">
       <r>   -9.7802    1.0000 </r>
       <r>   -9.1204    1.0000 </r>
       <r>   -0.3445    1.0000 </r>
       <r>    0.2868    1.0000 </r>
       <r>    2.3727    1.0000 </r>
       <r>    3.0295    1.0000 </r>
       <r>    3.5746    1.0000 </r>
       <r>    4.2481    1.0000 </r>
       <r>   12.1800    0.0000 </r>
       <r>   13.0731    0.0000 </r>
       <r>   15.4675    0.0000 </r>
       <r>   16.8168    0.0000 </r>
      </set>
      <set comment="kpoint 38">
       <r>   -9.3455    1.0000 </r>
       <r>   -8.9484    1.0000 </r>
       <r>   -0.8863    1.0000 </r>
       <r>   -0.2949    1.0000 </r>
       <r>    2.3240    1.0000 </r>
       <r>    3.1603    1.0000 </r>
       <r>    3.3467    1.0000 </r>
       <r>    4.1178    1.0000 </r>
       <r>   11.6988    0.0000 </r>
       <r>   12.7239    0.0000 </r>
       <r>   15.6067    0.0000 </r>
       <r>   16.5502    0.0000 </r>
      </set>
      <set comment="kpoint 39">
       <r>   -9.8515    1.0000 </r>
       <r>   -9.1544    1.0000 </r>
       <r>   -0.0330    1.0000 </r>
       <r>    0.4690    1.0000 </r>
       <r>    2.4798    1.0000 </r>
       <r>    2.5945    1.0000 </r>
       <r>    3.3194    1.0000 </r>
       <r>    4.3207    1.0000 </r>
       <r>   13.0780    0.0000 </r>
       <r>   13.1691    0.0000 </r>
       <r>   15.5543    0.0000 </r>
       <r>   16.3522    0.0000 </r>
      </set>
      <set comment="kpoint 40">
       <r>   -9.3800    1.0000 </r>
       <r>   -8.9373    1.0000 </r>
       <r>   -0.3873    1.0000 </r>
       <r>   -0.0271    1.0000 </r>
       <r>    1.7108    1.0000 </r>
       <r>    2.5155    1.0000 </r>
       <r>    3.2379    1.0000 </r>
       <r>    4.2202    1.0000 </r>
       <r>   12.5659    0.0000 </r>
       <r>   13.4649    0.0000 </r>
       <r>   15.2886    0.0000 </r>
       <r>   16.1155    0.0000 </r>
      </set>
      <set comment="kpoint 41">
       <r>   -9.1378    1.0000 </r>
       <r>   -8.8947    1.0000 </r>
       <r>   -0.6082    1.0000 </r>
       <r>   -0.1277    1.0000 </r>
       <r>    1.3862    1.0000 </r>
       <r>    2.3543    1.0000 </r>
       <r>    3.4715    1.0000 </r>
       <r>    4.0809    1.0000 </r>
       <r>   12.3202    0.0000 </r>
       <r>   13.6501    0.0000 </r>
       <r>   15.3385    0.0000 </r>
       <r>   15.5996    0.0000 </r>
      </set>
      <set comment="kpoint 42">
       <r>   -9.0528    1.0000 </r>
       <r>   -8.8822    1.0000 </r>
       <r>   -0.0866    1.0000 </r>
       <r>   -0.0737    1.0000 </r>
       <r>    0.7804    1.0000 </r>
       <r>    1.7847    1.0000 </r>
       <r>    3.6218    1.0000 </r>
       <r>    4.0273    1.0000 </r>
       <r>   12.7978    0.0000 </r>
       <r>   14.1352    0.0000 </r>
       <r>   14.9946    0.0000 </r>
       <r>   15.1074    0.0000 </r>
      </set>
      <set comment="kpoint 43">
       <r>  -10.6323    1.0000 </r>
       <r>  -10.6323    1.0000 </r>
       <r>    1.4952    1.0000 </r>
       <r>    1.4952    1.0000 </r>
       <r>    4.4749    1.0000 </r>
       <r>    4.4749    1.0000 </r>
       <r>    4.4749    1.0000 </r>
       <r>    4.4749    1.0000 </r>
       <r>   12.8626    0.0000 </r>
       <r>   12.8626    0.0000 </r>
       <r>   16.9470    0.0000 </r>
       <r>   16.9470    0.0000 </r>
      </set>
      <set comment="kpoint 44">
       <r>  -10.5170    1.0000 </r>
       <r>  -10.5170    1.0000 </r>
       <r>    1.4577    1.0000 </r>
       <r>    1.4577    1.0000 </r>
       <r>    4.0947    1.0000 </r>
       <r>    4.0947    1.0000 </r>
       <r>    4.3687    1.0000 </r>
       <r>    4.3687    1.0000 </r>
       <r>   13.1953    0.0000 </r>
       <r>   13.1953    0.0000 </r>
       <r>   16.2484    0.0000 </r>
       <r>   16.2484    0.0000 </r>
      </set>
      <set comment="kpoint 45">
       <r>  -10.1947    1.0000 </r>
       <r>  -10.1947    1.0000 </r>
       <r>    1.1287    1.0000 </r>
       <r>    1.1287    1.0000 </r>
       <r>    3.4750    1.0000 </r>
       <r>    3.4750    1.0000 </r>
       <r>    4.0969    1.0000 </r>
       <r>    4.0969    1.0000 </r>
       <r>   13.2780    0.0000 </r>
       <r>   13.2780    0.0000 </r>
       <r>   15.9220    0.0000 </r>
       <r>   15.9221    0.0000 </r>
      </set>
      <set comment="kpoint 46">
       <r>   -9.7425    1.0000 </r>
       <r>   -9.7425    1.0000 </r>
       <r>    0.2812    1.0000 </r>
       <r>    0.2812    1.0000 </r>
       <r>    3.3479    1.0000 </r>
       <r>    3.3479    1.0000 </r>
       <r>    3.7935    1.0000 </r>
       <r>    3.7935    1.0000 </r>
       <r>   12.5554    0.0000 </r>
       <r>   12.5554    0.0000 </r>
       <r>   16.1795    0.0000 </r>
       <r>   16.1795    0.0000 </r>
      </set>
      <set comment="kpoint 47">
       <r>   -9.3165    1.0000 </r>
       <r>   -9.3165    1.0000 </r>
       <r>   -0.5878    1.0000 </r>
       <r>   -0.5878    1.0000 </r>
       <r>    3.5057    1.0000 </r>
       <r>    3.5057    1.0000 </r>
       <r>    3.5594    1.0000 </r>
       <r>    3.5594    1.0000 </r>
       <r>   11.9040    0.0000 </r>
       <r>   11.9040    0.0000 </r>
       <r>   15.9406    0.0000 </r>
       <r>   15.9406    0.0000 </r>
      </set>
      <set comment="kpoint 48">
       <r>   -9.1340    1.0000 </r>
       <r>   -9.1340    1.0000 </r>
       <r>   -0.9457    1.0000 </r>
       <r>   -0.9457    1.0000 </r>
       <r>    3.4762    1.0000 </r>
       <r>    3.4762    1.0000 </r>
       <r>    3.5969    1.0000 </r>
       <r>    3.5969    1.0000 </r>
       <r>   11.6625    0.0000 </r>
       <r>   11.6625    0.0000 </r>
       <r>   15.7621    0.0000 </r>
       <r>   15.7621    0.0000 </r>
      </set>
      <set comment="kpoint 49">
       <r>  -10.2980    1.0000 </r>
       <r>  -10.2980    1.0000 </r>
       <r>    1.2797    1.0000 </r>
       <r>    1.2797    1.0000 </r>
       <r>    3.6340    1.0000 </r>
       <r>    3.6340    1.0000 </r>
       <r>    4.1271    1.0000 </r>
       <r>    4.1271    1.0000 </r>
       <r>   13.4541    0.0000 </r>
       <r>   13.4541    0.0000 </r>
       <r>   15.8167    0.0000 </r>
       <r>   15.8167    0.0000 </r>
      </set>
      <set comment="kpoint 50">
       <r>   -9.9081    1.0000 </r>
       <r>   -9.9081    1.0000 </r>
       <r>    0.6930    1.0000 </r>
       <r>    0.6930    1.0000 </r>
       <r>    3.2669    1.0000 </r>
       <r>    3.2669    1.0000 </r>
       <r>    3.8163    1.0000 </r>
       <r>    3.8163    1.0000 </r>
       <r>   13.1220    0.0000 </r>
       <r>   13.1220    0.0000 </r>
       <r>   16.0578    0.0000 </r>
       <r>   16.0578    0.0000 </r>
      </set>
      <set comment="kpoint 51">
       <r>   -9.4601    1.0000 </r>
       <r>   -9.4601    1.0000 </r>
       <r>   -0.1521    1.0000 </r>
       <r>   -0.1521    1.0000 </r>
       <r>    3.0038    1.0000 </r>
       <r>    3.0038    1.0000 </r>
       <r>    3.7810    1.0000 </r>
       <r>    3.7810    1.0000 </r>
       <r>   12.4910    0.0000 </r>
       <r>   12.4910    0.0000 </r>
       <r>   16.1636    0.0000 </r>
       <r>   16.1636    0.0000 </r>
      </set>
      <set comment="kpoint 52">
       <r>   -9.1427    1.0000 </r>
       <r>   -9.1427    1.0000 </r>
       <r>   -0.7469    1.0000 </r>
       <r>   -0.7469    1.0000 </r>
       <r>    2.8186    1.0000 </r>
       <r>    2.8186    1.0000 </r>
       <r>    3.8961    1.0000 </r>
       <r>    3.8961    1.0000 </r>
       <r>   12.0906    0.0000 </r>
       <r>   12.0906    0.0000 </r>
       <r>   15.9408    0.0000 </r>
       <r>   15.9408    0.0000 </r>
      </set>
      <set comment="kpoint 53">
       <r>   -9.5154    1.0000 </r>
       <r>   -9.5154    1.0000 </r>
       <r>    0.1335    1.0000 </r>
       <r>    0.1335    1.0000 </r>
       <r>    2.6791    1.0000 </r>
       <r>    2.6791    1.0000 </r>
       <r>    3.8091    1.0000 </r>
       <r>    3.8091    1.0000 </r>
       <r>   13.0266    0.0000 </r>
       <r>   13.0266    0.0000 </r>
       <r>   16.0831    0.0000 </r>
       <r>   16.0831    0.0000 </r>
      </set>
      <set comment="kpoint 54">
       <r>   -9.1569    1.0000 </r>
       <r>   -9.1569    1.0000 </r>
       <r>   -0.3355    1.0000 </r>
       <r>   -0.3355    1.0000 </r>
       <r>    2.0475    1.0000 </r>
       <r>    2.0475    1.0000 </r>
       <r>    4.0029    1.0000 </r>
       <r>    4.0029    1.0000 </r>
       <r>   12.9143    0.0000 </r>
       <r>   12.9143    0.0000 </r>
       <r>   15.7114    0.0000 </r>
       <r>   15.7114    0.0000 </r>
      </set>
      <set comment="kpoint 55">
       <r>   -9.0076    1.0000 </r>
       <r>   -9.0076    1.0000 </r>
       <r>   -0.5234    1.0000 </r>
       <r>   -0.5234    1.0000 </r>
       <r>    1.8012    1.0000 </r>
       <r>    1.8012    1.0000 </r>
       <r>    4.0950    1.0000 </r>
       <r>    4.0950    1.0000 </r>
       <r>   12.8665    0.0000 </r>
       <r>   12.8665    0.0000 </r>
       <r>   15.4979    0.0000 </r>
       <r>   15.4979    0.0000 </r>
      </set>
      <set comment="kpoint 56">
       <r>   -8.9579    1.0000 </r>
       <r>   -8.9579    1.0000 </r>
       <r>   -0.2253    1.0000 </r>
       <r>   -0.2253    1.0000 </r>
       <r>    1.1843    1.0000 </r>
       <r>    1.1843    1.0000 </r>
       <r>    4.1616    1.0000 </r>
       <r>    4.1616    1.0000 </r>
       <r>   13.5522    0.0000 </r>
       <r>   13.5522    0.0000 </r>
       <r>   14.7491    0.0000 </r>
       <r>   14.7491    0.0000 </r>
      </set>
     </set>
    </set>
   </array>
  </eigenvalues>
  <separator name="orbital magnetization" >
   <v name="MAGDIPOLOUT">      0.00000000      0.00000000      0.00000000</v>
  </separator>
  <dos>
   <i name="efermi">      5.34941313 </i>
   <total>
    <array>
     <dimension dim="1">gridpoints</dimension>
     <dimension dim="2">spin</dimension>
     <field>energy</field>
     <field>total</field>
     <field>integrated</field>
     <set>
      <set comment="spin 1">
       <r>   -13.0203     0.0000     0.0000 </r>
       <r>   -12.9129     0.0000     0.0000 </r>
       <r>   -12.8056     0.0000     0.0000 </r>
       <r>   -12.6982     0.0000     0.0000 </r>
       <r>   -12.5908     0.0000     0.0000 </r>
       <r>   -12.4834     0.0000     0.0000 </r>
       <r>   -12.3760     0.0000     0.0000 </r>
       <r>   -12.2686     0.0000     0.0000 </r>
       <r>   -12.1612     0.0000     0.0000 </r>
       <r>   -12.0539     0.0000     0.0000 </r>
       <r>   -11.9465     0.0000     0.0000 </r>
       <r>   -11.8391     0.0000     0.0000 </r>
       <r>   -11.7317     0.0000     0.0000 </r>
       <r>   -11.6243     0.0008     0.0001 </r>
       <r>   -11.5169     0.0281     0.0031 </r>
       <r>   -11.4095     0.1758     0.0220 </r>
       <r>   -11.3021     0.3083     0.0551 </r>
       <r>   -11.1948     0.1770     0.0741 </r>
       <r>   -11.0874     0.2983     0.1061 </r>
       <r>   -10.9800     0.7608     0.1878 </r>
       <r>   -10.8726     0.4426     0.2354 </r>
       <r>   -10.7652     0.1682     0.2534 </r>
       <r>   -10.6578     0.6676     0.3251 </r>
       <r>   -10.5504     1.0714     0.4402 </r>
       <r>   -10.4431     0.5575     0.5000 </r>
       <r>   -10.3357     0.6403     0.5688 </r>
       <r>   -10.2283     0.9380     0.6695 </r>
       <r>   -10.1209     0.7784     0.7531 </r>
       <r>   -10.0135     1.1822     0.8801 </r>
       <r>    -9.9061     1.2307     1.0122 </r>
       <r>    -9.7987     1.3201     1.1540 </r>
       <r>    -9.6914     1.5640     1.3219 </r>
       <r>    -9.5840     0.9277     1.4216 </r>
       <r>    -9.4766     2.7913     1.7213 </r>
       <r>    -9.3692     2.4713     1.9867 </r>
       <r>    -9.2618     2.4742     2.2524 </r>
       <r>    -9.1544     2.1435     2.4826 </r>
       <r>    -9.0470     3.5892     2.8680 </r>
       <r>    -8.9397     2.6493     3.1525 </r>
       <r>    -8.8323     3.9447     3.5761 </r>
       <r>    -8.7249     3.5541     3.9578 </r>
       <r>    -8.6175     0.3929     4.0000 </r>
       <r>    -8.5101     0.0004     4.0000 </r>
       <r>    -8.4027     0.0000     4.0000 </r>
       <r>    -8.2953     0.0000     4.0000 </r>
       <r>    -8.1880     0.0000     4.0000 </r>
       <r>    -8.0806     0.0000     4.0000 </r>
       <r>    -7.9732     0.0000     4.0000 </r>
       <r>    -7.8658     0.0000     4.0000 </r>
       <r>    -7.7584     0.0000     4.0000 </r>
       <r>    -7.6510     0.0000     4.0000 </r>
       <r>    -7.5436     0.0000     4.0000 </r>
       <r>    -7.4362     0.0000     4.0000 </r>
       <r>    -7.3289     0.0000     4.0000 </r>
       <r>    -7.2215     0.0000     4.0000 </r>
       <r>    -7.1141     0.0000     4.0000 </r>
       <r>    -7.0067     0.0000     4.0000 </r>
       <r>    -6.8993     0.0000     4.0000 </r>
       <r>    -6.7919     0.0000     4.0000 </r>
       <r>    -6.6845     0.0000     4.0000 </r>
       <r>    -6.5772     0.0000     4.0000 </r>
       <r>    -6.4698     0.0000     4.0000 </r>
       <r>    -6.3624     0.0000     4.0000 </r>
       <r>    -6.2550     0.0000     4.0000 </r>
       <r>    -6.1476     0.0000     4.0000 </r>
       <r>    -6.0402     0.0000     4.0000 </r>
       <r>    -5.9328     0.0000     4.0000 </r>
       <r>    -5.8255     0.0000     4.0000 </r>
       <r>    -5.7181     0.0000     4.0000 </r>
       <r>    -5.6107     0.0000     4.0000 </r>
       <r>    -5.5033     0.0000     4.0000 </r>
       <r>    -5.3959     0.0000     4.0000 </r>
       <r>    -5.2885     0.0000     4.0000 </r>
       <r>    -5.1811     0.0000     4.0000 </r>
       <r>    -5.0738     0.0000     4.0000 </r>
       <r>    -4.9664     0.0000     4.0000 </r>
       <r>    -4.8590     0.0000     4.0000 </r>
       <r>    -4.7516     0.0000     4.0000 </r>
       <r>    -4.6442     0.0000     4.0000 </r>
       <r>    -4.5368     0.0000     4.0000 </r>
       <r>    -4.4294     0.0000     4.0000 </r>
       <r>    -4.3220     0.0000     4.0000 </r>
       <r>    -4.2147     0.0000     4.0000 </r>
       <r>    -4.1073     0.0000     4.0000 </r>
       <r>    -3.9999     0.0000     4.0000 </r>
       <r>    -3.8925     0.0000     4.0000 </r>
       <r>    -3.7851     0.0000     4.0000 </r>
       <r>    -3.6777     0.0000     4.0000 </r>
       <r>    -3.5703     0.0000     4.0000 </r>
       <r>    -3.4630     0.0000     4.0000 </r>
       <r>    -3.3556     0.0000     4.0000 </r>
       <r>    -3.2482     0.0000     4.0000 </r>
       <r>    -3.1408     0.0000     4.0000 </r>
       <r>    -3.0334     0.0000     4.0000 </r>
       <r>    -2.9260     0.0000     4.0000 </r>
       <r>    -2.8186     0.0000     4.0000 </r>
       <r>    -2.7113     0.0000     4.0000 </r>
       <r>    -2.6039     0.0000     4.0000 </r>
       <r>    -2.4965     0.0000     4.0000 </r>
       <r>    -2.3891     0.0000     4.0000 </r>
       <r>    -2.2817     0.0000     4.0000 </r>
       <r>    -2.1743     0.0000     4.0000 </r>
       <r>    -2.0669     0.0000     4.0000 </r>
       <r>    -1.9596     0.0000     4.0000 </r>
       <r>    -1.8522     0.0000     4.0000 </r>
       <r>    -1.7448     0.0000     4.0000 </r>
       <r>    -1.6374     0.0000     4.0000 </r>
       <r>    -1.5300     0.0000     4.0000 </r>
       <r>    -1.4226     0.0006     4.0001 </r>
       <r>    -1.3152     0.0254     4.0028 </r>
       <r>    -1.2079     0.0669     4.0100 </r>
       <r>    -1.1005     0.1902     4.0304 </r>
       <r>    -0.9931     0.1638     4.0480 </r>
       <r>    -0.8857     0.8343     4.1376 </r>
       <r>    -0.7783     1.2367     4.2704 </r>
       <r>    -0.6709     1.7426     4.4575 </r>
       <r>    -0.5635     1.4474     4.6129 </r>
       <r>    -0.4561     1.3326     4.7560 </r>
       <r>    -0.3488     2.0216     4.9731 </r>
       <r>    -0.2414     2.1965     5.2090 </r>
       <r>    -0.1340     3.0644     5.5381 </r>
       <r>    -0.0266     3.5178     5.9158 </r>
       <r>     0.0808     1.3037     6.0558 </r>
       <r>     0.1882     1.7836     6.2474 </r>
       <r>     0.2956     2.0427     6.4667 </r>
       <r>     0.4029     1.9820     6.6796 </r>
       <r>     0.5103     1.3380     6.8233 </r>
       <r>     0.6177     0.6722     6.8954 </r>
       <r>     0.7251     1.6691     7.0747 </r>
       <r>     0.8325     2.1274     7.3031 </r>
       <r>     0.9399     0.7156     7.3800 </r>
       <r>     1.0473     0.7340     7.4588 </r>
       <r>     1.1546     0.5344     7.5162 </r>
       <r>     1.2620     1.4351     7.6703 </r>
       <r>     1.3694     1.5742     7.8393 </r>
       <r>     1.4768     1.3733     7.9868 </r>
       <r>     1.5842     1.9543     8.1967 </r>
       <r>     1.6916     1.2969     8.3359 </r>
       <r>     1.7990     2.0658     8.5578 </r>
       <r>     1.9063     1.0205     8.6674 </r>
       <r>     2.0137     1.3060     8.8076 </r>
       <r>     2.1211     1.8151     9.0025 </r>
       <r>     2.2285     0.8925     9.0984 </r>
       <r>     2.3359     1.6312     9.2735 </r>
       <r>     2.4433     1.7509     9.4616 </r>
       <r>     2.5507     2.2063     9.6985 </r>
       <r>     2.6580     2.2547     9.9406 </r>
       <r>     2.7654     1.4844    10.1000 </r>
       <r>     2.8728     3.4451    10.4700 </r>
       <r>     2.9802     1.5426    10.6356 </r>
       <r>     3.0876     2.3404    10.8869 </r>
       <r>     3.1950     2.0230    11.1042 </r>
       <r>     3.3024     3.5895    11.4896 </r>
       <r>     3.4098     3.1746    11.8305 </r>
       <r>     3.5171     2.2989    12.0774 </r>
       <r>     3.6245     3.7814    12.4835 </r>
       <r>     3.7319     1.2738    12.6203 </r>
       <r>     3.8393     3.4469    12.9904 </r>
       <r>     3.9467     5.0266    13.5302 </r>
       <r>     4.0541     3.5497    13.9114 </r>
       <r>     4.1615     4.2222    14.3648 </r>
       <r>     4.2688     4.3370    14.8305 </r>
       <r>     4.3762     3.7583    15.2341 </r>
       <r>     4.4836     1.7375    15.4207 </r>
       <r>     4.5910     1.8336    15.6176 </r>
       <r>     4.6984     1.4336    15.7715 </r>
       <r>     4.8058     1.3653    15.9182 </r>
       <r>     4.9132     0.5241    15.9744 </r>
       <r>     5.0205     0.1397    15.9894 </r>
       <r>     5.1279     0.0966    15.9998 </r>
       <r>     5.2353     0.0017    16.0000 </r>
       <r>     5.3427     0.0000    16.0000 </r>
       <r>     5.4501     0.0000    16.0000 </r>
       <r>     5.5575     0.0000    16.0000 </r>
       <r>     5.6649     0.0000    16.0000 </r>
       <r>     5.7722     0.0000    16.0000 </r>
       <r>     5.8796     0.0000    16.0000 </r>
       <r>     5.9870     0.0000    16.0000 </r>
       <r>     6.0944     0.0000    16.0000 </r>
       <r>     6.2018     0.0000    16.0000 </r>
       <r>     6.3092     0.0000    16.0000 </r>
       <r>     6.4166     0.0000    16.0000 </r>
       <r>     6.5239     0.0000    16.0000 </r>
       <r>     6.6313     0.0000    16.0000 </r>
       <r>     6.7387     0.0000    16.0000 </r>
       <r>     6.8461     0.0000    16.0000 </r>
       <r>     6.9535     0.0000    16.0000 </r>
       <r>     7.0609     0.0000    16.0000 </r>
       <r>     7.1683     0.0000    16.0000 </r>
       <r>     7.2757     0.0000    16.0000 </r>
       <r>     7.3830     0.0000    16.0000 </r>
       <r>     7.4904     0.0000    16.0000 </r>
       <r>     7.5978     0.0000    16.0000 </r>
       <r>     7.7052     0.0000    16.0000 </r>
       <r>     7.8126     0.0000    16.0000 </r>
       <r>     7.9200     0.0000    16.0000 </r>
       <r>     8.0274     0.0000    16.0000 </r>
       <r>     8.1347     0.0000    16.0000 </r>
       <r>     8.2421     0.0000    16.0000 </r>
       <r>     8.3495     0.0000    16.0000 </r>
       <r>     8.4569     0.0000    16.0000 </r>
       <r>     8.5643     0.0000    16.0000 </r>
       <r>     8.6717     0.0000    16.0000 </r>
       <r>     8.7791     0.0000    16.0000 </r>
       <r>     8.8864     0.0000    16.0000 </r>
       <r>     8.9938     0.0000    16.0000 </r>
       <r>     9.1012     0.0000    16.0000 </r>
       <r>     9.2086     0.0000    16.0000 </r>
       <r>     9.3160     0.0000    16.0000 </r>
       <r>     9.4234     0.0000    16.0000 </r>
       <r>     9.5308     0.0000    16.0000 </r>
       <r>     9.6381     0.0000    16.0000 </r>
       <r>     9.7455     0.0000    16.0000 </r>
       <r>     9.8529     0.0000    16.0000 </r>
       <r>     9.9603     0.0000    16.0000 </r>
       <r>    10.0677     0.0000    16.0000 </r>
       <r>    10.1751     0.0000    16.0000 </r>
       <r>    10.2825     0.0000    16.0000 </r>
       <r>    10.3898     0.0015    16.0002 </r>
       <r>    10.4972     0.0269    16.0031 </r>
       <r>    10.6046     0.0026    16.0033 </r>
       <r>    10.7120     0.0000    16.0033 </r>
       <r>    10.8194     0.0000    16.0033 </r>
       <r>    10.9268     0.0096    16.0044 </r>
       <r>    11.0342     0.1143    16.0166 </r>
       <r>    11.1416     0.1237    16.0299 </r>
       <r>    11.2489     0.0137    16.0314 </r>
       <r>    11.3563     0.1645    16.0491 </r>
       <r>    11.4637     0.2783    16.0789 </r>
       <r>    11.5711     0.5251    16.1353 </r>
       <r>    11.6785     0.5198    16.1912 </r>
       <r>    11.7859     0.8581    16.2833 </r>
       <r>    11.8933     0.5580    16.3432 </r>
       <r>    12.0006     1.9048    16.5478 </r>
       <r>    12.1080     0.7981    16.6335 </r>
       <r>    12.2154     2.3551    16.8864 </r>
       <r>    12.3228     1.9650    17.0974 </r>
       <r>    12.4302     1.2805    17.2349 </r>
       <r>    12.5376     1.9928    17.4489 </r>
       <r>    12.6450     1.6500    17.6261 </r>
       <r>    12.7523     1.9527    17.8358 </r>
       <r>    12.8597     2.1029    18.0616 </r>
       <r>    12.9671     2.1939    18.2972 </r>
       <r>    13.0745     1.0572    18.4107 </r>
       <r>    13.1819     2.4667    18.6756 </r>
       <r>    13.2893     1.5567    18.8428 </r>
       <r>    13.3967     0.5949    18.9067 </r>
       <r>    13.5040     1.4886    19.0665 </r>
       <r>    13.6114     1.0915    19.1837 </r>
       <r>    13.7188     1.3909    19.3331 </r>
       <r>    13.8262     0.5259    19.3896 </r>
       <r>    13.9336     0.2434    19.4157 </r>
       <r>    14.0410     1.1246    19.5365 </r>
       <r>    14.1484     1.1082    19.6555 </r>
       <r>    14.2557     1.1717    19.7813 </r>
       <r>    14.3631     0.7819    19.8653 </r>
       <r>    14.4705     0.7668    19.9476 </r>
       <r>    14.5779     0.2349    19.9729 </r>
       <r>    14.6853     0.8135    20.0602 </r>
       <r>    14.7927     0.7767    20.1436 </r>
       <r>    14.9001     0.7938    20.2289 </r>
       <r>    15.0075     1.6016    20.4008 </r>
       <r>    15.1148     0.8966    20.4971 </r>
       <r>    15.2222     1.3493    20.6420 </r>
       <r>    15.3296     1.6235    20.8164 </r>
       <r>    15.4370     2.7175    21.1082 </r>
       <r>    15.5444     2.8008    21.4090 </r>
       <r>    15.6518     2.2314    21.6486 </r>
       <r>    15.7592     0.9845    21.7543 </r>
       <r>    15.8665     0.6365    21.8227 </r>
       <r>    15.9739     1.5380    21.9878 </r>
       <r>    16.0813     1.9236    22.1944 </r>
       <r>    16.1887     3.4223    22.5619 </r>
       <r>    16.2961     2.4475    22.8247 </r>
       <r>    16.4035     1.9450    23.0336 </r>
       <r>    16.5109     2.1927    23.2691 </r>
       <r>    16.6182     1.5611    23.4367 </r>
       <r>    16.7256     0.7568    23.5180 </r>
       <r>    16.8330     1.7940    23.7106 </r>
       <r>    16.9404     1.3793    23.8587 </r>
       <r>    17.0478     0.9409    23.9598 </r>
       <r>    17.1552     0.1268    23.9734 </r>
       <r>    17.2626     0.0478    23.9785 </r>
       <r>    17.3699     0.0138    23.9800 </r>
       <r>    17.4773     0.0121    23.9813 </r>
       <r>    17.5847     0.0189    23.9833 </r>
       <r>    17.6921     0.0454    23.9882 </r>
       <r>    17.7995     0.1080    23.9998 </r>
       <r>    17.9069     0.0018    24.0000 </r>
       <r>    18.0143     0.0000    24.0000 </r>
       <r>    18.1217     0.0000    24.0000 </r>
       <r>    18.2290     0.0000    24.0000 </r>
       <r>    18.3364     0.0000    24.0000 </r>
       <r>    18.4438     0.0000    24.0000 </r>
       <r>    18.5512     0.0000    24.0000 </r>
       <r>    18.6586     0.0000    24.0000 </r>
       <r>    18.7660     0.0000    24.0000 </r>
       <r>    18.8734     0.0000    24.0000 </r>
       <r>    18.9807     0.0000    24.0000 </r>
       <r>    19.0881     0.0000    24.0000 </r>
       <r>    19.1955     0.0000    24.0000 </r>
      </set>
     </set>
    </array>
   </total>
  </dos>
 </calculation>
 <structure name="finalpos" >
  <crystal>
   <varray name="basis" >
    <v>       3.12858800       0.00000000       0.00000000 </v>
    <v>      -1.56429400       2.70943700       0.00000000 </v>
    <v>       0.00000000       0.00000000       5.01695500 </v>
   </varray>
   <i name="volume">     42.52728308 </i>
   <varray name="rec_basis" >
    <v>       0.31963301       0.18454018      -0.00000000 </v>
    <v>       0.00000000       0.36908037       0.00000000 </v>
    <v>       0.00000000      -0.00000000       0.19932409 </v>
   </varray>
  </crystal>
  <varray name="positions" >
   <v>       0.66666700       0.33333300       0.49928700 </v>
   <v>       0.33333300       0.66666700       0.99928700 </v>
   <v>       0.66666700       0.33333300       0.88071300 </v>
   <v>       0.33333300       0.66666700       0.38071300 </v>
  </varray>
 </structure>
</modeling>
