 vasp.6.4.2 20Jul23 (build Mar  2 2025 11:04:54) complex                         
 executed on              LinuxNV date 2026.04.07  10:11:42
 running    1 mpi-ranks, with    2 threads/rank, on    1 nodes
 distrk:  each k-point on    1 cores,    1 groups
 distr:  one band on NCORE=   1 cores,    1 groups
 OpenACC runtime initialized ...    1 GPUs detected


--------------------------------------------------------------------------------------------------------


 INCAR:
   SYSTEM = static single-point for EOS (Ba)
   PREC = Accurate
   ENCUT = 350
   KSPACING = 0.12
   KGAMMA = .TRUE.
   ISMEAR = 1
   SIGMA = 0.2
   EDIFF = 1E-6
   NSW = 0
   ISIF = 2
   IBRION = -1
   LWAVE = .FALSE.
   LCHARG = .FALSE.
   LREAL = .FALSE.

 POTCAR:    PAW_PBE Ba_sv 06Sep2000               
 POTCAR:    PAW_PBE Ba_sv 06Sep2000               
   SHA256 =  db99e82e473f9273fc04f241d4a23dc413358649e2d1724098d22351b75b003b Ba_sv/POTCAR          
   COPYR  = (c) Copyright 06Sep2000 Georg Kresse                                                    
   COPYR  = This file is part of the software VASP. Any use, copying, and all other rights are regul
   COPYR  = If you do not have a valid VASP license, you may not use, copy or distribute this file. 
   VRHFIN =Ba: 5s5p6s                                                                               
   LEXCH  = PE                                                                                      
   EATOM  =   700.8560 eV,   51.5115 Ry                                                             
                                                                                                    
   TITEL  = PAW_PBE Ba_sv 06Sep2000                                                                 
   LULTRA =        F    use ultrasoft PP ?                                                          
   IUNSCR =        1    unscreen: 0-lin 1-nonlin 2-no                                               
   RPACOR =    2.400    partial core radius                                                         
   POMASS =  137.327; ZVAL   =   10.000    mass and valenz                                          
   RCORE  =    2.800    outmost cutoff radius                                                       
   RWIGS  =    3.740; RWIGS  =    1.979    wigner-seitz radius (au A)                               
   ENMAX  =  187.181; ENMIN  =  140.386 eV                                                          
   RCLOC  =    2.516    cutoff for local pot                                                        
   LCOR   =        T    correct aug charges                                                         
   LPAW   =        T    paw PP                                                                      
   EAUG   =  351.165                                                                                
   DEXC   =    0.000                                                                                
   RMAX   =    2.865    core radius for proj-oper                                                   
   RAUG   =    1.300    factor for augmentation sphere                                              
   RDEP   =    2.976    radius for radial grids                                                     
   RDEPT  =    2.289    core radius for aug-charge                                                  
                                                                                                    
   Atomic configuration                                                                             
   13 entries                                                                                       
     n  l   j            E        occ.                                                              
     1  0  0.50    -37249.5946   2.0000                                                             
     2  0  0.50     -5887.1925   2.0000                                                             
     2  1  1.50     -5278.3977   6.0000                                                             
     3  0  0.50     -1242.7293   2.0000                                                             
     3  1  1.50     -1047.6609   6.0000                                                             
     3  2  2.50      -764.6158  10.0000                                                             
     4  0  0.50      -243.8228   2.0000                                                             
     4  1  1.50      -180.9218   6.0000                                                             
     4  2  2.50       -89.6477  10.0000                                                             
     5  0  0.50       -33.6549   2.0000                                                             
     6  0  0.50        -3.2247   1.9900                                                             
     5  1  1.50       -18.7193   6.0000                                                             
     5  2  2.50        -2.0115   0.0100                                                             
   Description                                                                                      
     l       E           TYP  RCUT    TYP  RCUT                                                     
     0    -33.6549039     23  2.800                                                                 
     0     -3.2246942     23  2.800                                                                 
     1    -18.7193050     23  2.700                                                                 
     1     27.2116520     23  2.700                                                                 
     2     -2.0115002     23  2.700                                                                 
     2      0.3057420     23  2.700                                                                 
  local pseudopotential read in
  partial core-charges read in
  partial kinetic energy density read in
  atomic valenz-charges read in
  non local Contribution for L=            0  read in
    real space projection operators read in
  non local Contribution for L=            0  read in
    real space projection operators read in
  non local Contribution for L=            1  read in
    real space projection operators read in
  non local Contribution for L=            1  read in
    real space projection operators read in
  non local Contribution for L=            2  read in
    real space projection operators read in
  non local Contribution for L=            2  read in
    real space projection operators read in
    PAW grid and wavefunctions read in
 
   number of l-projection  operators is LMAX  =            6
   number of lm-projection operators is LMMAX =           18
 
  PAW_PBE Ba_sv 06Sep2000               :
 energy of atom  1       EATOM= -700.8560
 kinetic energy error for atom=    0.0023 (will be added to EATOM!!)
 
 
 POSCAR: Ba
  positions in direct lattice
  No initial velocities read in
 exchange correlation table for  LEXCH =        8
   RHO(1)=    0.500       N(1)  =     2000
   RHO(2)=  100.500       N(2)  =     4000
 


--------------------------------------------------------------------------------------------------------


 ion  position               nearest neighbor table
   1  0.000  0.000  0.000-   2 4.44   2 4.44   2 4.44   2 4.44   2 4.44   2 4.44   2 4.44   2 4.44

   2  0.500  0.500  0.500-   1 4.44   1 4.44   1 4.44   1 4.44   1 4.44   1 4.44   1 4.44   1 4.44

 
  LATTYP: Found a simple cubic cell.
 ALAT       =     5.1242841600
  
  Lattice vectors:
  
 A1 = (   5.1242841600,   0.0000000000,   0.0000000000)
 A2 = (   0.0000000000,   5.1242841600,   0.0000000000)
 A3 = (   0.0000000000,   0.0000000000,   5.1242841600)


Analysis of symmetry for initial positions (statically):
=====================================================================
 Subroutine PRICEL returns following result:
 
  LATTYP: Found a body centered cubic cell.
 ALAT       =     5.1242841600
  
  Lattice vectors:
  
 A1 = (   2.5621420800,   2.5621420800,  -2.5621420800)
 A2 = (  -2.5621420800,   2.5621420800,   2.5621420800)
 A3 = (   2.5621420800,  -2.5621420800,   2.5621420800)
 
   2 primitive cells build up your supercell.
 

 Routine SETGRP: Setting up the symmetry group for a 
 simple cubic supercell.


 Subroutine GETGRP returns: Found 48 space group operations
 (whereof 48 operations were pure point group operations)
 out of a pool of 48 trial point group operations.


The static configuration has the point symmetry O_h .


Analysis of symmetry for dynamics (positions and initial velocities):
=====================================================================
 Subroutine PRICEL returns following result:
 
  LATTYP: Found a body centered cubic cell.
 ALAT       =     5.1242841600
  
  Lattice vectors:
  
 A1 = (   2.5621420800,   2.5621420800,  -2.5621420800)
 A2 = (  -2.5621420800,   2.5621420800,   2.5621420800)
 A3 = (   2.5621420800,  -2.5621420800,   2.5621420800)
 
   2 primitive cells build up your supercell.
 

 Routine SETGRP: Setting up the symmetry group for a 
 simple cubic supercell.


 Subroutine GETGRP returns: Found 48 space group operations
 (whereof 48 operations were pure point group operations)
 out of a pool of 48 trial point group operations.


The dynamic configuration has the point symmetry O_h .


 Subroutine INISYM returns: Found 48 space group operations
 (whereof 48 operations are pure point group operations),
 and found     2 'primitive' translations


----------------------------------------------------------------------------------------

                                     Primitive cell                                     

  volume of cell :      67.2775

  direct lattice vectors                    reciprocal lattice vectors
     2.562142080  2.562142080 -2.562142080     0.195149209  0.195149209 -0.000000000
    -2.562142080  2.562142080  2.562142080    -0.000000000  0.195149209  0.195149209
     2.562142080 -2.562142080  2.562142080     0.195149209 -0.000000000  0.195149209

  length of vectors
     4.437760259  4.437760259  4.437760259     0.275982658  0.275982658  0.275982658

  position of ions in fractional coordinates (direct lattice)
     0.000000000  0.000000000  0.000000000

  ion indices of the primitive-cell ions
   primitive index   ion index
                 1           1

----------------------------------------------------------------------------------------

 
 -----------------------------------------------------------------------------
|                                                                             |
|           W    W    AA    RRRRR   N    N  II  N    N   GGGG   !!!           |
|           W    W   A  A   R    R  NN   N  II  NN   N  G    G  !!!           |
|           W    W  A    A  R    R  N N  N  II  N N  N  G       !!!           |
|           W WW W  AAAAAA  RRRRR   N  N N  II  N  N N  G  GGG   !            |
|           WW  WW  A    A  R   R   N   NN  II  N   NN  G    G                |
|           W    W  A    A  R    R  N    N  II  N    N   GGGG   !!!           |
|                                                                             |
|     The requested file  could not be found or opened for reading            |
|     k-point information. Automatic k-point generation is used as a          |
|     fallback, which may lead to unwanted results.                           |
|                                                                             |
 -----------------------------------------------------------------------------

 

Automatic generation of k-mesh.
 Grid dimensions derived from KSPACING:
 generate k-points for:   11   11   11

 Generating k-lattice:

  Cartesian coordinates                     Fractional coordinates (reciprocal lattice)
     0.017740837  0.000000000  0.000000000     0.090909091  0.000000000  0.000000000
     0.000000000  0.017740837  0.000000000     0.000000000  0.090909091  0.000000000
     0.000000000  0.000000000  0.017740837     0.000000000  0.000000000  0.090909091

  Length of vectors
     0.017740837  0.017740837  0.017740837

  Shift w.r.t. Gamma in fractional coordinates (k-lattice)
     0.000000000  0.000000000  0.000000000

 
 Subroutine IBZKPT returns following result:
 ===========================================
 
 Found     56 irreducible k-points:
 
 Following reciprocal coordinates:
            Coordinates               Weight
  0.000000  0.000000  0.000000      1.000000
  0.090909  0.000000  0.000000      6.000000
  0.181818  0.000000  0.000000      6.000000
  0.272727  0.000000  0.000000      6.000000
  0.363636  0.000000  0.000000      6.000000
  0.454545  0.000000  0.000000      6.000000
  0.090909  0.090909  0.000000     12.000000
  0.181818  0.090909  0.000000     24.000000
  0.272727  0.090909  0.000000     24.000000
  0.363636  0.090909  0.000000     24.000000
  0.454545  0.090909  0.000000     24.000000
  0.181818  0.181818  0.000000     12.000000
  0.272727  0.181818  0.000000     24.000000
  0.363636  0.181818  0.000000     24.000000
  0.454545  0.181818  0.000000     24.000000
  0.272727  0.272727  0.000000     12.000000
  0.363636  0.272727  0.000000     24.000000
  0.454545  0.272727  0.000000     24.000000
  0.363636  0.363636  0.000000     12.000000
  0.454545  0.363636  0.000000     24.000000
  0.454545  0.454545  0.000000     12.000000
  0.090909  0.090909  0.090909      8.000000
  0.181818  0.090909  0.090909     24.000000
  0.272727  0.090909  0.090909     24.000000
  0.363636  0.090909  0.090909     24.000000
  0.454545  0.090909  0.090909     24.000000
  0.181818  0.181818  0.090909     24.000000
  0.272727  0.181818  0.090909     48.000000
  0.363636  0.181818  0.090909     48.000000
  0.454545  0.181818  0.090909     48.000000
  0.272727  0.272727  0.090909     24.000000
  0.363636  0.272727  0.090909     48.000000
  0.454545  0.272727  0.090909     48.000000
  0.363636  0.363636  0.090909     24.000000
  0.454545  0.363636  0.090909     48.000000
  0.454545  0.454545  0.090909     24.000000
  0.181818  0.181818  0.181818      8.000000
  0.272727  0.181818  0.181818     24.000000
  0.363636  0.181818  0.181818     24.000000
  0.454545  0.181818  0.181818     24.000000
  0.272727  0.272727  0.181818     24.000000
  0.363636  0.272727  0.181818     48.000000
  0.454545  0.272727  0.181818     48.000000
  0.363636  0.363636  0.181818     24.000000
  0.454545  0.363636  0.181818     48.000000
  0.454545  0.454545  0.181818     24.000000
  0.272727  0.272727  0.272727      8.000000
  0.363636  0.272727  0.272727     24.000000
  0.454545  0.272727  0.272727     24.000000
  0.363636  0.363636  0.272727     24.000000
  0.454545  0.363636  0.272727     48.000000
  0.454545  0.454545  0.272727     24.000000
  0.363636  0.363636  0.363636      8.000000
  0.454545  0.363636  0.363636     24.000000
  0.454545  0.454545  0.363636     24.000000
  0.454545  0.454545  0.454545      8.000000
 
 Following cartesian coordinates:
            Coordinates               Weight
  0.000000  0.000000  0.000000      1.000000
  0.018096  0.000000  0.000000      6.000000
  0.036191  0.000000  0.000000      6.000000
  0.054287  0.000000  0.000000      6.000000
  0.072383  0.000000  0.000000      6.000000
  0.090478  0.000000  0.000000      6.000000
  0.018096  0.018096  0.000000     12.000000
  0.036191  0.018096  0.000000     24.000000
  0.054287  0.018096  0.000000     24.000000
  0.072383  0.018096  0.000000     24.000000
  0.090478  0.018096  0.000000     24.000000
  0.036191  0.036191  0.000000     12.000000
  0.054287  0.036191  0.000000     24.000000
  0.072383  0.036191  0.000000     24.000000
  0.090478  0.036191  0.000000     24.000000
  0.054287  0.054287  0.000000     12.000000
  0.072383  0.054287  0.000000     24.000000
  0.090478  0.054287  0.000000     24.000000
  0.072383  0.072383  0.000000     12.000000
  0.090478  0.072383  0.000000     24.000000
  0.090478  0.090478  0.000000     12.000000
  0.018096  0.018096  0.018096      8.000000
  0.036191  0.018096  0.018096     24.000000
  0.054287  0.018096  0.018096     24.000000
  0.072383  0.018096  0.018096     24.000000
  0.090478  0.018096  0.018096     24.000000
  0.036191  0.036191  0.018096     24.000000
  0.054287  0.036191  0.018096     48.000000
  0.072383  0.036191  0.018096     48.000000
  0.090478  0.036191  0.018096     48.000000
  0.054287  0.054287  0.018096     24.000000
  0.072383  0.054287  0.018096     48.000000
  0.090478  0.054287  0.018096     48.000000
  0.072383  0.072383  0.018096     24.000000
  0.090478  0.072383  0.018096     48.000000
  0.090478  0.090478  0.018096     24.000000
  0.036191  0.036191  0.036191      8.000000
  0.054287  0.036191  0.036191     24.000000
  0.072383  0.036191  0.036191     24.000000
  0.090478  0.036191  0.036191     24.000000
  0.054287  0.054287  0.036191     24.000000
  0.072383  0.054287  0.036191     48.000000
  0.090478  0.054287  0.036191     48.000000
  0.072383  0.072383  0.036191     24.000000
  0.090478  0.072383  0.036191     48.000000
  0.090478  0.090478  0.036191     24.000000
  0.054287  0.054287  0.054287      8.000000
  0.072383  0.054287  0.054287     24.000000
  0.090478  0.054287  0.054287     24.000000
  0.072383  0.072383  0.054287     24.000000
  0.090478  0.072383  0.054287     48.000000
  0.090478  0.090478  0.054287     24.000000
  0.072383  0.072383  0.072383      8.000000
  0.090478  0.072383  0.072383     24.000000
  0.090478  0.090478  0.072383     24.000000
  0.090478  0.090478  0.090478      8.000000
 


--------------------------------------------------------------------------------------------------------




 Dimension of arrays:
   k-points           NKPTS =     56   k-points in BZ     NKDIM =     56   number of bands    NBANDS=     14
   number of dos      NEDOS =    301   number of ions     NIONS =      2
   non local maximal  LDIM  =      6   non local SUM 2l+1 LMDIM =     18
   total plane-waves  NPLWV =  32768
   max r-space proj   IRMAX =      1   max aug-charges    IRDMAX=  15442
   dimension x,y,z NGX =    32 NGY =   32 NGZ =   32
   dimension x,y,z NGXF=    64 NGYF=   64 NGZF=   64
   support grid    NGXF=    64 NGYF=   64 NGZF=   64
   ions per type =               2
   NGX,Y,Z   is equivalent  to a cutoff of  10.38, 10.38, 10.38 a.u.
   NGXF,Y,Z  is equivalent  to a cutoff of  20.76, 20.76, 20.76 a.u.

 SYSTEM =  static single-point for EOS (Ba)        
 POSCAR =  Ba                                      

 Startparameter for this run:
   NWRITE =      2    write-flag & timer
   PREC   = accura    normal or accurate (medium, high low for compatibility)
   ISTART =      0    job   : 0-new  1-cont  2-samecut
   ICHARG =      2    charge: 1-file 2-atom 10-const
   ISPIN  =      1    spin polarized calculation?
   LNONCOLLINEAR =      F non collinear calculations
   LSORBIT =      F    spin-orbit coupling
   INIWAV =      1    electr: 0-lowe 1-rand  2-diag
   LASPH  =      F    aspherical Exc in radial PAW
 Electronic Relaxation 1
   ENCUT  =  350.0 eV  25.72 Ry    5.07 a.u.   7.82  7.82  7.82*2*pi/ulx,y,z
   ENINI  =  350.0     initial cutoff
   ENAUG  =  351.2 eV  augmentation charge cutoff
   NELM   =     60;   NELMIN=  2; NELMDL= -5     # of ELM steps 
   EDIFF  = 0.1E-05   stopping-criterion for ELM
   LREAL  =      F    real-space projection
   NLSPLINE    = F    spline interpolate recip. space projectors
   LCOMPAT=      F    compatible to vasp.4.4
   GGA_COMPAT  = T    GGA compatible to vasp.4.4-vasp.4.6
   LMAXPAW     = -100 max onsite density
   LMAXMIX     =    2 max onsite mixed and CHGCAR
   VOSKOWN=      0    Vosko Wilk Nusair interpolation
   ROPT   =    0.00000
 Ionic relaxation
   EDIFFG = 0.1E-04   stopping-criterion for IOM
   NSW    =      0    number of steps for IOM
   NBLOCK =      1;   KBLOCK =      1    inner block; outer block 
   IBRION =     -1    ionic relax: 0-MD 1-quasi-New 2-CG
   NFREE  =      0    steps in history (QN), initial steepest desc. (CG)
   ISIF   =      2    stress and relaxation
   IWAVPR =     10    prediction:  0-non 1-charg 2-wave 3-comb
   ISYM   =      2    0-nonsym 1-usesym 2-fastsym
   LCORR  =      T    Harris-Foulkes like correction to forces

   POTIM  = 0.5000    time-step for ionic-motion
   TEIN   =    0.0    initial temperature
   TEBEG  =    0.0;   TEEND  =   0.0 temperature during run
   SMASS  =  -3.00    Nose mass-parameter (am)
   estimated Nose-frequenzy (Omega)   =  0.10E-29 period in steps = 0.13E+47 mass=  -0.600E-27a.u.
   SCALEE = 1.0000    scale energy and forces
   NPACO  =    256;   APACO  = 10.0  distance and # of slots for P.C.
   PSTRESS=    0.0 pullay stress

  Mass of Ions in am
   POMASS = 137.33
  Ionic Valenz
   ZVAL   =  10.00
  Atomic Wigner-Seitz radii
   RWIGS  =  -1.00
  virtual crystal weights 
   VCA    =   1.00
   NELECT =      20.0000    total number of electrons
   NUPDOWN=      -1.0000    fix difference up-down

 DOS related values:
   EMIN   =  10.00;   EMAX   =-10.00  energy-range for DOS
   EFERMI =   0.00;   METHOD = LEGACY      
   ISMEAR =     1;   SIGMA  =   0.20  broadening in eV -4-tet -1-fermi 0-gaus

 Electronic relaxation 2 (details)
   IALGO  =     38    algorithm
   LDIAG  =      T    sub-space diagonalisation (order eigenvalues)
   LSUBROT=      F    optimize rotation matrix (better conditioning)
   TURBO    =      0    0=normal 1=particle mesh
   IRESTART =      0    0=no restart 2=restart with 2 vectors
   NREBOOT  =      0    no. of reboots
   NMIN     =      0    reboot dimension
   EREF     =   0.00    reference energy to select bands
   IMIX   =      4    mixing-type and parameters
     AMIX     =   0.40;   BMIX     =  1.00
     AMIX_MAG =   1.60;   BMIX_MAG =  1.00
     AMIN     =   0.10
     WC   =   100.;   INIMIX=   1;  MIXPRE=   1;  MAXMIX= -45

 Intra band minimization:
   WEIMIN = 0.0000     energy-eigenvalue tresh-hold
   EBREAK =  0.18E-07  absolut break condition
   DEPER  =   0.30     relativ break condition  

   TIME   =   0.40     timestep for ELM

  volume/ion in A,a.u.               =      67.28       454.01
  Fermi-wavevector in a.u.,A,eV,Ry     =   0.867198  1.638767 10.232023  0.752032
  Thomas-Fermi vector in A             =   1.985697
 
 Write flags
   LWAVE        =      F    write WAVECAR
   LDOWNSAMPLE  =      F    k-point downsampling of WAVECAR
   LCHARG       =      F    write CHGCAR
   LVTOT        =      F    write LOCPOT, total local potential
   LVHAR        =      F    write LOCPOT, Hartree potential only
   LELF         =      F    write electronic localiz. function (ELF)
   LORBIT       =      0    0 simple, 1 ext, 2 COOP (PROOUT), +10 PAW based schemes


 Dipole corrections
   LMONO  =      F    monopole corrections only (constant potential shift)
   LDIPOL =      F    correct potential (dipole corrections)
   IDIPOL =      0    1-x, 2-y, 3-z, 4-all directions 
   EPSILON=  1.0000000 bulk dielectric constant

 Exchange correlation treatment:
   GGA     =    --    GGA type
   LEXCH   =     8    internal setting for exchange type
   LIBXC   =     F    Libxc                    
   VOSKOWN =     0    Vosko Wilk Nusair interpolation
   LHFCALC =     F    Hartree Fock is set to
   LHFONE  =     F    Hartree Fock one center treatment
   AEXX    =    0.0000 exact exchange contribution

 Linear response parameters
   LEPSILON=     F    determine dielectric tensor
   LRPA    =     F    only Hartree local field effects (RPA)
   LNABLA  =     F    use nabla operator in PAW spheres
   LVEL    =     F    velocity operator in full k-point grid
   CSHIFT  =0.1000    complex shift for real part using Kramers Kronig
   OMEGAMAX=  -1.0    maximum frequency
   DEG_THRESHOLD= 0.2000000E-02 threshold for treating states as degnerate
   RTIME   =   -0.100 relaxation time in fs
  (WPLASMAI=    0.000 imaginary part of plasma frequency in eV, 0.658/RTIME)
   DFIELD  = 0.0000000 0.0000000 0.0000000 field for delta impulse in time
 
  Optional k-point grid parameters
   LKPOINTS_OPT  =     F    use optional k-point grid
   KPOINTS_OPT_MODE=     1    mode for optional k-point grid
 
 Orbital magnetization related:
   ORBITALMAG=     F  switch on orbital magnetization
   LCHIMAG   =     F  perturbation theory with respect to B field
   DQ        =  0.001000  dq finite difference perturbation B field
   LLRAUG    =     F  two centre corrections for induced B field
   LBONE     =     F  B-component reconstruction in AE one-centre
   LVGVCALC  =     T  calculate vGv susceptibility
   LVGVAPPL  =     F  apply vGv susceptibility instead of pGv for G=0

 Random number generation:
   RANDOM_GENERATOR = DEFAULT
   PCG_SEED         = not used


--------------------------------------------------------------------------------------------------------


 Static calculation
 charge density and potential will be updated during run
 non-spin polarized calculation
 Variant of blocked Davidson
 Davidson routine will perform the subspace rotation
 perform sub-space diagonalisation
    after iterative eigenvector-optimisation
 modified Broyden-mixing scheme, WC =      100.0
 initial mixing is a Kerker type mixing with AMIX =  0.4000 and BMIX =      1.0000
 Hartree-type preconditioning will be used
 using additional bands             4
 reciprocal scheme for non local part
 use partial core corrections
 calculate Harris-corrections to forces 
   (improved forces if not selfconsistent)
 use gradient corrections 
 use of overlap-Matrix (Vanderbilt PP)
 Methfessel and Paxton  Order N= 1 SIGMA  =   0.20


--------------------------------------------------------------------------------------------------------


  energy-cutoff  :      350.00
  volume of cell :      134.55
      direct lattice vectors                 reciprocal lattice vectors
     5.124284160  0.000000000  0.000000000     0.195149209  0.000000000  0.000000000
     0.000000000  5.124284160  0.000000000     0.000000000  0.195149209  0.000000000
     0.000000000  0.000000000  5.124284160     0.000000000  0.000000000  0.195149209

  length of vectors
     5.124284160  5.124284160  5.124284160     0.195149209  0.195149209  0.195149209


 
 k-points in units of 2pi/SCALE and weight: read from INCAR                         
   0.00000000  0.00000000  0.00000000       0.001
   0.01809565  0.00000000  0.00000000       0.005
   0.03619131  0.00000000  0.00000000       0.005
   0.05428696  0.00000000  0.00000000       0.005
   0.07238262  0.00000000  0.00000000       0.005
   0.09047827  0.00000000  0.00000000       0.005
   0.01809565  0.01809565  0.00000000       0.009
   0.03619131  0.01809565  0.00000000       0.018
   0.05428696  0.01809565  0.00000000       0.018
   0.07238262  0.01809565  0.00000000       0.018
   0.09047827  0.01809565  0.00000000       0.018
   0.03619131  0.03619131  0.00000000       0.009
   0.05428696  0.03619131  0.00000000       0.018
   0.07238262  0.03619131  0.00000000       0.018
   0.09047827  0.03619131  0.00000000       0.018
   0.05428696  0.05428696  0.00000000       0.009
   0.07238262  0.05428696  0.00000000       0.018
   0.09047827  0.05428696  0.00000000       0.018
   0.07238262  0.07238262  0.00000000       0.009
   0.09047827  0.07238262  0.00000000       0.018
   0.09047827  0.09047827  0.00000000       0.009
   0.01809565  0.01809565  0.01809565       0.006
   0.03619131  0.01809565  0.01809565       0.018
   0.05428696  0.01809565  0.01809565       0.018
   0.07238262  0.01809565  0.01809565       0.018
   0.09047827  0.01809565  0.01809565       0.018
   0.03619131  0.03619131  0.01809565       0.018
   0.05428696  0.03619131  0.01809565       0.036
   0.07238262  0.03619131  0.01809565       0.036
   0.09047827  0.03619131  0.01809565       0.036
   0.05428696  0.05428696  0.01809565       0.018
   0.07238262  0.05428696  0.01809565       0.036
   0.09047827  0.05428696  0.01809565       0.036
   0.07238262  0.07238262  0.01809565       0.018
   0.09047827  0.07238262  0.01809565       0.036
   0.09047827  0.09047827  0.01809565       0.018
   0.03619131  0.03619131  0.03619131       0.006
   0.05428696  0.03619131  0.03619131       0.018
   0.07238262  0.03619131  0.03619131       0.018
   0.09047827  0.03619131  0.03619131       0.018
   0.05428696  0.05428696  0.03619131       0.018
   0.07238262  0.05428696  0.03619131       0.036
   0.09047827  0.05428696  0.03619131       0.036
   0.07238262  0.07238262  0.03619131       0.018
   0.09047827  0.07238262  0.03619131       0.036
   0.09047827  0.09047827  0.03619131       0.018
   0.05428696  0.05428696  0.05428696       0.006
   0.07238262  0.05428696  0.05428696       0.018
   0.09047827  0.05428696  0.05428696       0.018
   0.07238262  0.07238262  0.05428696       0.018
   0.09047827  0.07238262  0.05428696       0.036
   0.09047827  0.09047827  0.05428696       0.018
   0.07238262  0.07238262  0.07238262       0.006
   0.09047827  0.07238262  0.07238262       0.018
   0.09047827  0.09047827  0.07238262       0.018
   0.09047827  0.09047827  0.09047827       0.006
 
 k-points in reciprocal lattice and weights: read from INCAR                         
   0.00000000  0.00000000  0.00000000       0.001
   0.09090909  0.00000000  0.00000000       0.005
   0.18181818  0.00000000  0.00000000       0.005
   0.27272727  0.00000000  0.00000000       0.005
   0.36363636  0.00000000  0.00000000       0.005
   0.45454545  0.00000000  0.00000000       0.005
   0.09090909  0.09090909  0.00000000       0.009
   0.18181818  0.09090909  0.00000000       0.018
   0.27272727  0.09090909  0.00000000       0.018
   0.36363636  0.09090909  0.00000000       0.018
   0.45454545  0.09090909  0.00000000       0.018
   0.18181818  0.18181818  0.00000000       0.009
   0.27272727  0.18181818  0.00000000       0.018
   0.36363636  0.18181818  0.00000000       0.018
   0.45454545  0.18181818  0.00000000       0.018
   0.27272727  0.27272727  0.00000000       0.009
   0.36363636  0.27272727  0.00000000       0.018
   0.45454545  0.27272727  0.00000000       0.018
   0.36363636  0.36363636  0.00000000       0.009
   0.45454545  0.36363636  0.00000000       0.018
   0.45454545  0.45454545  0.00000000       0.009
   0.09090909  0.09090909  0.09090909       0.006
   0.18181818  0.09090909  0.09090909       0.018
   0.27272727  0.09090909  0.09090909       0.018
   0.36363636  0.09090909  0.09090909       0.018
   0.45454545  0.09090909  0.09090909       0.018
   0.18181818  0.18181818  0.09090909       0.018
   0.27272727  0.18181818  0.09090909       0.036
   0.36363636  0.18181818  0.09090909       0.036
   0.45454545  0.18181818  0.09090909       0.036
   0.27272727  0.27272727  0.09090909       0.018
   0.36363636  0.27272727  0.09090909       0.036
   0.45454545  0.27272727  0.09090909       0.036
   0.36363636  0.36363636  0.09090909       0.018
   0.45454545  0.36363636  0.09090909       0.036
   0.45454545  0.45454545  0.09090909       0.018
   0.18181818  0.18181818  0.18181818       0.006
   0.27272727  0.18181818  0.18181818       0.018
   0.36363636  0.18181818  0.18181818       0.018
   0.45454545  0.18181818  0.18181818       0.018
   0.27272727  0.27272727  0.18181818       0.018
   0.36363636  0.27272727  0.18181818       0.036
   0.45454545  0.27272727  0.18181818       0.036
   0.36363636  0.36363636  0.18181818       0.018
   0.45454545  0.36363636  0.18181818       0.036
   0.45454545  0.45454545  0.18181818       0.018
   0.27272727  0.27272727  0.27272727       0.006
   0.36363636  0.27272727  0.27272727       0.018
   0.45454545  0.27272727  0.27272727       0.018
   0.36363636  0.36363636  0.27272727       0.018
   0.45454545  0.36363636  0.27272727       0.036
   0.45454545  0.45454545  0.27272727       0.018
   0.36363636  0.36363636  0.36363636       0.006
   0.45454545  0.36363636  0.36363636       0.018
   0.45454545  0.45454545  0.36363636       0.018
   0.45454545  0.45454545  0.45454545       0.006
 
 position of ions in fractional coordinates (direct lattice) 
   0.00000000  0.00000000  0.00000000
   0.50000000  0.50000000  0.50000000
 
 position of ions in cartesian coordinates  (Angst):
   0.00000000  0.00000000  0.00000000
   2.56214208  2.56214208  2.56214208
 


--------------------------------------------------------------------------------------------------------


 k-point   1 :   0.0000 0.0000 0.0000  plane waves:    2007
 k-point   2 :   0.0909 0.0000 0.0000  plane waves:    1999
 k-point   3 :   0.1818 0.0000 0.0000  plane waves:    1999
 k-point   4 :   0.2727 0.0000 0.0000  plane waves:    2000
 k-point   5 :   0.3636 0.0000 0.0000  plane waves:    2000
 k-point   6 :   0.4545 0.0000 0.0000  plane waves:    2004
 k-point   7 :   0.0909 0.0909 0.0000  plane waves:    1991
 k-point   8 :   0.1818 0.0909 0.0000  plane waves:    1994
 k-point   9 :   0.2727 0.0909 0.0000  plane waves:    1993
 k-point  10 :   0.3636 0.0909 0.0000  plane waves:    1994
 k-point  11 :   0.4545 0.0909 0.0000  plane waves:    2011
 k-point  12 :   0.1818 0.1818 0.0000  plane waves:    1997
 k-point  13 :   0.2727 0.1818 0.0000  plane waves:    1989
 k-point  14 :   0.3636 0.1818 0.0000  plane waves:    2001
 k-point  15 :   0.4545 0.1818 0.0000  plane waves:    2001
 k-point  16 :   0.2727 0.2727 0.0000  plane waves:    1989
 k-point  17 :   0.3636 0.2727 0.0000  plane waves:    2003
 k-point  18 :   0.4545 0.2727 0.0000  plane waves:    2013
 k-point  19 :   0.3636 0.3636 0.0000  plane waves:    2013
 k-point  20 :   0.4545 0.3636 0.0000  plane waves:    2004
 k-point  21 :   0.4545 0.4545 0.0000  plane waves:    1993
 k-point  22 :   0.0909 0.0909 0.0909  plane waves:    1998
 k-point  23 :   0.1818 0.0909 0.0909  plane waves:    1986
 k-point  24 :   0.2727 0.0909 0.0909  plane waves:    1991
 k-point  25 :   0.3636 0.0909 0.0909  plane waves:    1999
 k-point  26 :   0.4545 0.0909 0.0909  plane waves:    2000
 k-point  27 :   0.1818 0.1818 0.0909  plane waves:    1991
 k-point  28 :   0.2727 0.1818 0.0909  plane waves:    1993
 k-point  29 :   0.3636 0.1818 0.0909  plane waves:    2001
 k-point  30 :   0.4545 0.1818 0.0909  plane waves:    2002
 k-point  31 :   0.2727 0.2727 0.0909  plane waves:    1995
 k-point  32 :   0.3636 0.2727 0.0909  plane waves:    2006
 k-point  33 :   0.4545 0.2727 0.0909  plane waves:    2000
 k-point  34 :   0.3636 0.3636 0.0909  plane waves:    2004
 k-point  35 :   0.4545 0.3636 0.0909  plane waves:    2010
 k-point  36 :   0.4545 0.4545 0.0909  plane waves:    2010
 k-point  37 :   0.1818 0.1818 0.1818  plane waves:    1989
 k-point  38 :   0.2727 0.1818 0.1818  plane waves:    1990
 k-point  39 :   0.3636 0.1818 0.1818  plane waves:    1989
 k-point  40 :   0.4545 0.1818 0.1818  plane waves:    2002
 k-point  41 :   0.2727 0.2727 0.1818  plane waves:    1996
 k-point  42 :   0.3636 0.2727 0.1818  plane waves:    2000
 k-point  43 :   0.4545 0.2727 0.1818  plane waves:    2002
 k-point  44 :   0.3636 0.3636 0.1818  plane waves:    2003
 k-point  45 :   0.4545 0.3636 0.1818  plane waves:    2014
 k-point  46 :   0.4545 0.4545 0.1818  plane waves:    2015
 k-point  47 :   0.2727 0.2727 0.2727  plane waves:    2010
 k-point  48 :   0.3636 0.2727 0.2727  plane waves:    2000
 k-point  49 :   0.4545 0.2727 0.2727  plane waves:    2004
 k-point  50 :   0.3636 0.3636 0.2727  plane waves:    1998
 k-point  51 :   0.4545 0.3636 0.2727  plane waves:    2000
 k-point  52 :   0.4545 0.4545 0.2727  plane waves:    2006
 k-point  53 :   0.3636 0.3636 0.3636  plane waves:    1998
 k-point  54 :   0.4545 0.3636 0.3636  plane waves:    1987
 k-point  55 :   0.4545 0.4545 0.3636  plane waves:    1990
 k-point  56 :   0.4545 0.4545 0.4545  plane waves:    1968

 maximum and minimum number of plane-waves per node :      2015     1968

 maximum number of plane-waves:      2015
 maximum index in each direction: 
   IXMAX=    7   IYMAX=    7   IZMAX=    7
   IXMIN=   -8   IYMIN=   -8   IZMIN=   -8


 serial   3D FFT for wavefunctions
 parallel 3D FFT for charge:
    minimum data exchange during FFTs selected (reduces bandwidth)


 total amount of memory used by VASP MPI-rank0    95447. kBytes
=======================================================================

   base      :      30000. kBytes
   nonl-proj :      16313. kBytes
   fftplans  :       9204. kBytes
   grid      :      14172. kBytes
   one-center:         31. kBytes
   wavefun   :      25727. kBytes
 
     INWAV:  cpu time      0.0000: real time      0.0000
 Broyden mixing: mesh for mixing (old mesh)
   NGX = 15   NGY = 15   NGZ = 15
  (NGX  = 64   NGY  = 64   NGZ  = 64)
  gives a total of   3375 points

 initial charge density was supplied:
 charge density of overlapping atoms calculated
 number of electron      20.0000000 magnetization 
 keeping initial charge density in first step


--------------------------------------------------------------------------------------------------------


 Maximum index for augmentation-charges         14771 (set IRDMAX)


--------------------------------------------------------------------------------------------------------


 First call to EWALD:  gamma=   0.346
 Maximum number of real-space cells 3x 3x 3
 Maximum number of reciprocal cells 3x 3x 3

    FEWALD:  cpu time      0.0009: real time      0.0006


--------------------------------------- Ionic step        1  -------------------------------------------




--------------------------------------- Iteration      1(   1)  ---------------------------------------


    POTLOK:  cpu time      0.0209: real time      0.0206
    SETDIJ:  cpu time      0.0069: real time      0.0034
     EDDAV:  cpu time      1.1456: real time      1.1450
       DOS:  cpu time      0.0013: real time      0.0013
    --------------------------------------------
      LOOP:  cpu time      1.1747: real time      1.1704

 eigenvalue-minimisations  :  1568
 total energy-change (2. order) : 0.1244535E+03  (-0.6641524E+03)
 number of electron      20.0000000 magnetization 
 augmentation part       20.0000000 magnetization 

 Free energy of the ion-electron system (eV)
  ---------------------------------------------------
  alpha Z        PSCENC =        78.01254994
  Ewald energy   TEWEN  =     -1022.66357174
  -Hartree energ DENC   =      -254.04923930
  -exchange      EXHF   =         0.00000000
  -V(xc)+E(xc)   XCENC  =        48.53233567
  PAW double counting   =      1034.69261413    -1029.43834999
  entropy T*S    EENTRO =         0.00580482
  eigenvalues    EBANDS =      -132.34602459
  atomic energy  EATOM  =      1401.70739034
  Solvation  Ediel_sol  =         0.00000000
  ---------------------------------------------------
  free energy    TOTEN  =       124.45350928 eV

  energy without entropy =      124.44770446  energy(sigma->0) =      124.45157434


--------------------------------------------------------------------------------------------------------




--------------------------------------- Iteration      1(   2)  ---------------------------------------


     EDDAV:  cpu time      1.3870: real time      1.3873
       DOS:  cpu time      0.0015: real time      0.0015
    --------------------------------------------
      LOOP:  cpu time      1.3885: real time      1.3888

 eigenvalue-minimisations  :  2330
 total energy-change (2. order) :-0.1198664E+03  (-0.1181226E+03)
 number of electron      20.0000000 magnetization 
 augmentation part       20.0000000 magnetization 

 Free energy of the ion-electron system (eV)
  ---------------------------------------------------
  alpha Z        PSCENC =        78.01254994
  Ewald energy   TEWEN  =     -1022.66357174
  -Hartree energ DENC   =      -254.04923930
  -exchange      EXHF   =         0.00000000
  -V(xc)+E(xc)   XCENC  =        48.53233567
  PAW double counting   =      1034.69261413    -1029.43834999
  entropy T*S    EENTRO =         0.00193121
  eigenvalues    EBANDS =      -252.20851506
  atomic energy  EATOM  =      1401.70739034
  Solvation  Ediel_sol  =         0.00000000
  ---------------------------------------------------
  free energy    TOTEN  =         4.58714520 eV

  energy without entropy =        4.58521399  energy(sigma->0) =        4.58650146


--------------------------------------------------------------------------------------------------------




--------------------------------------- Iteration      1(   3)  ---------------------------------------


     EDDAV:  cpu time      1.3224: real time      1.3227
       DOS:  cpu time      0.0016: real time      0.0016
    --------------------------------------------
      LOOP:  cpu time      1.3239: real time      1.3243

 eigenvalue-minimisations  :  2190
 total energy-change (2. order) :-0.8136162E+01  (-0.8059298E+01)
 number of electron      20.0000000 magnetization 
 augmentation part       20.0000000 magnetization 

 Free energy of the ion-electron system (eV)
  ---------------------------------------------------
  alpha Z        PSCENC =        78.01254994
  Ewald energy   TEWEN  =     -1022.66357174
  -Hartree energ DENC   =      -254.04923930
  -exchange      EXHF   =         0.00000000
  -V(xc)+E(xc)   XCENC  =        48.53233567
  PAW double counting   =      1034.69261413    -1029.43834999
  entropy T*S    EENTRO =         0.00352972
  eigenvalues    EBANDS =      -260.34627573
  atomic energy  EATOM  =      1401.70739034
  Solvation  Ediel_sol  =         0.00000000
  ---------------------------------------------------
  free energy    TOTEN  =        -3.54901696 eV

  energy without entropy =       -3.55254668  energy(sigma->0) =       -3.55019354


--------------------------------------------------------------------------------------------------------




--------------------------------------- Iteration      1(   4)  ---------------------------------------


     EDDAV:  cpu time      1.3448: real time      1.3451
       DOS:  cpu time      0.0015: real time      0.0015
    --------------------------------------------
      LOOP:  cpu time      1.3463: real time      1.3466

 eigenvalue-minimisations  :  2276
 total energy-change (2. order) :-0.2488965E+00  (-0.2487864E+00)
 number of electron      20.0000000 magnetization 
 augmentation part       20.0000000 magnetization 

 Free energy of the ion-electron system (eV)
  ---------------------------------------------------
  alpha Z        PSCENC =        78.01254994
  Ewald energy   TEWEN  =     -1022.66357174
  -Hartree energ DENC   =      -254.04923930
  -exchange      EXHF   =         0.00000000
  -V(xc)+E(xc)   XCENC  =        48.53233567
  PAW double counting   =      1034.69261413    -1029.43834999
  entropy T*S    EENTRO =         0.00377693
  eigenvalues    EBANDS =      -260.59541946
  atomic energy  EATOM  =      1401.70739034
  Solvation  Ediel_sol  =         0.00000000
  ---------------------------------------------------
  free energy    TOTEN  =        -3.79791348 eV

  energy without entropy =       -3.80169041  energy(sigma->0) =       -3.79917246


--------------------------------------------------------------------------------------------------------




--------------------------------------- Iteration      1(   5)  ---------------------------------------


     EDDAV:  cpu time      1.2548: real time      1.2550
       DOS:  cpu time      0.0015: real time      0.0015
    CHARGE:  cpu time      0.1186: real time      0.1165
    MIXING:  cpu time      0.0030: real time      0.0020
    --------------------------------------------
      LOOP:  cpu time      1.3780: real time      1.3750

 eigenvalue-minimisations  :  2070
 total energy-change (2. order) :-0.2940909E-02  (-0.2940989E-02)
 number of electron      19.9999989 magnetization 
 augmentation part       -3.6849094 magnetization 

 Broyden mixing:
  rms(total) = 0.21522E+00    rms(broyden)= 0.21520E+00
  rms(prec ) = 0.29090E+00
  weight for this iteration     100.00

 Free energy of the ion-electron system (eV)
  ---------------------------------------------------
  alpha Z        PSCENC =        78.01254994
  Ewald energy   TEWEN  =     -1022.66357174
  -Hartree energ DENC   =      -254.04923930
  -exchange      EXHF   =         0.00000000
  -V(xc)+E(xc)   XCENC  =        48.53233567
  PAW double counting   =      1034.69261413    -1029.43834999
  entropy T*S    EENTRO =         0.00379800
  eigenvalues    EBANDS =      -260.59838145
  atomic energy  EATOM  =      1401.70739034
  Solvation  Ediel_sol  =         0.00000000
  ---------------------------------------------------
  free energy    TOTEN  =        -3.80085439 eV

  energy without entropy =       -3.80465240  energy(sigma->0) =       -3.80212039


--------------------------------------------------------------------------------------------------------




--------------------------------------- Iteration      1(   6)  ---------------------------------------


    POTLOK:  cpu time      0.0066: real time      0.0055
    SETDIJ:  cpu time      0.0062: real time      0.0031
     EDDAV:  cpu time      1.1623: real time      1.1616
       DOS:  cpu time      0.0015: real time      0.0015
    CHARGE:  cpu time      0.1159: real time      0.1138
    MIXING:  cpu time      0.0034: real time      0.0022
    --------------------------------------------
      LOOP:  cpu time      1.2959: real time      1.2878

 eigenvalue-minimisations  :  1890
 total energy-change (2. order) :-0.1290942E-02  (-0.5429330E-03)
 number of electron      19.9999988 magnetization 
 augmentation part       -3.6884967 magnetization 

 Broyden mixing:
  rms(total) = 0.12862E+00    rms(broyden)= 0.12862E+00
  rms(prec ) = 0.17522E+00
  weight for this iteration     100.00

 eigenvalues of (default mixing * dielectric matrix)
  average eigenvalue GAMMA=   2.4784
  2.4784

 Free energy of the ion-electron system (eV)
  ---------------------------------------------------
  alpha Z        PSCENC =        78.01254994
  Ewald energy   TEWEN  =     -1022.66357174
  -Hartree energ DENC   =      -253.43739666
  -exchange      EXHF   =         0.00000000
  -V(xc)+E(xc)   XCENC  =        48.59498794
  PAW double counting   =      1074.22463850    -1070.03266744
  entropy T*S    EENTRO =         0.00387786
  eigenvalues    EBANDS =      -260.21195408
  atomic energy  EATOM  =      1401.70739034
  Solvation  Ediel_sol  =         0.00000000
  ---------------------------------------------------
  free energy    TOTEN  =        -3.80214534 eV

  energy without entropy =       -3.80602319  energy(sigma->0) =       -3.80343795


--------------------------------------------------------------------------------------------------------




--------------------------------------- Iteration      1(   7)  ---------------------------------------


    POTLOK:  cpu time      0.0066: real time      0.0055
    SETDIJ:  cpu time      0.0062: real time      0.0031
     EDDAV:  cpu time      1.0697: real time      1.0689
       DOS:  cpu time      0.0015: real time      0.0015
    CHARGE:  cpu time      0.1141: real time      0.1119
    MIXING:  cpu time      0.0036: real time      0.0023
    --------------------------------------------
      LOOP:  cpu time      1.2018: real time      1.1934

 eigenvalue-minimisations  :  1712
 total energy-change (2. order) :-0.2301442E-02  (-0.1150019E-02)
 number of electron      19.9999988 magnetization 
 augmentation part       -3.6918090 magnetization 

 Broyden mixing:
  rms(total) = 0.56053E-02    rms(broyden)= 0.55522E-02
  rms(prec ) = 0.12160E-01
  weight for this iteration     100.00

 eigenvalues of (default mixing * dielectric matrix)
  average eigenvalue GAMMA=   2.0748
  1.5980  2.5516

 Free energy of the ion-electron system (eV)
  ---------------------------------------------------
  alpha Z        PSCENC =        78.01254994
  Ewald energy   TEWEN  =     -1022.66357174
  -Hartree energ DENC   =      -252.43780813
  -exchange      EXHF   =         0.00000000
  -V(xc)+E(xc)   XCENC  =        48.70148495
  PAW double counting   =      1134.93114579    -1132.28025075
  entropy T*S    EENTRO =         0.00403547
  eigenvalues    EBANDS =      -259.77942266
  atomic energy  EATOM  =      1401.70739034
  Solvation  Ediel_sol  =         0.00000000
  ---------------------------------------------------
  free energy    TOTEN  =        -3.80444678 eV

  energy without entropy =       -3.80848224  energy(sigma->0) =       -3.80579193


--------------------------------------------------------------------------------------------------------




--------------------------------------- Iteration      1(   8)  ---------------------------------------


    POTLOK:  cpu time      0.0061: real time      0.0051
    SETDIJ:  cpu time      0.0057: real time      0.0028
     EDDAV:  cpu time      1.4638: real time      1.4631
       DOS:  cpu time      0.0015: real time      0.0015
    CHARGE:  cpu time      0.1159: real time      0.1137
    MIXING:  cpu time      0.0035: real time      0.0022
    --------------------------------------------
      LOOP:  cpu time      1.5965: real time      1.5885

 eigenvalue-minimisations  :  2502
 total energy-change (2. order) :-0.3171167E-03  (-0.7790832E-04)
 number of electron      19.9999988 magnetization 
 augmentation part       -3.6970362 magnetization 

 Broyden mixing:
  rms(total) = 0.38774E-02    rms(broyden)= 0.38725E-02
  rms(prec ) = 0.64302E-02
  weight for this iteration     100.00

 eigenvalues of (default mixing * dielectric matrix)
  average eigenvalue GAMMA=   2.0169
  0.9399  2.5554  2.5554

 Free energy of the ion-electron system (eV)
  ---------------------------------------------------
  alpha Z        PSCENC =        78.01254994
  Ewald energy   TEWEN  =     -1022.66357174
  -Hartree energ DENC   =      -252.26105571
  -exchange      EXHF   =         0.00000000
  -V(xc)+E(xc)   XCENC  =        48.69776093
  PAW double counting   =      1135.17782507    -1132.53141863
  entropy T*S    EENTRO =         0.00406982
  eigenvalues    EBANDS =      -259.94831392
  atomic energy  EATOM  =      1401.70739034
  Solvation  Ediel_sol  =         0.00000000
  ---------------------------------------------------
  free energy    TOTEN  =        -3.80476389 eV

  energy without entropy =       -3.80883372  energy(sigma->0) =       -3.80612050


--------------------------------------------------------------------------------------------------------




--------------------------------------- Iteration      1(   9)  ---------------------------------------


    POTLOK:  cpu time      0.0066: real time      0.0056
    SETDIJ:  cpu time      0.0062: real time      0.0031
     EDDAV:  cpu time      1.1586: real time      1.1579
       DOS:  cpu time      0.0015: real time      0.0015
    CHARGE:  cpu time      0.1137: real time      0.1116
    MIXING:  cpu time      0.0033: real time      0.0021
    --------------------------------------------
      LOOP:  cpu time      1.2900: real time      1.2819

 eigenvalue-minimisations  :  1886
 total energy-change (2. order) :-0.3007807E-04  (-0.2179575E-05)
 number of electron      19.9999988 magnetization 
 augmentation part       -3.6973176 magnetization 

 Broyden mixing:
  rms(total) = 0.11275E-02    rms(broyden)= 0.11272E-02
  rms(prec ) = 0.22843E-02
  weight for this iteration     100.00

 eigenvalues of (default mixing * dielectric matrix)
  average eigenvalue GAMMA=   2.0667
  3.1160  1.0406  2.3217  1.7883

 Free energy of the ion-electron system (eV)
  ---------------------------------------------------
  alpha Z        PSCENC =        78.01254994
  Ewald energy   TEWEN  =     -1022.66357174
  -Hartree energ DENC   =      -252.28185965
  -exchange      EXHF   =         0.00000000
  -V(xc)+E(xc)   XCENC  =        48.69470117
  PAW double counting   =      1133.56450972    -1130.86757624
  entropy T*S    EENTRO =         0.00407715
  eigenvalues    EBANDS =      -259.97501467
  atomic energy  EATOM  =      1401.70739034
  Solvation  Ediel_sol  =         0.00000000
  ---------------------------------------------------
  free energy    TOTEN  =        -3.80479397 eV

  energy without entropy =       -3.80887112  energy(sigma->0) =       -3.80615302


--------------------------------------------------------------------------------------------------------




--------------------------------------- Iteration      1(  10)  ---------------------------------------


    POTLOK:  cpu time      0.0062: real time      0.0051
    SETDIJ:  cpu time      0.0055: real time      0.0028
     EDDAV:  cpu time      1.1892: real time      1.1885
       DOS:  cpu time      0.0016: real time      0.0016
    CHARGE:  cpu time      0.1139: real time      0.1118
    MIXING:  cpu time      0.0034: real time      0.0022
    --------------------------------------------
      LOOP:  cpu time      1.3197: real time      1.3118

 eigenvalue-minimisations  :  1940
 total energy-change (2. order) :-0.7129683E-05  (-0.1361873E-05)
 number of electron      19.9999988 magnetization 
 augmentation part       -3.6971679 magnetization 

 Broyden mixing:
  rms(total) = 0.29874E-03    rms(broyden)= 0.29857E-03
  rms(prec ) = 0.46318E-03
  weight for this iteration     100.00

 eigenvalues of (default mixing * dielectric matrix)
  average eigenvalue GAMMA=   1.9322
  3.1485  2.4434  1.9276  0.9723  1.1691

 Free energy of the ion-electron system (eV)
  ---------------------------------------------------
  alpha Z        PSCENC =        78.01254994
  Ewald energy   TEWEN  =     -1022.66357174
  -Hartree energ DENC   =      -252.30375625
  -exchange      EXHF   =         0.00000000
  -V(xc)+E(xc)   XCENC  =        48.69709391
  PAW double counting   =      1134.46150074    -1131.77113332
  entropy T*S    EENTRO =         0.00408527
  eigenvalues    EBANDS =      -259.94895999
  atomic energy  EATOM  =      1401.70739034
  Solvation  Ediel_sol  =         0.00000000
  ---------------------------------------------------
  free energy    TOTEN  =        -3.80480110 eV

  energy without entropy =       -3.80888637  energy(sigma->0) =       -3.80616286


--------------------------------------------------------------------------------------------------------




--------------------------------------- Iteration      1(  11)  ---------------------------------------


    POTLOK:  cpu time      0.0062: real time      0.0051
    SETDIJ:  cpu time      0.0058: real time      0.0029
     EDDAV:  cpu time      0.7750: real time      0.7742
       DOS:  cpu time      0.0016: real time      0.0016
    --------------------------------------------
      LOOP:  cpu time      0.7886: real time      0.7838

 eigenvalue-minimisations  :  1054
 total energy-change (2. order) :-0.9333223E-07  (-0.7781473E-07)
 number of electron      19.9999988 magnetization 
 augmentation part       -3.6971679 magnetization 

 Free energy of the ion-electron system (eV)
  ---------------------------------------------------
  alpha Z        PSCENC =        78.01254994
  Ewald energy   TEWEN  =     -1022.66357174
  -Hartree energ DENC   =      -252.30976617
  -exchange      EXHF   =         0.00000000
  -V(xc)+E(xc)   XCENC  =        48.69707762
  PAW double counting   =      1134.45869015    -1131.76614435
  entropy T*S    EENTRO =         0.00408578
  eigenvalues    EBANDS =      -259.94511276
  atomic energy  EATOM  =      1401.70739034
  Solvation  Ediel_sol  =         0.00000000
  ---------------------------------------------------
  free energy    TOTEN  =        -3.80480120 eV

  energy without entropy =       -3.80888697  energy(sigma->0) =       -3.80616312


--------------------------------------------------------------------------------------------------------




 average (electrostatic) potential at core
  the test charge radii are     1.2192
  (the norm of the test charge is              1.0000)
       1 -39.7771       2 -39.7771
 
 
 
 E-fermi :   1.4275     XC(G=0):  -7.2035     alpha+bet : -6.3441

 Fermi energy:         1.4274756431

 k-point     1 :       0.0000    0.0000    0.0000
  band No.  band energies     occupation 
      1     -27.5664      2.00000
      2     -27.5099      2.00000
      3     -12.8074      2.00000
      4     -12.8074      2.00000
      5     -12.8074      2.00000
      6     -12.5476      2.00000
      7     -12.5476      2.00000
      8     -12.5476      2.00000
      9      -1.2790      2.00000
     10       0.9770      2.00651
     11       0.9770      2.00651
     12       3.1895     -0.00000
     13       3.1895     -0.00000
     14       3.1895     -0.00000

 k-point     2 :       0.0909    0.0000    0.0000
  band No.  band energies     occupation 
      1     -27.5651      2.00000
      2     -27.5108      2.00000
      3     -12.8074      2.00000
      4     -12.8019      2.00000
      5     -12.8019      2.00000
      6     -12.5586      2.00000
      7     -12.5527      2.00000
      8     -12.5527      2.00000
      9      -1.2068      2.00000
     10       1.0187      2.01384
     11       1.0202      2.01418
     12       3.1656     -0.00000
     13       3.1656     -0.00000
     14       3.2260     -0.00000

 k-point     3 :       0.1818    0.0000    0.0000
  band No.  band energies     occupation 
      1     -27.5613      2.00000
      2     -27.5138      2.00000
      3     -12.8062      2.00000
      4     -12.7860      2.00000
      5     -12.7860      2.00000
      6     -12.5891      2.00000
      7     -12.5674      2.00000
      8     -12.5674      2.00000
      9      -0.9958      2.00000
     10       1.1183      2.05113
     11       1.1434      2.06200
     12       3.1112     -0.00000
     13       3.1112     -0.00000
     14       3.3348     -0.00000

 k-point     4 :       0.2727    0.0000    0.0000
  band No.  band energies     occupation 
      1     -27.5555      2.00000
      2     -27.5185      2.00000
      3     -12.8007      2.00000
      4     -12.7610      2.00000
      5     -12.7610      2.00000
      6     -12.6327      2.00000
      7     -12.5907      2.00000
      8     -12.5907      2.00000
      9      -0.6635      2.00000
     10       1.1708      2.06994
     11       1.3497      1.60620
     12       3.0651     -0.00000
     13       3.0651     -0.00000
     14       3.4270     -0.00000

 k-point     5 :       0.3636    0.0000    0.0000
  band No.  band energies     occupation 
      1     -27.5483      2.00000
      2     -27.5248      2.00000
      3     -12.7870      2.00000
      4     -12.7291      2.00000
      5     -12.7291      2.00000
      6     -12.6810      2.00000
      7     -12.6211      2.00000
      8     -12.6211      2.00000
      9      -0.2384      2.00000
     10       1.0412      2.01984
     11       1.6353     -0.05741
     12       2.9087     -0.00000
     13       3.0658     -0.00000
     14       3.0658     -0.00000

 k-point     6 :       0.4545    0.0000    0.0000
  band No.  band energies     occupation 
      1     -27.5402      2.00000
      2     -27.5322      2.00000
      3     -12.7623      2.00000
      4     -12.7262      2.00000
      5     -12.6932      2.00000
      6     -12.6932      2.00000
      7     -12.6562      2.00000
      8     -12.6562      2.00000
      9       0.2373      2.00000
     10       0.6976      2.00000
     11       1.9958     -0.00044
     12       2.4244     -0.00000
     13       3.1412     -0.00000
     14       3.1434     -0.00000

 k-point     7 :       0.0909    0.0909    0.0000
  band No.  band energies     occupation 
      1     -27.5638      2.00000
      2     -27.5118      2.00000
      3     -12.8164      2.00000
      4     -12.7966      2.00000
      5     -12.7878      2.00000
      6     -12.5789      2.00000
      7     -12.5574      2.00000
      8     -12.5478      2.00000
      9      -1.1359      2.00000
     10       1.0576      2.02520
     11       1.0653      2.02804
     12       3.0736     -0.00000
     13       3.1242     -0.00000
     14       3.3350     -0.00000

 k-point     8 :       0.1818    0.0909    0.0000
  band No.  band energies     occupation 
      1     -27.5602      2.00000
      2     -27.5146      2.00000
      3     -12.8225      2.00000
      4     -12.7813      2.00000
      5     -12.7656      2.00000
      6     -12.6158      2.00000
      7     -12.5715      2.00000
      8     -12.5545      2.00000
      9      -0.9295      2.00000
     10       1.1560      2.06641
     11       1.1855      2.07085
     12       2.9738     -0.00000
     13       3.0221     -0.00000
     14       3.4998     -0.00000

 k-point     9 :       0.2727    0.0909    0.0000
  band No.  band energies     occupation 
      1     -27.5546      2.00000
      2     -27.5191      2.00000
      3     -12.8218      2.00000
      4     -12.7572      2.00000
      5     -12.7373      2.00000
      6     -12.6621      2.00000
      7     -12.5938      2.00000
      8     -12.5727      2.00000
      9      -0.6049      2.00000
     10       1.2074      2.06530
     11       1.3788      1.39833
     12       2.8827     -0.00000
     13       2.9069     -0.00000
     14       3.6572     -0.00000

 k-point    10 :       0.3636    0.0909    0.0000
  band No.  band energies     occupation 
      1     -27.5476      2.00000
      2     -27.5251      2.00000
      3     -12.8116      2.00000
      4     -12.7265      2.00000
      5     -12.7109      2.00000
      6     -12.7043      2.00000
      7     -12.6228      2.00000
      8     -12.5997      2.00000
      9      -0.1906      2.00000
     10       1.0686      2.02931
     11       1.6450     -0.06398
     12       2.6650     -0.00000
     13       2.8975     -0.00000
     14       3.3793     -0.00000

 k-point    11 :       0.4545    0.0909    0.0000
  band No.  band energies     occupation 
      1     -27.5399      2.00000
      2     -27.5322      2.00000
      3     -12.7894      2.00000
      4     -12.7551      2.00000
      5     -12.6919      2.00000
      6     -12.6684      2.00000
      7     -12.6564      2.00000
      8     -12.6326      2.00000
      9       0.2722      2.00000
     10       0.7231      2.00001
     11       1.9719     -0.00081
     12       2.3336     -0.00000
     13       2.9658     -0.00000
     14       3.1252     -0.00000

 k-point    12 :       0.1818    0.1818    0.0000
  band No.  band energies     occupation 
      1     -27.5570      2.00000
      2     -27.5170      2.00000
      3     -12.8403      2.00000
      4     -12.7675      2.00000
      5     -12.7346      2.00000
      6     -12.6610      2.00000
      7     -12.5835      2.00000
      8     -12.5482      2.00000
      9      -0.7369      2.00000
     10       1.2248      2.05289
     11       1.3184      1.78793
     12       2.8016     -0.00000
     13       2.8414     -0.00000
     14       3.5589     -0.00000

 k-point    13 :       0.2727    0.1818    0.0000
  band No.  band energies     occupation 
      1     -27.5520      2.00000
      2     -27.5208      2.00000
      3     -12.8502      2.00000
      4     -12.7461      2.00000
      5     -12.7121      2.00000
      6     -12.7005      2.00000
      7     -12.6028      2.00000
      8     -12.5546      2.00000
      9      -0.4369      2.00000
     10       1.2468      2.02392
     11       1.4986      0.43837
     12       2.6482     -0.00000
     13       2.6795     -0.00000
     14       3.3295     -0.00000

 k-point    14 :       0.3636    0.1818    0.0000
  band No.  band energies     occupation 
      1     -27.5458      2.00000
      2     -27.5260      2.00000
      3     -12.8488      2.00000
      4     -12.7619      2.00000
      5     -12.7189      2.00000
      6     -12.6651      2.00000
      7     -12.6280      2.00000
      8     -12.5722      2.00000
      9      -0.0590      2.00000
     10       1.0923      2.03924
     11       1.7159     -0.06027
     12       2.4476     -0.00000
     13       2.6300     -0.00000
     14       3.0281     -0.00000

 k-point    15 :       0.4545    0.1818    0.0000
  band No.  band energies     occupation 
      1     -27.5390      2.00000
      2     -27.5322      2.00000
      3     -12.8335      2.00000
      4     -12.8039      2.00000
      5     -12.6884      2.00000
      6     -12.6573      2.00000
      7     -12.6303      2.00000
      8     -12.5984      2.00000
      9       0.3579      2.00000
     10       0.7651      2.00003
     11       1.9653     -0.00095
     12       2.2192     -0.00000
     13       2.6671     -0.00000
     14       2.7991     -0.00000

 k-point    16 :       0.2727    0.2727    0.0000
  band No.  band energies     occupation 
      1     -27.5480      2.00000
      2     -27.5237      2.00000
      3     -12.8713      2.00000
      4     -12.7651      2.00000
      5     -12.7289      2.00000
      6     -12.6632      2.00000
      7     -12.6173      2.00000
      8     -12.5487      2.00000
      9      -0.1824      2.00000
     10       1.1918      2.07022
     11       1.6984     -0.06659
     12       2.4672     -0.00000
     13       2.5046     -0.00000
     14       2.9868     -0.00000

 k-point    17 :       0.3636    0.2727    0.0000
  band No.  band energies     occupation 
      1     -27.5430      2.00000
      2     -27.5276      2.00000
      3     -12.8801      2.00000
      4     -12.8134      2.00000
      5     -12.7073      2.00000
      6     -12.6364      2.00000
      7     -12.6279      2.00000
      8     -12.5548      2.00000
      9       0.1248      2.00000
     10       1.0187      2.01384
     11       1.9016     -0.00405
     12       2.3351     -0.00000
     13       2.4096     -0.00000
     14       2.6988     -0.00000

 k-point    18 :       0.4545    0.2727    0.0000
  band No.  band energies     occupation 
      1     -27.5377      2.00000
      2     -27.5324      2.00000
      3     -12.8737      2.00000
      4     -12.8510      2.00000
      5     -12.6832      2.00000
      6     -12.6589      2.00000
      7     -12.5966      2.00000
      8     -12.5715      2.00000
      9       0.4484      2.00000
     10       0.7567      2.00002
     11       2.0768     -0.00004
     12       2.2174     -0.00000
     13       2.4073     -0.00000
     14       2.5036     -0.00000

 k-point    19 :       0.3636    0.3636    0.0000
  band No.  band energies     occupation 
      1     -27.5397      2.00000
      2     -27.5299      2.00000
      3     -12.8994      2.00000
      4     -12.8575      2.00000
      5     -12.6928      2.00000
      6     -12.6479      2.00000
      7     -12.5959      2.00000
      8     -12.5491      2.00000
      9       0.3227      2.00000
     10       0.8678      2.00055
     11       2.1274     -0.00001
     12       2.2713     -0.00000
     13       2.3177     -0.00000
     14       2.4457     -0.00000

 k-point    20 :       0.4545    0.3636    0.0000
  band No.  band energies     occupation 
      1     -27.5362      2.00000
      2     -27.5328      2.00000
      3     -12.9028      2.00000
      4     -12.8885      2.00000
      5     -12.6772      2.00000
      6     -12.6618      2.00000
      7     -12.5710      2.00000
      8     -12.5549      2.00000
      9       0.5117      2.00000
     10       0.6923      2.00000
     11       2.2285     -0.00000
     12       2.2845     -0.00000
     13       2.2867     -0.00000
     14       2.3323     -0.00000

 k-point    21 :       0.4545    0.4545    0.0000
  band No.  band energies     occupation 
      1     -27.5348      2.00000
      2     -27.5336      2.00000
      3     -12.9160      2.00000
      4     -12.9111      2.00000
      5     -12.6712      2.00000
      6     -12.6659      2.00000
      7     -12.5550      2.00000
      8     -12.5494      2.00000
      9       0.5592      2.00000
     10       0.6174      2.00000
     11       2.1459     -0.00000
     12       2.1654     -0.00000
     13       2.4499     -0.00000
     14       2.4565     -0.00000

 k-point    22 :       0.0909    0.0909    0.0909
  band No.  band energies     occupation 
      1     -27.5626      2.00000
      2     -27.5127      2.00000
      3     -12.8107      2.00000
      4     -12.8107      2.00000
      5     -12.7695      2.00000
      6     -12.5976      2.00000
      7     -12.5530      2.00000
      8     -12.5530      2.00000
      9      -1.0663      2.00000
     10       1.1034      2.04424
     11       1.1034      2.04424
     12       3.0306     -0.00000
     13       3.0306     -0.00000
     14       3.4444     -0.00000

 k-point    23 :       0.1818    0.0909    0.0909
  band No.  band energies     occupation 
      1     -27.5591      2.00000
      2     -27.5153      2.00000
      3     -12.8231      2.00000
      4     -12.7943      2.00000
      5     -12.7436      2.00000
      6     -12.6355      2.00000
      7     -12.5682      2.00000
      8     -12.5553      2.00000
      9      -0.8636      2.00000
     10       1.2068      2.06560
     11       1.2164      2.05989
     12       2.9033     -0.00000
     13       2.9173     -0.00000
     14       3.5521     -0.00000

 k-point    24 :       0.2727    0.0909    0.0909
  band No.  band energies     occupation 
      1     -27.5537      2.00000
      2     -27.5196      2.00000
      3     -12.8279      2.00000
      4     -12.7685      2.00000
      5     -12.7141      2.00000
      6     -12.6819      2.00000
      7     -12.5924      2.00000
      8     -12.5682      2.00000
      9      -0.5455      2.00000
     10       1.2549      2.00878
     11       1.4009      1.22277
     12       2.7565     -0.00000
     13       2.8189     -0.00000
     14       3.2116     -0.00000

 k-point    25 :       0.3636    0.0909    0.0909
  band No.  band energies     occupation 
      1     -27.5470      2.00000
      2     -27.5254      2.00000
      3     -12.8221      2.00000
      4     -12.7356      2.00000
      5     -12.7298      2.00000
      6     -12.6820      2.00000
      7     -12.6239      2.00000
      8     -12.5897      2.00000
      9      -0.1408      2.00000
     10       1.1045      2.04476
     11       1.6491     -0.06601
     12       2.5421     -0.00000
     13       2.8015     -0.00000
     14       3.0562     -0.00000

 k-point    26 :       0.4545    0.0909    0.0909
  band No.  band energies     occupation 
      1     -27.5396      2.00000
      2     -27.5322      2.00000
      3     -12.8036      2.00000
      4     -12.7720      2.00000
      5     -12.6985      2.00000
      6     -12.6602      2.00000
      7     -12.6491      2.00000
      8     -12.6175      2.00000
      9       0.3111      2.00000
     10       0.7545      2.00002
     11       1.9456     -0.00153
     12       2.2601     -0.00000
     13       2.8559     -0.00000
     14       2.9567     -0.00000

 k-point    27 :       0.1818    0.1818    0.0909
  band No.  band energies     occupation 
      1     -27.5560      2.00000
      2     -27.5176      2.00000
      3     -12.8342      2.00000
      4     -12.7884      2.00000
      5     -12.7128      2.00000
      6     -12.6763      2.00000
      7     -12.5781      2.00000
      8     -12.5539      2.00000
      9      -0.6726      2.00000
     10       1.2839      1.93197
     11       1.3455      1.63326
     12       2.7429     -0.00000
     13       2.7537     -0.00000
     14       3.0931     -0.00000

 k-point    28 :       0.2727    0.1818    0.0909
  band No.  band energies     occupation 
      1     -27.5512      2.00000
      2     -27.5213      2.00000
      3     -12.8458      2.00000
      4     -12.7655      2.00000
      5     -12.7240      2.00000
      6     -12.6809      2.00000
      7     -12.5996      2.00000
      8     -12.5587      2.00000
      9      -0.3758      2.00000
     10       1.3152      1.80400
     11       1.5101      0.36251
     12       2.5646     -0.00000
     13       2.6252     -0.00000
     14       2.8172     -0.00000

 k-point    29 :       0.3636    0.1818    0.0909
  band No.  band energies     occupation 
      1     -27.5452      2.00000
      2     -27.5263      2.00000
      3     -12.8476      2.00000
      4     -12.7706      2.00000
      5     -12.7344      2.00000
      6     -12.6493      2.00000
      7     -12.6286      2.00000
      8     -12.5723      2.00000
      9      -0.0031      2.00000
     10       1.1494      2.06425
     11       1.7056     -0.06423
     12       2.3676     -0.00000
     13       2.5816     -0.00000
     14       2.7422     -0.00000

 k-point    30 :       0.4545    0.1818    0.0909
  band No.  band energies     occupation 
      1     -27.5387      2.00000
      2     -27.5322      2.00000
      3     -12.8357      2.00000
      4     -12.8094      2.00000
      5     -12.6990      2.00000
      6     -12.6627      2.00000
      7     -12.6195      2.00000
      8     -12.5932      2.00000
      9       0.4077      2.00000
     10       0.8125      2.00012
     11       1.9292     -0.00223
     12       2.1561     -0.00000
     13       2.6139     -0.00000
     14       2.6896     -0.00000

 k-point    31 :       0.2727    0.2727    0.0909
  band No.  band energies     occupation 
      1     -27.5473      2.00000
      2     -27.5241      2.00000
      3     -12.8646      2.00000
      4     -12.7717      2.00000
      5     -12.7478      2.00000
      6     -12.6484      2.00000
      7     -12.6153      2.00000
      8     -12.5550      2.00000
      9      -0.1193      2.00000
     10       1.2653      1.98543
     11       1.7071     -0.06367
     12       2.4079     -0.00000
     13       2.4516     -0.00000
     14       2.5872     -0.00000

 k-point    32 :       0.3636    0.2727    0.0909
  band No.  band energies     occupation 
      1     -27.5426      2.00000
      2     -27.5278      2.00000
      3     -12.8742      2.00000
      4     -12.8158      2.00000
      5     -12.7223      2.00000
      6     -12.6373      2.00000
      7     -12.6187      2.00000
      8     -12.5600      2.00000
      9       0.1891      2.00000
     10       1.0873      2.03702
     11       1.8871     -0.00544
     12       2.2682     -0.00000
     13       2.3758     -0.00000
     14       2.5033     -0.00000

 k-point    33 :       0.4545    0.2727    0.0909
  band No.  band energies     occupation 
      1     -27.5374      2.00000
      2     -27.5323      2.00000
      3     -12.8699      2.00000
      4     -12.8500      2.00000
      5     -12.6933      2.00000
      6     -12.6641      2.00000
      7     -12.5932      2.00000
      8     -12.5731      2.00000
      9       0.5121      2.00000
     10       0.8205      2.00015
     11       2.0279     -0.00018
     12       2.1470     -0.00000
     13       2.3846     -0.00000
     14       2.4409     -0.00000

 k-point    34 :       0.3636    0.3636    0.0909
  band No.  band energies     occupation 
      1     -27.5393      2.00000
      2     -27.5300      2.00000
      3     -12.8922      2.00000
      4     -12.8557      2.00000
      5     -12.7048      2.00000
      6     -12.6501      2.00000
      7     -12.5929      2.00000
      8     -12.5561      2.00000
      9       0.3938      2.00000
     10       0.9384      2.00295
     11       2.1110     -0.00001
     12       2.2308     -0.00000
     13       2.2671     -0.00000
     14       2.3329     -0.00000

 k-point    35 :       0.4545    0.3636    0.0909
  band No.  band energies     occupation 
      1     -27.5360      2.00000
      2     -27.5327      2.00000
      3     -12.8961      2.00000
      4     -12.8837      2.00000
      5     -12.6852      2.00000
      6     -12.6664      2.00000
      7     -12.5733      2.00000
      8     -12.5608      2.00000
      9       0.5851      2.00000
     10       0.7645      2.00003
     11       2.1760     -0.00000
     12       2.1937     -0.00000
     13       2.2883     -0.00000
     14       2.3003     -0.00000

 k-point    36 :       0.4545    0.4545    0.0909
  band No.  band energies     occupation 
      1     -27.5346      2.00000
      2     -27.5335      2.00000
      3     -12.9085      2.00000
      4     -12.9043      2.00000
      5     -12.6772      2.00000
      6     -12.6707      2.00000
      7     -12.5610      2.00000
      8     -12.5568      2.00000
      9       0.6358      2.00000
     10       0.6931      2.00000
     11       2.1138     -0.00001
     12       2.1281     -0.00001
     13       2.4091     -0.00000
     14       2.4101     -0.00000

 k-point    37 :       0.1818    0.1818    0.1818
  band No.  band energies     occupation 
      1     -27.5532      2.00000
      2     -27.5195      2.00000
      3     -12.8164      2.00000
      4     -12.8164      2.00000
      5     -12.7113      2.00000
      6     -12.6814      2.00000
      7     -12.5705      2.00000
      8     -12.5705      2.00000
      9      -0.4871      2.00000
     10       1.4244      1.02619
     11       1.4244      1.02619
     12       2.5960     -0.00000
     13       2.5960     -0.00000
     14       2.6310     -0.00000

 k-point    38 :       0.2727    0.1818    0.1818
  band No.  band energies     occupation 
      1     -27.5489      2.00000
      2     -27.5227      2.00000
      3     -12.8379      2.00000
      4     -12.7885      2.00000
      5     -12.7533      2.00000
      6     -12.6514      2.00000
      7     -12.5970      2.00000
      8     -12.5684      2.00000
      9      -0.2014      2.00000
     10       1.4830      0.54927
     11       1.5475      0.15967
     12       2.3818     -0.00000
     13       2.4135     -0.00000
     14       2.4778     -0.00000

 k-point    39 :       0.3636    0.1818    0.1818
  band No.  band energies     occupation 
      1     -27.5436      2.00000
      2     -27.5270      2.00000
      3     -12.8481      2.00000
      4     -12.7936      2.00000
      5     -12.7529      2.00000
      6     -12.6314      2.00000
      7     -12.6246      2.00000
      8     -12.5732      2.00000
      9       0.1523      2.00000
     10       1.2702      1.97308
     11       1.7025     -0.06530
     12       2.2286     -0.00000
     13       2.4284     -0.00000
     14       2.4372     -0.00000

 k-point    40 :       0.4545    0.1818    0.1818
  band No.  band energies     occupation 
      1     -27.5379      2.00000
      2     -27.5322      2.00000
      3     -12.8442      2.00000
      4     -12.8254      2.00000
      5     -12.7126      2.00000
      6     -12.6709      2.00000
      7     -12.6021      2.00000
      8     -12.5847      2.00000
      9       0.5370      2.00000
     10       0.9204      2.00198
     11       1.8738     -0.00706
     12       2.0497     -0.00010
     13       2.4654     -0.00000
     14       2.4935     -0.00000

 k-point    41 :       0.2727    0.2727    0.1818
  band No.  band energies     occupation 
      1     -27.5455      2.00000
      2     -27.5251      2.00000
      3     -12.8451      2.00000
      4     -12.7893      2.00000
      5     -12.7819      2.00000
      6     -12.6251      2.00000
      7     -12.6101      2.00000
      8     -12.5736      2.00000
      9       0.0603      2.00000
     10       1.4724      0.63026
     11       1.7311     -0.05368
     12       2.1443     -0.00000
     13       2.2797     -0.00000
     14       2.3213     -0.00000

 k-point    42 :       0.3636    0.2727    0.1818
  band No.  band energies     occupation 
      1     -27.5412      2.00000
      2     -27.5283      2.00000
      3     -12.8579      2.00000
      4     -12.8231      2.00000
      5     -12.7520      2.00000
      6     -12.6390      2.00000
      7     -12.6041      2.00000
      8     -12.5750      2.00000
      9       0.3699      2.00000
     10       1.2716      1.96908
     11       1.8385     -0.01333
     12       2.1383     -0.00001
     13       2.2222     -0.00000
     14       2.2678     -0.00000

 k-point    43 :       0.4545    0.2727    0.1818
  band No.  band energies     occupation 
      1     -27.5367      2.00000
      2     -27.5322      2.00000
      3     -12.8601      2.00000
      4     -12.8482      2.00000
      5     -12.7144      2.00000
      6     -12.6753      2.00000
      7     -12.5889      2.00000
      8     -12.5794      2.00000
      9       0.6872      2.00000
     10       0.9903      2.00839
     11       1.9186     -0.00282
     12       2.0159     -0.00026
     13       2.2944     -0.00000
     14       2.3125     -0.00000

 k-point    44 :       0.3636    0.3636    0.1818
  band No.  band energies     occupation 
      1     -27.5383      2.00000
      2     -27.5301      2.00000
      3     -12.8712      2.00000
      4     -12.8509      2.00000
      5     -12.7329      2.00000
      6     -12.6545      2.00000
      7     -12.5899      2.00000
      8     -12.5764      2.00000
      9       0.5966      2.00000
     10       1.1344      2.05832
     11       2.0651     -0.00006
     12       2.1148     -0.00001
     13       2.1314     -0.00001
     14       2.1429     -0.00001

 k-point    45 :       0.4545    0.3636    0.1818
  band No.  band energies     occupation 
      1     -27.5353      2.00000
      2     -27.5325      2.00000
      3     -12.8770      2.00000
      4     -12.8702      2.00000
      5     -12.7058      2.00000
      6     -12.6779      2.00000
      7     -12.5817      2.00000
      8     -12.5779      2.00000
      9       0.7945      2.00007
     10       0.9678      2.00543
     11       2.0513     -0.00009
     12       2.0605     -0.00007
     13       2.2046     -0.00000
     14       2.2168     -0.00000

 k-point    46 :       0.4545    0.4545    0.1818
  band No.  band energies     occupation 
      1     -27.5341      2.00000
      2     -27.5331      2.00000
      3     -12.8866      2.00000
      4     -12.8844      2.00000
      5     -12.6935      2.00000
      6     -12.6833      2.00000
      7     -12.5789      2.00000
      8     -12.5781      2.00000
      9       0.8561      2.00041
     10       0.9097      2.00154
     11       2.0353     -0.00015
     12       2.0394     -0.00013
     13       2.2893     -0.00000
     14       2.3018     -0.00000

 k-point    47 :       0.2727    0.2727    0.2727
  band No.  band energies     occupation 
      1     -27.5427      2.00000
      2     -27.5267      2.00000
      3     -12.8145      2.00000
      4     -12.8145      2.00000
      5     -12.8124      2.00000
      6     -12.6064      2.00000
      7     -12.6031      2.00000
      8     -12.6031      2.00000
      9       0.3258      2.00000
     10       1.7650     -0.03816
     11       1.7650     -0.03816
     12       1.7658     -0.03782
     13       2.1682     -0.00000
     14       2.1682     -0.00000

 k-point    48 :       0.3636    0.2727    0.2727
  band No.  band energies     occupation 
      1     -27.5392      2.00000
      2     -27.5291      2.00000
      3     -12.8387      2.00000
      4     -12.8343      2.00000
      5     -12.7754      2.00000
      6     -12.6412      2.00000
      7     -12.5961      2.00000
      8     -12.5949      2.00000
      9       0.6283      2.00000
     10       1.4509      0.80303
     11       1.8056     -0.02239
     12       2.0318     -0.00017
     13       2.0454     -0.00011
     14       2.1307     -0.00001

 k-point    49 :       0.4545    0.2727    0.2727
  band No.  band energies     occupation 
      1     -27.5356      2.00000
      2     -27.5321      2.00000
      3     -12.8504      2.00000
      4     -12.8484      2.00000
      5     -12.7309      2.00000
      6     -12.6850      2.00000
      7     -12.5911      2.00000
      8     -12.5902      2.00000
      9       0.9175      2.00185
     10       1.1807      2.07089
     11       1.8565     -0.00973
     12       1.9283     -0.00227
     13       2.1682     -0.00000
     14       2.1845     -0.00000

 k-point    50 :       0.3636    0.3636    0.2727
  band No.  band energies     occupation 
      1     -27.5369      2.00000
      2     -27.5305      2.00000
      3     -12.8455      2.00000
      4     -12.8382      2.00000
      5     -12.7659      2.00000
      6     -12.6560      2.00000
      7     -12.6086      2.00000
      8     -12.5931      2.00000
      9       0.8952      2.00109
     10       1.3916      1.29828
     11       1.9375     -0.00184
     12       2.0001     -0.00039
     13       2.0065     -0.00033
     14       2.0183     -0.00024

 k-point    51 :       0.4545    0.3636    0.2727
  band No.  band energies     occupation 
      1     -27.5344      2.00000
      2     -27.5322      2.00000
      3     -12.8514      2.00000
      4     -12.8484      2.00000
      5     -12.7305      2.00000
      6     -12.6903      2.00000
      7     -12.6049      2.00000
      8     -12.5975      2.00000
      9       1.1019      2.04357
     10       1.2535      2.01170
     11       1.9259     -0.00240
     12       1.9446     -0.00157
     13       2.0779     -0.00004
     14       2.1113     -0.00001

 k-point    52 :       0.4545    0.4545    0.2727
  band No.  band energies     occupation 
      1     -27.5334      2.00000
      2     -27.5327      2.00000
      3     -12.8538      2.00000
      4     -12.8522      2.00000
      5     -12.7152      2.00000
      6     -12.6987      2.00000
      7     -12.6119      2.00000
      8     -12.6073      2.00000
      9       1.1881      2.07067
     10       1.2309      2.04653
     11       1.9467     -0.00149
     12       1.9490     -0.00141
     13       2.1352     -0.00001
     14       2.1627     -0.00000

 k-point    53 :       0.3636    0.3636    0.3636
  band No.  band energies     occupation 
      1     -27.5352      2.00000
      2     -27.5311      2.00000
      3     -12.8401      2.00000
      4     -12.7959      2.00000
      5     -12.7959      2.00000
      6     -12.6502      2.00000
      7     -12.6502      2.00000
      8     -12.6038      2.00000
      9       1.2107      2.06356
     10       1.5307      0.24255
     11       1.9297     -0.00220
     12       1.9297     -0.00220
     13       1.9346     -0.00197
     14       1.9346     -0.00197

 k-point    54 :       0.4545    0.3636    0.3636
  band No.  band energies     occupation 
      1     -27.5335      2.00000
      2     -27.5321      2.00000
      3     -12.8324      2.00000
      4     -12.8184      2.00000
      5     -12.7477      2.00000
      6     -12.6978      2.00000
      7     -12.6368      2.00000
      8     -12.6197      2.00000
      9       1.4155      1.10130
     10       1.4983      0.44030
     11       1.8857     -0.00559
     12       1.8904     -0.00509
     13       1.9729     -0.00079
     14       2.0215     -0.00022

 k-point    55 :       0.4545    0.4545    0.3636
  band No.  band energies     occupation 
      1     -27.5328      2.00000
      2     -27.5323      2.00000
      3     -12.8172      2.00000
      4     -12.8080      2.00000
      5     -12.7373      2.00000
      6     -12.7093      2.00000
      7     -12.6555      2.00000
      8     -12.6432      2.00000
      9       1.5650      0.08922
     10       1.5742      0.05790
     11       1.8905     -0.00508
     12       1.8972     -0.00444
     13       1.9878     -0.00054
     14       2.0291     -0.00018

 k-point    56 :       0.4545    0.4545    0.4545
  band No.  band energies     occupation 
      1     -27.5323      2.00000
      2     -27.5321      2.00000
      3     -12.7824      2.00000
      4     -12.7577      2.00000
      5     -12.7577      2.00000
      6     -12.7055      2.00000
      7     -12.7055      2.00000
      8     -12.6802      2.00000
      9       1.7803     -0.03171
     10       1.8516     -0.01062
     11       1.8817     -0.00606
     12       1.8817     -0.00606
     13       1.9297     -0.00220
     14       1.9297     -0.00220


--------------------------------------------------------------------------------------------------------


 soft charge-density along one line, spin component            1
         0         1         2         3         4         5         6         7         8         9
 total charge-density along one line
 
 pseudopotential strength for first ion, spin component:            1
  3.730  -7.292  -0.000  -0.000   0.000  -0.000  -0.000   0.000
 -7.292   2.199   0.000   0.000  -0.000  -0.000  -0.000   0.000
 -0.000   0.000  -7.134   0.000   0.000   5.070   0.000   0.000
 -0.000   0.000   0.000  -7.134  -0.000   0.000   5.070  -0.000
  0.000  -0.000   0.000  -0.000  -7.134   0.000  -0.000   5.070
 -0.000  -0.000   5.070   0.000   0.000   5.902  -0.000  -0.000
 -0.000  -0.000   0.000   5.070  -0.000  -0.000   5.902   0.000
  0.000   0.000   0.000  -0.000   5.070  -0.000   0.000   5.902
  0.000  -0.000   0.000  -0.000  -0.000   0.000  -0.000  -0.000
  0.000  -0.000  -0.000  -0.000  -0.000  -0.000  -0.000  -0.000
 -0.000   0.000   0.000  -0.000  -0.000   0.000  -0.000  -0.000
 -0.000   0.000  -0.000   0.000  -0.000  -0.000   0.000  -0.000
 -0.000   0.000   0.000  -0.000   0.000   0.000  -0.000   0.000
  0.000  -0.000   0.000  -0.000  -0.000   0.000  -0.000  -0.000
  0.000  -0.000  -0.000  -0.000  -0.000  -0.000  -0.000  -0.000
 -0.000   0.000   0.000  -0.000  -0.000   0.000  -0.000  -0.000
 -0.000   0.000  -0.000   0.000  -0.000  -0.000   0.000  -0.000
 -0.000   0.000   0.000  -0.000   0.000   0.000  -0.000   0.000
 total augmentation occupancy for first ion, spin component:            1
  1.998  -0.013   0.000   0.000   0.000   0.000   0.000   0.000  -0.000   0.000  -0.000   0.000   0.000  -0.000  -0.000   0.000
 -0.013   1.005   0.000   0.000   0.000   0.000   0.000   0.000   0.000   0.000  -0.000  -0.000   0.000  -0.000  -0.000   0.000
  0.000   0.000   1.994  -0.000  -0.000   0.001   0.000   0.000   0.000   0.000  -0.000   0.000   0.000  -0.000   0.000   0.000
  0.000   0.000  -0.000   1.994  -0.000   0.000   0.001  -0.000   0.000  -0.000   0.000   0.000   0.000  -0.000  -0.000   0.000
  0.000   0.000  -0.000   0.000   1.994   0.000   0.000   0.001  -0.000   0.000   0.000   0.000  -0.000  -0.000   0.000   0.000
  0.000   0.000   0.001   0.000   0.000   0.004   0.000   0.000   0.000  -0.000   0.000  -0.000   0.000   0.000   0.000   0.000
  0.000   0.000   0.000   0.001   0.000   0.000   0.004  -0.000   0.000  -0.000   0.000   0.000   0.000   0.000   0.000  -0.000
  0.000   0.000   0.000   0.000   0.001   0.000  -0.000   0.004   0.000  -0.000   0.000  -0.000   0.000   0.000   0.000  -0.000
  0.000   0.000   0.000   0.000  -0.000   0.000   0.000   0.000   0.418   0.000   0.000  -0.000  -0.000  -0.161   0.000  -0.000
  0.000   0.000   0.000   0.000   0.000   0.000   0.000  -0.000   0.000   0.418   0.000  -0.000   0.000   0.000  -0.161   0.000
 -0.000  -0.000   0.000   0.000   0.000   0.000   0.000   0.000   0.000   0.000   0.766  -0.000   0.000  -0.000   0.000  -0.286
  0.000  -0.000   0.000  -0.000   0.000  -0.000  -0.000   0.000  -0.000  -0.000  -0.000   0.418   0.000  -0.000  -0.000   0.000
 -0.000   0.000   0.000  -0.000  -0.000  -0.000   0.000   0.000  -0.000   0.000  -0.000   0.000   0.766   0.000  -0.000  -0.000
 -0.000  -0.000  -0.000  -0.000  -0.000   0.000   0.000  -0.000  -0.161   0.000   0.000  -0.000   0.000   0.062   0.000  -0.000
  0.000  -0.000   0.000   0.000   0.000   0.000   0.000  -0.000   0.000  -0.161   0.000  -0.000  -0.000   0.000   0.062  -0.000
  0.000   0.000  -0.000   0.000  -0.000   0.000  -0.000   0.000  -0.000   0.000  -0.286   0.000   0.000  -0.000   0.000   0.107
 -0.000   0.000   0.000  -0.000   0.000  -0.000   0.000  -0.000  -0.000  -0.000   0.000  -0.161  -0.000   0.000   0.000  -0.000
  0.000  -0.000   0.000   0.000  -0.000   0.000   0.000   0.000  -0.000   0.000  -0.000  -0.000  -0.286  -0.000  -0.000   0.000


------------------------ aborting loop because EDIFF is reached ----------------------------------------


    CHARGE:  cpu time      0.1268: real time      0.1239
    FORLOC:  cpu time      0.0023: real time      0.0023
    FORNL :  cpu time      0.4727: real time      0.4631
    STRESS:  cpu time      2.3319: real time      2.1978
    FORCOR:  cpu time      0.0070: real time      0.0060
    FORHAR:  cpu time      0.0017: real time      0.0016
    MIXING:  cpu time      0.0037: real time      0.0023
    OFIELD:  cpu time      0.0000: real time      0.0000

  FORCE on cell =-STRESS in cart. coord.  units (eV):
  Direction    XX          YY          ZZ          XY          YZ          ZX
  --------------------------------------------------------------------------------------
  Alpha Z    78.01255    78.01255    78.01255
  Ewald    -340.88783  -340.88783  -340.88783     0.00000     0.00000     0.00000
  Hartree    84.10257    84.10257    84.10257    -0.00000    -0.00000    -0.00000
  E(xc)     -64.83791   -64.83791   -64.83791    -0.00000    -0.00000    -0.00000
  Local      58.98348    58.98348    58.98348    -0.00000     0.00000    -0.00000
  n-local   -73.34912   -77.22397   -82.70083     0.41458    -0.31520     0.08767
  augment   -18.98869   -18.98869   -18.98869    -0.00000     0.00000    -0.00000
  Kinetic   277.05749   278.16495   287.72528    -0.13781     2.17087     0.45851
  Fock        0.00000     0.00000     0.00000     0.00000     0.00000     0.00000
  -------------------------------------------------------------------------------------
  Total      -0.39124    -0.39124    -0.39124     0.00000     0.00000     0.00000
  in kB      -4.65854    -4.65854    -4.65854     0.00000     0.00000     0.00000
  external pressure =       -4.66 kB  Pullay stress =        0.00 kB


 VOLUME and BASIS-vectors are now :
 -----------------------------------------------------------------------------
  energy-cutoff  :      350.00
  volume of cell :      134.55
      direct lattice vectors                 reciprocal lattice vectors
     5.124284160  0.000000000  0.000000000     0.195149209  0.000000000  0.000000000
     0.000000000  5.124284160  0.000000000     0.000000000  0.195149209  0.000000000
     0.000000000  0.000000000  5.124284160     0.000000000  0.000000000  0.195149209

  length of vectors
     5.124284160  5.124284160  5.124284160     0.195149209  0.195149209  0.195149209


 FORCES acting on ions
    electron-ion (+dipol)            ewald-force                    non-local-force                 convergence-correction
 -----------------------------------------------------------------------------------------------
   0.595E-15 -.125E-15 0.997E-17   0.477E-14 -.535E-15 -.906E-15   -.338E-24 0.827E-24 0.517E-24   -.876E-14 -.185E-13 -.518E-14
   0.442E-13 0.104E-12 -.835E-12   -.447E-14 0.102E-14 0.172E-14   -.262E-24 0.000E+00 0.000E+00   -.708E-14 -.131E-13 0.166E-13
 -----------------------------------------------------------------------------------------------
   0.448E-13 0.104E-12 -.835E-12   0.295E-15 0.481E-15 0.815E-15   -.600E-24 0.827E-24 0.517E-24   -.158E-13 -.315E-13 0.115E-13
 
 
 POSITION                                       TOTAL-FORCE (eV/Angst)
 -----------------------------------------------------------------------------------
      0.00000      0.00000      0.00000         0.000000      0.000000      0.000000
      2.56214      2.56214      2.56214        -0.000000     -0.000000     -0.000000
 -----------------------------------------------------------------------------------
    total drift:                                0.000000      0.000000     -0.000000


--------------------------------------------------------------------------------------------------------



  FREE ENERGIE OF THE ION-ELECTRON SYSTEM (eV)
  ---------------------------------------------------
  free  energy   TOTEN  =        -3.80480120 eV

  energy  without entropy=       -3.80888697  energy(sigma->0) =       -3.80616312
 


--------------------------------------------------------------------------------------------------------


    POTLOK:  cpu time      0.0149: real time      0.0106


--------------------------------------------------------------------------------------------------------


     LOOP+:  cpu time     17.1072: real time     16.8977
    4ORBIT:  cpu time      0.0000: real time      0.0000

 total amount of memory used by VASP MPI-rank0    95447. kBytes
=======================================================================

   base      :      30000. kBytes
   nonl-proj :      16313. kBytes
   fftplans  :       9204. kBytes
   grid      :      14172. kBytes
   one-center:         31. kBytes
   wavefun   :      25727. kBytes
 
  
  
 General timing and accounting informations for this job:
 ========================================================
  
                  Total CPU time used (sec):       18.354
                            User time (sec):       17.581
                          System time (sec):        0.774
                         Elapsed time (sec):       18.052
  
                   Maximum memory used (kb):     1574868.
                   Average memory used (kb):          N/A
  
                          Minor page faults:       400292
                          Major page faults:            0
                 Voluntary context switches:        15837
