   1   1   0   0
  0.6946824E+02  0.4485416E-09  0.4485417E-09  0.4485416E-09  0.5000000E-15
   1.0000000000000000E-004
  CAR 
 K EOS production                        
      7.02054819    -33.95267757  301      0.04241335      1.00000000
    -33.953  0.0000E+00  0.0000E+00
    -33.816  0.0000E+00  0.0000E+00
    -33.680  0.0000E+00  0.0000E+00
    -33.543  0.0000E+00  0.0000E+00
    -33.406  0.0000E+00  0.0000E+00
    -33.270  0.0000E+00  0.0000E+00
    -33.133  0.0000E+00  0.0000E+00
    -32.997 -0.3304E-34 -0.4512E-35
    -32.860 -0.2784E-24 -0.3802E-25
    -32.723 -0.5463E-16 -0.7462E-17
    -32.587 -0.2363E-09 -0.3227E-10
    -32.450 -0.2284E-04 -0.3119E-05
    -32.314 -0.4192E-01 -0.5729E-02
    -32.177 -0.1714E+00 -0.2914E-01
    -32.041  0.1250E+02  0.1678E+01
    -31.904  0.2565E+01  0.2028E+01
    -31.767 -0.2044E+00  0.2000E+01
    -31.631 -0.4922E-03  0.2000E+01
    -31.494 -0.1962E-07  0.2000E+01
    -31.358 -0.1696E-13  0.2000E+01
    -31.221  0.0000E+00  0.2000E+01
    -31.085  0.0000E+00  0.2000E+01
    -30.948  0.0000E+00  0.2000E+01
    -30.811  0.0000E+00  0.2000E+01
    -30.675  0.0000E+00  0.2000E+01
    -30.538  0.0000E+00  0.2000E+01
    -30.402  0.0000E+00  0.2000E+01
    -30.265  0.0000E+00  0.2000E+01
    -30.129  0.0000E+00  0.2000E+01
    -29.992  0.0000E+00  0.2000E+01
    -29.855  0.0000E+00  0.2000E+01
    -29.719  0.0000E+00  0.2000E+01
    -29.582  0.0000E+00  0.2000E+01
    -29.446  0.0000E+00  0.2000E+01
    -29.309  0.0000E+00  0.2000E+01
    -29.172  0.0000E+00  0.2000E+01
    -29.036  0.0000E+00  0.2000E+01
    -28.899  0.0000E+00  0.2000E+01
    -28.763  0.0000E+00  0.2000E+01
    -28.626  0.0000E+00  0.2000E+01
    -28.490  0.0000E+00  0.2000E+01
    -28.353  0.0000E+00  0.2000E+01
    -28.216  0.0000E+00  0.2000E+01
    -28.080  0.0000E+00  0.2000E+01
    -27.943  0.0000E+00  0.2000E+01
    -27.807  0.0000E+00  0.2000E+01
    -27.670  0.0000E+00  0.2000E+01
    -27.534  0.0000E+00  0.2000E+01
    -27.397  0.0000E+00  0.2000E+01
    -27.260  0.0000E+00  0.2000E+01
    -27.124  0.0000E+00  0.2000E+01
    -26.987  0.0000E+00  0.2000E+01
    -26.851  0.0000E+00  0.2000E+01
    -26.714  0.0000E+00  0.2000E+01
    -26.577  0.0000E+00  0.2000E+01
    -26.441  0.0000E+00  0.2000E+01
    -26.304  0.0000E+00  0.2000E+01
    -26.168  0.0000E+00  0.2000E+01
    -26.031  0.0000E+00  0.2000E+01
    -25.895  0.0000E+00  0.2000E+01
    -25.758  0.0000E+00  0.2000E+01
    -25.621  0.0000E+00  0.2000E+01
    -25.485  0.0000E+00  0.2000E+01
    -25.348  0.0000E+00  0.2000E+01
    -25.212  0.0000E+00  0.2000E+01
    -25.075  0.0000E+00  0.2000E+01
    -24.939  0.0000E+00  0.2000E+01
    -24.802  0.0000E+00  0.2000E+01
    -24.665  0.0000E+00  0.2000E+01
    -24.529  0.0000E+00  0.2000E+01
    -24.392  0.0000E+00  0.2000E+01
    -24.256  0.0000E+00  0.2000E+01
    -24.119  0.0000E+00  0.2000E+01
    -23.983  0.0000E+00  0.2000E+01
    -23.846  0.0000E+00  0.2000E+01
    -23.709  0.0000E+00  0.2000E+01
    -23.573  0.0000E+00  0.2000E+01
    -23.436  0.0000E+00  0.2000E+01
    -23.300  0.0000E+00  0.2000E+01
    -23.163  0.0000E+00  0.2000E+01
    -23.026  0.0000E+00  0.2000E+01
    -22.890  0.0000E+00  0.2000E+01
    -22.753  0.0000E+00  0.2000E+01
    -22.617  0.0000E+00  0.2000E+01
    -22.480  0.0000E+00  0.2000E+01
    -22.344  0.0000E+00  0.2000E+01
    -22.207  0.0000E+00  0.2000E+01
    -22.070  0.0000E+00  0.2000E+01
    -21.934  0.0000E+00  0.2000E+01
    -21.797  0.0000E+00  0.2000E+01
    -21.661  0.0000E+00  0.2000E+01
    -21.524  0.0000E+00  0.2000E+01
    -21.388  0.0000E+00  0.2000E+01
    -21.251  0.0000E+00  0.2000E+01
    -21.114  0.0000E+00  0.2000E+01
    -20.978  0.0000E+00  0.2000E+01
    -20.841  0.0000E+00  0.2000E+01
    -20.705  0.0000E+00  0.2000E+01
    -20.568  0.0000E+00  0.2000E+01
    -20.432  0.0000E+00  0.2000E+01
    -20.295  0.0000E+00  0.2000E+01
    -20.158  0.0000E+00  0.2000E+01
    -20.022  0.0000E+00  0.2000E+01
    -19.885  0.0000E+00  0.2000E+01
    -19.749  0.0000E+00  0.2000E+01
    -19.612  0.0000E+00  0.2000E+01
    -19.475  0.0000E+00  0.2000E+01
    -19.339  0.0000E+00  0.2000E+01
    -19.202  0.0000E+00  0.2000E+01
    -19.066  0.0000E+00  0.2000E+01
    -18.929  0.0000E+00  0.2000E+01
    -18.793  0.0000E+00  0.2000E+01
    -18.656  0.0000E+00  0.2000E+01
    -18.519  0.0000E+00  0.2000E+01
    -18.383  0.0000E+00  0.2000E+01
    -18.246  0.0000E+00  0.2000E+01
    -18.110  0.0000E+00  0.2000E+01
    -17.973  0.0000E+00  0.2000E+01
    -17.837  0.0000E+00  0.2000E+01
    -17.700  0.0000E+00  0.2000E+01
    -17.563  0.0000E+00  0.2000E+01
    -17.427  0.0000E+00  0.2000E+01
    -17.290  0.0000E+00  0.2000E+01
    -17.154  0.0000E+00  0.2000E+01
    -17.017  0.0000E+00  0.2000E+01
    -16.881  0.0000E+00  0.2000E+01
    -16.744  0.0000E+00  0.2000E+01
    -16.607  0.0000E+00  0.2000E+01
    -16.471 -0.8510E-31  0.2000E+01
    -16.334 -0.1927E-21  0.2000E+01
    -16.198 -0.1033E-13  0.2000E+01
    -16.061 -0.1314E-07  0.2000E+01
    -15.924 -0.3947E-03  0.2000E+01
    -15.788 -0.2482E+00  0.1966E+01
    -15.651  0.1600E+01  0.2185E+01
    -15.515  0.3690E+02  0.7225E+01
    -15.378  0.6202E+01  0.8072E+01
    -15.242 -0.5237E+00  0.8000E+01
    -15.105 -0.1630E-02  0.8000E+01
    -14.968 -0.9417E-07  0.8000E+01
    -14.832 -0.1229E-12  0.8000E+01
    -14.695  0.0000E+00  0.8000E+01
    -14.559  0.0000E+00  0.8000E+01
    -14.422  0.0000E+00  0.8000E+01
    -14.286  0.0000E+00  0.8000E+01
    -14.149  0.0000E+00  0.8000E+01
    -14.012  0.0000E+00  0.8000E+01
    -13.876  0.0000E+00  0.8000E+01
    -13.739  0.0000E+00  0.8000E+01
    -13.603  0.0000E+00  0.8000E+01
    -13.466  0.0000E+00  0.8000E+01
    -13.329  0.0000E+00  0.8000E+01
    -13.193  0.0000E+00  0.8000E+01
    -13.056  0.0000E+00  0.8000E+01
    -12.920  0.0000E+00  0.8000E+01
    -12.783  0.0000E+00  0.8000E+01
    -12.647  0.0000E+00  0.8000E+01
    -12.510  0.0000E+00  0.8000E+01
    -12.373  0.0000E+00  0.8000E+01
    -12.237  0.0000E+00  0.8000E+01
    -12.100  0.0000E+00  0.8000E+01
    -11.964  0.0000E+00  0.8000E+01
    -11.827  0.0000E+00  0.8000E+01
    -11.691  0.0000E+00  0.8000E+01
    -11.554  0.0000E+00  0.8000E+01
    -11.417  0.0000E+00  0.8000E+01
    -11.281  0.0000E+00  0.8000E+01
    -11.144  0.0000E+00  0.8000E+01
    -11.008  0.0000E+00  0.8000E+01
    -10.871  0.0000E+00  0.8000E+01
    -10.735  0.0000E+00  0.8000E+01
    -10.598  0.0000E+00  0.8000E+01
    -10.461  0.0000E+00  0.8000E+01
    -10.325  0.0000E+00  0.8000E+01
    -10.188  0.0000E+00  0.8000E+01
    -10.052  0.0000E+00  0.8000E+01
     -9.915  0.0000E+00  0.8000E+01
     -9.778  0.0000E+00  0.8000E+01
     -9.642  0.0000E+00  0.8000E+01
     -9.505  0.0000E+00  0.8000E+01
     -9.369  0.0000E+00  0.8000E+01
     -9.232  0.0000E+00  0.8000E+01
     -9.096  0.0000E+00  0.8000E+01
     -8.959  0.0000E+00  0.8000E+01
     -8.822  0.0000E+00  0.8000E+01
     -8.686  0.0000E+00  0.8000E+01
     -8.549  0.0000E+00  0.8000E+01
     -8.413  0.0000E+00  0.8000E+01
     -8.276  0.0000E+00  0.8000E+01
     -8.140  0.0000E+00  0.8000E+01
     -8.003  0.0000E+00  0.8000E+01
     -7.866  0.0000E+00  0.8000E+01
     -7.730  0.0000E+00  0.8000E+01
     -7.593  0.0000E+00  0.8000E+01
     -7.457  0.0000E+00  0.8000E+01
     -7.320  0.0000E+00  0.8000E+01
     -7.184  0.0000E+00  0.8000E+01
     -7.047  0.0000E+00  0.8000E+01
     -6.910  0.0000E+00  0.8000E+01
     -6.774  0.0000E+00  0.8000E+01
     -6.637  0.0000E+00  0.8000E+01
     -6.501  0.0000E+00  0.8000E+01
     -6.364  0.0000E+00  0.8000E+01
     -6.227  0.0000E+00  0.8000E+01
     -6.091  0.0000E+00  0.8000E+01
     -5.954  0.0000E+00  0.8000E+01
     -5.818  0.0000E+00  0.8000E+01
     -5.681  0.0000E+00  0.8000E+01
     -5.545  0.0000E+00  0.8000E+01
     -5.408  0.0000E+00  0.8000E+01
     -5.271  0.0000E+00  0.8000E+01
     -5.135  0.0000E+00  0.8000E+01
     -4.998  0.0000E+00  0.8000E+01
     -4.862  0.0000E+00  0.8000E+01
     -4.725  0.0000E+00  0.8000E+01
     -4.589  0.0000E+00  0.8000E+01
     -4.452  0.0000E+00  0.8000E+01
     -4.315  0.0000E+00  0.8000E+01
     -4.179  0.0000E+00  0.8000E+01
     -4.042  0.0000E+00  0.8000E+01
     -3.906  0.0000E+00  0.8000E+01
     -3.769  0.0000E+00  0.8000E+01
     -3.632  0.0000E+00  0.8000E+01
     -3.496  0.0000E+00  0.8000E+01
     -3.359  0.0000E+00  0.8000E+01
     -3.223  0.0000E+00  0.8000E+01
     -3.086 -0.5427E-36  0.8000E+01
     -2.950 -0.3632E-26  0.8000E+01
     -2.813 -0.5642E-18  0.8000E+01
     -2.676 -0.1922E-11  0.8000E+01
     -2.540 -0.1456E-06  0.8000E+01
     -2.403 -0.2082E-03  0.8000E+01
     -2.267 -0.9588E-03  0.8000E+01
     -2.130  0.5349E-01  0.8007E+01
     -1.994  0.1827E+00  0.8032E+01
     -1.857  0.1504E+00  0.8053E+01
     -1.720  0.3425E+00  0.8099E+01
     -1.584  0.2383E+00  0.8132E+01
     -1.447  0.3458E+00  0.8179E+01
     -1.311  0.4969E+00  0.8247E+01
     -1.174  0.2637E+00  0.8283E+01
     -1.038  0.4532E+00  0.8345E+01
     -0.901  0.6126E+00  0.8429E+01
     -0.764  0.5132E+00  0.8499E+01
     -0.628  0.4483E+00  0.8560E+01
     -0.491  0.6007E+00  0.8642E+01
     -0.355  0.8053E+00  0.8752E+01
     -0.218  0.4822E+00  0.8818E+01
     -0.081  0.8738E+00  0.8937E+01
      0.055  0.4981E+00  0.9005E+01
      0.192  0.9700E+00  0.9138E+01
      0.328  0.8254E+00  0.9250E+01
      0.465  0.9903E+00  0.9386E+01
      0.601  0.8722E+00  0.9505E+01
      0.738  0.5947E+00  0.9586E+01
      0.875  0.1350E+01  0.9770E+01
      1.011  0.1200E+01  0.9934E+01
      1.148  0.1185E+01  0.1010E+02
      1.284  0.1246E+01  0.1027E+02
      1.421  0.1349E+01  0.1045E+02
      1.557  0.1620E+01  0.1067E+02
      1.694  0.1525E+01  0.1088E+02
      1.831  0.1179E+01  0.1104E+02
      1.967  0.1682E+01  0.1127E+02
      2.104  0.1028E+01  0.1141E+02
      2.240  0.1021E+01  0.1155E+02
      2.377  0.1954E+01  0.1182E+02
      2.513  0.7807E+00  0.1192E+02
      2.650  0.1401E+01  0.1212E+02
      2.787  0.1536E+01  0.1233E+02
      2.923  0.1355E+01  0.1251E+02
      3.060  0.1917E+01  0.1277E+02
      3.196  0.1830E+01  0.1302E+02
      3.333  0.2051E+01  0.1330E+02
      3.470  0.1648E+01  0.1353E+02
      3.606  0.2345E+01  0.1385E+02
      3.743  0.1078E+01  0.1399E+02
      3.879  0.1428E+01  0.1419E+02
      4.016  0.1165E+01  0.1435E+02
      4.152  0.1156E+01  0.1451E+02
      4.289  0.1662E+01  0.1473E+02
      4.426  0.7240E+00  0.1483E+02
      4.562  0.1149E+01  0.1499E+02
      4.699  0.2114E+01  0.1528E+02
      4.835  0.1971E+01  0.1555E+02
      4.972  0.1743E+01  0.1579E+02
      5.108  0.1271E+01  0.1596E+02
      5.245  0.3127E+00  0.1600E+02
      5.382 -0.1408E-01  0.1600E+02
      5.518 -0.7836E-03  0.1600E+02
      5.655 -0.4545E-06  0.1600E+02
      5.791 -0.5322E-11  0.1600E+02
      5.928  0.0000E+00  0.1600E+02
      6.065  0.0000E+00  0.1600E+02
      6.201  0.0000E+00  0.1600E+02
      6.338  0.0000E+00  0.1600E+02
      6.474  0.0000E+00  0.1600E+02
      6.611  0.0000E+00  0.1600E+02
      6.747  0.0000E+00  0.1600E+02
      6.884  0.0000E+00  0.1600E+02
      7.021  0.0000E+00  0.1600E+02
