   1   1   0   0
  0.9875006E+01  0.2408153E-09  0.2408153E-09  0.2408153E-09  0.5000000E-15
   1.0000000000000000E-004
  CAR 
 FCC Ni EOS static single-point          
     45.09125849     -1.00488169  301     10.82368481      1.00000000
     -1.005  0.0000E+00  0.0000E+00  0.0000E+00  0.0000E+00
     -0.851  0.0000E+00  0.0000E+00  0.0000E+00  0.0000E+00
     -0.698  0.0000E+00  0.0000E+00  0.0000E+00  0.0000E+00
     -0.544  0.0000E+00  0.0000E+00  0.0000E+00  0.0000E+00
     -0.390  0.0000E+00  0.0000E+00  0.0000E+00  0.0000E+00
     -0.237  0.0000E+00  0.0000E+00  0.0000E+00  0.0000E+00
     -0.083  0.0000E+00  0.0000E+00  0.0000E+00  0.0000E+00
      0.071  0.0000E+00  0.0000E+00  0.0000E+00  0.0000E+00
      0.224 -0.2620E-37 -0.1302E-35 -0.4026E-38 -0.2001E-36
      0.378 -0.1491E-26 -0.3713E-25 -0.2292E-27 -0.5706E-26
      0.532 -0.7261E-18 -0.9093E-17 -0.1116E-18 -0.1397E-17
      0.685 -0.3323E-11 -0.2114E-10 -0.5105E-12 -0.3248E-11
      0.839 -0.1580E-06 -0.5200E-06 -0.2428E-07 -0.7990E-07
      0.993 -0.7082E-04 -0.1081E-03 -0.1091E-04 -0.1669E-04
      1.146  0.1085E-02  0.1914E-02  0.1558E-03  0.2774E-03
      1.300  0.9413E-02  0.1044E-01  0.1602E-02  0.1882E-02
      1.454  0.1599E-01  0.1651E-01  0.4059E-02  0.4419E-02
      1.607  0.1959E-01  0.2086E-01  0.7069E-02  0.7624E-02
      1.761  0.2181E-01  0.2130E-01  0.1042E-01  0.1090E-01
      1.915  0.3019E-01  0.3070E-01  0.1506E-01  0.1561E-01
      2.068  0.2591E-01  0.2648E-01  0.1904E-01  0.1968E-01
      2.222  0.3675E-01  0.3736E-01  0.2469E-01  0.2542E-01
      2.376  0.3018E-01  0.2898E-01  0.2932E-01  0.2988E-01
      2.529  0.4449E-01  0.4547E-01  0.3616E-01  0.3686E-01
      2.683  0.3970E-01  0.3847E-01  0.4226E-01  0.4277E-01
      2.836  0.4117E-01  0.4279E-01  0.4859E-01  0.4935E-01
      2.990  0.5201E-01  0.5005E-01  0.5658E-01  0.5704E-01
      3.144  0.4620E-01  0.4532E-01  0.6367E-01  0.6400E-01
      3.297  0.5456E-01  0.5462E-01  0.7206E-01  0.7239E-01
      3.451  0.6306E-01  0.6143E-01  0.8175E-01  0.8183E-01
      3.605  0.5062E-01  0.4909E-01  0.8953E-01  0.8938E-01
      3.758  0.6991E-01  0.6758E-01  0.1003E+00  0.9976E-01
      3.912  0.7228E-01  0.7037E-01  0.1114E+00  0.1106E+00
      4.066  0.6240E-01  0.5765E-01  0.1210E+00  0.1194E+00
      4.219  0.8685E-01  0.8236E-01  0.1343E+00  0.1321E+00
      4.373  0.8883E-01  0.8300E-01  0.1480E+00  0.1448E+00
      4.527  0.7522E-01  0.6854E-01  0.1595E+00  0.1554E+00
      4.680  0.1133E+00  0.1032E+00  0.1769E+00  0.1712E+00
      4.834  0.1150E+00  0.9981E-01  0.1946E+00  0.1866E+00
      4.988  0.1045E+00  0.9173E-01  0.2106E+00  0.2007E+00
      5.141  0.1701E+00  0.1210E+00  0.2368E+00  0.2193E+00
      5.295  0.1551E+00  0.1379E+00  0.2606E+00  0.2404E+00
      5.449  0.2483E+00  0.1246E+00  0.2988E+00  0.2596E+00
      5.602  0.3770E+00  0.1781E+00  0.3567E+00  0.2870E+00
      5.756  0.4880E+00  0.2106E+00  0.4317E+00  0.3193E+00
      5.910  0.5151E+00  0.2839E+00  0.5108E+00  0.3629E+00
      6.063  0.5390E+00  0.4654E+00  0.5936E+00  0.4344E+00
      6.217  0.6452E+00  0.4496E+00  0.6928E+00  0.5035E+00
      6.371  0.7667E+00  0.4551E+00  0.8106E+00  0.5735E+00
      6.524  0.8695E+00  0.4974E+00  0.9442E+00  0.6499E+00
      6.678  0.9273E+00  0.4742E+00  0.1087E+01  0.7228E+00
      6.831  0.8400E+00  0.6196E+00  0.1216E+01  0.8180E+00
      6.985  0.7542E+00  0.7639E+00  0.1332E+01  0.9353E+00
      7.139  0.7527E+00  0.8066E+00  0.1447E+01  0.1059E+01
      7.292  0.7065E+00  0.7855E+00  0.1556E+01  0.1180E+01
      7.446  0.7938E+00  0.7312E+00  0.1678E+01  0.1292E+01
      7.600  0.9424E+00  0.7409E+00  0.1823E+01  0.1406E+01
      7.753  0.1036E+01  0.7056E+00  0.1982E+01  0.1515E+01
      7.907  0.1050E+01  0.6511E+00  0.2143E+01  0.1615E+01
      8.061  0.1176E+01  0.7980E+00  0.2324E+01  0.1737E+01
      8.214  0.1318E+01  0.9230E+00  0.2526E+01  0.1879E+01
      8.368  0.1470E+01  0.1013E+01  0.2752E+01  0.2035E+01
      8.522  0.1484E+01  0.1021E+01  0.2980E+01  0.2192E+01
      8.675  0.9977E+00  0.1190E+01  0.3133E+01  0.2375E+01
      8.829  0.8651E+00  0.1182E+01  0.3266E+01  0.2556E+01
      8.983  0.8245E+00  0.1188E+01  0.3393E+01  0.2739E+01
      9.136  0.9616E+00  0.1473E+01  0.3541E+01  0.2965E+01
      9.290  0.1214E+01  0.1091E+01  0.3727E+01  0.3132E+01
      9.444  0.1264E+01  0.8653E+00  0.3922E+01  0.3265E+01
      9.597  0.1141E+01  0.8349E+00  0.4097E+01  0.3394E+01
      9.751  0.1095E+01  0.9454E+00  0.4265E+01  0.3539E+01
      9.905  0.1100E+01  0.1158E+01  0.4434E+01  0.3717E+01
     10.058  0.1316E+01  0.1155E+01  0.4637E+01  0.3894E+01
     10.212  0.1986E+01  0.1053E+01  0.4942E+01  0.4056E+01
     10.365  0.1648E+01  0.9824E+00  0.5195E+01  0.4207E+01
     10.519  0.3864E+00  0.9286E+00  0.5254E+01  0.4350E+01
     10.673  0.1110E+00  0.1053E+01  0.5271E+01  0.4512E+01
     10.826  0.2370E+00  0.1204E+01  0.5308E+01  0.4697E+01
     10.980  0.8638E-01  0.1803E+01  0.5321E+01  0.4974E+01
     11.134  0.2008E+00  0.1422E+01  0.5352E+01  0.5192E+01
     11.287  0.1311E+00  0.5143E+00  0.5372E+01  0.5271E+01
     11.441  0.1341E+00  0.2635E+00  0.5393E+01  0.5312E+01
     11.595  0.1645E+00  0.1129E+00  0.5418E+01  0.5329E+01
     11.748  0.1289E+00  0.1935E+00  0.5438E+01  0.5359E+01
     11.902  0.1207E+00  0.1813E+00  0.5456E+01  0.5387E+01
     12.056  0.1573E+00  0.1289E+00  0.5480E+01  0.5406E+01
     12.209  0.1352E+00  0.1913E+00  0.5501E+01  0.5436E+01
     12.363  0.1141E+00  0.1284E+00  0.5519E+01  0.5456E+01
     12.517  0.1158E+00  0.1434E+00  0.5537E+01  0.5478E+01
     12.670  0.1593E+00  0.1889E+00  0.5561E+01  0.5507E+01
     12.824  0.1252E+00  0.1068E+00  0.5580E+01  0.5523E+01
     12.978  0.9419E-01  0.1314E+00  0.5595E+01  0.5543E+01
     13.131  0.1207E+00  0.1675E+00  0.5613E+01  0.5569E+01
     13.285  0.1509E+00  0.1266E+00  0.5636E+01  0.5588E+01
     13.439  0.1221E+00  0.1393E+00  0.5655E+01  0.5610E+01
     13.592  0.1035E+00  0.1123E+00  0.5671E+01  0.5627E+01
     13.746  0.1231E+00  0.1449E+00  0.5690E+01  0.5649E+01
     13.900  0.9741E-01  0.1402E+00  0.5705E+01  0.5671E+01
     14.053  0.1512E+00  0.1221E+00  0.5728E+01  0.5690E+01
     14.207  0.9754E-01  0.9211E-01  0.5743E+01  0.5704E+01
     14.360  0.9172E-01  0.1376E+00  0.5757E+01  0.5725E+01
     14.514  0.1252E+00  0.1205E+00  0.5777E+01  0.5743E+01
     14.668  0.8703E-01  0.1074E+00  0.5790E+01  0.5760E+01
     14.821  0.9816E-01  0.1246E+00  0.5805E+01  0.5779E+01
     14.975  0.9985E-01  0.7563E-01  0.5820E+01  0.5791E+01
     15.129  0.1111E+00  0.9839E-01  0.5837E+01  0.5806E+01
     15.282  0.8494E-01  0.1171E+00  0.5850E+01  0.5824E+01
     15.436  0.6279E-01  0.1175E+00  0.5860E+01  0.5842E+01
     15.590  0.7794E-01  0.7262E-01  0.5872E+01  0.5853E+01
     15.743  0.1001E+00  0.6951E-01  0.5887E+01  0.5864E+01
     15.897  0.7551E-01  0.8026E-01  0.5899E+01  0.5876E+01
     16.051  0.8904E-01  0.9712E-01  0.5913E+01  0.5891E+01
     16.204  0.4673E-01  0.8841E-01  0.5920E+01  0.5904E+01
     16.358  0.5928E-01  0.7260E-01  0.5929E+01  0.5916E+01
     16.512  0.5576E-01  0.5172E-01  0.5938E+01  0.5924E+01
     16.665  0.7087E-01  0.6234E-01  0.5949E+01  0.5933E+01
     16.819  0.5062E-01  0.5419E-01  0.5956E+01  0.5941E+01
     16.973  0.6304E-01  0.7012E-01  0.5966E+01  0.5952E+01
     17.126  0.3230E-01  0.5839E-01  0.5971E+01  0.5961E+01
     17.280  0.5321E-01  0.5080E-01  0.5979E+01  0.5969E+01
     17.434  0.1084E+00  0.3341E-01  0.5996E+01  0.5974E+01
     17.587  0.1422E+00  0.2166E-01  0.6018E+01  0.5977E+01
     17.741  0.1603E+00  0.8689E-01  0.6042E+01  0.5991E+01
     17.895  0.1430E+00  0.1626E+00  0.6064E+01  0.6016E+01
     18.048  0.1537E+00  0.1597E+00  0.6088E+01  0.6040E+01
     18.202  0.1407E+00  0.1607E+00  0.6109E+01  0.6065E+01
     18.355  0.1593E+00  0.1594E+00  0.6134E+01  0.6090E+01
     18.509  0.1492E+00  0.1679E+00  0.6157E+01  0.6115E+01
     18.663  0.1200E+00  0.1557E+00  0.6175E+01  0.6139E+01
     18.816  0.1356E+00  0.1552E+00  0.6196E+01  0.6163E+01
     18.970  0.1247E+00  0.1213E+00  0.6215E+01  0.6182E+01
     19.124  0.1247E+00  0.1359E+00  0.6234E+01  0.6203E+01
     19.277  0.1145E+00  0.1347E+00  0.6252E+01  0.6223E+01
     19.431  0.1168E+00  0.1196E+00  0.6270E+01  0.6242E+01
     19.585  0.1159E+00  0.1157E+00  0.6288E+01  0.6260E+01
     19.738  0.9975E-01  0.1259E+00  0.6303E+01  0.6279E+01
     19.892  0.1182E+00  0.1056E+00  0.6321E+01  0.6295E+01
     20.046  0.1042E+00  0.1146E+00  0.6337E+01  0.6313E+01
     20.199  0.1066E+00  0.1193E+00  0.6354E+01  0.6331E+01
     20.353  0.9885E-01  0.1024E+00  0.6369E+01  0.6347E+01
     20.507  0.1132E+00  0.1007E+00  0.6386E+01  0.6362E+01
     20.660  0.1065E+00  0.1174E+00  0.6403E+01  0.6380E+01
     20.814  0.9049E-01  0.1014E+00  0.6417E+01  0.6396E+01
     20.968  0.1301E+00  0.1007E+00  0.6437E+01  0.6411E+01
     21.121  0.1415E+00  0.1180E+00  0.6458E+01  0.6429E+01
     21.275  0.1387E+00  0.1131E+00  0.6480E+01  0.6447E+01
     21.429  0.1379E+00  0.1647E+00  0.6501E+01  0.6472E+01
     21.582  0.1091E+00  0.1311E+00  0.6518E+01  0.6492E+01
     21.736  0.1409E+00  0.1356E+00  0.6539E+01  0.6513E+01
     21.890  0.2146E+00  0.1200E+00  0.6572E+01  0.6532E+01
     22.043  0.1497E+00  0.2007E+00  0.6595E+01  0.6562E+01
     22.197  0.1499E+00  0.1725E+00  0.6618E+01  0.6589E+01
     22.350  0.1539E+00  0.1555E+00  0.6642E+01  0.6613E+01
     22.504  0.2048E+00  0.1459E+00  0.6673E+01  0.6635E+01
     22.658  0.1753E+00  0.2177E+00  0.6700E+01  0.6669E+01
     22.811  0.1463E+00  0.1822E+00  0.6723E+01  0.6697E+01
     22.965  0.1556E+00  0.1540E+00  0.6747E+01  0.6720E+01
     23.119  0.1908E+00  0.1441E+00  0.6776E+01  0.6742E+01
     23.272  0.1513E+00  0.1963E+00  0.6799E+01  0.6773E+01
     23.426  0.1495E+00  0.1612E+00  0.6822E+01  0.6797E+01
     23.580  0.1655E+00  0.1537E+00  0.6848E+01  0.6821E+01
     23.733  0.2068E+00  0.1782E+00  0.6879E+01  0.6848E+01
     23.887  0.1950E+00  0.1973E+00  0.6909E+01  0.6879E+01
     24.041  0.1415E+00  0.1981E+00  0.6931E+01  0.6909E+01
     24.194  0.1855E+00  0.1503E+00  0.6960E+01  0.6932E+01
     24.348  0.1531E+00  0.1840E+00  0.6983E+01  0.6961E+01
     24.502  0.1892E+00  0.1527E+00  0.7012E+01  0.6984E+01
     24.655  0.1874E+00  0.2006E+00  0.7041E+01  0.7015E+01
     24.809  0.1852E+00  0.1991E+00  0.7069E+01  0.7045E+01
     24.963  0.1658E+00  0.1780E+00  0.7095E+01  0.7073E+01
     25.116  0.1947E+00  0.1610E+00  0.7125E+01  0.7097E+01
     25.270  0.1938E+00  0.2042E+00  0.7155E+01  0.7129E+01
     25.424  0.1688E+00  0.2001E+00  0.7181E+01  0.7160E+01
     25.577  0.1520E+00  0.1653E+00  0.7204E+01  0.7185E+01
     25.731  0.2340E+00  0.1692E+00  0.7240E+01  0.7211E+01
     25.885  0.1714E+00  0.2280E+00  0.7266E+01  0.7246E+01
     26.038  0.2113E+00  0.1733E+00  0.7299E+01  0.7273E+01
     26.192  0.1829E+00  0.2235E+00  0.7327E+01  0.7307E+01
     26.345  0.1691E+00  0.1771E+00  0.7353E+01  0.7334E+01
     26.499  0.2291E+00  0.1776E+00  0.7388E+01  0.7362E+01
     26.653  0.1956E+00  0.2410E+00  0.7418E+01  0.7399E+01
     26.806  0.2350E+00  0.2024E+00  0.7454E+01  0.7430E+01
     26.960  0.2061E+00  0.2348E+00  0.7486E+01  0.7466E+01
     27.114  0.1502E+00  0.1855E+00  0.7509E+01  0.7494E+01
     27.267  0.2582E+00  0.1750E+00  0.7549E+01  0.7521E+01
     27.421  0.1985E+00  0.2585E+00  0.7579E+01  0.7561E+01
     27.575  0.2389E+00  0.2024E+00  0.7616E+01  0.7592E+01
     27.728  0.1392E+00  0.2193E+00  0.7637E+01  0.7626E+01
     27.882  0.1584E+00  0.1194E+00  0.7661E+01  0.7644E+01
     28.036  0.2844E+00  0.2106E+00  0.7705E+01  0.7676E+01
     28.189  0.2040E+00  0.2855E+00  0.7737E+01  0.7720E+01
     28.343  0.1540E+00  0.1645E+00  0.7760E+01  0.7745E+01
     28.497  0.1708E+00  0.1514E+00  0.7786E+01  0.7769E+01
     28.650  0.1769E+00  0.1917E+00  0.7814E+01  0.7798E+01
     28.804  0.2450E+00  0.1903E+00  0.7851E+01  0.7827E+01
     28.958  0.1754E+00  0.2462E+00  0.7878E+01  0.7865E+01
     29.111  0.1606E+00  0.1373E+00  0.7903E+01  0.7886E+01
     29.265  0.1784E+00  0.1915E+00  0.7930E+01  0.7916E+01
     29.419  0.1745E+00  0.1691E+00  0.7957E+01  0.7942E+01
     29.572  0.1863E+00  0.1735E+00  0.7986E+01  0.7968E+01
     29.726  0.1997E+00  0.2142E+00  0.8016E+01  0.8001E+01
     29.880  0.1583E+00  0.1668E+00  0.8041E+01  0.8027E+01
     30.033  0.1473E+00  0.1574E+00  0.8063E+01  0.8051E+01
     30.187  0.1802E+00  0.1683E+00  0.8091E+01  0.8077E+01
     30.340  0.1865E+00  0.1801E+00  0.8120E+01  0.8105E+01
     30.494  0.1575E+00  0.1717E+00  0.8144E+01  0.8131E+01
     30.648  0.1504E+00  0.1536E+00  0.8167E+01  0.8155E+01
     30.801  0.1468E+00  0.1593E+00  0.8190E+01  0.8179E+01
     30.955  0.2047E+00  0.1694E+00  0.8221E+01  0.8205E+01
     31.109  0.1639E+00  0.2004E+00  0.8246E+01  0.8236E+01
     31.262  0.1203E+00  0.1381E+00  0.8265E+01  0.8257E+01
     31.416  0.1392E+00  0.1175E+00  0.8286E+01  0.8275E+01
     31.570  0.1405E+00  0.1445E+00  0.8308E+01  0.8297E+01
     31.723  0.1873E+00  0.1695E+00  0.8336E+01  0.8324E+01
     31.877  0.1750E+00  0.2000E+00  0.8363E+01  0.8354E+01
     32.031  0.1523E+00  0.1426E+00  0.8387E+01  0.8376E+01
     32.184  0.1227E+00  0.1382E+00  0.8406E+01  0.8397E+01
     32.338  0.1292E+00  0.1221E+00  0.8425E+01  0.8416E+01
     32.492  0.2023E+00  0.1891E+00  0.8457E+01  0.8445E+01
     32.645  0.1394E+00  0.1611E+00  0.8478E+01  0.8470E+01
     32.799  0.1968E+00  0.1481E+00  0.8508E+01  0.8493E+01
     32.953  0.1732E+00  0.2180E+00  0.8535E+01  0.8526E+01
     33.106  0.1651E+00  0.1601E+00  0.8560E+01  0.8551E+01
     33.260  0.1697E+00  0.1693E+00  0.8586E+01  0.8577E+01
     33.414  0.1872E+00  0.1949E+00  0.8615E+01  0.8607E+01
     33.567  0.1802E+00  0.1672E+00  0.8643E+01  0.8632E+01
     33.721  0.2213E+00  0.2043E+00  0.8677E+01  0.8664E+01
     33.875  0.2397E+00  0.2345E+00  0.8713E+01  0.8700E+01
     34.028  0.2116E+00  0.2132E+00  0.8746E+01  0.8733E+01
     34.182  0.2189E+00  0.2488E+00  0.8780E+01  0.8771E+01
     34.335  0.2257E+00  0.1925E+00  0.8814E+01  0.8800E+01
     34.489  0.2336E+00  0.2492E+00  0.8850E+01  0.8839E+01
     34.643  0.2259E+00  0.2228E+00  0.8885E+01  0.8873E+01
     34.796  0.2230E+00  0.2447E+00  0.8919E+01  0.8911E+01
     34.950  0.2101E+00  0.1932E+00  0.8951E+01  0.8940E+01
     35.104  0.2519E+00  0.2470E+00  0.8990E+01  0.8978E+01
     35.257  0.2568E+00  0.2716E+00  0.9030E+01  0.9020E+01
     35.411  0.1970E+00  0.2040E+00  0.9060E+01  0.9051E+01
     35.565  0.2286E+00  0.2178E+00  0.9095E+01  0.9085E+01
     35.718  0.2160E+00  0.2331E+00  0.9128E+01  0.9121E+01
     35.872  0.2537E+00  0.2163E+00  0.9167E+01  0.9154E+01
     36.026  0.2390E+00  0.2662E+00  0.9204E+01  0.9195E+01
     36.179  0.1801E+00  0.1998E+00  0.9232E+01  0.9225E+01
     36.333  0.2510E+00  0.2099E+00  0.9270E+01  0.9258E+01
     36.487  0.2664E+00  0.2836E+00  0.9311E+01  0.9301E+01
     36.640  0.2262E+00  0.2279E+00  0.9346E+01  0.9336E+01
     36.794  0.2666E+00  0.2507E+00  0.9387E+01  0.9375E+01
     36.948  0.1935E+00  0.2345E+00  0.9417E+01  0.9411E+01
     37.101  0.2057E+00  0.1791E+00  0.9448E+01  0.9438E+01
     37.255  0.2647E+00  0.2685E+00  0.9489E+01  0.9480E+01
     37.409  0.2107E+00  0.2219E+00  0.9521E+01  0.9514E+01
     37.562  0.1874E+00  0.1899E+00  0.9550E+01  0.9543E+01
     37.716  0.2152E+00  0.2103E+00  0.9583E+01  0.9575E+01
     37.870  0.1627E+00  0.1763E+00  0.9608E+01  0.9602E+01
     38.023  0.1653E+00  0.1688E+00  0.9633E+01  0.9628E+01
     38.177  0.2137E+00  0.2016E+00  0.9666E+01  0.9659E+01
     38.330  0.1890E+00  0.1970E+00  0.9695E+01  0.9689E+01
     38.484  0.1801E+00  0.1872E+00  0.9723E+01  0.9718E+01
     38.638  0.1799E+00  0.1728E+00  0.9751E+01  0.9745E+01
     38.791  0.1266E+00  0.1447E+00  0.9770E+01  0.9767E+01
     38.945  0.1227E+00  0.1169E+00  0.9789E+01  0.9785E+01
     39.099  0.1095E+00  0.1170E+00  0.9806E+01  0.9803E+01
     39.252  0.1360E+00  0.1193E+00  0.9827E+01  0.9821E+01
     39.406  0.1858E+00  0.1865E+00  0.9855E+01  0.9850E+01
     39.560  0.1117E+00  0.1293E+00  0.9872E+01  0.9870E+01
     39.713  0.1046E+00  0.1119E+00  0.9888E+01  0.9887E+01
     39.867  0.7099E-01  0.5856E-01  0.9899E+01  0.9896E+01
     40.021  0.9223E-01  0.1026E+00  0.9914E+01  0.9912E+01
     40.174  0.1088E+00  0.1099E+00  0.9930E+01  0.9929E+01
     40.328  0.1075E+00  0.1105E+00  0.9947E+01  0.9946E+01
     40.482  0.6970E-01  0.6443E-01  0.9958E+01  0.9956E+01
     40.635  0.9416E-01  0.9951E-01  0.9972E+01  0.9971E+01
     40.789  0.3421E-01  0.4172E-01  0.9977E+01  0.9977E+01
     40.943  0.3750E-01  0.3624E-01  0.9983E+01  0.9983E+01
     41.096  0.2231E-01  0.2192E-01  0.9986E+01  0.9986E+01
     41.250  0.2080E-01  0.2113E-01  0.9990E+01  0.9989E+01
     41.404  0.1523E-01  0.1470E-01  0.9992E+01  0.9992E+01
     41.557  0.2321E-01  0.2249E-01  0.9996E+01  0.9995E+01
     41.711 -0.1018E-02  0.1643E-02  0.9995E+01  0.9995E+01
     41.865  0.6572E-02  0.4970E-02  0.9996E+01  0.9996E+01
     42.018  0.1372E-01  0.1493E-01  0.9998E+01  0.9998E+01
     42.172  0.3880E-02  0.3914E-02  0.9999E+01  0.9999E+01
     42.325 -0.1688E-03 -0.1968E-04  0.9999E+01  0.9999E+01
     42.479  0.4292E-02  0.3953E-02  0.1000E+02  0.1000E+02
     42.633  0.6323E-03  0.1014E-02  0.1000E+02  0.1000E+02
     42.786 -0.3986E-04 -0.5648E-04  0.1000E+02  0.1000E+02
     42.940  0.1253E-03  0.1309E-03  0.1000E+02  0.1000E+02
     43.094  0.1100E-02  0.1096E-02  0.1000E+02  0.1000E+02
     43.247 -0.2572E-04 -0.2702E-04  0.1000E+02  0.1000E+02
     43.401 -0.1294E-05 -0.1242E-05  0.1000E+02  0.1000E+02
     43.555 -0.9572E-10 -0.8913E-10  0.1000E+02  0.1000E+02
     43.708 -0.5027E-16 -0.4551E-16  0.1000E+02  0.1000E+02
     43.862  0.0000E+00  0.0000E+00  0.1000E+02  0.1000E+02
     44.016  0.0000E+00  0.0000E+00  0.1000E+02  0.1000E+02
     44.169  0.0000E+00  0.0000E+00  0.1000E+02  0.1000E+02
     44.323  0.0000E+00  0.0000E+00  0.1000E+02  0.1000E+02
     44.477  0.0000E+00  0.0000E+00  0.1000E+02  0.1000E+02
     44.630  0.0000E+00  0.0000E+00  0.1000E+02  0.1000E+02
     44.784  0.0000E+00  0.0000E+00  0.1000E+02  0.1000E+02
     44.938  0.0000E+00  0.0000E+00  0.1000E+02  0.1000E+02
     45.091  0.0000E+00  0.0000E+00  0.1000E+02  0.1000E+02
