   1   1   0   0
  0.1605330E+02  0.2831564E-09  0.2831565E-09  0.2831564E-09  0.5000000E-15
   1.0000000000000000E-004
  CAR 
 static single-point for EOS (converged p
     32.67070504     -1.55746841  301     10.65107536      1.00000000
     -1.557  0.0000E+00  0.0000E+00
     -1.443  0.0000E+00  0.0000E+00
     -1.329  0.0000E+00  0.0000E+00
     -1.215  0.0000E+00  0.0000E+00
     -1.101  0.0000E+00  0.0000E+00
     -0.987  0.0000E+00  0.0000E+00
     -0.873  0.0000E+00  0.0000E+00
     -0.759  0.0000E+00  0.0000E+00
     -0.645  0.0000E+00  0.0000E+00
     -0.531  0.0000E+00  0.0000E+00
     -0.417  0.0000E+00  0.0000E+00
     -0.302  0.0000E+00  0.0000E+00
     -0.188  0.1645E-09  0.1877E-10
     -0.074  0.5114E-04  0.5835E-05
      0.040  0.3115E-02  0.3612E-03
      0.154  0.2927E-01  0.3700E-02
      0.268  0.2089E-01  0.6083E-02
      0.382  0.6086E-01  0.1303E-01
      0.496  0.3845E-01  0.1741E-01
      0.610  0.3604E-01  0.2153E-01
      0.724  0.9984E-01  0.3292E-01
      0.839  0.6586E-01  0.4043E-01
      0.953  0.7538E-01  0.4903E-01
      1.067  0.3353E-01  0.5286E-01
      1.181  0.1766E+00  0.7300E-01
      1.295  0.6568E-01  0.8050E-01
      1.409  0.1216E+00  0.9437E-01
      1.523  0.4232E-01  0.9920E-01
      1.637  0.1474E+00  0.1160E+00
      1.751  0.1934E+00  0.1381E+00
      1.865  0.1394E+00  0.1540E+00
      1.979  0.1137E+00  0.1670E+00
      2.094  0.1080E+00  0.1793E+00
      2.208  0.2121E+00  0.2035E+00
      2.322  0.2594E+00  0.2331E+00
      2.436  0.2904E+00  0.2662E+00
      2.550  0.1320E+00  0.2813E+00
      2.664  0.4539E+00  0.3330E+00
      2.778  0.6058E+00  0.4022E+00
      2.892  0.8122E+00  0.4948E+00
      3.006  0.6346E+00  0.5672E+00
      3.120  0.1066E+01  0.6888E+00
      3.234  0.1265E+01  0.8331E+00
      3.349  0.1308E+01  0.9824E+00
      3.463  0.1856E+01  0.1194E+01
      3.577  0.1766E+01  0.1396E+01
      3.691  0.1597E+01  0.1578E+01
      3.805  0.1633E+01  0.1764E+01
      3.919  0.1557E+01  0.1942E+01
      4.033  0.1548E+01  0.2118E+01
      4.147  0.1502E+01  0.2290E+01
      4.261  0.1057E+01  0.2410E+01
      4.375  0.1267E+01  0.2555E+01
      4.490  0.1100E+01  0.2680E+01
      4.604  0.1538E+01  0.2856E+01
      4.718  0.1645E+01  0.3044E+01
      4.832  0.1725E+01  0.3240E+01
      4.946  0.1746E+01  0.3440E+01
      5.060  0.1689E+01  0.3632E+01
      5.174  0.1981E+01  0.3858E+01
      5.288  0.1547E+01  0.4035E+01
      5.402  0.1942E+01  0.4256E+01
      5.516  0.2326E+01  0.4522E+01
      5.630  0.2286E+01  0.4783E+01
      5.745  0.2573E+01  0.5076E+01
      5.859  0.3197E+01  0.5441E+01
      5.973  0.2363E+01  0.5710E+01
      6.087  0.1654E+01  0.5899E+01
      6.201  0.1781E+01  0.6102E+01
      6.315  0.1907E+01  0.6320E+01
      6.429  0.9863E+00  0.6432E+01
      6.543  0.1437E+01  0.6596E+01
      6.657  0.1643E+01  0.6784E+01
      6.771  0.1615E+01  0.6968E+01
      6.885  0.1767E+01  0.7170E+01
      7.000  0.2122E+01  0.7412E+01
      7.114  0.2180E+01  0.7660E+01
      7.228  0.1720E+01  0.7857E+01
      7.342  0.1147E+01  0.7988E+01
      7.456  0.1384E+01  0.8145E+01
      7.570  0.2123E+01  0.8388E+01
      7.684  0.1433E+01  0.8551E+01
      7.798  0.8959E+00  0.8653E+01
      7.912  0.1490E+01  0.8823E+01
      8.026  0.1980E+01  0.9049E+01
      8.141  0.1358E+01  0.9204E+01
      8.255  0.1748E+01  0.9404E+01
      8.369  0.2475E+01  0.9686E+01
      8.483  0.3042E+01  0.1003E+02
      8.597  0.2100E+01  0.1027E+02
      8.711  0.1243E+01  0.1041E+02
      8.825  0.6942E+00  0.1049E+02
      8.939  0.2983E+00  0.1053E+02
      9.053  0.2622E+00  0.1056E+02
      9.167  0.8316E+00  0.1065E+02
      9.281  0.3041E+00  0.1069E+02
      9.396  0.1033E+00  0.1070E+02
      9.510  0.1879E+00  0.1072E+02
      9.624  0.2289E+00  0.1075E+02
      9.738  0.9545E-01  0.1076E+02
      9.852  0.2339E+00  0.1078E+02
      9.966  0.6014E+00  0.1085E+02
     10.080  0.2946E+00  0.1089E+02
     10.194  0.2492E+00  0.1091E+02
     10.308  0.1330E+00  0.1093E+02
     10.422  0.2975E+00  0.1096E+02
     10.536  0.2540E+00  0.1099E+02
     10.651  0.6004E-01  0.1100E+02
     10.765  0.4741E+00  0.1105E+02
     10.879  0.3415E+00  0.1109E+02
     10.993  0.4569E+00  0.1115E+02
     11.107  0.1951E+00  0.1117E+02
     11.221  0.1422E+00  0.1118E+02
     11.335  0.1205E+00  0.1120E+02
     11.449  0.2035E+00  0.1122E+02
     11.563  0.2084E+00  0.1124E+02
     11.677  0.3972E+00  0.1129E+02
     11.792  0.5401E+00  0.1135E+02
     11.906  0.3332E+00  0.1139E+02
     12.020  0.1644E+00  0.1141E+02
     12.134  0.1718E+00  0.1143E+02
     12.248  0.1915E+00  0.1145E+02
     12.362  0.1305E+00  0.1146E+02
     12.476  0.1974E+00  0.1149E+02
     12.590  0.3866E+00  0.1153E+02
     12.704  0.3150E+00  0.1157E+02
     12.818  0.2145E+00  0.1159E+02
     12.932  0.4015E+00  0.1164E+02
     13.047  0.7318E-01  0.1165E+02
     13.161  0.1120E+00  0.1166E+02
     13.275  0.2466E+00  0.1169E+02
     13.389  0.2702E+00  0.1172E+02
     13.503  0.4002E+00  0.1176E+02
     13.617  0.9526E-01  0.1177E+02
     13.731  0.1817E+00  0.1179E+02
     13.845  0.2428E+00  0.1182E+02
     13.959  0.4413E+00  0.1187E+02
     14.073  0.3328E+00  0.1191E+02
     14.187  0.6185E+00  0.1198E+02
     14.302  0.3977E+00  0.1203E+02
     14.416  0.2785E+00  0.1206E+02
     14.530  0.3657E+00  0.1210E+02
     14.644  0.3063E+00  0.1213E+02
     14.758  0.6679E-01  0.1214E+02
     14.872  0.1329E+00  0.1216E+02
     14.986  0.4792E+00  0.1221E+02
     15.100  0.2445E+00  0.1224E+02
     15.214  0.3600E+00  0.1228E+02
     15.328  0.2448E+00  0.1231E+02
     15.443  0.3306E+00  0.1235E+02
     15.557  0.2523E+00  0.1238E+02
     15.671  0.2457E+00  0.1240E+02
     15.785  0.1935E+00  0.1243E+02
     15.899  0.3920E+00  0.1247E+02
     16.013  0.5752E+00  0.1254E+02
     16.127  0.3499E+00  0.1258E+02
     16.241  0.2371E+00  0.1260E+02
     16.355  0.3918E+00  0.1265E+02
     16.469  0.1105E+00  0.1266E+02
     16.583  0.1681E+00  0.1268E+02
     16.698  0.4127E+00  0.1273E+02
     16.812  0.7040E+00  0.1281E+02
     16.926  0.3369E+00  0.1285E+02
     17.040  0.3898E+00  0.1289E+02
     17.154  0.1905E+00  0.1291E+02
     17.268  0.4765E-01  0.1292E+02
     17.382  0.1712E+00  0.1294E+02
     17.496  0.3091E+00  0.1297E+02
     17.610  0.3504E+00  0.1301E+02
     17.724  0.5165E+00  0.1307E+02
     17.838  0.1684E+00  0.1309E+02
     17.953  0.1862E+00  0.1311E+02
     18.067  0.3199E+00  0.1315E+02
     18.181  0.2569E+00  0.1318E+02
     18.295  0.4373E+00  0.1323E+02
     18.409  0.3617E+00  0.1327E+02
     18.523  0.3319E+00  0.1331E+02
     18.637  0.2373E+00  0.1333E+02
     18.751  0.5559E+00  0.1340E+02
     18.865  0.3345E+00  0.1343E+02
     18.979  0.2343E+00  0.1346E+02
     19.094  0.2490E+00  0.1349E+02
     19.208  0.4663E+00  0.1354E+02
     19.322  0.2113E+00  0.1357E+02
     19.436  0.3028E+00  0.1360E+02
     19.550  0.5564E+00  0.1367E+02
     19.664  0.3090E+00  0.1370E+02
     19.778  0.2753E+00  0.1373E+02
     19.892  0.4681E+00  0.1379E+02
     20.006  0.4601E+00  0.1384E+02
     20.120  0.4289E+00  0.1389E+02
     20.234  0.1334E+00  0.1390E+02
     20.349  0.3628E+00  0.1394E+02
     20.463  0.2000E+00  0.1397E+02
     20.577  0.5243E+00  0.1403E+02
     20.691  0.5396E+00  0.1409E+02
     20.805  0.5139E+00  0.1415E+02
     20.919  0.4377E+00  0.1420E+02
     21.033  0.2646E+00  0.1423E+02
     21.147  0.8514E+00  0.1432E+02
     21.261  0.5400E+00  0.1439E+02
     21.375  0.4434E+00  0.1444E+02
     21.490  0.6053E+00  0.1450E+02
     21.604  0.3577E+00  0.1455E+02
     21.718  0.3107E+00  0.1458E+02
     21.832  0.3282E+00  0.1462E+02
     21.946  0.3137E+00  0.1465E+02
     22.060  0.7071E+00  0.1474E+02
     22.174  0.8490E+00  0.1483E+02
     22.288  0.5572E+00  0.1490E+02
     22.402  0.4348E+00  0.1495E+02
     22.516  0.3944E+00  0.1499E+02
     22.630  0.3823E+00  0.1503E+02
     22.745  0.2280E+00  0.1506E+02
     22.859  0.4967E+00  0.1512E+02
     22.973  0.5157E+00  0.1518E+02
     23.087  0.7151E+00  0.1526E+02
     23.201  0.8610E+00  0.1536E+02
     23.315  0.2289E+00  0.1538E+02
     23.429  0.3497E+00  0.1542E+02
     23.543  0.5548E+00  0.1548E+02
     23.657  0.4742E+00  0.1554E+02
     23.771  0.2648E+00  0.1557E+02
     23.885  0.4445E+00  0.1562E+02
     24.000  0.7038E+00  0.1570E+02
     24.114  0.4523E+00  0.1575E+02
     24.228  0.8614E+00  0.1585E+02
     24.342  0.5612E+00  0.1591E+02
     24.456  0.1942E+00  0.1594E+02
     24.570  0.4211E+00  0.1598E+02
     24.684  0.1138E+01  0.1611E+02
     24.798  0.6928E+00  0.1619E+02
     24.912  0.8162E+00  0.1629E+02
     25.026  0.5507E+00  0.1635E+02
     25.141  0.5403E+00  0.1641E+02
     25.255  0.6793E+00  0.1649E+02
     25.369  0.7702E+00  0.1658E+02
     25.483  0.4431E+00  0.1663E+02
     25.597  0.3846E+00  0.1667E+02
     25.711  0.7973E+00  0.1676E+02
     25.825  0.6445E+00  0.1683E+02
     25.939  0.4932E+00  0.1689E+02
     26.053  0.6767E+00  0.1697E+02
     26.167  0.5564E+00  0.1703E+02
     26.281  0.7870E+00  0.1712E+02
     26.396  0.6649E+00  0.1720E+02
     26.510  0.5202E+00  0.1726E+02
     26.624  0.5006E+00  0.1731E+02
     26.738  0.4410E+00  0.1736E+02
     26.852  0.2186E+00  0.1739E+02
     26.966  0.4868E+00  0.1744E+02
     27.080  0.3278E+00  0.1748E+02
     27.194  0.2039E+00  0.1751E+02
     27.308  0.3982E+00  0.1755E+02
     27.422  0.4106E+00  0.1760E+02
     27.536  0.8386E-01  0.1761E+02
     27.651  0.1131E+00  0.1762E+02
     27.765  0.2889E+00  0.1765E+02
     27.879  0.2401E+00  0.1768E+02
     27.993  0.2274E+00  0.1771E+02
     28.107  0.1874E+00  0.1773E+02
     28.221  0.1996E+00  0.1775E+02
     28.335  0.9753E-01  0.1776E+02
     28.449  0.1673E+00  0.1778E+02
     28.563  0.9410E-01  0.1779E+02
     28.677  0.2905E+00  0.1782E+02
     28.792  0.2885E+00  0.1786E+02
     28.906  0.1778E+00  0.1788E+02
     29.020  0.2586E+00  0.1791E+02
     29.134  0.3951E-01  0.1791E+02
     29.248  0.8432E-01  0.1792E+02
     29.362  0.2098E+00  0.1795E+02
     29.476  0.7835E-01  0.1795E+02
     29.590  0.9955E-01  0.1797E+02
     29.704  0.2206E-01  0.1797E+02
     29.818  0.1756E+00  0.1799E+02
     29.932  0.2309E-01  0.1799E+02
     30.047  0.1623E-05  0.1799E+02
     30.161  0.1076E-07  0.1799E+02
     30.275  0.1068E-02  0.1799E+02
     30.389  0.3239E-01  0.1799E+02
     30.503  0.7433E-02  0.1800E+02
     30.617  0.1933E-05  0.1800E+02
     30.731  0.4403E-13  0.1800E+02
     30.845  0.9465E-06  0.1800E+02
     30.959  0.5061E-02  0.1800E+02
     31.073  0.1773E-01  0.1800E+02
     31.187  0.1769E-01  0.1800E+02
     31.302  0.4091E-03  0.1800E+02
     31.416  0.1316E-08  0.1800E+02
     31.530  0.0000E+00  0.1800E+02
     31.644  0.0000E+00  0.1800E+02
     31.758  0.0000E+00  0.1800E+02
     31.872  0.0000E+00  0.1800E+02
     31.986  0.0000E+00  0.1800E+02
     32.100  0.0000E+00  0.1800E+02
     32.214  0.0000E+00  0.1800E+02
     32.328  0.0000E+00  0.1800E+02
     32.443  0.0000E+00  0.1800E+02
     32.557  0.0000E+00  0.1800E+02
     32.671  0.0000E+00  0.1800E+02
