[1776442077.710768] [d01:1949066:f]        vfs_fuse.c:281  UCX  ERROR inotify_add_watch(/tmp) failed: No space left on device
 running    1 mpi-ranks, with    1 threads/rank, on    1 nodes
 distrk:  each k-point on    1 cores,    1 groups
 distr:  one band on    1 cores,    1 groups
 OpenACC runtime initialized ...    1 GPUs detected
 vasp.6.4.2 20Jul23 (build Mar  2 2025 11:04:54) complex                         
 POSCAR found type information on POSCAR Ag
 POSCAR found :  1 types and       1 ions
 scaLAPACK will be used selectively (only on CPU)
 LDA part: xc-table for Pade appr. of Perdew
 -----------------------------------------------------------------------------
|                                                                             |
|           W    W    AA    RRRRR   N    N  II  N    N   GGGG   !!!           |
|           W    W   A  A   R    R  NN   N  II  NN   N  G    G  !!!           |
|           W    W  A    A  R    R  N N  N  II  N N  N  G       !!!           |
|           W WW W  AAAAAA  RRRRR   N  N N  II  N  N N  G  GGG   !            |
|           WW  WW  A    A  R   R   N   NN  II  N   NN  G    G                |
|           W    W  A    A  R    R  N    N  II  N    N   GGGG   !!!           |
|                                                                             |
|     The requested file  could not be found or opened for reading            |
|     k-point information. Automatic k-point generation is used as a          |
|     fallback, which may lead to unwanted results.                           |
|                                                                             |
 -----------------------------------------------------------------------------

 POSCAR, INCAR and KPOINTS ok, starting setup
 FFT: planning ... GRIDC
 FFT: planning ... GRID_SOFT
 FFT: planning ... GRID
 WAVECAR not read
 entering main loop
       N       E                     dE             d eps       ncg     rms          rms(c)
DAV:   1     0.396451532637E+02    0.39645E+02   -0.53035E+03  3718   0.975E+02
DAV:   2    -0.263815615430E+01   -0.42283E+02   -0.39997E+02  3600   0.192E+02
DAV:   3    -0.296488678691E+01   -0.32673E+00   -0.32649E+00  4111   0.207E+01
DAV:   4    -0.296559247044E+01   -0.70568E-03   -0.70567E-03  3973   0.905E-01
DAV:   5    -0.296559719895E+01   -0.47285E-05   -0.47285E-05  3884   0.675E-02    0.505E+00
DAV:   6    -0.272601235728E+01    0.23958E+00   -0.11340E+00  3571   0.116E+01    0.328E+00
DAV:   7    -0.271804407924E+01    0.79683E-02   -0.10935E-02  3838   0.114E+00    0.185E+00
DAV:   8    -0.271525673581E+01    0.27873E-02   -0.68933E-04  3644   0.255E-01    0.737E-02
DAV:   9    -0.271526561938E+01   -0.88836E-05   -0.80088E-06  4120   0.277E-02    0.141E-02
DAV:  10    -0.271527208829E+01   -0.64689E-05   -0.39324E-06  3835   0.247E-02    0.523E-03
DAV:  11    -0.271527179090E+01    0.29738E-06   -0.10198E-07  1839   0.352E-03
   1 F= -.27152718E+01 E0= -.27152322E+01  d E =-.118700E-03
Warning: ieee_invalid is signaling
Warning: ieee_divide_by_zero is signaling
Warning: ieee_underflow is signaling
Warning: ieee_inexact is signaling
FORTRAN STOP
