       N       E                     dE             d eps       ncg     rms          rms(c)
DAV:   1     0.320615706630E+02    0.32062E+02   -0.49357E+03  4086   0.854E+02
DAV:   2    -0.312696927527E+01   -0.35189E+02   -0.32579E+02  3649   0.167E+02
DAV:   3    -0.343850545725E+01   -0.31154E+00   -0.30001E+00  4273   0.156E+01
DAV:   4    -0.343941733414E+01   -0.91188E-03   -0.91186E-03  3972   0.909E-01
DAV:   5    -0.343942350793E+01   -0.61738E-05   -0.61728E-05  4006   0.725E-02    0.644E+00
DAV:   6    -0.319973361059E+01    0.23969E+00   -0.89220E-01  3588   0.892E+00    0.439E+00
DAV:   7    -0.318816781464E+01    0.11566E-01   -0.47718E-02  3790   0.206E+00    0.240E+00
DAV:   8    -0.318678041818E+01    0.13874E-02   -0.82460E-04  3665   0.294E-01    0.189E-01
DAV:   9    -0.318677457904E+01    0.58391E-05   -0.53940E-06  3962   0.236E-02    0.259E-02
DAV:  10    -0.318678195868E+01   -0.73796E-05   -0.39944E-06  3811   0.257E-02    0.633E-03
DAV:  11    -0.318678188184E+01    0.76837E-07   -0.48158E-08  1834   0.210E-03
   1 F= -.31867819E+01 E0= -.31866543E+01  d E =-.255143E-03
