       N       E                     dE             d eps       ncg     rms          rms(c)
DAV:   1     0.311690449393E+02    0.31169E+02   -0.46106E+03  4624   0.848E+02
DAV:   2    -0.381277610049E+00   -0.31550E+02   -0.31152E+02  5254   0.153E+02
DAV:   3    -0.155074123608E+01   -0.11695E+01   -0.11625E+01  6831   0.241E+01
DAV:   4    -0.158446943395E+01   -0.33728E-01   -0.33716E-01  6404   0.364E+00
DAV:   5    -0.158524954347E+01   -0.78011E-03   -0.78003E-03  7177   0.338E-01    0.126E+01
DAV:   6    -0.158148191046E+01    0.37676E-02   -0.51700E-03  5667   0.975E-01    0.724E+00
DAV:   7    -0.157904297801E+01    0.24389E-02   -0.10797E-02  6716   0.130E+00    0.228E-01
DAV:   8    -0.157906497417E+01   -0.21996E-04   -0.95165E-04  6417   0.195E-01    0.702E-02
DAV:   9    -0.157908584139E+01   -0.20867E-04   -0.34193E-05  6516   0.487E-02    0.357E-02
DAV:  10    -0.157909132613E+01   -0.54847E-05   -0.49750E-06  6086   0.209E-02    0.965E-03
DAV:  11    -0.157909092648E+01    0.39965E-06   -0.13166E-07  2854   0.321E-03
   1 F= -.15790909E+01 E0= -.15788348E+01  d E =-.512278E-03
