   1   1   0   0
  0.1414423E+02  0.2714551E-09  0.2714552E-09  0.2714551E-09  0.5000000E-15
   1.0000000000000000E-004
  CAR 
 Pd FCC EOS static single-point          
     36.25838214      1.45718874  301     10.49637850      1.00000000
      1.457  0.0000E+00  0.0000E+00
      1.573  0.0000E+00  0.0000E+00
      1.689  0.0000E+00  0.0000E+00
      1.805  0.0000E+00  0.0000E+00
      1.921  0.0000E+00  0.0000E+00
      2.037  0.0000E+00  0.0000E+00
      2.153 -0.1468E-36 -0.1703E-37
      2.269 -0.2820E-28 -0.3271E-29
      2.385 -0.3611E-21 -0.4189E-22
      2.501 -0.3014E-15 -0.3496E-16
      2.617 -0.1772E-10 -0.2055E-11
      2.733 -0.7670E-07 -0.8899E-08
      2.849 -0.2551E-04 -0.2968E-05
      2.965 -0.4180E-03 -0.5146E-04
      3.081  0.4451E-02  0.4649E-03
      3.197  0.2178E-01  0.2991E-02
      3.313  0.3212E-01  0.6717E-02
      3.429  0.4420E-01  0.1184E-01
      3.545  0.4774E-01  0.1738E-01
      3.661  0.6240E-01  0.2462E-01
      3.777  0.5654E-01  0.3118E-01
      3.893  0.8671E-01  0.4124E-01
      4.009  0.6630E-01  0.4893E-01
      4.125  0.9490E-01  0.5994E-01
      4.241  0.1072E+00  0.7238E-01
      4.357  0.8519E-01  0.8226E-01
      4.473  0.1397E+00  0.9847E-01
      4.589  0.1305E+00  0.1136E+00
      4.705  0.1190E+00  0.1274E+00
      4.821  0.2590E+00  0.1575E+00
      4.937  0.4392E+00  0.2084E+00
      5.053  0.8572E+00  0.3078E+00
      5.169  0.1225E+01  0.4500E+00
      5.285  0.1424E+01  0.6152E+00
      5.401  0.1696E+01  0.8118E+00
      5.517  0.2075E+01  0.1053E+01
      5.633  0.2454E+01  0.1337E+01
      5.749  0.2180E+01  0.1590E+01
      5.865  0.2021E+01  0.1825E+01
      5.981  0.1791E+01  0.2032E+01
      6.097  0.1720E+01  0.2232E+01
      6.213  0.1403E+01  0.2395E+01
      6.329  0.1321E+01  0.2548E+01
      6.445  0.1343E+01  0.2704E+01
      6.561  0.1562E+01  0.2885E+01
      6.677  0.1493E+01  0.3058E+01
      6.793  0.1574E+01  0.3241E+01
      6.909  0.1549E+01  0.3420E+01
      7.025  0.1486E+01  0.3593E+01
      7.141  0.1591E+01  0.3777E+01
      7.257  0.1648E+01  0.3969E+01
      7.373  0.1661E+01  0.4161E+01
      7.489  0.1820E+01  0.4372E+01
      7.605  0.2165E+01  0.4624E+01
      7.721  0.2406E+01  0.4903E+01
      7.837  0.3189E+01  0.5273E+01
      7.953  0.2748E+01  0.5591E+01
      8.069  0.1843E+01  0.5805E+01
      8.185  0.1543E+01  0.5984E+01
      8.301  0.1614E+01  0.6172E+01
      8.417  0.1542E+01  0.6350E+01
      8.533  0.1457E+01  0.6519E+01
      8.649  0.1440E+01  0.6686E+01
      8.765  0.1565E+01  0.6868E+01
      8.881  0.1914E+01  0.7090E+01
      8.997  0.1835E+01  0.7303E+01
      9.113  0.1925E+01  0.7526E+01
      9.229  0.1832E+01  0.7739E+01
      9.345  0.1663E+01  0.7932E+01
      9.461  0.1614E+01  0.8119E+01
      9.577  0.1427E+01  0.8284E+01
      9.693  0.1478E+01  0.8456E+01
      9.809  0.1562E+01  0.8637E+01
      9.925  0.1368E+01  0.8796E+01
     10.041  0.1616E+01  0.8983E+01
     10.157  0.1603E+01  0.9169E+01
     10.273  0.1933E+01  0.9393E+01
     10.389  0.2707E+01  0.9707E+01
     10.505  0.2703E+01  0.1002E+02
     10.622  0.1759E+01  0.1023E+02
     10.738  0.1166E+01  0.1036E+02
     10.854  0.9692E+00  0.1047E+02
     10.970  0.2650E+00  0.1050E+02
     11.086  0.1235E+00  0.1052E+02
     11.202  0.1214E+00  0.1053E+02
     11.318  0.1938E+00  0.1055E+02
     11.434  0.3846E+00  0.1060E+02
     11.550  0.2593E+00  0.1063E+02
     11.666  0.1995E+00  0.1065E+02
     11.782  0.1305E+00  0.1067E+02
     11.898  0.2090E+00  0.1069E+02
     12.014  0.3237E+00  0.1073E+02
     12.130  0.2891E+00  0.1076E+02
     12.246  0.2097E+00  0.1079E+02
     12.362  0.1857E+00  0.1081E+02
     12.478  0.1601E+00  0.1083E+02
     12.594  0.3489E+00  0.1087E+02
     12.710  0.2768E+00  0.1090E+02
     12.826  0.1910E+00  0.1092E+02
     12.942  0.2594E+00  0.1095E+02
     13.058  0.1930E+00  0.1097E+02
     13.174  0.1997E+00  0.1100E+02
     13.290  0.2792E+00  0.1103E+02
     13.406  0.2991E+00  0.1106E+02
     13.522  0.2845E+00  0.1110E+02
     13.638  0.2040E+00  0.1112E+02
     13.754  0.1724E+00  0.1114E+02
     13.870  0.1993E+00  0.1116E+02
     13.986  0.2694E+00  0.1120E+02
     14.102  0.3414E+00  0.1124E+02
     14.218  0.3063E+00  0.1127E+02
     14.334  0.1862E+00  0.1129E+02
     14.450  0.1729E+00  0.1131E+02
     14.566  0.2479E+00  0.1134E+02
     14.682  0.2027E+00  0.1136E+02
     14.798  0.2481E+00  0.1139E+02
     14.914  0.2955E+00  0.1143E+02
     15.030  0.2739E+00  0.1146E+02
     15.146  0.1923E+00  0.1148E+02
     15.262  0.2020E+00  0.1151E+02
     15.378  0.1597E+00  0.1152E+02
     15.494  0.1947E+00  0.1155E+02
     15.610  0.2340E+00  0.1157E+02
     15.726  0.2809E+00  0.1161E+02
     15.842  0.2196E+00  0.1163E+02
     15.958  0.1684E+00  0.1165E+02
     16.074  0.1788E+00  0.1167E+02
     16.190  0.1654E+00  0.1169E+02
     16.306  0.1956E+00  0.1171E+02
     16.422  0.1377E+00  0.1173E+02
     16.538  0.1708E+00  0.1175E+02
     16.654  0.2550E+00  0.1178E+02
     16.770  0.1990E+00  0.1180E+02
     16.886  0.9512E-01  0.1181E+02
     17.002  0.1595E+00  0.1183E+02
     17.118  0.1007E+00  0.1184E+02
     17.234  0.1063E+00  0.1186E+02
     17.350  0.1619E+00  0.1187E+02
     17.466  0.1828E+00  0.1190E+02
     17.582  0.1450E+00  0.1191E+02
     17.698  0.6396E-01  0.1192E+02
     17.814  0.1302E+00  0.1194E+02
     17.930  0.5188E-01  0.1194E+02
     18.046  0.7863E-01  0.1195E+02
     18.162  0.2071E+00  0.1197E+02
     18.278  0.5184E+00  0.1203E+02
     18.394  0.4713E+00  0.1209E+02
     18.510  0.4370E+00  0.1214E+02
     18.626  0.3908E+00  0.1219E+02
     18.742  0.3328E+00  0.1222E+02
     18.858  0.3162E+00  0.1226E+02
     18.974  0.2526E+00  0.1229E+02
     19.090  0.3353E+00  0.1233E+02
     19.206  0.3392E+00  0.1237E+02
     19.322  0.2930E+00  0.1240E+02
     19.438  0.3585E+00  0.1244E+02
     19.554  0.1979E+00  0.1247E+02
     19.670  0.2749E+00  0.1250E+02
     19.786  0.3143E+00  0.1253E+02
     19.902  0.1904E+00  0.1256E+02
     20.018  0.2659E+00  0.1259E+02
     20.134  0.3188E+00  0.1262E+02
     20.250  0.3039E+00  0.1266E+02
     20.366  0.2275E+00  0.1269E+02
     20.482  0.2800E+00  0.1272E+02
     20.598  0.2030E+00  0.1274E+02
     20.714  0.1985E+00  0.1277E+02
     20.830  0.2703E+00  0.1280E+02
     20.946  0.3403E+00  0.1284E+02
     21.062  0.2119E+00  0.1286E+02
     21.178  0.2754E+00  0.1289E+02
     21.294  0.1938E+00  0.1292E+02
     21.410  0.2204E+00  0.1294E+02
     21.526  0.3816E+00  0.1299E+02
     21.642  0.3030E+00  0.1302E+02
     21.758  0.4546E+00  0.1307E+02
     21.874  0.5665E+00  0.1314E+02
     21.990  0.5215E+00  0.1320E+02
     22.106  0.4166E+00  0.1325E+02
     22.222  0.4917E+00  0.1330E+02
     22.338  0.4670E+00  0.1336E+02
     22.454  0.4444E+00  0.1341E+02
     22.570  0.4209E+00  0.1346E+02
     22.686  0.3946E+00  0.1350E+02
     22.802  0.5057E+00  0.1356E+02
     22.918  0.4905E+00  0.1362E+02
     23.034  0.4864E+00  0.1368E+02
     23.150  0.3625E+00  0.1372E+02
     23.266  0.4633E+00  0.1377E+02
     23.382  0.4560E+00  0.1383E+02
     23.498  0.5229E+00  0.1389E+02
     23.614  0.5180E+00  0.1395E+02
     23.730  0.4554E+00  0.1400E+02
     23.846  0.4764E+00  0.1405E+02
     23.962  0.4744E+00  0.1411E+02
     24.078  0.4671E+00  0.1416E+02
     24.194  0.6044E+00  0.1423E+02
     24.310  0.5562E+00  0.1430E+02
     24.426  0.4957E+00  0.1436E+02
     24.542  0.4882E+00  0.1441E+02
     24.658  0.5114E+00  0.1447E+02
     24.774  0.5605E+00  0.1454E+02
     24.890  0.4611E+00  0.1459E+02
     25.006  0.5045E+00  0.1465E+02
     25.122  0.5616E+00  0.1471E+02
     25.238  0.4748E+00  0.1477E+02
     25.354  0.5320E+00  0.1483E+02
     25.470  0.5929E+00  0.1490E+02
     25.586  0.4478E+00  0.1495E+02
     25.702  0.4394E+00  0.1500E+02
     25.818  0.5654E+00  0.1507E+02
     25.934  0.5300E+00  0.1513E+02
     26.050  0.5466E+00  0.1519E+02
     26.166  0.5161E+00  0.1525E+02
     26.282  0.4699E+00  0.1531E+02
     26.398  0.4999E+00  0.1537E+02
     26.514  0.5552E+00  0.1543E+02
     26.630  0.5940E+00  0.1550E+02
     26.746  0.5349E+00  0.1556E+02
     26.862  0.4798E+00  0.1562E+02
     26.978  0.4924E+00  0.1567E+02
     27.094  0.6261E+00  0.1575E+02
     27.210  0.7604E+00  0.1583E+02
     27.326  0.9198E+00  0.1594E+02
     27.442  0.7245E+00  0.1602E+02
     27.558  0.6388E+00  0.1610E+02
     27.674  0.6830E+00  0.1618E+02
     27.790  0.7125E+00  0.1626E+02
     27.906  0.5115E+00  0.1632E+02
     28.022  0.5351E+00  0.1638E+02
     28.138  0.6457E+00  0.1646E+02
     28.254  0.5840E+00  0.1653E+02
     28.370  0.4950E+00  0.1658E+02
     28.486  0.7041E+00  0.1666E+02
     28.602  0.6595E+00  0.1674E+02
     28.718  0.4616E+00  0.1679E+02
     28.834  0.5071E+00  0.1685E+02
     28.950  0.5431E+00  0.1692E+02
     29.066  0.4551E+00  0.1697E+02
     29.182  0.5906E+00  0.1704E+02
     29.298  0.4864E+00  0.1709E+02
     29.414  0.4107E+00  0.1714E+02
     29.530  0.4347E+00  0.1719E+02
     29.646  0.3167E+00  0.1723E+02
     29.762  0.2341E+00  0.1726E+02
     29.878  0.3906E+00  0.1730E+02
     29.994  0.4734E+00  0.1736E+02
     30.110  0.2735E+00  0.1739E+02
     30.226  0.2214E+00  0.1741E+02
     30.342  0.3233E+00  0.1745E+02
     30.458  0.2411E+00  0.1748E+02
     30.574  0.2306E+00  0.1751E+02
     30.690  0.2315E+00  0.1753E+02
     30.806  0.2115E+00  0.1756E+02
     30.922  0.1759E+00  0.1758E+02
     31.038  0.2774E+00  0.1761E+02
     31.154  0.1705E+00  0.1763E+02
     31.270  0.1828E+00  0.1765E+02
     31.386  0.1601E+00  0.1767E+02
     31.502  0.2350E+00  0.1770E+02
     31.618  0.2022E+00  0.1772E+02
     31.734  0.1266E+00  0.1773E+02
     31.850  0.2205E+00  0.1776E+02
     31.966  0.1912E+00  0.1778E+02
     32.082  0.1803E+00  0.1780E+02
     32.198  0.1911E+00  0.1783E+02
     32.314  0.2066E+00  0.1785E+02
     32.430  0.2878E+00  0.1788E+02
     32.546  0.1415E+00  0.1790E+02
     32.662  0.1932E+00  0.1792E+02
     32.778  0.1388E+00  0.1794E+02
     32.894  0.1258E+00  0.1795E+02
     33.010  0.8191E-01  0.1796E+02
     33.126  0.1014E+00  0.1797E+02
     33.242  0.3799E-01  0.1798E+02
     33.358  0.1243E-01  0.1798E+02
     33.474  0.2933E-01  0.1798E+02
     33.590  0.3913E-01  0.1799E+02
     33.706  0.4315E-01  0.1799E+02
     33.822  0.3936E-01  0.1800E+02
     33.938  0.1129E-02  0.1800E+02
     34.054  0.3664E-02  0.1800E+02
     34.170 -0.1173E-03  0.1800E+02
     34.286  0.4121E-02  0.1800E+02
     34.402  0.6084E-02  0.1800E+02
     34.518  0.1067E-02  0.1800E+02
     34.634  0.2179E-02  0.1800E+02
     34.750  0.8968E-02  0.1800E+02
     34.866  0.3949E-03  0.1800E+02
     34.982 -0.1194E-03  0.1800E+02
     35.098 -0.7161E-06  0.1800E+02
     35.214 -0.2191E-09  0.1800E+02
     35.330 -0.4082E-14  0.1800E+02
     35.446  0.0000E+00  0.1800E+02
     35.562  0.0000E+00  0.1800E+02
     35.678  0.0000E+00  0.1800E+02
     35.794  0.0000E+00  0.1800E+02
     35.910  0.0000E+00  0.1800E+02
     36.026  0.0000E+00  0.1800E+02
     36.142  0.0000E+00  0.1800E+02
     36.258  0.0000E+00  0.1800E+02
