   2   2   0   0
  0.2572401E+02  0.4174725E-09  0.4174725E-09  0.4174725E-09  0.5000000E-15
   1.0000000000000000E-004
  CAR 
 InP PBE Static SCF for Band Structure Pr
     14.19551672     -8.71844886  301      3.88661908      1.00000000
     -8.718  0.0000E+00  0.0000E+00
     -8.642  0.0000E+00  0.0000E+00
     -8.566  0.0000E+00  0.0000E+00
     -8.489  0.0000E+00  0.0000E+00
     -8.413  0.0000E+00  0.0000E+00
     -8.337  0.0000E+00  0.0000E+00
     -8.260  0.0000E+00  0.0000E+00
     -8.184  0.0000E+00  0.0000E+00
     -8.107  0.0000E+00  0.0000E+00
     -8.031  0.0000E+00  0.0000E+00
     -7.955  0.5233E-16  0.3997E-17
     -7.878  0.1611E-09  0.1230E-10
     -7.802  0.5336E-05  0.4076E-06
     -7.726  0.2214E-02  0.1695E-03
     -7.649  0.2352E-01  0.1966E-02
     -7.573  0.1551E+00  0.1381E-01
     -7.496  0.2018E+00  0.2923E-01
     -7.420  0.1652E+00  0.4184E-01
     -7.344  0.3538E+00  0.6887E-01
     -7.267  0.5656E+00  0.1121E+00
     -7.191  0.1158E+00  0.1209E+00
     -7.114  0.2580E+00  0.1406E+00
     -7.038  0.8345E+00  0.2044E+00
     -6.962  0.4646E+00  0.2398E+00
     -6.885  0.5552E+00  0.2823E+00
     -6.809  0.6144E+00  0.3292E+00
     -6.733  0.2473E+00  0.3481E+00
     -6.656  0.8226E+00  0.4109E+00
     -6.580  0.1263E+01  0.5074E+00
     -6.503  0.5951E+00  0.5528E+00
     -6.427  0.1093E+01  0.6363E+00
     -6.351  0.5561E+00  0.6788E+00
     -6.274  0.7956E+00  0.7395E+00
     -6.198  0.2500E+01  0.9304E+00
     -6.122  0.1402E+01  0.1037E+01
     -6.045  0.1435E+01  0.1147E+01
     -5.969  0.1375E+01  0.1252E+01
     -5.892  0.1792E+01  0.1389E+01
     -5.816  0.2137E+01  0.1552E+01
     -5.740  0.1331E+01  0.1654E+01
     -5.663  0.1845E+01  0.1795E+01
     -5.587  0.2092E+01  0.1955E+01
     -5.510  0.5667E+00  0.1998E+01
     -5.434  0.2686E-01  0.2000E+01
     -5.358  0.4288E-04  0.2000E+01
     -5.281  0.9781E-09  0.2000E+01
     -5.205  0.2442E-15  0.2000E+01
     -5.129  0.0000E+00  0.2000E+01
     -5.052  0.0000E+00  0.2000E+01
     -4.976  0.0000E+00  0.2000E+01
     -4.899  0.0000E+00  0.2000E+01
     -4.823  0.0000E+00  0.2000E+01
     -4.747  0.0000E+00  0.2000E+01
     -4.670  0.0000E+00  0.2000E+01
     -4.594  0.0000E+00  0.2000E+01
     -4.518  0.0000E+00  0.2000E+01
     -4.441  0.0000E+00  0.2000E+01
     -4.365  0.0000E+00  0.2000E+01
     -4.288  0.0000E+00  0.2000E+01
     -4.212  0.0000E+00  0.2000E+01
     -4.136  0.0000E+00  0.2000E+01
     -4.059  0.0000E+00  0.2000E+01
     -3.983  0.0000E+00  0.2000E+01
     -3.907  0.0000E+00  0.2000E+01
     -3.830  0.0000E+00  0.2000E+01
     -3.754  0.0000E+00  0.2000E+01
     -3.677  0.0000E+00  0.2000E+01
     -3.601  0.0000E+00  0.2000E+01
     -3.525  0.0000E+00  0.2000E+01
     -3.448  0.0000E+00  0.2000E+01
     -3.372  0.0000E+00  0.2000E+01
     -3.295  0.0000E+00  0.2000E+01
     -3.219  0.0000E+00  0.2000E+01
     -3.143  0.0000E+00  0.2000E+01
     -3.066  0.0000E+00  0.2000E+01
     -2.990  0.0000E+00  0.2000E+01
     -2.914  0.0000E+00  0.2000E+01
     -2.837  0.0000E+00  0.2000E+01
     -2.761  0.0000E+00  0.2000E+01
     -2.684  0.0000E+00  0.2000E+01
     -2.608  0.0000E+00  0.2000E+01
     -2.532  0.0000E+00  0.2000E+01
     -2.455  0.0000E+00  0.2000E+01
     -2.379  0.0000E+00  0.2000E+01
     -2.303  0.0000E+00  0.2000E+01
     -2.226  0.2573E-15  0.2000E+01
     -2.150  0.6996E-09  0.2000E+01
     -2.073  0.2053E-04  0.2000E+01
     -1.997  0.8758E-02  0.2001E+01
     -1.921  0.1800E+00  0.2014E+01
     -1.844  0.6980E+00  0.2068E+01
     -1.768  0.2512E+01  0.2260E+01
     -1.691  0.3536E+01  0.2530E+01
     -1.615  0.2169E+01  0.2695E+01
     -1.539  0.2276E+01  0.2869E+01
     -1.462  0.1386E+01  0.2975E+01
     -1.386  0.1177E+01  0.3065E+01
     -1.310  0.5575E+00  0.3107E+01
     -1.233  0.9114E+00  0.3177E+01
     -1.157  0.7104E+00  0.3231E+01
     -1.080  0.8738E+00  0.3298E+01
     -1.004  0.7870E+00  0.3358E+01
     -0.928  0.4056E+00  0.3389E+01
     -0.851  0.5014E+00  0.3427E+01
     -0.775  0.5791E+00  0.3472E+01
     -0.699  0.1337E+00  0.3482E+01
     -0.622  0.2741E-01  0.3484E+01
     -0.546  0.4917E+00  0.3522E+01
     -0.469  0.1086E+01  0.3605E+01
     -0.393  0.4167E+00  0.3636E+01
     -0.317  0.2558E+00  0.3656E+01
     -0.240  0.2726E+00  0.3677E+01
     -0.164  0.1631E-01  0.3678E+01
     -0.088  0.3640E-02  0.3678E+01
     -0.011  0.2209E+00  0.3695E+01
      0.065  0.4078E+00  0.3726E+01
      0.142  0.4168E+00  0.3758E+01
      0.218  0.2048E+00  0.3774E+01
      0.294  0.2981E-02  0.3774E+01
      0.371  0.3622E-01  0.3777E+01
      0.447  0.7016E+00  0.3830E+01
      0.524  0.1289E+01  0.3929E+01
      0.600  0.1105E+01  0.4013E+01
      0.676  0.9564E+00  0.4086E+01
      0.753  0.1960E+01  0.4236E+01
      0.829  0.1918E+01  0.4382E+01
      0.905  0.6834E+00  0.4435E+01
      0.982  0.1058E+01  0.4515E+01
      1.058  0.8403E+00  0.4580E+01
      1.135  0.1482E+01  0.4693E+01
      1.211  0.1679E+01  0.4821E+01
      1.287  0.1296E+01  0.4920E+01
      1.364  0.1487E+01  0.5034E+01
      1.440  0.1473E+01  0.5146E+01
      1.516  0.2813E+01  0.5361E+01
      1.593  0.2120E+01  0.5523E+01
      1.669  0.1393E+01  0.5629E+01
      1.746  0.1809E+01  0.5767E+01
      1.822  0.1754E+01  0.5901E+01
      1.898  0.1934E+01  0.6049E+01
      1.975  0.1220E+01  0.6142E+01
      2.051  0.1442E+01  0.6252E+01
      2.127  0.1402E+01  0.6360E+01
      2.204  0.2256E+01  0.6532E+01
      2.280  0.1704E+01  0.6662E+01
      2.357  0.1782E+01  0.6798E+01
      2.433  0.2514E+01  0.6990E+01
      2.509  0.1378E+01  0.7095E+01
      2.586  0.9535E+00  0.7168E+01
      2.662  0.1109E+01  0.7253E+01
      2.739  0.2655E+01  0.7456E+01
      2.815  0.1216E+01  0.7549E+01
      2.891  0.1920E+00  0.7563E+01
      2.968  0.8444E+00  0.7628E+01
      3.044  0.1846E+01  0.7769E+01
      3.120  0.7762E+00  0.7828E+01
      3.197  0.8440E-01  0.7835E+01
      3.273  0.3924E+00  0.7864E+01
      3.350  0.8297E+00  0.7928E+01
      3.426  0.1324E+00  0.7938E+01
      3.502  0.1106E+00  0.7946E+01
      3.579  0.5123E+00  0.7986E+01
      3.655  0.1374E+00  0.7996E+01
      3.731  0.4886E-01  0.8000E+01
      3.808  0.3011E-02  0.8000E+01
      3.884  0.3332E-05  0.8000E+01
      3.961  0.4416E-10  0.8000E+01
      4.037  0.2326E-16  0.8000E+01
      4.113  0.8826E-10  0.8000E+01
      4.190  0.3613E-05  0.8000E+01
      4.266  0.1827E-02  0.8000E+01
      4.343  0.1789E-01  0.8002E+01
      4.419  0.6411E-02  0.8002E+01
      4.495  0.5829E-04  0.8002E+01
      4.572  0.7333E-08  0.8002E+01
      4.648  0.1020E-13  0.8002E+01
      4.724  0.0000E+00  0.8002E+01
      4.801  0.0000E+00  0.8002E+01
      4.877  0.4229E-12  0.8002E+01
      4.954  0.1878E-06  0.8002E+01
      5.030  0.9390E-03  0.8002E+01
      5.106  0.7140E-01  0.8008E+01
      5.183  0.2200E+00  0.8024E+01
      5.259  0.1938E+00  0.8039E+01
      5.335  0.6321E-01  0.8044E+01
      5.412  0.1623E+00  0.8056E+01
      5.488  0.2773E+00  0.8078E+01
      5.565  0.2295E+00  0.8095E+01
      5.641  0.1357E+00  0.8105E+01
      5.717  0.4798E+00  0.8142E+01
      5.794  0.1212E+01  0.8235E+01
      5.870  0.9931E+00  0.8311E+01
      5.946  0.1256E+01  0.8406E+01
      6.023  0.2062E+01  0.8564E+01
      6.099  0.1048E+01  0.8644E+01
      6.176  0.4983E+00  0.8682E+01
      6.252  0.9086E+00  0.8751E+01
      6.328  0.7752E+00  0.8811E+01
      6.405  0.1602E+01  0.8933E+01
      6.481  0.2817E+01  0.9148E+01
      6.558  0.3545E+01  0.9419E+01
      6.634  0.2100E+01  0.9579E+01
      6.710  0.1881E+01  0.9723E+01
      6.787  0.2261E+01  0.9896E+01
      6.863  0.6569E+00  0.9946E+01
      6.939  0.8100E+00  0.1001E+02
      7.016  0.1657E+01  0.1013E+02
      7.092  0.6036E+00  0.1018E+02
      7.169  0.1220E+00  0.1019E+02
      7.245  0.4503E+00  0.1022E+02
      7.321  0.5051E+00  0.1026E+02
      7.398  0.4076E+00  0.1029E+02
      7.474  0.6101E+00  0.1034E+02
      7.550  0.2041E+01  0.1050E+02
      7.627  0.1782E+01  0.1063E+02
      7.703  0.1551E+01  0.1075E+02
      7.780  0.1595E+01  0.1087E+02
      7.856  0.1055E+01  0.1095E+02
      7.932  0.6529E+00  0.1100E+02
      8.009  0.1504E+01  0.1112E+02
      8.085  0.1094E+01  0.1120E+02
      8.162  0.2506E+01  0.1139E+02
      8.238  0.2782E+01  0.1161E+02
      8.314  0.1849E+01  0.1175E+02
      8.391  0.1118E+01  0.1183E+02
      8.467  0.1438E+01  0.1194E+02
      8.543  0.2364E+01  0.1212E+02
      8.620  0.1428E+01  0.1223E+02
      8.696  0.1007E+01  0.1231E+02
      8.773  0.1456E+01  0.1242E+02
      8.849  0.1535E+01  0.1254E+02
      8.925  0.1609E+01  0.1266E+02
      9.002  0.1568E+01  0.1278E+02
      9.078  0.1482E+01  0.1289E+02
      9.154  0.1571E+01  0.1301E+02
      9.231  0.2643E+01  0.1321E+02
      9.307  0.1968E+01  0.1336E+02
      9.384  0.1836E+01  0.1351E+02
      9.460  0.1551E+01  0.1362E+02
      9.536  0.1553E+01  0.1374E+02
      9.613  0.8203E+00  0.1380E+02
      9.689  0.1687E+01  0.1393E+02
      9.765  0.7637E+00  0.1399E+02
      9.842  0.9247E+00  0.1406E+02
      9.918  0.1236E+01  0.1416E+02
      9.995  0.1489E+01  0.1427E+02
     10.071  0.3492E+00  0.1430E+02
     10.147  0.1140E+01  0.1438E+02
     10.224  0.9205E+00  0.1445E+02
     10.300  0.9876E+00  0.1453E+02
     10.377  0.5699E+00  0.1457E+02
     10.453  0.1106E+01  0.1466E+02
     10.529  0.1922E+01  0.1481E+02
     10.606  0.1568E+01  0.1493E+02
     10.682  0.9958E+00  0.1500E+02
     10.758  0.1548E+01  0.1512E+02
     10.835  0.9758E+00  0.1519E+02
     10.911  0.2295E+00  0.1521E+02
     10.988  0.2763E+01  0.1542E+02
     11.064  0.1429E+01  0.1553E+02
     11.140  0.3682E+00  0.1556E+02
     11.217  0.2601E+00  0.1558E+02
     11.293  0.5943E-02  0.1558E+02
     11.369  0.6364E-01  0.1558E+02
     11.446  0.1033E+01  0.1566E+02
     11.522  0.1051E+01  0.1574E+02
     11.599  0.2056E+00  0.1576E+02
     11.675  0.1734E+00  0.1577E+02
     11.751  0.3104E+00  0.1580E+02
     11.828  0.6581E+00  0.1585E+02
     11.904  0.2696E+00  0.1587E+02
     11.981  0.1083E-01  0.1587E+02
     12.057  0.9645E-01  0.1588E+02
     12.133  0.2036E+00  0.1589E+02
     12.210  0.5545E+00  0.1593E+02
     12.286  0.3143E+00  0.1596E+02
     12.362  0.3753E+00  0.1599E+02
     12.439  0.2124E-01  0.1599E+02
     12.515  0.2097E-04  0.1599E+02
     12.592  0.1526E-06  0.1599E+02
     12.668  0.5494E-03  0.1599E+02
     12.744  0.2955E-01  0.1599E+02
     12.821  0.4600E-01  0.1599E+02
     12.897  0.2450E-02  0.1599E+02
     12.973  0.2264E-05  0.1599E+02
     13.050  0.1265E-03  0.1599E+02
     13.126  0.1685E-01  0.1600E+02
     13.203  0.5494E-01  0.1600E+02
     13.279  0.6630E-02  0.1600E+02
     13.355  0.1601E-04  0.1600E+02
     13.432  0.4832E-09  0.1600E+02
     13.508  0.1570E-15  0.1600E+02
     13.584  0.0000E+00  0.1600E+02
     13.661  0.0000E+00  0.1600E+02
     13.737  0.0000E+00  0.1600E+02
     13.814  0.0000E+00  0.1600E+02
     13.890  0.0000E+00  0.1600E+02
     13.966  0.0000E+00  0.1600E+02
     14.043  0.0000E+00  0.1600E+02
     14.119  0.0000E+00  0.1600E+02
     14.196  0.0000E+00  0.1600E+02
