    1    1    1    1
  0.1077288E+02  0.2479033E-09  0.2479033E-09  0.2479032E-09  0.5000000E-15
   1.0000000000000000E-004
  CAR 
 FCC Cu EOS scale=0.980                  
     11    145      9
 
  0.1262379E-14  0.1262379E-14  0.1262379E-14  0.2441406E-03
      1         -1.292008   1.000000
      2          5.458888   1.000000
      3          5.458891   1.000000
      4          5.458892   1.000000
      5          6.413005   1.000000
      6          6.413007   1.000000
      7         32.107654   0.000000
      8         35.481331   0.000000
      9         35.481348   0.000000
 
  0.6250000E-01  0.1263163E-14  0.1262379E-14  0.1953125E-02
      1         -1.139907   1.000000
      2          5.423534   1.000000
      3          5.489698   1.000000
      4          5.489699   1.000000
      5          6.400563   1.000000
      6          6.400565   1.000000
      7         31.395984   0.000000
      8         33.744756   0.000000
      9         35.036396   0.000000
 
  0.1250000E+00  0.1265532E-14  0.1262379E-14  0.1953125E-02
      1         -0.690782   1.000000
      2          5.329953   1.000000
      3          5.565938   1.000000
      4          5.565940   1.000000
      5          6.378372   1.000000
      6          6.378374   1.000000
      7         28.612724   0.000000
      8         32.963314   0.000000
      9         34.271640   0.000000
 
  0.1875000E+00  0.1261087E-14  0.1262379E-14  0.1953125E-02
      1          0.029788   1.000000
      2          5.217102   1.000000
      3          5.635796   1.000000
      4          5.635799   1.000000
      5          6.394968   1.000000
      6          6.394971   1.000000
      7         25.280756   0.000000
      8         32.587701   0.000000
      9         33.583658   0.000000
 
  0.2500000E+00  0.1256475E-14  0.1262379E-14  0.1953125E-02
      1          0.960546   1.000000
      2          5.158495   1.000000
      3          5.638069   1.000000
      4          5.638073   1.000000
      5          6.503786   1.000000
      6          6.503790   1.000000
      7         22.026626   0.000000
      8         32.093757   0.000000
      9         33.049233   0.000000
 
  0.3125000E+00  0.1238152E-14  0.1262379E-14  0.1953125E-02
      1          1.954067   1.000000
      2          5.298080   1.000000
      3          5.577114   1.000000
      4          5.577118   1.000000
      5          6.686355   1.000000
      6          6.686360   1.000000
      7         18.976889   0.000000
      8         31.526717   0.000000
      9         32.676319   0.000000
 
  0.3750000E+00  0.1233539E-14  0.1262379E-14  0.1953125E-02
      1          2.720185   1.000000
      2          5.499985   1.000000
      3          5.499988   1.000000
      4          5.877086   1.000000
      5          6.875439   1.000000
      6          6.875443   1.000000
      7         16.232998   0.000000
      8         31.019404   0.000000
      9         32.452844   0.000000
 
  0.4375000E+00  0.1215049E-14  0.1262379E-14  0.1953125E-02
      1          3.075975   1.000000
      2          5.441656   1.000000
      3          5.441660   1.000000
      4          6.883684   1.000000
      5          7.013280   1.000000
      6          7.013284   1.000000
      7         14.020206  -0.000000
      8         30.676457   0.000000
      9         32.350379   0.000000
 
  0.5000000E+00  0.1210604E-14  0.1262379E-14  0.9765625E-03
      1          3.162331   1.000000
      2          5.420339   1.000000
      3          5.420343   1.000000
      4          7.063401   1.000000
      5          7.063405   1.000000
      6          7.503293   1.000000
      7         13.028923  -0.000000
      8         30.556089   0.000000
      9         32.324863   0.000000
 
  0.6250000E-01  0.6250000E-01  0.1262379E-14  0.1464844E-02
      1         -1.089349   1.000000
      2          5.393579   1.000000
      3          5.510291   1.000000
      4          5.510292   1.000000
      5          6.354008   1.000000
      6          6.436487   1.000000
      7         31.558662   0.000000
      8         33.795680   0.000000
      9         33.795718   0.000000
 
  0.1250000E+00  0.6250000E-01  0.1262379E-14  0.5859375E-02
      1         -0.739542   1.000000
      2          5.307886   1.000000
      3          5.579143   1.000000
      4          5.582687   1.000000
      5          6.292437   1.000000
      6          6.453646   1.000000
      7         29.749564   0.000000
      8         32.371678   0.000000
      9         32.698474   0.000000
 
  0.1875000E+00  0.6250000E-01  0.1262379E-14  0.5859375E-02
      1         -0.109116   1.000000
      2          5.193388   1.000000
      3          5.654409   1.000000
      4          5.663275   1.000000
      5          6.264589   1.000000
      6          6.486408   1.000000
      7         26.494675   0.000000
      8         31.810908   0.000000
      9         31.812441   0.000000
 
  0.2500000E+00  0.6250000E-01  0.1262379E-14  0.5859375E-02
      1          0.755680   1.000000
      2          5.099802   1.000000
      3          5.655228   1.000000
      4          5.693142   1.000000
      5          6.361176   1.000000
      6          6.581940   1.000000
      7         23.195628   0.000000
      8         31.151225   0.000000
      9         31.331954   0.000000
 
  0.3125000E+00  0.6250000E-01  0.1262379E-14  0.5859375E-02
      1          1.744509   1.000000
      2          5.127030   1.000000
      3          5.574330   1.000000
      4          5.654985   1.000000
      5          6.596469   1.000000
      6          6.741469   1.000000
      7         20.065813   0.000000
      8         30.732494   0.000000
      9         30.856909   0.000000
 
  0.3750000E+00  0.6250000E-01  0.1262379E-14  0.5859375E-02
      1          2.611297   1.000000
      2          5.433140   1.000000
      3          5.492825   1.000000
      4          5.583027   1.000000
      5          6.910994   1.000000
      6          6.934925   1.000000
      7         17.197665   0.000000
      8         30.405140   0.000000
      9         30.573391   0.000000
 
  0.4375000E+00  0.6250000E-01  0.1262379E-14  0.5859375E-02
      1          3.087102   1.000000
      2          5.395481   1.000000
      3          5.514974   1.000000
      4          6.074145   1.000000
      5          7.032283   1.000000
      6          7.463460   1.000000
      7         14.744635   0.000000
      8         29.981331   0.000000
      9         30.698627   0.000000
 
  0.5000000E+00  0.6250000E-01  0.1262379E-14  0.5859375E-02
      1          3.237942   1.000000
      2          5.362182   1.000000
      3          5.475258   1.000000
      4          6.463802   1.000000
      5          7.066747   1.000000
      6          8.137248   1.000039
      7         13.187515  -0.000000
      8         29.571078   0.000000
      9         31.144269   0.000000
 
 -0.4375000E+00  0.6250000E-01  0.1262379E-14  0.5859375E-02
      1          3.212222   1.000000
      2          5.377181   1.000000
      3          5.476020   1.000000
      4          6.418499   1.000000
      5          7.000404   1.000000
      6          7.975155   1.000000
      7         13.547365  -0.000000
      8         29.222932   0.000000
      9         31.471113   0.000000
 
 -0.3750000E+00  0.6250000E-01  0.1262379E-14  0.5859375E-02
      1          2.976423   1.000000
      2          5.435763   1.000000
      3          5.518644   1.000000
      4          5.898777   1.000000
      5          6.844167   1.000000
      6          7.368058   1.000000
      7         15.501260   0.000000
      8         29.035190   0.000000
      9         31.784564   0.000000
 
 -0.3125000E+00  0.6250000E-01  0.1262379E-14  0.5859375E-02
      1          2.358957   1.000000
      2          5.319068   1.000000
      3          5.521996   1.000000
      4          5.592831   1.000000
      5          6.631602   1.000000
      6          7.011102   1.000000
      7         18.120590   0.000000
      8         29.059434   0.000000
      9         32.436834   0.000000
 
 -0.2500000E+00  0.6250000E-01  0.1262379E-14  0.5859375E-02
      1          1.413875   1.000000
      2          5.109636   1.000000
      3          5.607280   1.000000
      4          5.670690   1.000000
      5          6.416999   1.000000
      6          6.757874   1.000000
      7         21.086893   0.000000
      8         29.300951   0.000000
      9         33.253616   0.000000
 
 -0.1875000E+00  0.6250000E-01  0.1262379E-14  0.5859375E-02
      1          0.446461   1.000000
      2          5.137926   1.000000
      3          5.651228   1.000000
      4          5.694139   1.000000
      5          6.281051   1.000000
      6          6.569232   1.000000
      7         24.282303   0.000000
      8         29.749859   0.000000
      9         34.009601   0.000000
 
 -0.1250000E+00  0.6250000E-01  0.1262379E-14  0.5859375E-02
      1         -0.348475   1.000000
      2          5.248173   1.000000
      3          5.623575   1.000000
      4          5.624940   1.000000
      5          6.276824   1.000000
      6          6.466453   1.000000
      7         27.593773   0.000000
      8         30.421862   0.000000
      9         34.366893   0.000000
 
 -0.6250000E-01  0.6250000E-01  0.1262379E-14  0.2929688E-02
      1         -0.888792   1.000000
      2          5.358878   1.000000
      3          5.534237   1.000000
      4          5.549531   1.000000
      5          6.339445   1.000000
      6          6.427878   1.000000
      7         30.371418   0.000000
      8         31.791384   0.000000
      9         34.318765   0.000000
 
  0.1250000E+00  0.1250000E+00  0.1262379E-14  0.1464844E-02
      1         -0.492890   1.000000
      2          5.209480   1.000000
      3          5.661676   1.000000
      4          5.661678   1.000000
      5          6.192999   1.000000
      6          6.503681   1.000000
      7         30.498895   0.000000
      8         31.366448   0.000000
      9         31.366454   0.000000
 
  0.1875000E+00  0.1250000E+00  0.1262379E-14  0.5859375E-02
      1          0.035690   1.000000
      2          5.083199   1.000000
      3          5.746810   1.000000
      4          5.763845   1.000000
      5          6.131755   1.000000
      6          6.552058   1.000000
      7         27.887013   0.000000
      8         30.290259   0.000000
      9         30.911865   0.000000
 
  0.2500000E+00  0.1250000E+00  0.1262379E-14  0.5859375E-02
      1          0.809947   1.000000
      2          4.961545   1.000000
      3          5.698485   1.000000
      4          5.828857   1.000000
      5          6.269538   1.000000
      6          6.641238   1.000000
      7         24.576814   0.000000
      8         29.480918   0.000000
      9         30.417228   0.000000
 
  0.3125000E+00  0.1250000E+00  0.1262379E-14  0.5859375E-02
      1          1.745769   1.000000
      2          4.901132   1.000000
      3          5.556757   1.000000
      4          5.820903   1.000000
      5          6.603428   1.000000
      6          6.786446   1.000000
      7         21.381665   0.000000
      8         28.953078   0.000000
      9         29.807117   0.000000
 
  0.3750000E+00  0.1250000E+00  0.1262379E-14  0.5859375E-02
      1          2.650221   1.000000
      2          4.997573   1.000000
      3          5.426822   1.000000
      4          5.761749   1.000000
      5          6.943600   1.000000
      6          7.107107   1.000000
      7         18.404226   0.000000
      8         28.726987   0.000000
      9         29.012656   0.000000
 
  0.4375000E+00  0.1250000E+00  0.1262379E-14  0.5859375E-02
      1          3.230382   1.000000
      2          5.187699   1.000000
      3          5.492308   1.000000
      4          5.690099   1.000000
      5          7.053749   1.000000
      6          7.873434   1.000000
      7         15.748367   0.000000
      8         28.069816   0.000000
      9         28.825990   0.000000
 
  0.5000000E+00  0.1250000E+00  0.1262379E-14  0.5859375E-02
      1          3.447676   1.000000
      2          5.182595   1.000000
      3          5.634893   1.000000
      4          5.820596   1.000000
      5          7.076421   1.000000
      6          8.873807   0.113373
      7         13.701066  -0.000000
      8         27.178360   0.000000
      9         29.269619   0.000000
 
 -0.4375000E+00  0.1250000E+00  0.1262379E-14  0.5859375E-02
      1          3.476397   1.000000
      2          5.197591   1.000000
      3          5.613594   1.000000
      4          5.914061   1.000000
      5          6.996675   1.000000
      6          9.152980  -0.010054
      7         13.309903  -0.000000
      8         26.482107   0.000000
      9         30.065575   0.000000
 
 -0.3750000E+00  0.1250000E+00  0.1262379E-14  0.5859375E-02
      1          3.348733   1.000000
      2          5.266577   1.000000
      3          5.634165   1.000000
      4          5.654941   1.000000
      5          6.824569   1.000000
      6          8.331063   1.004240
      7         14.986084   0.000000
      8         26.042262   0.000000
      9         31.206109   0.000000
 
 -0.3125000E+00  0.1250000E+00  0.1262379E-14  0.5859375E-02
      1          2.911348   1.000000
      2          5.217597   1.000000
      3          5.379933   1.000000
      4          5.695042   1.000000
      5          6.590261   1.000000
      6          7.614009   1.000000
      7         17.494161   0.000000
      8         25.876846   0.000000
      9         32.233422   0.000000
 
 -0.2500000E+00  0.1250000E+00  0.1262379E-14  0.5859375E-02
      1          2.078299   1.000000
      2          5.000245   1.000000
      3          5.506056   1.000000
      4          5.781640   1.000000
      5          6.339554   1.000000
      6          7.160525   1.000000
      7         20.377689   0.000000
      8         25.982708   0.000000
      9         33.356262   0.000000
 
 -0.1875000E+00  0.1250000E+00  0.1262379E-14  0.5859375E-02
      1          1.114816   1.000000
      2          5.013671   1.000000
      3          5.611879   1.000000
      4          5.836445   1.000000
      5          6.156332   1.000000
      6          6.836631   1.000000
      7         23.495699   0.000000
      8         26.359029   0.000000
      9         34.727134   0.000000
 
 -0.1250000E+00  0.1250000E+00  0.1262379E-14  0.2929688E-02
      1          0.268887   1.000000
      2          5.123568   1.000000
      3          5.656149   1.000000
      4          5.745858   1.000000
      5          6.171442   1.000000
      6          6.606323   1.000000
      7         26.458809   0.000000
      8         27.313379   0.000000
      9         35.375306   0.000000
 
  0.1875000E+00  0.1875000E+00  0.1262379E-14  0.1464844E-02
      1          0.453743   1.000000
      2          4.939184   1.000000
      3          5.903632   1.000000
      4          5.903634   1.000000
      5          5.987820   1.000000
      6          6.604863   1.000000
      7         29.036588   0.000000
      8         29.036594   0.000000
      9         29.484216   0.000000
 
  0.2500000E+00  0.1875000E+00  0.1262379E-14  0.5859375E-02
      1          1.113225   1.000000
      2          4.794388   1.000000
      3          5.787943   1.000000
      4          6.020773   1.000000
      5          6.194794   1.000000
      6          6.681763   1.000000
      7         26.090963   0.000000
      8         28.067137   0.000000
      9         29.429123   0.000000
 
  0.3125000E+00  0.1875000E+00  0.1262379E-14  0.5859375E-02
      1          1.943671   1.000000
      2          4.684404   1.000000
      3          5.600664   1.000000
      4          6.056579   1.000000
      5          6.607074   1.000000
      6          6.814196   1.000000
      7         22.892147   0.000000
      8         27.403121   0.000000
      9         28.317266   0.000000
 
  0.3750000E+00  0.1875000E+00  0.1262379E-14  0.5859375E-02
      1          2.796741   1.000000
      2          4.658268   1.000000
      3          5.436880   1.000000
      4          6.018864   1.000000
      5          6.966691   1.000000
      6          7.229854   1.000000
      7         19.844286   0.000000
      8         26.981443   0.000000
      9         27.068840   0.000000
 
  0.4375000E+00  0.1875000E+00  0.1262379E-14  0.5859375E-02
      1          3.427680   1.000000
      2          4.752440   1.000000
      3          5.363256   1.000000
      4          5.950074   1.000000
      5          7.073793   1.000000
      6          8.168133   1.000095
      7         17.041753   0.000000
      8         25.697299   0.000000
      9         27.087524   0.000000
 
  0.5000000E+00  0.1875000E+00  0.1262379E-14  0.5859375E-02
      1          3.718158   1.000000
      2          4.853282   1.000000
      3          5.451790   1.000000
      4          5.883171   1.000000
      5          7.091287   1.000000
      6          9.443197  -0.000010
      7         14.636062   0.000000
      8         24.594288   0.000000
      9         27.473861   0.000000
 
 -0.4375000E+00  0.1875000E+00  0.1262379E-14  0.5859375E-02
      1          3.808482   1.000000
      2          4.907882   1.000000
      3          5.536614   1.000000
      4          5.839223   1.000000
      5          7.004108   1.000000
      6         10.389304  -0.000000
      7         13.358616  -0.000000
      8         23.732220   0.000000
      9         28.226705   0.000000
 
 -0.3750000E+00  0.1875000E+00  0.1262379E-14  0.5859375E-02
      1          3.776062   1.000000
      2          4.999482   1.000000
      3          5.408775   1.000000
      4          5.830733   1.000000
      5          6.823281   1.000000
      6          9.573924  -0.000000
      7         14.663687   0.000000
      8         23.144357   0.000000
      9         29.326277   0.000000
 
 -0.3125000E+00  0.1875000E+00  0.1262379E-14  0.5859375E-02
      1          3.523150   1.000000
      2          5.079026   1.000000
      3          5.165623   1.000000
      4          5.862628   1.000000
      5          6.578336   1.000000
      6          8.483537   1.031003
      7         17.082178   0.000000
      8         22.848875   0.000000
      9         30.736936   0.000000
 
 -0.2500000E+00  0.1875000E+00  0.1262379E-14  0.5859375E-02
      1          2.869820   1.000000
      2          4.896023   1.000000
      3          5.328289   1.000000
      4          5.933229   1.000000
      5          6.307671   1.000000
      6          7.729518   1.000000
      7         19.872092   0.000000
      8         22.860050   0.000000
      9         32.413487   0.000000
 
 -0.1875000E+00  0.1875000E+00  0.1262379E-14  0.2929688E-02
      1          1.971745   1.000000
      2          4.906831   1.000000
      3          5.494624   1.000000
      4          6.030605   1.000000
      5          6.053913   1.000000
      6          7.214462   1.000000
      7         22.601688   0.000000
      8         23.463046   0.000000
      9         33.815846   0.000000
 
  0.2500000E+00  0.2500000E+00  0.1262379E-14  0.1464844E-02
      1          1.630874   1.000000
      2          4.627912   1.000000
      3          5.879745   1.000000
      4          6.216347   1.000000
      5          6.216350   1.000000
      6          6.725333   1.000000
      7         26.937792   0.000000
      8         26.937799   0.000000
      9         27.982359   0.000000
 
  0.3125000E+00  0.2500000E+00  0.1262379E-14  0.5859375E-02
      1          2.291425   1.000000
      2          4.489072   1.000000
      3          5.807950   1.000000
      4          6.327656   1.000000
      5          6.572554   1.000000
      6          6.825172   1.000000
      7         24.449700   0.000000
      8         26.123791   0.000000
      9         26.414546   0.000000
 
  0.3750000E+00  0.2500000E+00  0.1262379E-14  0.5859375E-02
      1          2.971835   1.000000
      2          4.408001   1.000000
      3          5.672628   1.000000
      4          6.325080   1.000000
      5          6.975125   1.000000
      6          7.270261   1.000000
      7         21.465334   0.000000
      8         24.821204   0.000000
      9         25.657453   0.000000
 
  0.4375000E+00  0.2500000E+00  0.1262379E-14  0.5859375E-02
      1          3.520138   1.000000
      2          4.409684   1.000000
      3          5.551978   1.000000
      4          6.265877   1.000000
      5          7.088751   1.000000
      6          8.349207   1.005872
      7         18.601379   0.000000
      8         23.381821   0.000000
      9         25.566846   0.000000
 
  0.5000000E+00  0.2500000E+00  0.1262379E-14  0.5859375E-02
      1          3.859886   1.000000
      2          4.481259   1.000000
      3          5.476036   1.000000
      4          6.192139   1.000000
      5          7.109886   1.000000
      6          9.812942  -0.000000
      7         15.993810   0.000000
      8         22.161819   0.000000
      9         25.866827   0.000000
 
 -0.4375000E+00  0.2500000E+00  0.1262379E-14  0.5859375E-02
      1          4.051827   1.000000
      2          4.568385   1.000000
      3          5.413499   1.000000
      4          6.126267   1.000000
      5          7.023935   1.000000
      6         11.404562  -0.000000
      7         13.933406  -0.000000
      8         21.193609   0.000000
      9         26.551643   0.000000
 
 -0.3750000E+00  0.2500000E+00  0.1262379E-14  0.5859375E-02
      1          4.140059   1.000000
      2          4.685253   1.000000
      3          5.272660   1.000000
      4          6.080380   1.000000
      5          6.847083   1.000000
      6         11.070791  -0.000000
      7         14.479770   0.000000
      8         20.507027   0.000000
      9         27.594215   0.000000
 
 -0.3125000E+00  0.2500000E+00  0.1262379E-14  0.5859375E-02
      1          4.054979   1.000000
      2          4.870189   1.000000
      3          5.030169   1.000000
      4          6.056161   1.000000
      5          6.618304   1.000000
      6          9.643799  -0.000000
      7         16.790194   0.000000
      8         20.149606   0.000000
      9         28.952091   0.000000
 
 -0.2500000E+00  0.2500000E+00  0.1262379E-14  0.2929688E-02
      1          3.616978   1.000000
      2          4.870719   1.000000
      3          5.103848   1.000000
      4          6.031044   1.000000
      5          6.402604   1.000000
      6          8.523501   1.035455
      7         19.103530   0.000000
      8         20.466545   0.000000
      9         30.575359   0.000000
 
  0.3125000E+00  0.3125000E+00  0.1262379E-14  0.1464844E-02
      1          2.710079   1.000000
      2          4.324837   1.000000
      3          6.213837   1.000000
      4          6.564834   1.000000
      5          6.564837   1.000000
      6          6.847135   1.000000
      7         24.454405   0.000000
      8         25.156443   0.000000
      9         25.156450   0.000000
 
  0.3750000E+00  0.3125000E+00  0.1262379E-14  0.5859375E-02
      1          3.114325   1.000000
      2          4.213446   1.000000
      3          6.252885   1.000000
      4          6.638122   1.000000
      5          6.965940   1.000000
      6          7.235265   1.000000
      7         22.661121   0.000000
      8         23.221358   0.000000
      9         24.543785   0.000000
 
  0.4375000E+00  0.3125000E+00  0.1262379E-14  0.5859375E-02
      1          3.456281   1.000000
      2          4.175202   1.000000
      3          6.087905   1.000000
      4          6.594881   1.000000
      5          7.095867   1.000000
      6          8.453941   1.024530
      7         20.321428   0.000000
      8         21.316054   0.000000
      9         24.322940   0.000000
 
  0.5000000E+00  0.3125000E+00  0.1262379E-14  0.5859375E-02
      1          3.736265   1.000000
      2          4.213436   1.000000
      3          5.886048   1.000000
      4          6.520237   1.000000
      5          7.131155   1.000000
      6         10.028751  -0.000000
      7         17.687972   0.000000
      8         20.017210   0.000000
      9         24.514257   0.000000
 
 -0.4375000E+00  0.3125000E+00  0.1262379E-14  0.5859375E-02
      1          3.983209   1.000000
      2          4.304298   1.000000
      3          5.657129   1.000000
      4          6.434915   1.000000
      5          7.057289   1.000000
      6         11.868870  -0.000000
      7         15.279839   0.000000
      8         19.019697   0.000000
      9         25.111920   0.000000
 
 -0.3750000E+00  0.3125000E+00  0.1262379E-14  0.5859375E-02
      1          4.213726   1.000000
      2          4.417494   1.000000
      3          5.394981   1.000000
      4          6.341084   1.000000
      5          6.903855   1.000000
      6         12.810311  -0.000000
      7         14.251236   0.000000
      8         18.378836   0.000000
      9         26.084194   0.000000
 
 -0.3125000E+00  0.3125000E+00  0.1262379E-14  0.2929688E-02
      1          4.305726   1.000000
      2          4.603132   1.000000
      3          5.132190   1.000000
      4          6.222583   1.000000
      5          6.733595   1.000000
      6         11.124802  -0.000000
      7         16.010001   0.000000
      8         18.443056   0.000000
      9         27.382491   0.000000
 
  0.3750000E+00  0.3750000E+00  0.1262379E-14  0.1464844E-02
      1          3.233306   1.000000
      2          4.073893   1.000000
      3          6.894457   1.000000
      4          6.894460   1.000000
      5          6.951412   1.000000
      6          7.422814   1.000000
      7         20.961608   0.000000
      8         23.780306   0.000000
      9         23.780313   0.000000
 
  0.4375000E+00  0.3750000E+00  0.1262379E-14  0.5859375E-02
      1          3.364670   1.000000
      2          4.006734   1.000000
      3          6.768452   1.000000
      4          6.880525   1.000000
      5          7.096799   1.000000
      6          8.614038   0.981367
      7         19.432289   0.000000
      8         22.121219   0.000000
      9         23.415295   0.000000
 
  0.5000000E+00  0.3750000E+00  0.1262379E-14  0.5859375E-02
      1          3.530586   1.000000
      2          4.022333   1.000000
      3          6.480779   1.000000
      4          6.810758   1.000000
      5          7.156973   1.000000
      6         10.145472  -0.000000
      7         18.186055   0.000000
      8         19.688805   0.000000
      9         23.478775   0.000000
 
 -0.4375000E+00  0.3750000E+00  0.1262379E-14  0.5859375E-02
      1          3.739203   1.000000
      2          4.114285   1.000000
      3          6.126771   1.000000
      4          6.711305   1.000000
      5          7.106528   1.000000
      6         11.827963  -0.000000
      7         16.954212   0.000000
      8         17.653223   0.000000
      9         23.970007   0.000000
 
 -0.3750000E+00  0.3750000E+00  0.1262379E-14  0.2929688E-02
      1          3.987090   1.000000
      2          4.255618   1.000000
      3          5.739287   1.000000
      4          6.560760   1.000000
      5          6.999057   1.000000
      6         13.351439  -0.000000
      7         14.876497   0.000000
      8         17.336033   0.000000
      9         24.856239   0.000000
 
  0.4375000E+00  0.4375000E+00  0.1262379E-14  0.1464844E-02
      1          3.331855   1.000000
      2          3.909211   1.000000
      3          7.021686   1.000000
      4          7.136280   1.000000
      5          7.136283   1.000000
      6          9.176199  -0.006942
      7         17.987867   0.000000
      8         22.901569   0.000000
      9         22.901577   0.000000
 
  0.5000000E+00  0.4375000E+00  0.1262379E-14  0.5859375E-02
      1          3.383799   1.000000
      2          3.896316   1.000000
      3          6.995092   1.000000
      4          7.008688   1.000000
      5          7.196206   1.000000
      6         10.199465  -0.000000
      7         17.004076   0.000000
      8         21.577825   0.000000
      9         22.823238   0.000000
 
 -0.4375000E+00  0.4375000E+00  0.1262379E-14  0.2929688E-02
      1          3.523197   1.000000
      2          3.969624   1.000000
      3          6.620638   1.000000
      4          6.900317   1.000000
      5          7.168180   1.000000
      6         11.232397  -0.000000
      7         16.687061   0.000000
      8         19.424456   0.000000
      9         23.188969   0.000000
 
  0.5000000E+00  0.5000000E+00  0.1262379E-14  0.7324219E-03
      1          3.332684   1.000000
      2          3.852135   1.000000
      3          7.046560   1.000000
      4          7.225983   1.000000
      5          7.225986   1.000000
      6         10.213994  -0.000000
      7         16.566704   0.000000
      8         22.598132   0.000000
      9         22.598139   0.000000
 
  0.1875000E+00  0.1250000E+00  0.6250000E-01  0.5859375E-02
      1         -0.299104   1.000000
      2          5.199003   1.000000
      3          5.657092   1.000000
      4          5.670014   1.000000
      5          6.214126   1.000000
      6          6.503417   1.000000
      7         28.557192   0.000000
      8         29.528993   0.000000
      9         33.454173   0.000000
 
  0.2500000E+00  0.1250000E+00  0.6250000E-01  0.1171875E-01
      1          0.406358   1.000000
      2          5.075701   1.000000
      3          5.676960   1.000000
      4          5.771746   1.000000
      5          6.193251   1.000000
      6          6.607313   1.000000
      7         25.573772   0.000000
      8         28.389737   0.000000
      9         33.282102   0.000000
 
  0.3125000E+00  0.1250000E+00  0.6250000E-01  0.1171875E-01
      1          1.314635   1.000000
      2          4.992726   1.000000
      3          5.601764   1.000000
      4          5.788281   1.000000
      5          6.332555   1.000000
      6          6.802134   1.000000
      7         22.333509   0.000000
      8         27.843727   0.000000
      9         32.469841   0.000000
 
  0.3750000E+00  0.1250000E+00  0.6250000E-01  0.1171875E-01
      1          2.277611   1.000000
      2          5.050651   1.000000
      3          5.481108   1.000000
      4          5.728571   1.000000
      5          6.585961   1.000000
      6          7.094356   1.000000
      7         19.276995   0.000000
      8         27.547362   0.000000
      9         31.415621   0.000000
 
  0.4375000E+00  0.1250000E+00  0.6250000E-01  0.1171875E-01
      1          3.006616   1.000000
      2          5.316564   1.000000
      3          5.433832   1.000000
      4          5.656397   1.000000
      5          6.835616   1.000000
      6          7.563766   1.000000
      7         16.504848   0.000000
      8         27.496283   0.000000
      9         30.313743   0.000000
 
  0.5000000E+00  0.1250000E+00  0.6250000E-01  0.1171875E-01
      1          3.331092   1.000000
      2          5.270484   1.000000
      3          5.589214   1.000000
      4          5.871025   1.000000
      5          6.992046   1.000000
      6          8.353764   1.006351
      7         14.214197   0.000000
      8         27.671089   0.000000
      9         29.376543   0.000000
 
 -0.4375000E+00  0.1250000E+00  0.6250000E-01  0.5859375E-02
      1          3.406787   1.000000
      2          5.243290   1.000000
      3          5.570357   1.000000
      4          6.057348   1.000000
      5          7.041264   1.000000
      6          8.946641  -0.010545
      7         13.126646  -0.000000
      8         27.863283   0.000000
      9         28.919455   0.000000
 
  0.2500000E+00  0.1875000E+00  0.6250000E-01  0.5859375E-02
      1          0.635092   1.000000
      2          4.946552   1.000000
      3          5.744015   1.000000
      4          5.906591   1.000000
      5          6.130271   1.000000
      6          6.639051   1.000000
      7         26.780153   0.000000
      8         27.454244   0.000000
      9         32.005132   0.000000
 
  0.3125000E+00  0.1875000E+00  0.6250000E-01  0.1171875E-01
      1          1.448899   1.000000
      2          4.827755   1.000000
      3          5.609273   1.000000
      4          5.987979   1.000000
      5          6.310526   1.000000
      6          6.823046   1.000000
      7         23.775737   0.000000
      8         26.538572   0.000000
      9         30.671518   0.000000
 
  0.3750000E+00  0.1875000E+00  0.6250000E-01  0.1171875E-01
      1          2.363676   1.000000
      2          4.782540   1.000000
      3          5.442812   1.000000
      4          5.957603   1.000000
      5          6.615639   1.000000
      6          7.150325   1.000000
      7         20.659079   0.000000
      8         26.140448   0.000000
      9         29.208555   0.000000
 
  0.4375000E+00  0.1875000E+00  0.6250000E-01  0.1171875E-01
      1          3.144618   1.000000
      2          4.883798   1.000000
      3          5.321159   1.000000
      4          5.888113   1.000000
      5          6.878416   1.000000
      6          7.752321   1.000000
      7         17.765247   0.000000
      8         26.007050   0.000000
      9         27.861656   0.000000
 
  0.5000000E+00  0.1875000E+00  0.6250000E-01  0.1171875E-01
      1          3.555561   1.000000
      2          5.005474   1.000000
      3          5.411110   1.000000
      4          5.819070   1.000000
      5          7.014651   1.000000
      6          8.752942   0.561898
      7         15.217624   0.000000
      8         25.998848   0.000000
      9         26.879978   0.000000
 
 -0.4375000E+00  0.1875000E+00  0.6250000E-01  0.1171875E-01
      1          3.684243   1.000000
      2          5.007213   1.000000
      3          5.614623   1.000000
      4          5.767998   1.000000
      5          7.033107   1.000000
      6          9.840933  -0.000000
      7         13.442001  -0.000000
      8         25.467126   0.000000
      9         26.967765   0.000000
 
 -0.3750000E+00  0.1875000E+00  0.6250000E-01  0.1171875E-01
      1          3.673156   1.000000
      2          5.041853   1.000000
      3          5.575139   1.000000
      4          5.764055   1.000000
      5          6.950930   1.000000
      6          9.573442  -0.000000
      7         13.889117  -0.000000
      8         24.847285   0.000000
      9         27.708893   0.000000
 
 -0.3125000E+00  0.1875000E+00  0.6250000E-01  0.1171875E-01
      1          3.488988   1.000000
      2          5.113958   1.000000
      3          5.293915   1.000000
      4          5.807362   1.000000
      5          6.777341   1.000000
      6          8.496013   1.033190
      7         16.032929   0.000000
      8         24.472551   0.000000
      9         28.761127   0.000000
 
 -0.2500000E+00  0.1875000E+00  0.6250000E-01  0.1171875E-01
      1          2.947483   1.000000
      2          4.940871   1.000000
      3          5.312148   1.000000
      4          5.878436   1.000000
      5          6.527954   1.000000
      6          7.703057   1.000000
      7         18.717635   0.000000
      8         24.380666   0.000000
      9         30.057572   0.000000
 
 -0.1875000E+00  0.1875000E+00  0.6250000E-01  0.1171875E-01
      1          2.073388   1.000000
      2          4.873950   1.000000
      3          5.469043   1.000000
      4          5.961235   1.000000
      5          6.258288   1.000000
      6          7.196658   1.000000
      7         21.686245   0.000000
      8         24.579698   0.000000
      9         31.552265   0.000000
 
 -0.1250000E+00  0.1875000E+00  0.6250000E-01  0.5859375E-02
      1          1.161907   1.000000
      2          4.949717   1.000000
      3          5.607929   1.000000
      4          5.939212   1.000000
      5          6.125406   1.000000
      6          6.843918   1.000000
      7         24.569146   0.000000
      8         25.342927   0.000000
      9         33.148348   0.000000
 
  0.3125000E+00  0.2500000E+00  0.6250000E-01  0.5859375E-02
      1          1.793125   1.000000
      2          4.652388   1.000000
      3          5.682357   1.000000
      4          6.216538   1.000000
      5          6.339588   1.000000
      6          6.818832   1.000000
      7         25.121840   0.000000
      8         25.602150   0.000000
      9         28.537195   0.000000
 
  0.3750000E+00  0.2500000E+00  0.6250000E-01  0.1171875E-01
      1          2.577719   1.000000
      2          4.556108   1.000000
      3          5.520774   1.000000
      4          6.257415   1.000000
      5          6.640817   1.000000
      6          7.164593   1.000000
      7         22.221814   0.000000
      8         24.893886   0.000000
      9         26.931537   0.000000
 
  0.4375000E+00  0.2500000E+00  0.6250000E-01  0.1171875E-01
      1          3.294643   1.000000
      2          4.545163   1.000000
      3          5.375596   1.000000
      4          6.196888   1.000000
      5          6.908981   1.000000
      6          7.883285   1.000000
      7         19.268614   0.000000
      8         24.603946   0.000000
      9         25.508134   0.000000
 
  0.5000000E+00  0.2500000E+00  0.6250000E-01  0.1171875E-01
      1          3.754010   1.000000
      2          4.621415   1.000000
      3          5.317713   1.000000
      4          6.115320   1.000000
      5          7.038337   1.000000
      6          9.054253  -0.030498
      7         16.558289   0.000000
      8         23.916321   0.000000
      9         25.019424   0.000000
 
 -0.4375000E+00  0.2500000E+00  0.6250000E-01  0.1171875E-01
      1          3.962394   1.000000
      2          4.684564   1.000000
      3          5.364123   1.000000
      4          6.038980   1.000000
      5          7.045284   1.000000
      6         10.529804  -0.000000
      7         14.285564   0.000000
      8         22.917508   0.000000
      9         25.412699   0.000000
 
 -0.3750000E+00  0.2500000E+00  0.6250000E-01  0.1171875E-01
      1          4.035214   1.000000
      2          4.742540   1.000000
      3          5.347352   1.000000
      4          5.995275   1.000000
      5          6.946614   1.000000
      6         10.999481  -0.000000
      7         13.761241  -0.000000
      8         22.134964   0.000000
      9         26.167647   0.000000
 
 -0.3125000E+00  0.2500000E+00  0.6250000E-01  0.1171875E-01
      1          3.974052   1.000000
      2          4.861797   1.000000
      3          5.146678   1.000000
      4          6.005975   1.000000
      5          6.762091   1.000000
      6          9.706033  -0.000000
      7         15.752123   0.000000
      8         21.634770   0.000000
      9         27.207488   0.000000
 
 -0.2500000E+00  0.2500000E+00  0.6250000E-01  0.1171875E-01
      1          3.634789   1.000000
      2          4.860961   1.000000
      3          5.082790   1.000000
      4          6.054243   1.000000
      5          6.517199   1.000000
      6          8.550228   1.031955
      7         18.339536   0.000000
      8         21.452860   0.000000
      9         28.486094   0.000000
 
 -0.1875000E+00  0.2500000E+00  0.6250000E-01  0.5859375E-02
      1          2.921449   1.000000
      2          4.802863   1.000000
      3          5.281619   1.000000
      4          6.100074   1.000000
      5          6.276014   1.000000
      6          7.751449   1.000000
      7         20.881760   0.000000
      8         21.899971   0.000000
      9         29.961863   0.000000
 
  0.3750000E+00  0.3125000E+00  0.6250000E-01  0.5859375E-02
      1          2.849543   1.000000
      2          4.364405   1.000000
      3          5.821309   1.000000
      4          6.563648   1.000000
      5          6.689331   1.000000
      6          7.137817   1.000000
      7         23.653297   0.000000
      8         23.924136   0.000000
      9         24.892564   0.000000
 
  0.4375000E+00  0.3125000E+00  0.6250000E-01  0.1171875E-01
      1          3.354647   1.000000
      2          4.305988   1.000000
      3          5.721206   1.000000
      4          6.550768   1.000000
      5          6.917791   1.000000
      6          7.962188   1.000000
      7         20.944682   0.000000
      8         22.994027   0.000000
      9         23.766445   0.000000
 
  0.5000000E+00  0.3125000E+00  0.6250000E-01  0.1171875E-01
      1          3.733491   1.000000
      2          4.326306   1.000000
      3          5.595436   1.000000
      4          6.454621   1.000000
      5          7.059475   1.000000
      6          9.264833  -0.001232
      7         18.190885   0.000000
      8         21.700101   0.000000
      9         23.700777   0.000000
 
 -0.4375000E+00  0.3125000E+00  0.6250000E-01  0.1171875E-01
      1          3.999219   1.000000
      2          4.395123   1.000000
      3          5.472971   1.000000
      4          6.350098   1.000000
      5          7.073892   1.000000
      6         10.933298  -0.000000
      7         15.680440   0.000000
      8         20.577217   0.000000
      9         24.074568   0.000000
 
 -0.3750000E+00  0.3125000E+00  0.6250000E-01  0.1171875E-01
      1          4.211526   1.000000
      2          4.463386   1.000000
      3          5.327430   1.000000
      4          6.260826   1.000000
      5          6.980000   1.000000
      6         12.447686  -0.000000
      7         13.933496  -0.000000
      8         19.721264   0.000000
      9         24.790958   0.000000
 
 -0.3125000E+00  0.3125000E+00  0.6250000E-01  0.1171875E-01
      1          4.317808   1.000000
      2          4.587211   1.000000
      3          5.109581   1.000000
      4          6.205737   1.000000
      5          6.810565   1.000000
      6         11.204592  -0.000000
      7         15.520038   0.000000
      8         19.200599   0.000000
      9         25.798707   0.000000
 
 -0.2500000E+00  0.3125000E+00  0.6250000E-01  0.5859375E-02
      1          4.149383   1.000000
      2          4.822558   1.000000
      3          4.897930   1.000000
      4          6.162907   1.000000
      5          6.622272   1.000000
      6          9.706811  -0.000000
      7         17.594787   0.000000
      8         19.380087   0.000000
      9         27.046163   0.000000
 
  0.4375000E+00  0.3750000E+00  0.6250000E-01  0.5859375E-02
      1          3.351290   1.000000
      2          4.125231   1.000000
      3          6.302969   1.000000
      4          6.893301   1.000000
      5          6.906950   1.000000
      6          8.089600   1.000009
      7         21.079582   0.000000
      8         22.477026   0.000000
      9         22.957137   0.000000
 
  0.5000000E+00  0.3750000E+00  0.6250000E-01  0.1171875E-01
      1          3.570445   1.000000
      2          4.116545   1.000000
      3          6.141309   1.000000
      4          6.779216   1.000000
      5          7.080815   1.000000
      6          9.446875  -0.000009
      7         19.611518   0.000000
      8         20.141781   0.000000
      9         22.682326   0.000000
 
 -0.4375000E+00  0.3750000E+00  0.6250000E-01  0.1171875E-01
      1          3.788271   1.000000
      2          4.184218   1.000000
      3          5.908077   1.000000
      4          6.645229   1.000000
      5          7.120456   1.000000
      6         11.125060  -0.000000
      7         17.442394   0.000000
      8         18.648021   0.000000
      9         22.970406   0.000000
 
 -0.3750000E+00  0.3750000E+00  0.6250000E-01  0.1171875E-01
      1          4.021956   1.000000
      2          4.298813   1.000000
      3          5.622959   1.000000
      4          6.510391   1.000000
      5          7.049994   1.000000
      6         12.981013  -0.000000
      7         15.120660   0.000000
      8         17.882375   0.000000
      9         23.623255   0.000000
 
 -0.3125000E+00  0.3750000E+00  0.6250000E-01  0.5859375E-02
      1          4.273894   1.000000
      2          4.408087   1.000000
      3          5.314617   1.000000
      4          6.371037   1.000000
      5          6.923240   1.000000
      6         12.989243  -0.000000
      7         14.737464   0.000000
      8         17.823226   0.000000
      9         24.585836   0.000000
 
  0.5000000E+00  0.4375000E+00  0.6250000E-01  0.5859375E-02
      1          3.434598   1.000000
      2          3.967951   1.000000
      3          6.693766   1.000000
      4          6.979579   1.000000
      5          7.135892   1.000000
      6          9.719572  -0.000000
      7         18.093614   0.000000
      8         21.707251   0.000000
      9         22.139610   0.000000
 
 -0.4375000E+00  0.4375000E+00  0.6250000E-01  0.1171875E-01
      1          3.571406   1.000000
      2          4.015629   1.000000
      3          6.429516   1.000000
      4          6.858915   1.000000
      5          7.185560   1.000000
      6         11.100810  -0.000000
      7         17.163231   0.000000
      8         19.577043   0.000000
      9         22.162549   0.000000
 
 -0.3750000E+00  0.4375000E+00  0.6250000E-01  0.5859375E-02
      1          3.772517   1.000000
      2          4.138042   1.000000
      3          6.042710   1.000000
      4          6.707768   1.000000
      5          7.137584   1.000000
      6         12.372168  -0.000000
      7         16.710653   0.000000
      8         17.485634   0.000000
      9         22.724506   0.000000
 
 -0.4375000E+00  0.5000000E+00  0.6250000E-01  0.2929688E-02
      1          3.430313   1.000000
      2          3.913193   1.000000
      3          6.853657   1.000000
      4          6.969732   1.000000
      5          7.226083   1.000000
      6         10.763425  -0.000000
      7         16.630248   0.000000
      8         21.438162   0.000000
      9         21.863500   0.000000
 
  0.3750000E+00  0.2500000E+00  0.1250000E+00  0.5859375E-02
      1          2.253818   1.000000
      2          4.718366   1.000000
      3          5.445843   1.000000
      4          6.226799   1.000000
      5          6.276599   1.000000
      6          7.195840   1.000000
      7         22.899942   0.000000
      8         23.659978   0.000000
      9         29.158049   0.000000
 
  0.4375000E+00  0.2500000E+00  0.1250000E+00  0.1171875E-01
      1          3.079526   1.000000
      2          4.686480   1.000000
      3          5.262609   1.000000
      4          6.175748   1.000000
      5          6.539194   1.000000
      6          7.772011   1.000000
      7         20.153141   0.000000
      8         23.082132   0.000000
      9         27.572811   0.000000
 
  0.5000000E+00  0.2500000E+00  0.1250000E+00  0.1171875E-01
      1          3.681816   1.000000
      2          4.772394   1.000000
      3          5.140495   1.000000
      4          6.086756   1.000000
      5          6.793581   1.000000
      6          8.677838   0.840743
      7         17.355497   0.000000
      8         23.075277   0.000000
      9         26.183483   0.000000
 
 -0.4375000E+00  0.2500000E+00  0.1250000E+00  0.1171875E-01
      1          3.940055   1.000000
      2          4.790408   1.000000
      3          5.253210   1.000000
      4          6.007868   1.000000
      5          6.948601   1.000000
      6          9.968130  -0.000000
      7         14.899824   0.000000
      8         23.362593   0.000000
      9         25.050058   0.000000
 
 -0.3750000E+00  0.2500000E+00  0.1250000E+00  0.5859375E-02
      1          4.001849   1.000000
      2          4.758860   1.000000
      3          5.363983   1.000000
      4          5.970030   1.000000
      5          6.998177   1.000000
      6         10.976208  -0.000000
      7         13.506052  -0.000000
      8         23.715080   0.000000
      9         24.413661   0.000000
 
  0.4375000E+00  0.3125000E+00  0.1250000E+00  0.5859375E-02
      1          3.233530   1.000000
      2          4.481071   1.000000
      3          5.379222   1.000000
      4          6.536770   1.000000
      5          6.563492   1.000000
      6          7.826833   1.000000
      7         21.479290   0.000000
      8         22.272611   0.000000
      9         25.269211   0.000000
 
  0.5000000E+00  0.3125000E+00  0.1250000E+00  0.1171875E-01
      1          3.759557   1.000000
      2          4.490387   1.000000
      3          5.235731   1.000000
      4          6.427342   1.000000
      5          6.822543   1.000000
      6          8.847877   0.188805
      7         18.915941   0.000000
      8         21.880129   0.000000
      9         23.798581   0.000000
 
 -0.4375000E+00  0.3125000E+00  0.1250000E+00  0.1171875E-01
      1          4.073382   1.000000
      2          4.540521   1.000000
      3          5.172306   1.000000
      4          6.305140   1.000000
      5          6.979040   1.000000
      6         10.278788  -0.000000
      7         16.309339   0.000000
      8         21.984636   0.000000
      9         22.666349   0.000000
 
 -0.3750000E+00  0.3125000E+00  0.1250000E+00  0.1171875E-01
      1          4.262478   1.000000
      2          4.517101   1.000000
      3          5.185648   1.000000
      4          6.209526   1.000000
      5          7.016261   1.000000
      6         11.900724  -0.000000
      7         14.170134   0.000000
      8         21.434876   0.000000
      9         22.772998   0.000000
 
 -0.3125000E+00  0.3125000E+00  0.1250000E+00  0.1171875E-01
      1          4.315398   1.000000
      2          4.556304   1.000000
      3          5.099114   1.000000
      4          6.192942   1.000000
      5          6.946750   1.000000
      6         11.458295  -0.000000
      7         14.754948   0.000000
      8         20.757106   0.000000
      9         23.583423   0.000000
 
 -0.2500000E+00  0.3125000E+00  0.1250000E+00  0.1171875E-01
      1          4.158233   1.000000
      2          4.707772   1.000000
      3          4.922827   1.000000
      4          6.253383   1.000000
      5          6.783997   1.000000
      6          9.896098  -0.000000
      7         17.101177   0.000000
      8         20.381262   0.000000
      9         24.682350   0.000000
 
 -0.1875000E+00  0.3125000E+00  0.1250000E+00  0.5859375E-02
      1          3.742088   1.000000
      2          4.666240   1.000000
      3          5.047497   1.000000
      4          6.312708   1.000000
      5          6.575761   1.000000
      6          8.654984   0.902794
      7         19.431602   0.000000
      8         20.666972   0.000000
      9         26.022615   0.000000
 
  0.5000000E+00  0.3750000E+00  0.1250000E+00  0.5859375E-02
      1          3.673082   1.000000
      2          4.279701   1.000000
      3          5.633009   1.000000
      4          6.720712   1.000000
      5          6.890606   1.000000
      6          9.059363  -0.029446
      7         20.366107   0.000000
      8         21.058643   0.000000
      9         21.818194   0.000000
 
 -0.4375000E+00  0.3750000E+00  0.1250000E+00  0.1171875E-01
      1          3.916237   1.000000
      2          4.334717   1.000000
      3          5.492807   1.000000
      4          6.585787   1.000000
      5          7.042051   1.000000
      6         10.547757  -0.000000
      7         18.015108   0.000000
      8         20.216011   0.000000
      9         21.198743   0.000000
 
 -0.3750000E+00  0.3750000E+00  0.1250000E+00  0.1171875E-01
      1          4.118567   1.000000
      2          4.425006   1.000000
      3          5.331470   1.000000
      4          6.435072   1.000000
      5          7.088670   1.000000
      6         12.344538  -0.000000
      7         15.610773   0.000000
      8         19.251623   0.000000
      9         21.593350   0.000000
 
 -0.3125000E+00  0.3750000E+00  0.1250000E+00  0.1171875E-01
      1          4.313294   1.000000
      2          4.501762   1.000000
      3          5.128212   1.000000
      4          6.337111   1.000000
      5          7.027114   1.000000
      6         13.204594  -0.000000
      7         14.620941   0.000000
      8         18.585628   0.000000
      9         22.357382   0.000000
 
 -0.2500000E+00  0.3750000E+00  0.1250000E+00  0.5859375E-02
      1          4.394891   1.000000
      2          4.626359   1.000000
      3          4.890875   1.000000
      4          6.305357   1.000000
      5          6.895508   1.000000
      6         11.434993  -0.000000
      7         16.408452   0.000000
      8         18.621386   0.000000
      9         23.399997   0.000000
 
 -0.4375000E+00  0.4375000E+00  0.1250000E+00  0.5859375E-02
      1          3.710760   1.000000
      2          4.145953   1.000000
      3          5.986761   1.000000
      4          6.770137   1.000000
      5          7.134855   1.000000
      6         10.825983  -0.000000
      7         18.420240   0.000000
      8         19.643449   0.000000
      9         20.687037   0.000000
 
 -0.3750000E+00  0.4375000E+00  0.1250000E+00  0.1171875E-01
      1          3.880934   1.000000
      2          4.255294   1.000000
      3          5.734197   1.000000
      4          6.615741   1.000000
      5          7.181521   1.000000
      6         12.423400  -0.000000
      7         17.300307   0.000000
      8         17.814235   0.000000
      9         20.708872   0.000000
 
 -0.3125000E+00  0.4375000E+00  0.1250000E+00  0.5859375E-02
      1          4.083758   1.000000
      2          4.406267   1.000000
      3          5.417520   1.000000
      4          6.466164   1.000000
      5          7.131585   1.000000
      6         13.879274  -0.000000
      7         15.250692   0.000000
      8         17.473814   0.000000
      9         21.380389   0.000000
 
 -0.3750000E+00  0.5000000E+00  0.1250000E+00  0.2929688E-02
      1          3.691313   1.000000
      2          4.099128   1.000000
      3          6.143768   1.000000
      4          6.758799   1.000000
      5          7.226389   1.000000
      6         12.002229  -0.000000
      7         16.834007   0.000000
      8         19.391157   0.000000
      9         20.445196   0.000000
 
 -0.4375000E+00  0.3750000E+00  0.1875000E+00  0.5859375E-02
      1          4.090165   1.000000
      2          4.537242   1.000000
      3          5.071640   1.000000
      4          6.471586   1.000000
      5          6.889253   1.000000
      6         10.155785  -0.000000
      7         18.301284   0.000000
      8         19.757061   0.000000
      9         22.374466   0.000000
 
 -0.3750000E+00  0.3750000E+00  0.1875000E+00  0.1171875E-01
      1          4.255398   1.000000
      2          4.615847   1.000000
      3          4.983759   1.000000
      4          6.371490   1.000000
      5          7.025920   1.000000
      6         11.806601  -0.000000
      7         16.199055   0.000000
      8         19.632968   0.000000
      9         21.220452   0.000000
 
 -0.3125000E+00  0.3750000E+00  0.1875000E+00  0.5859375E-02
      1          4.317264   1.000000
      2          4.604663   1.000000
      3          4.996084   1.000000
      4          6.317792   1.000000
      5          7.078901   1.000000
      6         13.360825  -0.000000
      7         14.390822   0.000000
      8         19.994084   0.000000
      9         20.536403   0.000000
 
 -0.3750000E+00  0.4375000E+00  0.1875000E+00  0.5859375E-02
      1          4.050283   1.000000
      2          4.447074   1.000000
      3          5.323665   1.000000
      4          6.506327   1.000000
      5          7.133289   1.000000
      6         12.143580  -0.000000
      7         17.567643   0.000000
      8         18.826721   0.000000
      9         19.535621   0.000000
 
 -0.3125000E+00  0.4375000E+00  0.1875000E+00  0.1171875E-01
      1          4.154619   1.000000
      2          4.612644   1.000000
      3          5.116591   1.000000
      4          6.393302   1.000000
      5          7.180322   1.000000
      6         13.948710  -0.000000
      7         15.684595   0.000000
      8         18.200388   0.000000
      9         19.418099   0.000000
 
 -0.2500000E+00  0.4375000E+00  0.1875000E+00  0.5859375E-02
      1          4.236114   1.000000
      2          4.786650   1.000000
      3          4.873364   1.000000
      4          6.355901   1.000000
      5          7.131673   1.000000
      6         13.613487  -0.000000
      7         15.629316   0.000000
      8         18.136032   0.000000
      9         20.139719   0.000000
 
 -0.3125000E+00  0.5000000E+00  0.1875000E+00  0.2929688E-02
      1          4.004670   1.000000
      2          4.414848   1.000000
      3          5.448905   1.000000
      4          6.494285   1.000000
      5          7.226715   1.000000
      6         13.569311  -0.000000
      7         17.201954   0.000000
      8         17.311006   0.000000
      9         19.152310   0.000000
 
 -0.2500000E+00  0.5000000E+00  0.2500000E+00  0.1464844E-02
      1          4.159431   1.000000
      2          4.865223   1.000000
      3          4.865225   1.000000
      4          6.359327   1.000000
      5          7.226874   1.000000
      6         15.354070   0.000000
      7         15.354077   0.000000
      8         17.551737   0.000000
      9         18.469896   0.000000
