Sr7 Ru4 O16                             
    1.000000000000000     
     7.4618007489128590   -0.0005340202344266   -2.1744104042331402
    -0.6346542548059257    7.4347528437798838   -2.1744062763311565
     0.0044113576348986    0.0048059926393364    6.9549541738623741
   Sr   Ru   O 
     7     4    16
Direct
  0.1783260597968233  0.6719584723329136  0.7044317409079780
  0.6719584723119798  0.1783260597756962  0.7044317409183464
  0.6763860830066403  0.6763860830286255  0.7086343324476082
  0.3216930008986240  0.3216930008893325  0.2967678779578464
  0.3206198931298208  0.8302698010685210  0.3011998510604724
  0.8302698010670677  0.3206198931256242  0.3011998510704446
  0.8287817437693712  0.8287817437702134  0.2963758654794527
  0.0015030498080634  0.0015030498061896 -0.0111953877000500
  0.0015233826001310  0.4950923635716329 -0.0071258015211860
  0.4950923635698520  0.0015233826054963 -0.0071258015119874
  0.4964431033040451  0.4964431033023497 -0.0018313865703511
  0.4383830321207641  0.4383830320970010  0.6849669261515507
  0.4380909414702114  0.9037219922273705  0.6826702035839249
  0.9037219921942670  0.4380909414349805  0.6826702035593007
  0.9011603840323095  0.9011603840496016  0.6782489501979485
  0.0810310978723122  0.0810310978820121  0.2974631786613302
  0.0874240370935799  0.5733790778948830  0.3215085630749728
  0.5733790779004831  0.0874240370954907  0.3215085630738218
  0.5724053494112553  0.5724053494049181  0.3183897337891592
 -0.0096894394891358  0.2471368437264931 -0.0137253161080352
  0.0025684144152430  0.7523693961094208  0.0110247866397557
  0.5039427661262400  0.2485729545229031 -0.0054008199511853
  0.5049699402681534  0.7547557939464410  0.0171458221026483
  0.2471368437249939 -0.0096894394760060 -0.0137253160935045
  0.2485729545206361  0.5039427661197131 -0.0054008199614887
  0.7523693961266459  0.0025684144296103  0.0110247866338129
  0.7547557939496315  0.5049699402585726  0.0171458221074103
 
  0.00000000E+00  0.00000000E+00  0.00000000E+00
  0.00000000E+00  0.00000000E+00  0.00000000E+00
  0.00000000E+00  0.00000000E+00  0.00000000E+00
  0.00000000E+00  0.00000000E+00  0.00000000E+00
  0.00000000E+00  0.00000000E+00  0.00000000E+00
  0.00000000E+00  0.00000000E+00  0.00000000E+00
  0.00000000E+00  0.00000000E+00  0.00000000E+00
  0.00000000E+00  0.00000000E+00  0.00000000E+00
  0.00000000E+00  0.00000000E+00  0.00000000E+00
  0.00000000E+00  0.00000000E+00  0.00000000E+00
  0.00000000E+00  0.00000000E+00  0.00000000E+00
  0.00000000E+00  0.00000000E+00  0.00000000E+00
  0.00000000E+00  0.00000000E+00  0.00000000E+00
  0.00000000E+00  0.00000000E+00  0.00000000E+00
  0.00000000E+00  0.00000000E+00  0.00000000E+00
  0.00000000E+00  0.00000000E+00  0.00000000E+00
  0.00000000E+00  0.00000000E+00  0.00000000E+00
  0.00000000E+00  0.00000000E+00  0.00000000E+00
  0.00000000E+00  0.00000000E+00  0.00000000E+00
  0.00000000E+00  0.00000000E+00  0.00000000E+00
  0.00000000E+00  0.00000000E+00  0.00000000E+00
  0.00000000E+00  0.00000000E+00  0.00000000E+00
  0.00000000E+00  0.00000000E+00  0.00000000E+00
  0.00000000E+00  0.00000000E+00  0.00000000E+00
  0.00000000E+00  0.00000000E+00  0.00000000E+00
  0.00000000E+00  0.00000000E+00  0.00000000E+00
  0.00000000E+00  0.00000000E+00  0.00000000E+00
