Mg23                                    
    1.000000000000000     
     9.5825991485240465    0.0029185956733935    0.0000000000000000
    -3.1925145552634202    5.5331263347363100    0.0000000000000000
     0.0000000000000000    0.0000000000000000   10.2276661730686182
   Mg
    23
Direct
     0.1111594249253126    0.3335070688998342    0.6250000000000000
     0.1097290807771875    0.8323434789504697    0.1250000000000000
     0.1121495059536613    0.8341217144291880    0.6250000000000000
     0.4429728100577238    0.3333417746718073    0.1250000000000000
     0.4437836446693853    0.3323109419697871    0.6250000000000000
     0.4432684060695593    0.8314185725641807    0.1250000000000000
     0.4448497514950073    0.8341637276623296    0.6250000000000000
     0.7795619665709542    0.3338908772828048    0.1250000000000000
     0.7778723466263245    0.3330254019939229    0.6250000000000000
     0.7803117725175640    0.8361868812550306    0.1250000000000000
     0.7767144634231392    0.8330152846026067    0.6250000000000000
     0.2203925032926153    0.1677750982804142    0.3734144147142666
     0.2203925032926153    0.1677750982804142    0.8765855852857336
     0.2206344486666251    0.6628048335101308    0.3729794604413317
     0.2206344486666251    0.6628048335101308    0.8770205395586683
     0.5556175560259043    0.1670705257126045    0.3752971939348650
     0.5556175560259043    0.1670705257126045    0.8747028060651351
     0.5547572730514955    0.6657670920086994    0.3749088869090771
     0.5547572730514955    0.6657670920086994    0.8750911130909229
     0.8921244247483734    0.1693064861486528    0.3727783819486975
     0.8921244247483734    0.1693064861486528    0.8772216180513026
     0.8897317076720764    0.6669463521985165    0.3749327834741209
     0.8897317076720764    0.6669463521985165    0.8750672165258792
 
  0.00000000E+00  0.00000000E+00  0.00000000E+00
  0.00000000E+00  0.00000000E+00  0.00000000E+00
  0.00000000E+00  0.00000000E+00  0.00000000E+00
  0.00000000E+00  0.00000000E+00  0.00000000E+00
  0.00000000E+00  0.00000000E+00  0.00000000E+00
  0.00000000E+00  0.00000000E+00  0.00000000E+00
  0.00000000E+00  0.00000000E+00  0.00000000E+00
  0.00000000E+00  0.00000000E+00  0.00000000E+00
  0.00000000E+00  0.00000000E+00  0.00000000E+00
  0.00000000E+00  0.00000000E+00  0.00000000E+00
  0.00000000E+00  0.00000000E+00  0.00000000E+00
  0.00000000E+00  0.00000000E+00  0.00000000E+00
  0.00000000E+00  0.00000000E+00  0.00000000E+00
  0.00000000E+00  0.00000000E+00  0.00000000E+00
  0.00000000E+00  0.00000000E+00  0.00000000E+00
  0.00000000E+00  0.00000000E+00  0.00000000E+00
  0.00000000E+00  0.00000000E+00  0.00000000E+00
  0.00000000E+00  0.00000000E+00  0.00000000E+00
  0.00000000E+00  0.00000000E+00  0.00000000E+00
  0.00000000E+00  0.00000000E+00  0.00000000E+00
  0.00000000E+00  0.00000000E+00  0.00000000E+00
  0.00000000E+00  0.00000000E+00  0.00000000E+00
  0.00000000E+00  0.00000000E+00  0.00000000E+00
