    1    1    1    1
  0.1825807E+02  0.2873155E-09  0.2873154E-09  0.2873153E-09  0.5000000E-15
   1.0000000000000000E-004
  CAR 
 ENCUT convergence test (400 eV)         
     11    195      9
 
  0.1262379E-14  0.1262379E-14  0.1262379E-14  0.1714678E-03
      1        -24.878126   1.000000
      2        -24.878123   1.000000
      3        -24.878119   1.000000
      4         -1.040655   1.000000
      5          5.221758  -0.013317
      6          5.221768  -0.013315
      7          5.221776  -0.013314
      8          8.079118  -0.000000
      9          8.079125  -0.000000
 
  0.5555556E-01  0.1263079E-14  0.1262379E-14  0.2057613E-02
      1        -24.920714   1.000000
      2        -24.890957   1.000000
      3        -24.878469   1.000000
      4         -0.914160   1.000000
      5          5.145758  -0.029825
      6          5.206482  -0.016289
      7          5.344295  -0.001492
      8          7.964851  -0.000000
      9          8.081859  -0.000000
 
  0.1111111E+00  0.1285469E-14  0.1262379E-14  0.2057613E-02
      1        -25.041884   1.000000
      2        -24.927719   1.000000
      3        -24.879465   1.000000
      4         -0.551380   1.000000
      5          4.934786   0.193003
      6          5.138522  -0.031268
      7          5.706939  -0.000000
      8          7.716061  -0.000000
      9          8.095050  -0.000000
 
  0.1666667E+00  0.1300340E-14  0.1262379E-14  0.2057613E-02
      1        -25.223627   1.000000
      2        -24.983575   1.000000
      3        -24.880993   1.000000
      4         -0.007035   1.000000
      5          4.631595   1.033561
      6          4.985030   0.060397
      7          6.294582  -0.000000
      8          7.529269  -0.000000
      9          8.130828  -0.000000
 
  0.2222222E+00  0.1319260E-14  0.1262379E-14  0.2057613E-02
      1        -25.440617   1.000000
      2        -25.051285   1.000000
      3        -24.882853   1.000000
      4          0.608549   1.000000
      5          4.287558   1.000221
      6          4.812214   0.679749
      7          7.080166  -0.000000
      8          7.525213  -0.000000
      9          8.201613  -0.000000
 
  0.2777778E+00  0.1312826E-14  0.1262379E-14  0.2057613E-02
      1        -25.664799   1.000000
      2        -25.122397   1.000000
      3        -24.884850   1.000000
      4          1.109236   1.000000
      5          3.949376   1.000000
      6          4.842019   0.558253
      7          7.677248  -0.000000
      8          8.020377  -0.000000
      9          8.312657  -0.000000
 
  0.3333333E+00  0.1282912E-14  0.1262379E-14  0.2057613E-02
      1        -25.869690   1.000000
      2        -25.188386   1.000000
      3        -24.886765   1.000000
      4          1.325844   1.000000
      5          3.653476   1.000000
      6          5.272868  -0.006012
      7          7.893490  -0.000000
      8          8.455831  -0.000000
      9          9.045457  -0.000000
 
  0.3888889E+00  0.1273366E-14  0.1262379E-14  0.2057613E-02
      1        -26.032884   1.000000
      2        -25.241634   1.000000
      3        -24.888373   1.000000
      4          1.309941   1.000000
      5          3.425694   1.000000
      6          6.013008  -0.000000
      7          8.074828  -0.000000
      8          8.606157  -0.000000
      9         10.038658  -0.000000
 
  0.4444444E+00  0.1236776E-14  0.1262379E-14  0.2057613E-02
      1        -26.137600   1.000000
      2        -25.276116   1.000000
      3        -24.889430   1.000000
      4          1.230784   1.000000
      5          3.282820   1.000000
      6          6.757526  -0.000000
      7          8.134986  -0.000000
      8          8.724143  -0.000000
      9         10.808725   0.000000
 
  0.5000000E+00  0.1250896E-14  0.1262379E-14  0.1028807E-02
      1        -26.173667   1.000000
      2        -25.288033   1.000000
      3        -24.889798   1.000000
      4          1.194169   1.000000
      5          3.234197   1.000000
      6          7.109761  -0.000000
      7          8.104626  -0.000000
      8          8.769382  -0.000000
      9         11.109318   0.000000
 
  0.5555556E-01  0.5555556E-01  0.1262379E-14  0.4115226E-02
      1        -25.004061   1.000000
      2        -24.904607   1.000000
      3        -24.888855   1.000000
      4         -0.669044   1.000000
      5          5.042820  -0.016999
      6          5.107620  -0.035285
      7          5.604787  -0.000001
      8          7.767755  -0.000000
      9          8.105216  -0.000000
 
  0.1111111E+00  0.5555556E-01  0.1262379E-14  0.8230453E-02
      1        -25.153875   1.000000
      2        -24.948533   1.000000
      3        -24.894056   1.000000
      4         -0.211321   1.000000
      5          4.792109   0.755027
      6          4.974581   0.082790
      7          6.098072  -0.000000
      8          7.519307  -0.000000
      9          8.161708  -0.000000
 
  0.1666667E+00  0.5555556E-01  0.1262379E-14  0.8230453E-02
      1        -25.349103   1.000000
      2        -25.013467   1.000000
      3        -24.896673   1.000000
      4          0.383644   1.000000
      5          4.463329   1.009008
      6          4.789518   0.764198
      7          6.798769  -0.000000
      8          7.405828  -0.000000
      9          8.245043  -0.000000
 
  0.2222222E+00  0.5555556E-01  0.1262379E-14  0.8230453E-02
      1        -25.564448   1.000000
      2        -25.087547   1.000000
      3        -24.899142   1.000000
      4          0.972065   1.000000
      5          4.119940   1.000001
      6          4.673889   1.013036
      7          7.457750  -0.000000
      8          7.700148  -0.000000
      9          8.353880  -0.000000
 
  0.2777778E+00  0.5555556E-01  0.1262379E-14  0.8230453E-02
      1        -25.773710   1.000000
      2        -25.160969   1.000000
      3        -24.901499   1.000000
      4          1.347630   1.000000
      5          3.804547   1.000000
      6          4.868661   0.445800
      7          7.673339  -0.000000
      8          8.480273  -0.000000
      9          8.693045  -0.000000
 
  0.3333333E+00  0.5555556E-01  0.1262379E-14  0.8230453E-02
      1        -25.953137   1.000000
      2        -25.224867   1.000000
      3        -24.903559   1.000000
      4          1.428812   1.000000
      5          3.546623   1.000000
      6          5.449038  -0.000113
      7          7.913584  -0.000000
      8          8.621735  -0.000000
      9          9.724054  -0.000000
 
  0.3888889E+00  0.5555556E-01  0.1262379E-14  0.8230453E-02
      1        -26.083712   1.000000
      2        -25.271882   1.000000
      3        -24.905105   1.000000
      4          1.360260   1.000000
      5          3.365100   1.000000
      6          6.182390  -0.000000
      7          8.066229  -0.000000
      8          8.779774  -0.000000
      9         10.636407   0.000000
 
  0.4444444E+00  0.5555556E-01  0.1262379E-14  0.8230453E-02
      1        -26.152335   1.000000
      2        -25.296749   1.000000
      3        -24.905932   1.000000
      4          1.292878   1.000000
      5          3.271568   1.000000
      6          6.724155  -0.000000
      7          8.073135  -0.000000
      8          8.916420  -0.000000
      9         11.201162   0.000000
 
  0.1111111E+00  0.1111111E+00  0.1262379E-14  0.4115226E-02
      1        -25.315474   1.000000
      2        -24.985664   1.000000
      3        -24.917948   1.000000
      4          0.308079   1.000000
      5          4.599433   1.034992
      6          4.689326   0.997897
      7          6.739834  -0.000000
      8          7.316123  -0.000000
      9          8.297321  -0.000000
 
  0.1666667E+00  0.1111111E+00  0.1262379E-14  0.8230453E-02
      1        -25.502713   1.000000
      2        -25.054284   1.000000
      3        -24.930093   1.000000
      4          0.915857   1.000000
      5          4.291900   1.000247
      6          4.468691   1.009787
      7          7.259479  -0.000000
      8          7.582725  -0.000000
      9          8.448785  -0.000000
 
  0.2222222E+00  0.1111111E+00  0.1262379E-14  0.8230453E-02
      1        -25.693506   1.000000
      2        -25.136585   1.000000
      3        -24.936456   1.000000
      4          1.438939   1.000000
      5          3.960999   1.000000
      6          4.444853   1.006669
      7          7.382317  -0.000000
      8          8.515205  -0.000000
      9          8.647211  -0.000000
 
  0.2777778E+00  0.1111111E+00  0.1262379E-14  0.8230453E-02
      1        -25.866989   1.000000
      2        -25.216408   1.000000
      3        -24.940783   1.000000
      4          1.678006   1.000000
      5          3.689430   1.000000
      6          4.771639   0.823627
      7          7.621827  -0.000000
      8          8.700683  -0.000000
      9          9.654875  -0.000000
 
  0.3333333E+00  0.1111111E+00  0.1262379E-14  0.8230453E-02
      1        -26.004900   1.000000
      2        -25.281981   1.000000
      3        -24.943841   1.000000
      4          1.661222   1.000000
      5          3.490312   1.000000
      6          5.376187  -0.000726
      7          7.867632  -0.000000
      8          8.836141  -0.000000
      9         10.685089   0.000000
 
  0.3888889E+00  0.1111111E+00  0.1262379E-14  0.8230453E-02
      1        -26.093407   1.000000
      2        -25.324787   1.000000
      3        -24.945706   1.000000
      4          1.575713   1.000000
      5          3.367881   1.000000
      6          5.951447  -0.000000
      7          7.978771  -0.000000
      8          9.022928  -0.000000
      9         11.487792   0.000000
 
  0.4444444E+00  0.1111111E+00  0.1262379E-14  0.4115226E-02
      1        -26.123881   1.000000
      2        -25.339633   1.000000
      3        -24.946347   1.000000
      4          1.536587   1.000000
      5          3.326486   1.000000
      6          6.193936  -0.000000
      7          7.981933  -0.000000
      8          9.132399  -0.000000
      9         11.804358   0.000000
 
  0.1666667E+00  0.1666667E+00  0.1262379E-14  0.4115226E-02
      1        -25.661466   1.000000
      2        -25.123562   1.000000
      3        -24.957662   1.000000
      4          1.492341   1.000000
      5          4.053383   1.000000
      6          4.239688   1.000059
      7          7.255793  -0.000000
      8          8.494530  -0.000000
      9          8.693681  -0.000000
 
  0.2222222E+00  0.1666667E+00  0.1262379E-14  0.8230453E-02
      1        -25.807883   1.000000
      2        -25.213366   1.000000
      3        -24.973420   1.000000
      4          1.925407   1.000000
      5          3.772013   1.000000
      6          4.300652   1.000309
      7          7.397978  -0.000000
      8          8.744557  -0.000000
      9          9.680596  -0.000000
 
  0.2777778E+00  0.1666667E+00  0.1262379E-14  0.8230453E-02
      1        -25.928590   1.000000
      2        -25.302293   1.000000
      3        -24.982477   1.000000
      4          2.053624   1.000000
      5          3.584901   1.000000
      6          4.663384   1.020746
      7          7.640668  -0.000000
      8          8.840278  -0.000000
      9         10.817587   0.000000
 
  0.3333333E+00  0.1666667E+00  0.1262379E-14  0.8230453E-02
      1        -26.014045   1.000000
      2        -25.372184   1.000000
      3        -24.987751   1.000000
      4          1.992318   1.000000
      5          3.472980   1.000000
      6          5.155602  -0.027701
      7          7.859778  -0.000000
      8          8.961403  -0.000000
      9         11.851182   0.000000
 
  0.3888889E+00  0.1666667E+00  0.1262379E-14  0.8230453E-02
      1        -26.058208   1.000000
      2        -25.410425   1.000000
      3        -24.990243   1.000000
      4          1.922980   1.000000
      5          3.418440   1.000000
      6          5.492878  -0.000032
      7          7.942029  -0.000000
      8          9.117288  -0.000000
      9         12.530209   0.000000
 
  0.2222222E+00  0.2222222E+00  0.1262379E-14  0.4115226E-02
      1        -25.895080   1.000000
      2        -25.314525   1.000000
      3        -24.998148   1.000000
      4          2.280874   1.000000
      5          3.586348   1.000000
      6          4.366074   1.001451
      7          7.540443  -0.000000
      8          8.836611  -0.000000
      9         10.879762   0.000000
 
  0.2777778E+00  0.2222222E+00  0.1262379E-14  0.8230453E-02
      1        -25.950279   1.000000
      2        -25.417814   1.000000
      3        -25.012446   1.000000
      4          2.390315   1.000000
      5          3.509245   1.000000
      6          4.596344   1.034722
      7          7.774604  -0.000000
      8          8.880619  -0.000000
      9         12.089513   0.000000
 
  0.3333333E+00  0.2222222E+00  0.1262379E-14  0.8230453E-02
      1        -25.976659   1.000000
      2        -25.496283   1.000000
      3        -25.019870   1.000000
      4          2.356761   1.000000
      5          3.505673   1.000000
      6          4.836916   0.579606
      7          7.976525  -0.000000
      8          8.956602  -0.000000
      9         13.136687   0.000000
 
  0.3888889E+00  0.2222222E+00  0.1262379E-14  0.4115226E-02
      1        -25.983553   1.000000
      2        -25.525997   1.000000
      3        -25.022186   1.000000
      4          2.329758   1.000000
      5          3.510105   1.000000
      6          4.935391   0.191042
      7          8.042336  -0.000000
      8          9.019572  -0.000000
      9         13.627043   0.000000
 
  0.2777778E+00  0.2777778E+00  0.1262379E-14  0.4115226E-02
      1        -25.932779   1.000000
      2        -25.542452   1.000000
      3        -25.029761   1.000000
      4          2.586201   1.000000
      5          3.545796   1.000000
      6          4.523978   1.020356
      7          8.016255  -0.000000
      8          8.857199  -0.000000
      9         13.371618   0.000000
 
  0.3333333E+00  0.2777778E+00  0.1262379E-14  0.8230453E-02
      1        -25.895165   1.000000
      2        -25.638627   1.000000
      3        -25.037529   1.000000
      4          2.638518   1.000000
      5          3.664517   1.000000
      6          4.435005   1.005630
      7          8.238400  -0.000000
      8          8.818632  -0.000000
      9         14.469459   0.000000
 
  0.3333333E+00  0.3333333E+00  0.1262379E-14  0.1371742E-02
      1        -25.777851   1.000000
      2        -25.777846   1.000000
      3        -25.042992   1.000000
      4          2.734523   1.000000
      5          4.006094   1.000000
      6          4.006098   1.000000
      7          8.558541  -0.000000
      8          8.558545  -0.000000
      9         15.155673   0.000000
 
  0.5555556E-01  0.5555556E-01  0.5555556E-01  0.1371742E-02
      1        -25.133801   1.000000
      2        -24.906741   1.000000
      3        -24.906736   1.000000
      4         -0.321856   1.000000
      5          4.864824   0.461953
      6          4.864835   0.461910
      7          6.089441  -0.000000
      8          7.878460  -0.000000
      9          7.878466  -0.000000
 
  0.1111111E+00  0.5555556E-01  0.5555556E-01  0.4115226E-02
      1        -25.304325   1.000000
      2        -24.959026   1.000000
      3        -24.909995   1.000000
      4          0.208372   1.000000
      5          4.540428   1.024132
      6          4.660489   1.022534
      7          6.760363  -0.000000
      8          7.688336  -0.000000
      9          8.017345  -0.000000
 
  0.1666667E+00  0.5555556E-01  0.5555556E-01  0.4115226E-02
      1        -25.498087   1.000000
      2        -25.033390   1.000000
      3        -24.914022   1.000000
      4          0.827084   1.000000
      5          4.194955   1.000015
      6          4.466296   1.009434
      7          7.563480  -0.000000
      8          7.689729  -0.000000
      9          8.165711  -0.000000
 
  0.2222222E+00  0.5555556E-01  0.5555556E-01  0.4115226E-02
      1        -25.694334   1.000000
      2        -25.116465   1.000000
      3        -24.918328   1.000000
      4          1.352845   1.000000
      5          3.870613   1.000000
      6          4.468001   1.009684
      7          7.738992  -0.000000
      8          8.321219  -0.000000
      9          8.603543  -0.000000
 
  0.2777778E+00  0.5555556E-01  0.5555556E-01  0.4115226E-02
      1        -25.872312   1.000000
      2        -25.195750   1.000000
      3        -24.922412   1.000000
      4          1.585489   1.000000
      5          3.595320   1.000000
      6          4.876669   0.412322
      7          7.922018  -0.000000
      8          8.481241  -0.000000
      9          9.653833  -0.000000
 
  0.3333333E+00  0.5555556E-01  0.5555556E-01  0.4115226E-02
      1        -26.013594   1.000000
      2        -25.260580   1.000000
      3        -24.925761   1.000000
      4          1.566069   1.000000
      5          3.387359   1.000000
      6          5.605279  -0.000001
      7          8.092749  -0.000000
      8          8.631085  -0.000000
      9         10.654589   0.000000
 
  0.3888889E+00  0.5555556E-01  0.5555556E-01  0.4115226E-02
      1        -26.104227   1.000000
      2        -25.302834   1.000000
      3        -24.927965   1.000000
      4          1.481670   1.000000
      5          3.258306   1.000000
      6          6.320436  -0.000000
      7          8.177653  -0.000000
      8          8.742361  -0.000000
      9         11.418749   0.000000
 
  0.4444444E+00  0.5555556E-01  0.5555556E-01  0.2057613E-02
      1        -26.135427   1.000000
      2        -25.317469   1.000000
      3        -24.928750   1.000000
      4          1.443314   1.000000
      5          3.214598   1.000000
      6          6.636084  -0.000000
      7          8.184467  -0.000000
      8          8.784067  -0.000000
      9         11.714186   0.000000
 
 -0.5555556E-01  0.5555556E-01  0.5555556E-01  0.1028807E-02
      1        -24.937336   1.000000
      2        -24.903860   1.000000
      3        -24.903853   1.000000
      4         -0.789169   1.000000
      5          5.199935  -0.017660
      6          5.199951  -0.017657
      7          5.338495  -0.001690
      8          7.723187  -0.000000
      9          8.206284  -0.000000
 
  0.1111111E+00  0.1111111E+00  0.5555556E-01  0.4115226E-02
      1        -25.474868   1.000000
      2        -24.993925   1.000000
      3        -24.940028   1.000000
      4          0.780450   1.000000
      5          4.277804   1.000170
      6          4.320029   1.000502
      7          7.604220  -0.000000
      8          7.690259  -0.000000
      9          8.117866  -0.000000
 
  0.1666667E+00  0.1111111E+00  0.5555556E-01  0.8230453E-02
      1        -25.647480   1.000000
      2        -25.070743   1.000000
      3        -24.954414   1.000000
      4          1.394182   1.000000
      5          3.961536   1.000000
      6          4.130501   1.000002
      7          7.711046  -0.000000
      8          8.311667  -0.000000
      9          8.596604  -0.000000
 
  0.2222222E+00  0.1111111E+00  0.5555556E-01  0.8230453E-02
      1        -25.806302   1.000000
      2        -25.163031   1.000000
      3        -24.963201   1.000000
      4          1.826217   1.000000
      5          3.676282   1.000000
      6          4.255539   1.000093
      7          7.835697  -0.000000
      8          8.490703  -0.000000
      9          9.680626  -0.000000
 
  0.2777778E+00  0.1111111E+00  0.5555556E-01  0.8230453E-02
      1        -25.937684   1.000000
      2        -25.250297   1.000000
      3        -24.969920   1.000000
      4          1.920685   1.000000
      5          3.457839   1.000000
      6          4.805000   0.707542
      7          8.014979  -0.000000
      8          8.639595  -0.000000
      9         10.765111   0.000000
 
  0.3333333E+00  0.1111111E+00  0.5555556E-01  0.8230453E-02
      1        -26.031167   1.000000
      2        -25.317460   1.000000
      3        -24.974688   1.000000
      4          1.841897   1.000000
      5          3.310344   1.000000
      6          5.521145  -0.000013
      7          8.167208  -0.000000
      8          8.759168  -0.000000
      9         11.703506   0.000000
 
  0.3888889E+00  0.1111111E+00  0.5555556E-01  0.8230453E-02
      1        -26.079676   1.000000
      2        -25.353857   1.000000
      3        -24.977186   1.000000
      4          1.768381   1.000000
      5          3.235938   1.000000
      6          6.027601  -0.000000
      7          8.230494  -0.000000
      8          8.841931  -0.000000
      9         12.279642   0.000000
 
 -0.1111111E+00  0.1111111E+00  0.5555556E-01  0.4115226E-02
      1        -25.048073   1.000000
      2        -24.940841   1.000000
      3        -24.912669   1.000000
      4         -0.430631   1.000000
      5          5.031902  -0.007854
      6          5.154796  -0.027880
      7          5.663276  -0.000000
      8          7.365459  -0.000000
      9          8.311345  -0.000000
 
  0.1666667E+00  0.1666667E+00  0.5555556E-01  0.4115226E-02
      1        -25.780586   1.000000
      2        -25.142944   1.000000
      3        -24.989135   1.000000
      4          1.963769   1.000000
      5          3.762436   1.000000
      6          3.924208   1.000000
      7          7.775028  -0.000000
      8          8.520333  -0.000000
      9          9.702398  -0.000000
 
  0.2222222E+00  0.1666667E+00  0.5555556E-01  0.8230453E-02
      1        -25.886436   1.000000
      2        -25.240732   1.000000
      3        -25.009436   1.000000
      4          2.284280   1.000000
      5          3.552571   1.000000
      6          4.137508   1.000002
      7          7.913494  -0.000000
      8          8.680687  -0.000000
      9         10.859670   0.000000
 
  0.2777778E+00  0.1666667E+00  0.5555556E-01  0.8230453E-02
      1        -25.959891   1.000000
      2        -25.336531   1.000000
      3        -25.021545   1.000000
      4          2.287733   1.000000
      5          3.408011   1.000000
      6          4.702017   0.981695
      7          8.094492  -0.000000
      8          8.783671  -0.000000
      9         11.958759   0.000000
 
  0.3333333E+00  0.1666667E+00  0.5555556E-01  0.8230453E-02
      1        -26.001319   1.000000
      2        -25.406043   1.000000
      3        -25.028362   1.000000
      4          2.202997   1.000000
      5          3.326201   1.000000
      6          5.253575  -0.008289
      7          8.235964  -0.000000
      8          8.859735  -0.000000
      9         12.826608   0.000000
 
  0.3888889E+00  0.1666667E+00  0.5555556E-01  0.4115226E-02
      1        -26.014391   1.000000
      2        -25.431523   1.000000
      3        -25.030605   1.000000
      4          2.164068   1.000000
      5          3.299654   1.000000
      6          5.479943  -0.000047
      7          8.280750  -0.000000
      8          8.900495  -0.000000
      9         13.185102   0.000000
 
 -0.1666667E+00  0.1666667E+00  0.5555556E-01  0.4115226E-02
      1        -25.225980   1.000000
      2        -24.997002   1.000000
      3        -24.914180   1.000000
      4          0.107716   1.000000
      5          4.738184   0.914647
      6          5.015248   0.010691
      7          6.248499  -0.000000
      8          7.109301  -0.000000
      9          8.403693  -0.000000
 
 -0.1111111E+00  0.1666667E+00  0.5555556E-01  0.4115226E-02
      1        -25.173098   1.000000
      2        -24.980268   1.000000
      3        -24.941291   1.000000
      4          0.014562   1.000000
      5          4.934201   0.194902
      6          5.026833  -0.002821
      7          6.054026  -0.000000
      8          6.969934  -0.000000
      9          8.475806  -0.000000
 
  0.2222222E+00  0.2222222E+00  0.5555556E-01  0.4115226E-02
      1        -25.928641   1.000000
      2        -25.346793   1.000000
      3        -25.041038   1.000000
      4          2.536963   1.000000
      5          3.507572   1.000000
      6          4.259320   1.000103
      7          8.053672  -0.000000
      8          8.792496  -0.000000
      9         12.060901   0.000000
 
  0.2777778E+00  0.2222222E+00  0.5555556E-01  0.8230453E-02
      1        -25.936258   1.000000
      2        -25.454831   1.000000
      3        -25.059113   1.000000
      4          2.562413   1.000000
      5          3.495030   1.000000
      6          4.592936   1.034364
      7          8.231927  -0.000000
      8          8.836612  -0.000000
      9         13.175757   0.000000
 
  0.3333333E+00  0.2222222E+00  0.5555556E-01  0.8230453E-02
      1        -25.926543   1.000000
      2        -25.527461   1.000000
      3        -25.067368   1.000000
      4          2.529990   1.000000
      5          3.489159   1.000000
      6          4.857762   0.491796
      7          8.360755  -0.000000
      8          8.857102  -0.000000
      9         13.997698   0.000000
 
 -0.2222222E+00  0.2222222E+00  0.5555556E-01  0.4115226E-02
      1        -25.439362   1.000000
      2        -25.065067   1.000000
      3        -24.915132   1.000000
      4          0.718490   1.000000
      5          4.401059   1.002995
      6          4.813873   0.673246
      7          7.035210  -0.000000
      8          7.092363  -0.000000
      9          8.504338  -0.000000
 
 -0.1666667E+00  0.2222222E+00  0.5555556E-01  0.8230453E-02
      1        -25.355594   1.000000
      2        -25.043016   1.000000
      3        -24.951193   1.000000
      4          0.594591   1.000000
      5          4.663345   1.020771
      6          4.825290   0.627541
      7          6.723643  -0.000000
      8          6.788911  -0.000000
      9          8.620160  -0.000000
 
  0.2777778E+00  0.2777778E+00  0.5555556E-01  0.4115226E-02
      1        -25.873807   1.000000
      2        -25.583716   1.000000
      3        -25.079814   1.000000
      4          2.671372   1.000000
      5          3.710250   1.000000
      6          4.471970   1.010286
      7          8.416724  -0.000000
      8          8.805703  -0.000000
      9         14.335460   0.000000
 
  0.3333333E+00  0.2777778E+00  0.5555556E-01  0.4115226E-02
      1        -25.819247   1.000000
      2        -25.662133   1.000000
      3        -25.086285   1.000000
      4          2.691138   1.000000
      5          3.846490   1.000000
      6          4.393081   1.002555
      7          8.537167  -0.000000
      8          8.751095  -0.000000
      9         15.052850   0.000000
 
 -0.2777778E+00  0.2777778E+00  0.5555556E-01  0.4115226E-02
      1        -25.660138   1.000000
      2        -25.136592   1.000000
      3        -24.915976   1.000000
      4          1.219810   1.000000
      5          4.068496   1.000000
      6          4.767810   0.835425
      7          7.289271  -0.000000
      8          7.978121  -0.000000
      9          8.615833  -0.000000
 
 -0.2222222E+00  0.2777778E+00  0.5555556E-01  0.8230453E-02
      1        -25.561530   1.000000
      2        -25.117666   1.000000
      3        -24.954197   1.000000
      4          1.175020   1.000000
      5          4.324768   1.000563
      6          4.641156   1.031159
      7          6.870479  -0.000000
      8          7.609534  -0.000000
      9          8.752575  -0.000000
 
 -0.1666667E+00  0.2777778E+00  0.5555556E-01  0.4115226E-02
      1        -25.520156   1.000000
      2        -25.107746   1.000000
      3        -24.978232   1.000000
      4          1.167928   1.000000
      5          4.430910   1.005237
      6          4.597252   1.034807
      7          6.673288  -0.000000
      8          7.506405  -0.000000
      9          8.808564  -0.000000
 
 -0.3333333E+00  0.3333333E+00  0.5555556E-01  0.4115226E-02
      1        -25.862101   1.000000
      2        -25.202984   1.000000
      3        -24.916796   1.000000
      4          1.438279   1.000000
      5          3.776969   1.000000
      6          5.082272  -0.033967
      7          7.595085  -0.000000
      8          8.744971  -0.000000
      9          9.007255  -0.000000
 
 -0.2777778E+00  0.3333333E+00  0.5555556E-01  0.8230453E-02
      1        -25.763130   1.000000
      2        -25.192110   1.000000
      3        -24.955348   1.000000
      4          1.556020   1.000000
      5          4.017355   1.000000
      6          4.676991   1.010373
      7          7.164205  -0.000000
      8          8.571648  -0.000000
      9          8.922634  -0.000000
 
 -0.2222222E+00  0.3333333E+00  0.5555556E-01  0.8230453E-02
      1        -25.693255   1.000000
      2        -25.190087   1.000000
      3        -24.990301   1.000000
      4          1.680545   1.000000
      5          4.076083   1.000000
      6          4.525933   1.020798
      7          6.815387  -0.000000
      8          8.404311  -0.000000
      9          9.027408  -0.000000
 
 -0.3888889E+00  0.3888889E+00  0.5555556E-01  0.4115226E-02
      1        -26.022992   1.000000
      2        -25.256488   1.000000
      3        -24.917450   1.000000
      4          1.419077   1.000000
      5          3.552313   1.000000
      6          5.667790  -0.000000
      7          7.849147  -0.000000
      8          8.947886  -0.000000
      9         10.005903  -0.000000
 
 -0.3333333E+00  0.3888889E+00  0.5555556E-01  0.8230453E-02
      1        -25.936538   1.000000
      2        -25.256953   1.000000
      3        -24.955837   1.000000
      4          1.638627   1.000000
      5          3.774466   1.000000
      6          5.033970  -0.009760
      7          7.504227  -0.000000
      8          8.990906  -0.000000
      9          9.728774  -0.000000
 
 -0.2777778E+00  0.3888889E+00  0.5555556E-01  0.8230453E-02
      1        -25.852647   1.000000
      2        -25.272367   1.000000
      3        -24.995427   1.000000
      4          1.941591   1.000000
      5          3.850077   1.000000
      6          4.608866   1.035443
      7          7.127726  -0.000000
      8          8.869292  -0.000000
      9          9.774281  -0.000000
 
 -0.2222222E+00  0.3888889E+00  0.5555556E-01  0.4115226E-02
      1        -25.815344   1.000000
      2        -25.284115   1.000000
      3        -25.011402   1.000000
      4          2.113174   1.000000
      5          3.744210   1.000000
      6          4.556941   1.027900
      7          6.953083  -0.000000
      8          8.812468  -0.000000
      9          9.819755  -0.000000
 
 -0.4444444E+00  0.4444444E+00  0.5555556E-01  0.4115226E-02
      1        -26.126249   1.000000
      2        -25.291124   1.000000
      3        -24.917866   1.000000
      4          1.335579   1.000000
      5          3.411301   1.000000
      6          6.237343  -0.000000
      7          7.900701  -0.000000
      8          9.246184  -0.000000
      9         10.781783   0.000000
 
 -0.3888889E+00  0.4444444E+00  0.5555556E-01  0.8230453E-02
      1        -26.062923   1.000000
      2        -25.304668   1.000000
      3        -24.956055   1.000000
      4          1.562553   1.000000
      5          3.604311   1.000000
      6          5.525404  -0.000012
      7          7.674433  -0.000000
      8          9.331207  -0.000000
      9         10.663280   0.000000
 
 -0.3333333E+00  0.4444444E+00  0.5555556E-01  0.8230453E-02
      1        -25.980145   1.000000
      2        -25.340641   1.000000
      3        -24.997688   1.000000
      4          1.933668   1.000000
      5          3.729689   1.000000
      6          4.888184   0.365036
      7          7.427132  -0.000000
      8          9.105825  -0.000000
      9         10.842413   0.000000
 
 -0.2777778E+00  0.4444444E+00  0.5555556E-01  0.8230453E-02
      1        -25.914499   1.000000
      2        -25.380678   1.000000
      3        -25.021747   1.000000
      4          2.319541   1.000000
      5          3.581589   1.000000
      6          4.627617   1.034251
      7          7.244293  -0.000000
      8          8.919062  -0.000000
      9         10.996740   0.000000
 
  0.5000000E+00  0.5000000E+00  0.5555556E-01  0.2057613E-02
      1        -26.161841   1.000000
      2        -25.303126   1.000000
      3        -24.918046   1.000000
      4          1.297233   1.000000
      5          3.363294   1.000000
      6          6.489163  -0.000000
      7          7.862970  -0.000000
      8          9.406568  -0.000000
      9         11.085175   0.000000
 
 -0.4444444E+00  0.5000000E+00  0.5555556E-01  0.8230453E-02
      1        -26.129404   1.000000
      2        -25.329900   1.000000
      3        -24.956140   1.000000
      4          1.489117   1.000000
      5          3.516358   1.000000
      6          5.882321  -0.000000
      7          7.656038  -0.000000
      8          9.675831  -0.000000
      9         11.258941   0.000000
 
 -0.3888889E+00  0.5000000E+00  0.5555556E-01  0.8230453E-02
      1        -26.062214   1.000000
      2        -25.385400   1.000000
      3        -24.998627   1.000000
      4          1.842468   1.000000
      5          3.657470   1.000000
      6          5.196852  -0.018324
      7          7.531239  -0.000000
      8          9.455607  -0.000000
      9         11.749256   0.000000
 
 -0.3333333E+00  0.5000000E+00  0.5555556E-01  0.8230453E-02
      1        -25.983084   1.000000
      2        -25.458743   1.000000
      3        -25.026558   1.000000
      4          2.295983   1.000000
      5          3.610537   1.000000
      6          4.701488   0.982442
      7          7.513320  -0.000000
      8          9.098760  -0.000000
      9         12.170536   0.000000
 
 -0.2777778E+00  0.5000000E+00  0.5555556E-01  0.4115226E-02
      1        -25.942622   1.000000
      2        -25.498282   1.000000
      3        -25.035544   1.000000
      4          2.600118   1.000000
      5          3.417003   1.000000
      6          4.568889   1.030439
      7          7.534763  -0.000000
      8          8.926098  -0.000000
      9         12.325345   0.000000
 
 -0.4444444E+00 -0.4444444E+00  0.5555556E-01  0.4115226E-02
      1        -26.090522   1.000000
      2        -25.400951   1.000000
      3        -24.998897   1.000000
      4          1.799915   1.000000
      5          3.631887   1.000000
      6          5.330352  -0.002007
      7          7.528031  -0.000000
      8          9.651689  -0.000000
      9         12.133511   0.000000
 
 -0.3888889E+00 -0.4444444E+00  0.5555556E-01  0.8230453E-02
      1        -26.017791   1.000000
      2        -25.502249   1.000000
      3        -25.028471   1.000000
      4          2.229482   1.000000
      5          3.667741   1.000000
      6          4.752146   0.880026
      7          7.617399  -0.000000
      8          9.337830  -0.000000
      9         13.032765   0.000000
 
 -0.3333333E+00 -0.4444444E+00  0.5555556E-01  0.8230453E-02
      1        -25.942425   1.000000
      2        -25.595974   1.000000
      3        -25.041859   1.000000
      4          2.676728   1.000000
      5          3.508186   1.000000
      6          4.394408   1.002624
      7          7.839812  -0.000000
      8          8.980245  -0.000000
      9         13.591292   0.000000
 
 -0.3888889E+00 -0.3888889E+00  0.5555556E-01  0.4115226E-02
      1        -25.935946   1.000000
      2        -25.636603   1.000000
      3        -25.043662   1.000000
      4          2.667126   1.000000
      5          3.635883   1.000000
      6          4.264505   1.000119
      7          7.955770  -0.000000
      8          9.036387  -0.000000
      9         14.306025   0.000000
 
 -0.3333333E+00 -0.3888889E+00  0.5555556E-01  0.4115226E-02
      1        -25.865126   1.000000
      2        -25.726714   1.000000
      3        -25.048144   1.000000
      4          2.935838   1.000000
      5          3.592275   1.000000
      6          3.999280   1.000000
      7          8.271219  -0.000000
      8          8.749737  -0.000000
      9         14.981861   0.000000
 
  0.1111111E+00  0.1111111E+00  0.1111111E+00  0.1371742E-02
      1        -25.631827   1.000000
      2        -25.004104   1.000000
      3        -25.004098   1.000000
      4          1.387250   1.000000
      5          3.981986   1.000000
      6          3.981992   1.000000
      7          8.024994  -0.000000
      8          8.025000  -0.000000
      9          8.616524  -0.000000
 
  0.1666667E+00  0.1111111E+00  0.1111111E+00  0.4115226E-02
      1        -25.771783   1.000000
      2        -25.097497   1.000000
      3        -25.014945   1.000000
      4          1.996021   1.000000
      5          3.698762   1.000000
      6          3.826554   1.000000
      7          8.046564  -0.000000
      8          8.301034  -0.000000
      9          9.730070  -0.000000
 
  0.2222222E+00  0.1111111E+00  0.1111111E+00  0.4115226E-02
      1        -25.884306   1.000000
      2        -25.202467   1.000000
      3        -25.025189   1.000000
      4          2.304564   1.000000
      5          3.478404   1.000000
      6          4.095573   1.000001
      7          8.151539  -0.000000
      8          8.518959  -0.000000
      9         10.871691   0.000000
 
  0.2777778E+00  0.1111111E+00  0.1111111E+00  0.4115226E-02
      1        -25.963949   1.000000
      2        -25.298734   1.000000
      3        -25.033533   1.000000
      4          2.268636   1.000000
      5          3.322372   1.000000
      6          4.771890   0.822844
      7          8.279709  -0.000000
      8          8.681714  -0.000000
      9         11.926918   0.000000
 
  0.3333333E+00  0.1111111E+00  0.1111111E+00  0.4115226E-02
      1        -26.010137   1.000000
      2        -25.366717   1.000000
      3        -25.039006   1.000000
      4          2.165231   1.000000
      5          3.229651   1.000000
      6          5.428732  -0.000195
      7          8.371134  -0.000000
      8          8.785445  -0.000000
      9         12.723438   0.000000
 
  0.3888889E+00  0.1111111E+00  0.1111111E+00  0.2057613E-02
      1        -26.025063   1.000000
      2        -25.391323   1.000000
      3        -25.040907   1.000000
      4          2.121520   1.000000
      5          3.198926   1.000000
      6          5.703478  -0.000000
      7          8.400209  -0.000000
      8          8.821547  -0.000000
      9         13.035051   0.000000
 
 -0.1111111E+00  0.1111111E+00  0.1111111E+00  0.1028807E-02
      1        -25.094543   1.000000
      2        -24.978421   1.000000
      3        -24.978414   1.000000
      4         -0.084525   1.000000
      5          5.182511  -0.021527
      6          5.182524  -0.021524
      7          5.683164  -0.000000
      8          6.809967  -0.000000
      9          8.550613  -0.000000
 
  0.1666667E+00  0.1666667E+00  0.1111111E+00  0.4115226E-02
      1        -25.864067   1.000000
      2        -25.163600   1.000000
      3        -25.068575   1.000000
      4          2.571678   1.000000
      5          3.553923   1.000000
      6          3.639616   1.000000
      7          8.197551  -0.000000
      8          8.478810  -0.000000
      9         10.920306   0.000000
 
  0.2222222E+00  0.1666667E+00  0.1111111E+00  0.8230453E-02
      1        -25.919479   1.000000
      2        -25.271082   1.000000
      3        -25.092305   1.000000
      4          2.735118   1.000000
      5          3.407412   1.000000
      6          4.028044   1.000000
      7          8.317078  -0.000000
      8          8.662576  -0.000000
      9         12.079726   0.000000
 
  0.2777778E+00  0.1666667E+00  0.1111111E+00  0.8230453E-02
      1        -25.941679   1.000000
      2        -25.374700   1.000000
      3        -25.105065   1.000000
      4          2.637549   1.000000
      5          3.311782   1.000000
      6          4.678965   1.008581
      7          8.434876  -0.000000
      8          8.781380  -0.000000
      9         13.081605   0.000000
 
  0.3333333E+00  0.1666667E+00  0.1111111E+00  0.8230453E-02
      1        -25.944309   1.000000
      2        -25.439614   1.000000
      3        -25.111238   1.000000
      4          2.557329   1.000000
      5          3.267135   1.000000
      6          5.125882  -0.033422
      7          8.505946  -0.000000
      8          8.840490  -0.000000
      9         13.734163   0.000000
 
 -0.1666667E+00  0.1666667E+00  0.1111111E+00  0.4115226E-02
      1        -25.239620   1.000000
      2        -25.035451   1.000000
      3        -25.001873   1.000000
      4          0.435069   1.000000
      5          5.022683   0.001690
      6          5.114837  -0.034766
      7          6.153940  -0.000000
      8          6.383439  -0.000000
      9          8.737083  -0.000000
 
  0.2222222E+00  0.2222222E+00  0.1111111E+00  0.4115226E-02
      1        -25.911700   1.000000
      2        -25.377018   1.000000
      3        -25.135059   1.000000
      4          2.870252   1.000000
      5          3.490865   1.000000
      6          4.193966   1.000015
      7          8.449082  -0.000000
      8          8.781455  -0.000000
      9         13.222435   0.000000
 
  0.2777778E+00  0.2222222E+00  0.1111111E+00  0.8230453E-02
      1        -25.873395   1.000000
      2        -25.487323   1.000000
      3        -25.155680   1.000000
      4          2.842702   1.000000
      5          3.530263   1.000000
      6          4.523964   1.020353
      7          8.568770  -0.000000
      8          8.832682  -0.000000
      9         14.186715   0.000000
 
  0.3333333E+00  0.2222222E+00  0.1111111E+00  0.4115226E-02
      1        -25.846102   1.000000
      2        -25.540671   1.000000
      3        -25.161867   1.000000
      4          2.822667   1.000000
      5          3.534873   1.000000
      6          4.679235   1.008330
      7          8.622246  -0.000000
      8          8.842265  -0.000000
      9         15.038278   0.000000
 
 -0.2222222E+00  0.2222222E+00  0.1111111E+00  0.4115226E-02
      1        -25.437898   1.000000
      2        -25.104624   1.000000
      3        -25.005103   1.000000
      4          1.028412   1.000000
      5          4.726604   0.939626
      6          4.827382   0.619004
      7          6.366367  -0.000000
      8          6.921603  -0.000000
      9          8.886102  -0.000000
 
 -0.1666667E+00  0.2222222E+00  0.1111111E+00  0.4115226E-02
      1        -25.379148   1.000000
      2        -25.097441   1.000000
      3        -25.041467   1.000000
      4          0.982289   1.000000
      5          4.885861   0.374473
      6          5.001431   0.030718
      7          6.075884  -0.000000
      8          6.665839  -0.000000
      9          8.939015  -0.000000
 
  0.2777778E+00  0.2777778E+00  0.1111111E+00  0.4115226E-02
      1        -25.771608   1.000000
      2        -25.617128   1.000000
      3        -25.178799   1.000000
      4          2.885291   1.000000
      5          3.877081   1.000000
      6          4.305319   1.000348
      7          8.695350  -0.000000
      8          8.808501  -0.000000
      9         14.845593   0.000000
 
 -0.2777778E+00  0.2777778E+00  0.1111111E+00  0.4115226E-02
      1        -25.647427   1.000000
      2        -25.177264   1.000000
      3        -25.004161   1.000000
      4          1.527878   1.000000
      5          4.417248   1.004083
      6          4.564470   1.029529
      7          6.674159  -0.000000
      8          7.864250  -0.000000
      9          9.016753  -0.000000
 
 -0.2222222E+00  0.2777778E+00  0.1111111E+00  0.8230453E-02
      1        -25.560194   1.000000
      2        -25.173089   1.000000
      3        -25.053000   1.000000
      4          1.538599   1.000000
      5          4.451782   1.007485
      6          4.833169   0.595179
      7          6.222829  -0.000000
      8          7.486375  -0.000000
      9          9.099710  -0.000000
 
 -0.3333333E+00  0.3333333E+00  0.1111111E+00  0.4115226E-02
      1        -25.840287   1.000000
      2        -25.244635   1.000000
      3        -25.002241   1.000000
      4          1.751236   1.000000
      5          4.141408   1.000003
      6          4.610752   1.035458
      7          7.084058  -0.000000
      8          8.901240  -0.000000
      9          9.202406  -0.000000
 
 -0.2777778E+00  0.3333333E+00  0.1111111E+00  0.8230453E-02
      1        -25.744682   1.000000
      2        -25.249575   1.000000
      3        -25.054445   1.000000
      4          1.925650   1.000000
      5          4.141276   1.000003
      6          4.642448   1.030747
      7          6.618683  -0.000000
      8          8.423882  -0.000000
      9          9.316165  -0.000000
 
 -0.2222222E+00  0.3333333E+00  0.1111111E+00  0.4115226E-02
      1        -25.700395   1.000000
      2        -25.259226   1.000000
      3        -25.076046   1.000000
      4          2.018449   1.000000
      5          3.982532   1.000000
      6          4.870909   0.436365
      7          6.354049  -0.000000
      8          8.266234  -0.000000
      9          9.362581  -0.000000
 
 -0.3888889E+00  0.3888889E+00  0.1111111E+00  0.4115226E-02
      1        -25.994395   1.000000
      2        -25.298973   1.000000
      3        -25.000390   1.000000
      4          1.720246   1.000000
      5          3.927209   1.000000
      6          4.937228   0.185145
      7          7.343493  -0.000000
      8          9.600385  -0.000000
      9          9.913430  -0.000000
 
 -0.3333333E+00  0.3888889E+00  0.1111111E+00  0.8230453E-02
      1        -25.905667   1.000000
      2        -25.316308   1.000000
      3        -25.052884   1.000000
      4          2.010718   1.000000
      5          4.065943   1.000000
      6          4.571392   1.030934
      7          6.997702  -0.000000
      8          9.169385  -0.000000
      9          9.936954  -0.000000
 
 -0.2777778E+00  0.3888889E+00  0.1111111E+00  0.8230453E-02
      1        -25.834480   1.000000
      2        -25.347946   1.000000
      3        -25.083548   1.000000
      4          2.317166   1.000000
      5          3.682712   1.000000
      6          4.801949   0.719049
      7          6.710494  -0.000000
      8          8.811502  -0.000000
      9         10.059376  -0.000000
 
 -0.4444444E+00  0.4444444E+00  0.1111111E+00  0.4115226E-02
      1        -26.093458   1.000000
      2        -25.334148   1.000000
      3        -24.999100   1.000000
      4          1.621509   1.000000
      5          3.792245   1.000000
      6          5.303195  -0.003457
      7          7.347675  -0.000000
      8         10.170947  -0.000000
      9         10.704964   0.000000
 
 -0.3888889E+00  0.4444444E+00  0.1111111E+00  0.8230453E-02
      1        -26.023763   1.000000
      2        -25.365426   1.000000
      3        -25.050935   1.000000
      4          1.914319   1.000000
      5          4.024757   1.000000
      6          4.721960   0.948699
      7          7.130764  -0.000000
      8          9.782477  -0.000000
      9         10.874555   0.000000
 
 -0.3333333E+00  0.4444444E+00  0.1111111E+00  0.8230453E-02
      1        -25.943642   1.000000
      2        -25.422360   1.000000
      3        -25.084911   1.000000
      4          2.325530   1.000000
      5          3.711100   1.000000
      6          4.665686   1.019223
      7          7.041990  -0.000000
      8          9.196483  -0.000000
      9         11.159516   0.000000
 
 -0.2777778E+00  0.4444444E+00  0.1111111E+00  0.4115226E-02
      1        -25.903293   1.000000
      2        -25.456507   1.000000
      3        -25.095200   1.000000
      4          2.638999   1.000000
      5          3.341389   1.000000
      6          4.756627   0.867881
      7          7.036755  -0.000000
      8          8.940877  -0.000000
      9         11.259118   0.000000
 
  0.5000000E+00  0.5000000E+00  0.1111111E+00  0.2057613E-02
      1        -26.127618   1.000000
      2        -25.346306   1.000000
      3        -24.998678   1.000000
      4          1.577198   1.000000
      5          3.746225   1.000000
      6          5.468057  -0.000066
      7          7.297207  -0.000000
      8         10.468321   0.000000
      9         11.016192   0.000000
 
 -0.4444444E+00  0.5000000E+00  0.1111111E+00  0.8230453E-02
      1        -26.086062   1.000000
      2        -25.391413   1.000000
      3        -25.049729   1.000000
      4          1.825143   1.000000
      5          3.978956   1.000000
      6          4.904140   0.302019
      7          7.093158  -0.000000
      8         10.284535   0.000000
      9         11.569040   0.000000
 
 -0.3888889E+00  0.5000000E+00  0.1111111E+00  0.8230453E-02
      1        -26.014490   1.000000
      2        -25.471324   1.000000
      3        -25.084479   1.000000
      4          2.212394   1.000000
      5          3.914767   1.000000
      6          4.510023   1.017302
      7          7.160932  -0.000000
      8          9.673928  -0.000000
      9         12.225894   0.000000
 
 -0.3333333E+00  0.5000000E+00  0.1111111E+00  0.8230453E-02
      1        -25.945458   1.000000
      2        -25.549818   1.000000
      3        -25.098817   1.000000
      4          2.697018   1.000000
      5          3.385752   1.000000
      6          4.499369   1.015122
      7          7.407397  -0.000000
      8          9.136689  -0.000000
      9         12.573828   0.000000
 
 -0.4444444E+00 -0.4444444E+00  0.1111111E+00  0.4115226E-02
      1        -26.038998   1.000000
      2        -25.488346   1.000000
      3        -25.084169   1.000000
      4          2.159200   1.000000
      5          4.045742   1.000000
      6          4.412359   1.003725
      7          7.170622  -0.000000
      8          9.920839  -0.000000
      9         12.742424   0.000000
 
 -0.3888889E+00 -0.4444444E+00  0.1111111E+00  0.8230453E-02
      1        -25.963468   1.000000
      2        -25.604600   1.000000
      3        -25.099575   1.000000
      4          2.607220   1.000000
      5          3.731001   1.000000
      6          4.132261   1.000002
      7          7.587624  -0.000000
      8          9.391587  -0.000000
      9         13.684310   0.000000
 
 -0.3333333E+00 -0.4444444E+00  0.1111111E+00  0.4115226E-02
      1        -25.911982   1.000000
      2        -25.671800   1.000000
      3        -25.103601   1.000000
      4          3.095200   1.000000
      5          3.204661   1.000000
      6          4.100923   1.000001
      7          7.932427  -0.000000
      8          9.024697  -0.000000
      9         14.030012   0.000000
 
 -0.3888889E+00 -0.3888889E+00  0.1111111E+00  0.4115226E-02
      1        -25.877039   1.000000
      2        -25.738027   1.000000
      3        -25.104634   1.000000
      4          3.084604   1.000000
      5          3.588427   1.000000
      6          3.648708   1.000000
      7          8.217092  -0.000000
      8          8.934239  -0.000000
      9         15.111736   0.000000
 
  0.1666667E+00  0.1666667E+00  0.1666667E+00  0.1371742E-02
      1        -25.904990   1.000000
      2        -25.183022   1.000000
      3        -25.183016   1.000000
      4          3.248501   1.000000
      5          3.416544   1.000000
      6          3.416547   1.000000
      7          8.509209  -0.000000
      8          8.509212  -0.000000
      9         12.135823   0.000000
 
  0.2222222E+00  0.1666667E+00  0.1666667E+00  0.4115226E-02
      1        -25.904244   1.000000
      2        -25.311817   1.000000
      3        -25.198802   1.000000
      4          3.175542   1.000000
      5          3.335074   1.000000
      6          4.001466   1.000000
      7          8.580450  -0.000000
      8          8.714659  -0.000000
      9         13.249345   0.000000
 
  0.2777778E+00  0.1666667E+00  0.1666667E+00  0.4115226E-02
      1        -25.875534   1.000000
      2        -25.424748   1.000000
      3        -25.209129   1.000000
      4          3.047517   1.000000
      5          3.294037   1.000000
      6          4.564626   1.029562
      7          8.646948  -0.000000
      8          8.828520  -0.000000
      9         14.128460   0.000000
 
  0.3333333E+00  0.1666667E+00  0.1666667E+00  0.2057613E-02
      1        -25.855388   1.000000
      2        -25.474178   1.000000
      3        -25.212696   1.000000
      4          3.002747   1.000000
      5          3.281807   1.000000
      6          4.786646   0.774205
      7          8.673126  -0.000000
      8          8.864686  -0.000000
      9         14.576517   0.000000
 
 -0.1666667E+00  0.1666667E+00  0.1666667E+00  0.1028807E-02
      1        -25.299952   1.000000
      2        -25.093844   1.000000
      3        -25.093837   1.000000
      4          0.922414   1.000000
      5          5.276648  -0.005629
      6          5.276658  -0.005628
      7          5.634093  -0.000000
      8          6.238326  -0.000000
      9          8.990425  -0.000000
 
  0.2222222E+00  0.2222222E+00  0.1666667E+00  0.4115226E-02
      1        -25.845913   1.000000
      2        -25.401584   1.000000
      3        -25.267204   1.000000
      4          3.232093   1.000000
      5          3.510466   1.000000
      6          4.140640   1.000003
      7          8.710560  -0.000000
      8          8.809841  -0.000000
      9         14.259135   0.000000
 
  0.2777778E+00  0.2222222E+00  0.1666667E+00  0.8230453E-02
      1        -25.769377   1.000000
      2        -25.511718   1.000000
      3        -25.287303   1.000000
      4          3.205426   1.000000
      5          3.585993   1.000000
      6          4.340340   1.000814
      7          8.772808  -0.000000
      8          8.865656  -0.000000
      9         14.750062   0.000000
 
 -0.2222222E+00  0.2222222E+00  0.1666667E+00  0.4115226E-02
      1        -25.446528   1.000000
      2        -25.164639   1.000000
      3        -25.129571   1.000000
      4          1.476347   1.000000
      5          4.811590   0.682184
      6          5.196929  -0.018307
      7          5.697761  -0.000000
      8          6.820996  -0.000000
      9          9.170571  -0.000000
 
  0.2777778E+00  0.2777778E+00  0.1666667E+00  0.1371742E-02
      1        -25.638884   1.000000
      2        -25.638879   1.000000
      3        -25.311466   1.000000
      4          3.211612   1.000000
      5          4.003556   1.000000
      6          4.003559   1.000000
      7          8.847127  -0.000000
      8          8.847128  -0.000000
      9         14.620347   0.000000
 
 -0.2777778E+00  0.2777778E+00  0.1666667E+00  0.4115226E-02
      1        -25.630909   1.000000
      2        -25.238950   1.000000
      3        -25.133980   1.000000
      4          1.954786   1.000000
      5          4.256445   1.000095
      6          4.964521   0.106957
      7          6.150936  -0.000000
      8          7.719616  -0.000000
      9          9.326731  -0.000000
 
 -0.2222222E+00  0.2777778E+00  0.1666667E+00  0.4115226E-02
      1        -25.572561   1.000000
      2        -25.242984   1.000000
      3        -25.173077   1.000000
      4          1.973021   1.000000
      5          4.265061   1.000121
      6          5.296898  -0.003896
      7          5.832478  -0.000000
      8          7.421061  -0.000000
      9          9.347366  -0.000000
 
 -0.3333333E+00  0.3333333E+00  0.1666667E+00  0.4115226E-02
      1        -25.807507   1.000000
      2        -25.307845   1.000000
      3        -25.130303   1.000000
      4          2.179064   1.000000
      5          4.022275   1.000000
      6          4.727126   0.938573
      7          6.601487  -0.000000
      8          8.752063  -0.000000
      9          9.611940  -0.000000
 
 -0.2777778E+00  0.3333333E+00  0.1666667E+00  0.8230453E-02
      1        -25.724647   1.000000
      2        -25.323850   1.000000
      3        -25.182799   1.000000
      4          2.340986   1.000000
      5          3.774013   1.000000
      6          5.176193  -0.022980
      7          6.254961  -0.000000
      8          8.274119  -0.000000
      9          9.621373  -0.000000
 
 -0.3888889E+00  0.3888889E+00  0.1666667E+00  0.4115226E-02
      1        -25.950465   1.000000
      2        -25.363413   1.000000
      3        -25.125345   1.000000
      4          2.119870   1.000000
      5          4.132923   1.000002
      6          4.535179   1.022917
      7          6.815628  -0.000000
      8          9.777213  -0.000000
      9         10.229786   0.000000
 
 -0.3333333E+00  0.3888889E+00  0.1666667E+00  0.8230453E-02
      1        -25.865374   1.000000
      2        -25.393931   1.000000
      3        -25.181229   1.000000
      4          2.421236   1.000000
      5          3.617102   1.000000
      6          4.977854   0.075481
      7          6.638435  -0.000000
      8          9.097275  -0.000000
      9         10.295242   0.000000
 
 -0.2777778E+00  0.3888889E+00  0.1666667E+00  0.4115226E-02
      1        -25.821510   1.000000
      2        -25.422283   1.000000
      3        -25.197559   1.000000
      4          2.641814   1.000000
      5          3.317755   1.000000
      6          5.181690  -0.021715
      7          6.596181  -0.000000
      8          8.770876  -0.000000
      9         10.340242   0.000000
 
 -0.4444444E+00  0.4444444E+00  0.1666667E+00  0.4115226E-02
      1        -26.042853   1.000000
      2        -25.399358   1.000000
      3        -25.121594   1.000000
      4          1.987673   1.000000
      5          4.351918   1.001061
      6          4.412265   1.003718
      7          6.787936  -0.000000
      8         10.589542   0.000000
      9         11.066847   0.000000
 
 -0.3888889E+00  0.4444444E+00  0.1666667E+00  0.8230453E-02
      1        -25.970955   1.000000
      2        -25.445282   1.000000
      3        -25.177241   1.000000
      4          2.276156   1.000000
      5          3.765992   1.000000
      6          4.782950   0.786830
      7          6.768102  -0.000000
      8          9.865221  -0.000000
      9         11.326194   0.000000
 
 -0.3333333E+00  0.4444444E+00  0.1666667E+00  0.8230453E-02
      1        -25.903001   1.000000
      2        -25.508090   1.000000
      3        -25.198975   1.000000
      4          2.669666   1.000000
      5          3.210525   1.000000
      6          4.954057   0.134790
      7          7.009138  -0.000000
      8          9.191621  -0.000000
      9         11.501732   0.000000
 
  0.5000000E+00  0.5000000E+00  0.1666667E+00  0.2057613E-02
      1        -26.074748   1.000000
      2        -25.411793   1.000000
      3        -25.120235   1.000000
      4          1.931018   1.000000
      5          4.370089   1.001583
      6          4.455874   1.008001
      7          6.737543  -0.000000
      8         10.912172   0.000000
      9         11.518634   0.000000
 
 -0.4444444E+00  0.5000000E+00  0.1666667E+00  0.8230453E-02
      1        -26.027155   1.000000
      2        -25.472387   1.000000
      3        -25.174501   1.000000
      4          2.154862   1.000000
      5          3.947020   1.000000
      6          4.635793   1.032642
      7          6.752773  -0.000000
      8         10.430935   0.000000
      9         12.233723   0.000000
 
 -0.3888889E+00  0.5000000E+00  0.1666667E+00  0.8230453E-02
      1        -25.956554   1.000000
      2        -25.565351   1.000000
      3        -25.197107   1.000000
      4          2.489226   1.000000
      5          3.423253   1.000000
      6          4.674824   1.012253
      7          7.216539  -0.000000
      8          9.698363  -0.000000
      9         12.755134   0.000000
 
 -0.3333333E+00  0.5000000E+00  0.1666667E+00  0.4115226E-02
      1        -25.913093   1.000000
      2        -25.619723   1.000000
      3        -25.202041   1.000000
      4          2.877443   1.000000
      5          2.967885   1.000000
      6          4.656893   1.024563
      7          7.598089  -0.000000
      8          9.247690  -0.000000
      9         12.921878   0.000000
 
 -0.4444444E+00 -0.4444444E+00  0.1666667E+00  0.4115226E-02
      1        -25.975156   1.000000
      2        -25.585408   1.000000
      3        -25.196078   1.000000
      4          2.414117   1.000000
      5          3.551586   1.000000
      6          4.530810   1.021911
      7          7.263235  -0.000000
      8          9.957630  -0.000000
      9         13.479228   0.000000
 
 -0.3888889E+00 -0.4444444E+00  0.1666667E+00  0.8230453E-02
      1        -25.903319   1.000000
      2        -25.696001   1.000000
      3        -25.201507   1.000000
      4          2.741756   1.000000
      5          3.170887   1.000000
      6          4.369516   1.001564
      7          7.989304  -0.000000
      8          9.342963  -0.000000
      9         14.294288   0.000000
 
 -0.3888889E+00 -0.3888889E+00  0.1666667E+00  0.1371742E-02
      1        -25.813636   1.000000
      2        -25.813631   1.000000
      3        -25.201918   1.000000
      4          2.973831   1.000000
      5          2.973833   1.000000
      6          4.210236   1.000025
      7          8.760307  -0.000000
      8          8.760310  -0.000000
      9         15.534653   0.000000
 
  0.2222222E+00  0.2222222E+00  0.2222222E+00  0.1371742E-02
      1        -25.740477   1.000000
      2        -25.417578   1.000000
      3        -25.417572   1.000000
      4          3.537877   1.000000
      5          3.537878   1.000000
      6          4.086013   1.000000
      7          8.850493  -0.000000
      8          8.850493  -0.000000
      9         14.665449   0.000000
 
  0.2777778E+00  0.2222222E+00  0.2222222E+00  0.2057613E-02
      1        -25.646423   1.000000
      2        -25.527591   1.000000
      3        -25.423134   1.000000
      4          3.550006   1.000000
      5          3.670787   1.000000
      6          4.051065   1.000000
      7          8.869136  -0.000000
      8          8.893147  -0.000000
      9         14.532868   0.000000
 
 -0.2222222E+00  0.2222222E+00  0.2222222E+00  0.1028807E-02
      1        -25.497986   1.000000
      2        -25.237322   1.000000
      3        -25.237314   1.000000
      4          1.959778   1.000000
      5          4.428402   1.005008
      6          5.585615  -0.000002
      7          5.585623  -0.000002
      8          6.971326  -0.000000
      9          9.360197  -0.000000
 
 -0.2777778E+00  0.2777778E+00  0.2222222E+00  0.4115226E-02
      1        -25.621423   1.000000
      2        -25.313644   1.000000
      3        -25.278822   1.000000
      4          2.359456   1.000000
      5          3.834795   1.000000
      6          5.627441  -0.000000
      7          5.955161  -0.000000
      8          7.633578  -0.000000
      9          9.538226  -0.000000
 
 -0.3333333E+00  0.3333333E+00  0.2222222E+00  0.4115226E-02
      1        -25.769468   1.000000
      2        -25.384393   1.000000
      3        -25.281762   1.000000
      4          2.547396   1.000000
      5          3.425374   1.000000
      6          5.493917  -0.000031
      7          6.371681  -0.000000
      8          8.601491  -0.000000
      9          9.918399  -0.000000
 
 -0.2777778E+00  0.3333333E+00  0.2222222E+00  0.4115226E-02
      1        -25.715421   1.000000
      2        -25.399835   1.000000
      3        -25.318998   1.000000
      4          2.617644   1.000000
      5          3.325482   1.000000
      6          5.783359  -0.000000
      7          6.288011  -0.000000
      8          8.247611  -0.000000
      9          9.856612  -0.000000
 
 -0.3888889E+00  0.3888889E+00  0.2222222E+00  0.4115226E-02
      1        -25.896489   1.000000
      2        -25.441406   1.000000
      3        -25.275105   1.000000
      4          2.424833   1.000000
      5          3.380267   1.000000
      6          5.349094  -0.001344
      7          6.566298  -0.000000
      8          9.621299  -0.000000
      9         10.715377   0.000000
 
 -0.3333333E+00  0.3888889E+00  0.2222222E+00  0.8230453E-02
      1        -25.823459   1.000000
      2        -25.477034   1.000000
      3        -25.323684   1.000000
      4          2.649100   1.000000
      5          3.017316   1.000000
      6          5.671580  -0.000000
      7          6.707084  -0.000000
      8          9.010715  -0.000000
      9         10.598431   0.000000
 
 -0.4444444E+00  0.4444444E+00  0.2222222E+00  0.4115226E-02
      1        -25.980156   1.000000
      2        -25.478311   1.000000
      3        -25.268783   1.000000
      4          2.235255   1.000000
      5          3.481630   1.000000
      6          5.248721  -0.008951
      7          6.560592  -0.000000
      8         10.451747   0.000000
      9         11.795296   0.000000
 
 -0.3888889E+00  0.4444444E+00  0.2222222E+00  0.8230453E-02
      1        -25.911303   1.000000
      2        -25.532470   1.000000
      3        -25.319163   1.000000
      4          2.410356   1.000000
      5          3.055482   1.000000
      6          5.510191  -0.000019
      7          6.917445  -0.000000
      8          9.795259  -0.000000
      9         11.751968   0.000000
 
 -0.3333333E+00  0.4444444E+00  0.2222222E+00  0.4115226E-02
      1        -25.869577   1.000000
      2        -25.576914   1.000000
      3        -25.329013   1.000000
      4          2.631726   1.000000
      5          2.747580   1.000000
      6          5.520325  -0.000014
      7          7.319727  -0.000000
      8          9.311023  -0.000000
      9         11.778672   0.000000
 
  0.5000000E+00  0.5000000E+00  0.2222222E+00  0.2057613E-02
      1        -26.009204   1.000000
      2        -25.491052   1.000000
      3        -25.266360   1.000000
      4          2.160884   1.000000
      5          3.531727   1.000000
      6          5.213386  -0.014904
      7          6.531471  -0.000000
      8         10.787220   0.000000
      9         12.439452   0.000000
 
 -0.4444444E+00  0.5000000E+00  0.2222222E+00  0.8230453E-02
      1        -25.959459   1.000000
      2        -25.561442   1.000000
      3        -25.315108   1.000000
      4          2.252214   1.000000
      5          3.117034   1.000000
      6          5.403276  -0.000376
      7          6.966730  -0.000000
      8         10.374647   0.000000
      9         12.906161   0.000000
 
 -0.3888889E+00  0.5000000E+00  0.2222222E+00  0.8230453E-02
      1        -25.897596   1.000000
      2        -25.649408   1.000000
      3        -25.326187   1.000000
      4          2.421075   1.000000
      5          2.778180   1.000000
      6          5.333018  -0.001898
      7          7.749815  -0.000000
      8          9.672557  -0.000000
      9         13.170658   0.000000
 
 -0.4444444E+00 -0.4444444E+00  0.2222222E+00  0.4115226E-02
      1        -25.906384   1.000000
      2        -25.676058   1.000000
      3        -25.324447   1.000000
      4          2.343349   1.000000
      5          2.797340   1.000000
      6          5.256212  -0.007944
      7          7.875521  -0.000000
      8          9.882079  -0.000000
      9         14.152179   0.000000
 
 -0.3888889E+00 -0.4444444E+00  0.2222222E+00  0.4115226E-02
      1        -25.853089   1.000000
      2        -25.753410   1.000000
      3        -25.324956   1.000000
      4          2.461038   1.000000
      5          2.602079   1.000000
      6          5.180862  -0.021905
      7          8.568403  -0.000000
      8          9.358776  -0.000000
      9         14.698332   0.000000
 
 -0.2777778E+00  0.2777778E+00  0.2777778E+00  0.1028807E-02
      1        -25.648035   1.000000
      2        -25.392047   1.000000
      3        -25.392038   1.000000
      4          2.604160   1.000000
      5          3.333471   1.000000
      6          6.176230  -0.000000
      7          6.176234  -0.000000
      8          7.828694  -0.000000
      9          9.747166  -0.000000
 
 -0.3333333E+00  0.3333333E+00  0.2777778E+00  0.4115226E-02
      1        -25.736572   1.000000
      2        -25.464673   1.000000
      3        -25.431187   1.000000
      4          2.658812   1.000000
      5          2.881909   1.000000
      6          6.353032  -0.000000
      7          6.573628  -0.000000
      8          8.527860  -0.000000
      9         10.183277   0.000000
 
 -0.3888889E+00  0.3888889E+00  0.2777778E+00  0.4115226E-02
      1        -25.839575   1.000000
      2        -25.523165   1.000000
      3        -25.429765   1.000000
      4          2.414073   1.000000
      5          2.752779   1.000000
      6          6.323535  -0.000000
      7          6.829001  -0.000000
      8          9.477697  -0.000000
      9         11.067548   0.000000
 
 -0.3333333E+00  0.3888889E+00  0.2777778E+00  0.4115226E-02
      1        -25.792559   1.000000
      2        -25.548813   1.000000
      3        -25.461588   1.000000
      4          2.479966   1.000000
      5          2.583032   1.000000
      6          6.486082  -0.000000
      7          7.136608  -0.000000
      8          9.077225  -0.000000
      9         10.894461   0.000000
 
 -0.4444444E+00  0.4444444E+00  0.2777778E+00  0.4115226E-02
      1        -25.912684   1.000000
      2        -25.561021   1.000000
      3        -25.421799   1.000000
      4          2.179080   1.000000
      5          2.736872   1.000000
      6          6.267926  -0.000000
      7          6.901339  -0.000000
      8         10.310174   0.000000
      9         12.307190   0.000000
 
 -0.3888889E+00  0.4444444E+00  0.2777778E+00  0.8230453E-02
      1        -25.853912   1.000000
      2        -25.613239   1.000000
      3        -25.460274   1.000000
      4          2.199972   1.000000
      5          2.476400   1.000000
      6          6.422334  -0.000000
      7          7.565260  -0.000000
      8          9.736011  -0.000000
      9         12.070921   0.000000
 
  0.5000000E+00  0.5000000E+00  0.2777778E+00  0.2057613E-02
      1        -25.938593   1.000000
      2        -25.574093   1.000000
      3        -25.418313   1.000000
      4          2.096922   1.000000
      5          2.732043   1.000000
      6          6.244971  -0.000000
      7          6.907380  -0.000000
      8         10.657279   0.000000
      9         13.159413   0.000000
 
 -0.4444444E+00  0.5000000E+00  0.2777778E+00  0.8230453E-02
      1        -25.891204   1.000000
      2        -25.646133   1.000000
      3        -25.455534   1.000000
      4          2.050899   1.000000
      5          2.416039   1.000000
      6          6.364699  -0.000000
      7          7.726580  -0.000000
      8         10.273337   0.000000
      9         13.396889   0.000000
 
 -0.3888889E+00  0.5000000E+00  0.2777778E+00  0.4115226E-02
      1        -25.851557   1.000000
      2        -25.703831   1.000000
      3        -25.458920   1.000000
      4          2.076813   1.000000
      5          2.264413   1.000000
      6          6.327949  -0.000000
      7          8.401608  -0.000000
      8          9.782562  -0.000000
      9         13.451965   0.000000
 
 -0.4444444E+00 -0.4444444E+00  0.2777778E+00  0.4115226E-02
      1        -25.840979   1.000000
      2        -25.746647   1.000000
      3        -25.456671   1.000000
      4          2.043278   1.000000
      5          2.180626   1.000000
      6          6.286615  -0.000000
      7          8.772621  -0.000000
      8          9.771119  -0.000000
      9         14.654943   0.000000
 
 -0.3333333E+00  0.3333333E+00  0.3333333E+00  0.1028807E-02
      1        -25.734618   1.000000
      2        -25.539046   1.000000
      3        -25.539036   1.000000
      4          2.428703   1.000000
      5          2.523976   1.000000
      6          7.072858  -0.000000
      7          7.072860  -0.000000
      8          8.727865  -0.000000
      9         10.600525   0.000000
 
 -0.3888889E+00  0.3888889E+00  0.3333333E+00  0.4115226E-02
      1        -25.789385   1.000000
      2        -25.598887   1.000000
      3        -25.568101   1.000000
      4          2.092534   1.000000
      5          2.310019   1.000000
      6          7.369787  -0.000000
      7          7.510149  -0.000000
      8          9.400866  -0.000000
      9         11.415050   0.000000
 
 -0.4444444E+00  0.4444444E+00  0.3333333E+00  0.4115226E-02
      1        -25.848716   1.000000
      2        -25.637626   1.000000
      3        -25.562376   1.000000
      4          1.886421   1.000000
      5          2.143553   1.000000
      6          7.418518  -0.000000
      7          7.723378  -0.000000
      8         10.184224   0.000000
      9         12.648487   0.000000
 
 -0.3888889E+00  0.4444444E+00  0.3333333E+00  0.4115226E-02
      1        -25.811452   1.000000
      2        -25.671219   1.000000
      3        -25.585384   1.000000
      4          1.839162   1.000000
      5          2.040505   1.000000
      6          7.518052  -0.000000
      7          8.289898  -0.000000
      8          9.820388  -0.000000
      9         12.395756   0.000000
 
  0.5000000E+00  0.5000000E+00  0.3333333E+00  0.2057613E-02
      1        -25.871394   1.000000
      2        -25.651011   1.000000
      3        -25.558096   1.000000
      4          1.817175   1.000000
      5          2.082538   1.000000
      6          7.419679  -0.000000
      7          7.778092  -0.000000
      8         10.537853   0.000000
      9         13.649645   0.000000
 
 -0.4444444E+00  0.5000000E+00  0.3333333E+00  0.8230453E-02
      1        -25.831376   1.000000
      2        -25.714094   1.000000
      3        -25.581274   1.000000
      4          1.725857   1.000000
      5          1.872071   1.000000
      6          7.522500  -0.000000
      7          8.729329  -0.000000
      8         10.188241   0.000000
      9         13.697006   0.000000
 
 -0.4444444E+00 -0.4444444E+00  0.3333333E+00  0.1371742E-02
      1        -25.787048   1.000000
      2        -25.787042   1.000000
      3        -25.579516   1.000000
      4          1.723854   1.000000
      5          1.723855   1.000000
      6          7.509637  -0.000000
      7          9.667535  -0.000000
      8          9.667539  -0.000000
      9         14.967235   0.000000
 
 -0.3888889E+00  0.3888889E+00  0.3888889E+00  0.1028807E-02
      1        -25.766917   1.000000
      2        -25.659878   1.000000
      3        -25.659868   1.000000
      4          1.758762   1.000000
      5          1.962809   1.000000
      6          8.250753  -0.000000
      7          8.250754  -0.000000
      8          9.549335  -0.000000
      9         11.983859   0.000000
 
 -0.4444444E+00  0.4444444E+00  0.3888889E+00  0.4115226E-02
      1        -25.796685   1.000000
      2        -25.699310   1.000000
      3        -25.674157   1.000000
      4          1.562926   1.000000
      5          1.705943   1.000000
      6          8.606957  -0.000000
      7          8.730722  -0.000000
      8         10.098228  -0.000000
      9         12.955607   0.000000
 
  0.5000000E+00  0.5000000E+00  0.3888889E+00  0.2057613E-02
      1        -25.816017   1.000000
      2        -25.712942   1.000000
      3        -25.669911   1.000000
      4          1.508300   1.000000
      5          1.603326   1.000000
      6          8.662463  -0.000000
      7          8.879674  -0.000000
      8         10.442316   0.000000
      9         13.934230   0.000000
 
 -0.4444444E+00  0.5000000E+00  0.3888889E+00  0.4115226E-02
      1        -25.791519   1.000000
      2        -25.751537   1.000000
      3        -25.680583   1.000000
      4          1.443172   1.000000
      5          1.500603   1.000000
      6          8.762468  -0.000000
      7          9.596342  -0.000000
      8         10.209184   0.000000
      9         13.895495   0.000000
 
 -0.4444444E+00  0.4444444E+00  0.4444444E+00  0.1028807E-02
      1        -25.769390   1.000000
      2        -25.739191   1.000000
      3        -25.739181   1.000000
      4          1.348487   1.000000
      5          1.421800   1.000000
      6          9.571152  -0.000000
      7          9.571156  -0.000000
      8         10.141406  -0.000000
      9         13.425813   0.000000
 
  0.5000000E+00  0.5000000E+00  0.4444444E+00  0.2057613E-02
      1        -25.779568   1.000000
      2        -25.753017   1.000000
      3        -25.741935   1.000000
      4          1.288544   1.000000
      5          1.309478   1.000000
      6          9.804071  -0.000000
      7          9.898382  -0.000000
      8         10.380813   0.000000
      9         14.081560   0.000000
 
  0.5000000E+00  0.5000000E+00  0.5000000E+00  0.1714678E-03
      1        -25.766894   1.000000
      2        -25.766888   1.000000
      3        -25.766883   1.000000
      4          1.210445   1.000000
      5          1.210446   1.000000
      6         10.359600   0.000000
      7         10.359604   0.000000
      8         10.359608   0.000000
      9         14.108706   0.000000
