       N       E                     dE             d eps       ncg     rms          rms(c)
DAV:   1     0.443322285659E+02    0.44332E+02   -0.56037E+03  3782   0.102E+03
DAV:   2    -0.938760190561E+01   -0.53720E+02   -0.51486E+02  4192   0.294E+02
DAV:   3    -0.105721303778E+02   -0.11845E+01   -0.10737E+01  4972   0.422E+01
DAV:   4    -0.106041922533E+02   -0.32062E-01   -0.30172E-01  4632   0.425E+00
DAV:   5    -0.106045207187E+02   -0.32847E-03   -0.32843E-03  4286   0.291E-01    0.171E+01
DAV:   6    -0.101916013705E+02    0.41292E+00   -0.58109E-01  5380   0.119E+01    0.744E+00
DAV:   7    -0.100932030816E+02    0.98398E-01   -0.31160E-01  5374   0.845E+00    0.443E-01
DAV:   8    -0.100909579982E+02    0.22451E-02   -0.39707E-03  4309   0.975E-01    0.185E-01
DAV:   9    -0.100909868970E+02   -0.28899E-04   -0.11440E-04  5103   0.161E-01    0.133E-02
DAV:  10    -0.100909749653E+02    0.11932E-04   -0.55496E-06  4671   0.244E-02    0.270E-03
DAV:  11    -0.100909750246E+02   -0.59288E-07   -0.70684E-08  2073   0.440E-03
   1 F= -.10090975E+02 E0= -.10090557E+02  d E =-.125283E-02
