    1    1    1    1
  0.4877519E+02  0.4101140E-09  0.4101140E-09  0.4101141E-09  0.5000000E-15
   1.0000000000000000E-004
  CAR 
 FCC Ca EOS                              
      8    145      8
 
  0.1262379E-14  0.1262379E-14  0.1262379E-14  0.2441406E-03
      1        -21.653053   1.000000
      2        -21.653050   1.000000
      3        -21.653048   1.000000
      4         -2.139382   1.000000
      5          3.767430  -0.000000
      6          3.767431  -0.000000
      7          3.767432  -0.000000
      8          4.665592  -0.000000
 
  0.6250000E-01  0.1252232E-14  0.1262379E-14  0.1953125E-02
      1        -21.656112   1.000000
      2        -21.653488   1.000000
      3        -21.653484   1.000000
      4         -2.080092   1.000000
      5          3.705734  -0.000000
      6          3.789491  -0.000000
      7          3.789493  -0.000000
      8          4.647036  -0.000000
 
  0.1250000E+00  0.1239934E-14  0.1262379E-14  0.1953125E-02
      1        -21.664810   1.000000
      2        -21.654730   1.000000
      3        -21.654726   1.000000
      4         -1.903997   1.000000
      5          3.533012  -0.000000
      6          3.844002  -0.000000
      7          3.844004  -0.000000
      8          4.608053  -0.000000
 
  0.1875000E+00  0.1246757E-14  0.1262379E-14  0.1953125E-02
      1        -21.677792   1.000000
      2        -21.656595   1.000000
      3        -21.656591   1.000000
      4         -1.616561   1.000000
      5          3.276434  -0.000000
      6          3.891785  -0.000000
      7          3.891789  -0.000000
      8          4.599112  -0.000000
 
  0.2500000E+00  0.1224536E-14  0.1262379E-14  0.1953125E-02
      1        -21.693035   1.000000
      2        -21.658783   1.000000
      3        -21.658779   1.000000
      4         -1.227463   1.000000
      5          2.959432  -0.000000
      6          3.883315  -0.000000
      7          3.883319  -0.000000
      8          4.678902  -0.000000
 
  0.3125000E+00  0.1225550E-14  0.1262379E-14  0.1953125E-02
      1        -21.708216   1.000000
      2        -21.660979   1.000000
      3        -21.660975   1.000000
      4         -0.751881   1.000000
      5          2.590818  -0.000000
      6          3.821757  -0.000000
      7          3.821761  -0.000000
      8          4.842884  -0.000000
 
  0.3750000E+00  0.1240442E-14  0.1262379E-14  0.1953125E-02
      1        -21.721032   1.000000
      2        -21.662835   1.000000
      3        -21.662832   1.000000
      4         -0.213896   1.000000
      5          2.167696  -0.000462
      6          3.748902  -0.000000
      7          3.748906  -0.000000
      8          5.031728  -0.000000
 
  0.4375000E+00  0.1250814E-14  0.1262379E-14  0.1953125E-02
      1        -21.729564   1.000000
      2        -21.664070   1.000000
      3        -21.664066   1.000000
      4          0.339386   1.000000
      5          1.701284   0.213541
      6          3.695387  -0.000000
      7          3.695391  -0.000000
      8          5.181078  -0.000000
 
  0.5000000E+00  0.1200837E-14  0.1262379E-14  0.9765625E-03
      1        -21.732560   1.000000
      2        -21.664507   1.000000
      3        -21.664503   1.000000
      4          0.691850   1.000000
      5          1.380772   1.035428
      6          3.676088  -0.000000
      7          3.676092  -0.000000
      8          5.238143  -0.000000
 
  0.6250000E-01  0.6250000E-01  0.1262379E-14  0.1464844E-02
      1        -21.656024   1.000000
      2        -21.654178   1.000000
      3        -21.654177   1.000000
      4         -2.060360   1.000000
      5          3.689631  -0.000000
      6          3.796364  -0.000000
      7          3.796365  -0.000000
      8          4.593008  -0.000000
 
  0.1250000E+00  0.6250000E-01  0.1262379E-14  0.5859375E-02
      1        -21.662508   1.000000
      2        -21.655668   1.000000
      3        -21.654984   1.000000
      4         -1.923282   1.000000
      5          3.559860  -0.000000
      6          3.841129  -0.000000
      7          3.843611  -0.000000
      8          4.511597  -0.000000
 
  0.1875000E+00  0.6250000E-01  0.1262379E-14  0.5859375E-02
      1        -21.673943   1.000000
      2        -21.657708   1.000000
      3        -21.656350   1.000000
      4         -1.673027   1.000000
      5          3.340657  -0.000000
      6          3.893054  -0.000000
      7          3.895321  -0.000000
      8          4.452368  -0.000000
 
  0.2500000E+00  0.6250000E-01  0.1262379E-14  0.5859375E-02
      1        -21.688273   1.000000
      2        -21.660004   1.000000
      3        -21.658376   1.000000
      4         -1.317700   1.000000
      5          3.055890  -0.000000
      6          3.881963  -0.000000
      7          3.907763  -0.000000
      8          4.500394  -0.000000
 
  0.3125000E+00  0.6250000E-01  0.1262379E-14  0.5859375E-02
      1        -21.703279   1.000000
      2        -21.662192   1.000000
      3        -21.660744   1.000000
      4         -0.870311   1.000000
      5          2.716991  -0.000000
      6          3.800450  -0.000000
      7          3.868940  -0.000000
      8          4.666920  -0.000000
 
  0.3750000E+00  0.6250000E-01  0.1262379E-14  0.5859375E-02
      1        -21.716694   1.000000
      2        -21.663949   1.000000
      3        -21.663101   1.000000
      4         -0.351073   1.000000
      5          2.322393  -0.000005
      6          3.709845  -0.000000
      7          3.803599  -0.000000
      8          4.885465  -0.000000
 
  0.4375000E+00  0.6250000E-01  0.1262379E-14  0.5859375E-02
      1        -21.726503   1.000000
      2        -21.665072   1.000000
      3        -21.665007   1.000000
      4          0.205072   1.000000
      5          1.872223  -0.035452
      6          3.643853  -0.000000
      7          3.744591  -0.000000
      8          5.094741  -0.000000
 
  0.5000000E+00  0.6250000E-01  0.1262379E-14  0.5859375E-02
      1        -21.731264   1.000000
      2        -21.666362   1.000000
      3        -21.665208   1.000000
      4          0.688644   1.000000
      5          1.444187   1.014973
      6          3.613037  -0.000000
      7          3.712714  -0.000000
      8          5.239959  -0.000000
 
 -0.4375000E+00  0.6250000E-01  0.1262379E-14  0.5859375E-02
      1        -21.730267   1.000000
      2        -21.666762   1.000000
      3        -21.664510   1.000000
      4          0.554200   1.000000
      5          1.568149   0.743009
      6          3.618369  -0.000000
      7          3.717913  -0.000000
      8          5.165937  -0.000000
 
 -0.3750000E+00  0.6250000E-01  0.1262379E-14  0.5859375E-02
      1        -21.723671   1.000000
      2        -21.666213   1.000000
      3        -21.663028   1.000000
      4          0.019016   1.000000
      5          2.029774  -0.007834
      6          3.657763  -0.000000
      7          3.761549  -0.000000
      8          4.996598  -0.000000
 
 -0.3125000E+00  0.6250000E-01  0.1262379E-14  0.5859375E-02
      1        -21.712464   1.000000
      2        -21.664794   1.000000
      3        -21.660993   1.000000
      4         -0.530407   1.000000
      5          2.463839  -0.000000
      6          3.724099  -0.000000
      7          3.835836  -0.000000
      8          4.782102  -0.000000
 
 -0.2500000E+00  0.6250000E-01  0.1262379E-14  0.5859375E-02
      1        -21.698314   1.000000
      2        -21.662696   1.000000
      3        -21.658703   1.000000
      4         -1.028612   1.000000
      5          2.839260  -0.000000
      6          3.798163  -0.000000
      7          3.917438  -0.000000
      8          4.582092  -0.000000
 
 -0.1875000E+00  0.6250000E-01  0.1262379E-14  0.5859375E-02
      1        -21.683383   1.000000
      2        -21.660224   1.000000
      3        -21.656508   1.000000
      4         -1.447180   1.000000
      5          3.159540  -0.000000
      6          3.847075  -0.000000
      7          3.952666  -0.000000
      8          4.470729  -0.000000
 
 -0.1250000E+00  0.6250000E-01  0.1262379E-14  0.5859375E-02
      1        -21.670002   1.000000
      2        -21.657705   1.000000
      3        -21.654747   1.000000
      4         -1.768679   1.000000
      5          3.422636  -0.000000
      6          3.846100  -0.000000
      7          3.902679  -0.000000
      8          4.491194  -0.000000
 
 -0.6250000E-01  0.6250000E-01  0.1262379E-14  0.2929688E-02
      1        -21.660409   1.000000
      2        -21.655337   1.000000
      3        -21.653685   1.000000
      4         -1.981892   1.000000
      5          3.612389  -0.000000
      6          3.813491  -0.000000
      7          3.829704  -0.000000
      8          4.573280  -0.000000
 
  0.1250000E+00  0.1250000E+00  0.1262379E-14  0.1464844E-02
      1        -21.664459   1.000000
      2        -21.657406   1.000000
      3        -21.657406   1.000000
      4         -1.826043   1.000000
      5          3.481797  -0.000000
      6          3.884578  -0.000000
      7          3.884579  -0.000000
      8          4.382743  -0.000000
 
  0.1875000E+00  0.1250000E+00  0.1262379E-14  0.5859375E-02
      1        -21.672950   1.000000
      2        -21.659691   1.000000
      3        -21.659037   1.000000
      4         -1.615216   1.000000
      5          3.316098  -0.000000
      6          3.931821  -0.000000
      7          3.948145  -0.000000
      8          4.273647  -0.000000
 
  0.2500000E+00  0.1250000E+00  0.1262379E-14  0.5859375E-02
      1        -21.685341   1.000000
      2        -21.662164   1.000000
      3        -21.660934   1.000000
      4         -1.297397   1.000000
      5          3.088291  -0.000000
      6          3.856505  -0.000000
      7          3.989605  -0.000000
      8          4.329327  -0.000000
 
  0.3125000E+00  0.1250000E+00  0.1262379E-14  0.5859375E-02
      1        -21.699049   1.000000
      2        -21.664454   1.000000
      3        -21.663481   1.000000
      4         -0.883527   1.000000
      5          2.806656  -0.000000
      6          3.705506  -0.000000
      7          3.978314  -0.000000
      8          4.523850  -0.000000
 
  0.3750000E+00  0.1250000E+00  0.1262379E-14  0.5859375E-02
      1        -21.711891   1.000000
      2        -21.666393   1.000000
      3        -21.666216   1.000000
      4         -0.390478   1.000000
      5          2.465999  -0.000000
      6          3.574046  -0.000000
      7          3.926150  -0.000000
      8          4.770804  -0.000000
 
  0.4375000E+00  0.1250000E+00  0.1262379E-14  0.5859375E-02
      1        -21.721930   1.000000
      2        -21.669215   1.000000
      3        -21.667173   1.000000
      4          0.155009   1.000000
      5          2.059586  -0.004689
      6          3.487405  -0.000000
      7          3.865341  -0.000000
      8          5.026722  -0.000000
 
  0.5000000E+00  0.1250000E+00  0.1262379E-14  0.5859375E-02
      1        -21.727697   1.000000
      2        -21.671497   1.000000
      3        -21.667185   1.000000
      4          0.695783   1.000000
      5          1.609726   0.579141
      6          3.442419  -0.000000
      7          3.821594  -0.000000
      8          5.248792  -0.000000
 
 -0.4375000E+00  0.1250000E+00  0.1262379E-14  0.5859375E-02
      1        -21.728373   1.000000
      2        -21.672858   1.000000
      3        -21.666257   1.000000
      4          0.836776   1.000000
      5          1.488082   0.960637
      6          3.428534  -0.000000
      7          3.810081  -0.000000
      8          5.160484  -0.000000
 
 -0.3750000E+00  0.1250000E+00  0.1262379E-14  0.5859375E-02
      1        -21.723900   1.000000
      2        -21.673039   1.000000
      3        -21.664522   1.000000
      4          0.340412   1.000000
      5          1.927919  -0.027786
      6          3.445251  -0.000000
      7          3.837561  -0.000000
      8          4.975417  -0.000000
 
 -0.3125000E+00  0.1250000E+00  0.1262379E-14  0.5859375E-02
      1        -21.715018   1.000000
      2        -21.671949   1.000000
      3        -21.662244   1.000000
      4         -0.212401   1.000000
      5          2.362457  -0.000001
      6          3.501831  -0.000000
      7          3.903597  -0.000000
      8          4.740263  -0.000000
 
 -0.2500000E+00  0.1250000E+00  0.1262379E-14  0.5859375E-02
      1        -21.703153   1.000000
      2        -21.669640   1.000000
      3        -21.659766   1.000000
      4         -0.726811   1.000000
      5          2.724891  -0.000000
      6          3.599280  -0.000000
      7          3.998123  -0.000000
      8          4.503647  -0.000000
 
 -0.1875000E+00  0.1250000E+00  0.1262379E-14  0.5859375E-02
      1        -21.690272   1.000000
      2        -21.666279   1.000000
      3        -21.657475   1.000000
      4         -1.169738   1.000000
      5          3.016432  -0.000000
      6          3.715245  -0.000000
      7          4.074702  -0.000000
      8          4.335036  -0.000000
 
 -0.1250000E+00  0.1250000E+00  0.1262379E-14  0.2929688E-02
      1        -21.678603   1.000000
      2        -21.662102   1.000000
      3        -21.655706   1.000000
      4         -1.521291   1.000000
      5          3.247825  -0.000000
      6          3.807475  -0.000000
      7          4.007910  -0.000000
      8          4.367482  -0.000000
 
  0.1875000E+00  0.1875000E+00  0.1262379E-14  0.1464844E-02
      1        -21.676940   1.000000
      2        -21.662229   1.000000
      3        -21.662228   1.000000
      4         -1.445057   1.000000
      5          3.201673  -0.000000
      6          4.035640  -0.000000
      7          4.035641  -0.000000
      8          4.061733  -0.000000
 
  0.2500000E+00  0.1875000E+00  0.1262379E-14  0.5859375E-02
      1        -21.686035   1.000000
      2        -21.664948   1.000000
      3        -21.664714   1.000000
      4         -1.167816   1.000000
      5          3.031082  -0.000000
      6          3.820077  -0.000000
      7          4.115554  -0.000000
      8          4.210061  -0.000000
 
  0.3125000E+00  0.1875000E+00  0.1262379E-14  0.5859375E-02
      1        -21.697373   1.000000
      2        -21.667559   1.000000
      3        -21.667429   1.000000
      4         -0.792651   1.000000
      5          2.821688  -0.000000
      6          3.587788  -0.000000
      7          4.143429  -0.000000
      8          4.433105  -0.000000
 
  0.3750000E+00  0.1875000E+00  0.1262379E-14  0.5859375E-02
      1        -21.708449   1.000000
      2        -21.671097   1.000000
      3        -21.669286   1.000000
      4         -0.333657   1.000000
      5          2.562273  -0.000000
      6          3.398655  -0.000000
      7          4.113070  -0.000000
      8          4.697376  -0.000000
 
  0.4375000E+00  0.1875000E+00  0.1262379E-14  0.5859375E-02
      1        -21.717416   1.000000
      2        -21.674972   1.000000
      3        -21.670247   1.000000
      4          0.187909   1.000000
      5          2.232348  -0.000084
      6          3.275956  -0.000000
      7          4.054785  -0.000000
      8          4.984451  -0.000000
 
  0.5000000E+00  0.1875000E+00  0.1262379E-14  0.5859375E-02
      1        -21.722944   1.000000
      2        -21.678582   1.000000
      3        -21.670163   1.000000
      4          0.737699   1.000000
      5          1.827790  -0.024744
      6          3.208325  -0.000000
      7          3.999496  -0.000000
      8          5.254457  -0.000000
 
 -0.4375000E+00  0.1875000E+00  0.1262379E-14  0.5859375E-02
      1        -21.724322   1.000000
      2        -21.681265   1.000000
      3        -21.669047   1.000000
      4          1.148521   1.001789
      5          1.484757   0.966272
      6          3.168275  -0.000000
      7          3.967330  -0.000000
      8          5.167336  -0.000000
 
 -0.3750000E+00  0.1875000E+00  0.1262379E-14  0.5859375E-02
      1        -21.721530   1.000000
      2        -21.682409   1.000000
      3        -21.667066   1.000000
      4          0.734232   1.000000
      5          1.874601  -0.035453
      6          3.150075  -0.000000
      7          3.969320  -0.000000
      8          4.976031  -0.000000
 
 -0.3125000E+00  0.1875000E+00  0.1262379E-14  0.5859375E-02
      1        -21.715313   1.000000
      2        -21.681538   1.000000
      3        -21.664532   1.000000
      4          0.189095   1.000000
      5          2.305777  -0.000009
      6          3.183376  -0.000000
      7          4.009651  -0.000000
      8          4.735711  -0.000000
 
 -0.2500000E+00  0.1875000E+00  0.1262379E-14  0.5859375E-02
      1        -21.707025   1.000000
      2        -21.678342   1.000000
      3        -21.661817   1.000000
      4         -0.332680   1.000000
      5          2.631986  -0.000000
      6          3.307242  -0.000000
      7          4.086562  -0.000000
      8          4.488678  -0.000000
 
 -0.1875000E+00  0.1875000E+00  0.1262379E-14  0.2929688E-02
      1        -21.698289   1.000000
      2        -21.672933   1.000000
      3        -21.659335   1.000000
      4         -0.793329   1.000000
      5          2.851302  -0.000000
      6          3.511615  -0.000000
      7          4.183707  -0.000000
      8          4.276204  -0.000000
 
  0.2500000E+00  0.2500000E+00  0.1262379E-14  0.1464844E-02
      1        -21.691457   1.000000
      2        -21.667930   1.000000
      3        -21.667930   1.000000
      4         -0.933338   1.000000
      5          2.907603  -0.000000
      6          3.676953  -0.000000
      7          4.253063  -0.000000
      8          4.253065  -0.000000
 
  0.3125000E+00  0.2500000E+00  0.1262379E-14  0.5859375E-02
      1        -21.699847   1.000000
      2        -21.670991   1.000000
      3        -21.670642   1.000000
      4         -0.601743   1.000000
      5          2.754799  -0.000000
      6          3.453721  -0.000000
      7          4.345410  -0.000000
      8          4.430553  -0.000000
 
  0.3750000E+00  0.2500000E+00  0.1262379E-14  0.5859375E-02
      1        -21.708472   1.000000
      2        -21.674911   1.000000
      3        -21.672685   1.000000
      4         -0.185143   1.000000
      5          2.579153  -0.000000
      6          3.230319  -0.000000
      7          4.354830  -0.000000
      8          4.680070  -0.000000
 
  0.4375000E+00  0.2500000E+00  0.1262379E-14  0.5859375E-02
      1        -21.715307   1.000000
      2        -21.679793   1.000000
      3        -21.673746   1.000000
      4          0.298684   1.000000
      5          2.351752  -0.000002
      6          3.061241  -0.000000
      7          4.306418  -0.000000
      8          4.974800  -0.000000
 
  0.5000000E+00  0.2500000E+00  0.1262379E-14  0.5859375E-02
      1        -21.719138   1.000000
      2        -21.685090   1.000000
      3        -21.673663   1.000000
      4          0.824417   1.000000
      5          2.043572  -0.006222
      6          2.958488  -0.000000
      7          4.240183  -0.000000
      8          5.279497  -0.000000
 
 -0.4375000E+00  0.2500000E+00  0.1262379E-14  0.5859375E-02
      1        -21.719518   1.000000
      2        -21.689879   1.000000
      3        -21.672452   1.000000
      4          1.354147   1.032750
      5          1.654106   0.392716
      6          2.884037  -0.000000
      7          4.181873  -0.000000
      8          5.187879  -0.000000
 
 -0.3750000E+00  0.2500000E+00  0.1262379E-14  0.5859375E-02
      1        -21.716971   1.000000
      2        -21.692837   1.000000
      3        -21.670289   1.000000
      4          1.166571   1.002596
      5          1.877131  -0.035408
      6          2.816061  -0.000000
      7          4.144603  -0.000000
      8          5.005189  -0.000000
 
 -0.3125000E+00  0.2500000E+00  0.1262379E-14  0.5859375E-02
      1        -21.713220   1.000000
      2        -21.692171   1.000000
      3        -21.667510   1.000000
      4          0.650047   1.000000
      5          2.307056  -0.000009
      6          2.803374  -0.000000
      7          4.130544  -0.000000
      8          4.787866  -0.000000
 
 -0.2500000E+00  0.2500000E+00  0.1262379E-14  0.2929688E-02
      1        -21.710044   1.000000
      2        -21.686769   1.000000
      3        -21.664536   1.000000
      4          0.135883   1.000000
      5          2.541657  -0.000000
      6          2.984318  -0.000000
      7          4.125403  -0.000000
      8          4.592825  -0.000000
 
  0.3125000E+00  0.3125000E+00  0.1262379E-14  0.1464844E-02
      1        -21.705745   1.000000
      2        -21.673617   1.000000
      3        -21.673617   1.000000
      4         -0.318036   1.000000
      5          2.643497  -0.000000
      6          3.279137  -0.000000
      7          4.536571  -0.000000
      8          4.536572  -0.000000
 
  0.3750000E+00  0.3125000E+00  0.1262379E-14  0.5859375E-02
      1        -21.712351   1.000000
      2        -21.676850   1.000000
      3        -21.675899   1.000000
      4          0.047421   1.000000
      5          2.522683  -0.000000
      6          3.072701  -0.000000
      7          4.629593  -0.000000
      8          4.736435  -0.000000
 
  0.4375000E+00  0.3125000E+00  0.1262379E-14  0.5859375E-02
      1        -21.717313   1.000000
      2        -21.681557   1.000000
      3        -21.677139   1.000000
      4          0.478362   1.000000
      5          2.388542  -0.000001
      6          2.876021  -0.000000
      7          4.607239  -0.000000
      8          5.006329  -0.000000
 
  0.5000000E+00  0.3125000E+00  0.1262379E-14  0.5859375E-02
      1        -21.719202   1.000000
      2        -21.687698   1.000000
      3        -21.677158   1.000000
      4          0.952035   1.000009
      5          2.201599  -0.000194
      6          2.730160  -0.000000
      7          4.531989  -0.000000
      8          5.302705  -0.000000
 
 -0.4375000E+00  0.3125000E+00  0.1262379E-14  0.5859375E-02
      1        -21.717418   1.000000
      2        -21.694668   1.000000
      3        -21.675947   1.000000
      4          1.437349   1.019919
      5          1.938954  -0.025279
      6          2.616054  -0.000000
      7          4.440357  -0.000000
      8          5.222518  -0.000000
 
 -0.3750000E+00  0.3125000E+00  0.1262379E-14  0.5859375E-02
      1        -21.712282   1.000000
      2        -21.701353   1.000000
      3        -21.673692   1.000000
      4          1.561013   0.768409
      5          1.938758  -0.025324
      6          2.489771  -0.000000
      7          4.344870  -0.000000
      8          5.068009  -0.000000
 
 -0.3125000E+00  0.3125000E+00  0.1262379E-14  0.2929688E-02
      1        -21.709525   1.000000
      2        -21.701761   1.000000
      3        -21.670730   1.000000
      4          1.128725   1.001163
      5          2.365491  -0.000001
      6          2.390846  -0.000000
      7          4.243986  -0.000000
      8          4.905724  -0.000000
 
  0.3750000E+00  0.3750000E+00  0.1262379E-14  0.1464844E-02
      1        -21.717685   1.000000
      2        -21.678438   1.000000
      3        -21.678438   1.000000
      4          0.352414   1.000000
      5          2.438139  -0.000000
      6          2.901206  -0.000000
      7          4.873965  -0.000000
      8          4.873966  -0.000000
 
  0.4375000E+00  0.3750000E+00  0.1262379E-14  0.5859375E-02
      1        -21.721770   1.000000
      2        -21.681353   1.000000
      3        -21.679922   1.000000
      4          0.712700   1.000000
      5          2.357333  -0.000002
      6          2.715261  -0.000000
      7          4.929842  -0.000000
      8          5.086182  -0.000000
 
  0.5000000E+00  0.3750000E+00  0.1262379E-14  0.5859375E-02
      1        -21.722962   1.000000
      2        -21.686179   1.000000
      3        -21.680124   1.000000
      4          1.102808   1.000640
      5          2.269792  -0.000028
      6          2.545372  -0.000000
      7          4.850036  -0.000000
      8          5.322959  -0.000000
 
 -0.4375000E+00  0.3750000E+00  0.1262379E-14  0.5859375E-02
      1        -21.720642   1.000000
      2        -21.692609   1.000000
      3        -21.679007   1.000000
      4          1.481210   0.971990
      5          2.149757  -0.000711
      6          2.409517  -0.000000
      7          4.717805  -0.000000
      8          5.271501  -0.000000
 
 -0.3750000E+00  0.3750000E+00  0.1262379E-14  0.2929688E-02
      1        -21.715354   1.000000
      2        -21.699475   1.000000
      3        -21.676746   1.000000
      4          1.722712   0.146268
      5          2.034662  -0.007230
      6          2.315279  -0.000007
      7          4.544632  -0.000000
      8          5.164138  -0.000000
 
  0.4375000E+00  0.4375000E+00  0.1262379E-14  0.1464844E-02
      1        -21.725577   1.000000
      2        -21.681665   1.000000
      3        -21.681665   1.000000
      4          0.978859   1.000022
      5          2.308873  -0.000008
      6          2.556938  -0.000000
      7          5.208420  -0.000000
      8          5.214515  -0.000000
 
  0.5000000E+00  0.4375000E+00  0.1262379E-14  0.5859375E-02
      1        -21.726815   1.000000
      2        -21.683799   1.000000
      3        -21.682101   1.000000
      4          1.238524   1.009365
      5          2.272103  -0.000026
      6          2.414590  -0.000000
      7          5.128393  -0.000000
      8          5.351312  -0.000000
 
 -0.4375000E+00  0.4375000E+00  0.1262379E-14  0.2929688E-02
      1        -21.724895   1.000000
      2        -21.687829   1.000000
      3        -21.681165   1.000000
      4          1.426978   1.025909
      5          2.239939  -0.000068
      6          2.339801  -0.000003
      7          4.966107  -0.000000
      8          5.331240  -0.000000
 
  0.5000000E+00  0.5000000E+00  0.1262379E-14  0.7324219E-03
      1        -21.728332   1.000000
      2        -21.682795   1.000000
      3        -21.682795   1.000000
      4          1.296984   1.020426
      5          2.264835  -0.000033
      6          2.362059  -0.000001
      7          5.231555  -0.000000
      8          5.388564  -0.000000
 
  0.1875000E+00  0.1250000E+00  0.6250000E-01  0.5859375E-02
      1        -21.669287   1.000000
      2        -21.658626   1.000000
      3        -21.655826   1.000000
      4         -1.749192   1.000000
      5          3.416104  -0.000000
      6          3.860862  -0.000000
      7          3.918292  -0.000000
      8          4.405964  -0.000000
 
  0.2500000E+00  0.1250000E+00  0.6250000E-01  0.1171875E-01
      1        -21.680468   1.000000
      2        -21.661866   1.000000
      3        -21.657215   1.000000
      4         -1.464920   1.000000
      5          3.201758  -0.000000
      6          3.837662  -0.000000
      7          3.998865  -0.000000
      8          4.347888  -0.000000
 
  0.3125000E+00  0.1250000E+00  0.6250000E-01  0.1171875E-01
      1        -21.694037   1.000000
      2        -21.664845   1.000000
      3        -21.659252   1.000000
      4         -1.079917   1.000000
      5          2.929093  -0.000000
      6          3.750756  -0.000000
      7          3.994169  -0.000000
      8          4.442033  -0.000000
 
  0.3750000E+00  0.1250000E+00  0.6250000E-01  0.1171875E-01
      1        -21.707680   1.000000
      2        -21.667358   1.000000
      3        -21.661623   1.000000
      4         -0.609012   1.000000
      5          2.598084  -0.000000
      6          3.641702  -0.000000
      7          3.924099  -0.000000
      8          4.649592  -0.000000
 
  0.4375000E+00  0.1250000E+00  0.6250000E-01  0.1171875E-01
      1        -21.719242   1.000000
      2        -21.669190   1.000000
      3        -21.663890   1.000000
      4         -0.075389   1.000000
      5          2.202203  -0.000191
      6          3.554454  -0.000000
      7          3.848578  -0.000000
      8          4.888457  -0.000000
 
  0.5000000E+00  0.1250000E+00  0.6250000E-01  0.1171875E-01
      1        -21.726955   1.000000
      2        -21.670233   1.000000
      3        -21.665571   1.000000
      4          0.478244   1.000000
      5          1.749212   0.078440
      6          3.504466  -0.000000
      7          3.794822  -0.000000
      8          5.101408  -0.000000
 
 -0.4375000E+00  0.1250000E+00  0.6250000E-01  0.5859375E-02
      1        -21.729665   1.000000
      2        -21.670554   1.000000
      3        -21.666208   1.000000
      4          0.849796   1.000000
      5          1.414390   1.030991
      6          3.489101  -0.000000
      7          3.775606  -0.000000
      8          5.206115  -0.000000
 
  0.2500000E+00  0.1875000E+00  0.6250000E-01  0.5859375E-02
      1        -21.681068   1.000000
      2        -21.663551   1.000000
      3        -21.660399   1.000000
      4         -1.370793   1.000000
      5          3.152651  -0.000000
      6          3.869441  -0.000000
      7          4.065747  -0.000000
      8          4.205506  -0.000000
 
  0.3125000E+00  0.1875000E+00  0.6250000E-01  0.1171875E-01
      1        -21.692148   1.000000
      2        -21.667399   1.000000
      3        -21.662179   1.000000
      4         -1.023693   1.000000
      5          2.944877  -0.000000
      6          3.692799  -0.000000
      7          4.113802  -0.000000
      8          4.319260  -0.000000
 
  0.3750000E+00  0.1875000E+00  0.6250000E-01  0.1171875E-01
      1        -21.704027   1.000000
      2        -21.670728   1.000000
      3        -21.664478   1.000000
      4         -0.586397   1.000000
      5          2.686843  -0.000000
      6          3.511129  -0.000000
      7          4.070019  -0.000000
      8          4.547760  -0.000000
 
  0.4375000E+00  0.1875000E+00  0.6250000E-01  0.1171875E-01
      1        -21.714640   1.000000
      2        -21.673485   1.000000
      3        -21.666746   1.000000
      4         -0.078004   1.000000
      5          2.359772  -0.000001
      6          3.380108  -0.000000
      7          4.001647  -0.000000
      8          4.807988  -0.000000
 
  0.5000000E+00  0.1875000E+00  0.6250000E-01  0.1171875E-01
      1        -21.722297   1.000000
      2        -21.675714   1.000000
      3        -21.668270   1.000000
      4          0.471090   1.000000
      5          1.956046  -0.021336
      6          3.308480  -0.000000
      7          3.939432  -0.000000
      8          5.052538  -0.000000
 
 -0.4375000E+00  0.1875000E+00  0.6250000E-01  0.1171875E-01
      1        -21.725856   1.000000
      2        -21.677363   1.000000
      3        -21.668556   1.000000
      4          0.980796   1.000023
      5          1.524715   0.880371
      6          3.277132  -0.000000
      7          3.903152  -0.000000
      8          5.171535  -0.000000
 
 -0.3750000E+00  0.1875000E+00  0.6250000E-01  0.1171875E-01
      1        -21.724819   1.000000
      2        -21.678117   1.000000
      3        -21.667572   1.000000
      4          0.827047   1.000000
      5          1.672085   0.320424
      6          3.269291  -0.000000
      7          3.903716  -0.000000
      8          5.084281  -0.000000
 
 -0.3125000E+00  0.1875000E+00  0.6250000E-01  0.1171875E-01
      1        -21.719432   1.000000
      2        -21.677612   1.000000
      3        -21.665630   1.000000
      4          0.286287   1.000000
      5          2.123336  -0.001299
      6          3.294054  -0.000000
      7          3.943430  -0.000000
      8          4.875206  -0.000000
 
 -0.2500000E+00  0.1875000E+00  0.6250000E-01  0.1171875E-01
      1        -21.710647   1.000000
      2        -21.675626   1.000000
      3        -21.663178   1.000000
      4         -0.253375   1.000000
      5          2.507313  -0.000000
      6          3.376243  -0.000000
      7          4.017420  -0.000000
      8          4.625010  -0.000000
 
 -0.1875000E+00  0.1875000E+00  0.6250000E-01  0.1171875E-01
      1        -21.700009   1.000000
      2        -21.672129   1.000000
      3        -21.660677   1.000000
      4         -0.741224   1.000000
      5          2.801478  -0.000000
      6          3.524091  -0.000000
      7          4.114056  -0.000000
      8          4.382951  -0.000000
 
 -0.1250000E+00  0.1875000E+00  0.6250000E-01  0.5859375E-02
      1        -21.689400   1.000000
      2        -21.667313   1.000000
      3        -21.658578   1.000000
      4         -1.150712   1.000000
      5          3.023937  -0.000000
      6          3.700654  -0.000000
      7          4.148517  -0.000000
      8          4.247840  -0.000000
 
  0.3125000E+00  0.2500000E+00  0.6250000E-01  0.5859375E-02
      1        -21.694207   1.000000
      2        -21.669361   1.000000
      3        -21.666361   1.000000
      4         -0.862438   1.000000
      5          2.874502  -0.000000
      6          3.609919  -0.000000
      7          4.266572  -0.000000
      8          4.277437  -0.000000
 
  0.3750000E+00  0.2500000E+00  0.6250000E-01  0.1171875E-01
      1        -21.703495   1.000000
      2        -21.673589   1.000000
      3        -21.668449   1.000000
      4         -0.465176   1.000000
      5          2.693736  -0.000000
      6          3.376895  -0.000000
      7          4.268640  -0.000000
      8          4.502122  -0.000000
 
  0.4375000E+00  0.2500000E+00  0.6250000E-01  0.1171875E-01
      1        -21.711965   1.000000
      2        -21.677605   1.000000
      3        -21.670579   1.000000
      4          0.007935   1.000000
      5          2.463273  -0.000000
      6          3.190139  -0.000000
      7          4.215735  -0.000000
      8          4.768130  -0.000000
 
  0.5000000E+00  0.2500000E+00  0.6250000E-01  0.1171875E-01
      1        -21.718125   1.000000
      2        -21.681555   1.000000
      3        -21.671876   1.000000
      4          0.533112   1.000000
      5          2.150064  -0.000706
      6          3.080405  -0.000000
      7          4.145684  -0.000000
      8          5.029056  -0.000000
 
 -0.4375000E+00  0.2500000E+00  0.6250000E-01  0.1171875E-01
      1        -21.721056   1.000000
      2        -21.685116   1.000000
      3        -21.671861   1.000000
      4          1.073344   1.000309
      5          1.752429   0.071409
      6          3.023043  -0.000000
      7          4.086446  -0.000000
      8          5.146298  -0.000000
 
 -0.3750000E+00  0.2500000E+00  0.6250000E-01  0.1171875E-01
      1        -21.720527   1.000000
      2        -21.687500   1.000000
      3        -21.670587   1.000000
      4          1.227754   1.007896
      5          1.644812   0.431319
      6          2.981727  -0.000000
      7          4.058482  -0.000000
      8          5.073528  -0.000000
 
 -0.3125000E+00  0.2500000E+00  0.6250000E-01  0.1171875E-01
      1        -21.717050   1.000000
      2        -21.687781   1.000000
      3        -21.668367   1.000000
      4          0.713302   1.000000
      5          2.099742  -0.002150
      6          2.965854  -0.000000
      7          4.068802  -0.000000
      8          4.888806  -0.000000
 
 -0.2500000E+00  0.2500000E+00  0.6250000E-01  0.1171875E-01
      1        -21.711787   1.000000
      2        -21.685173   1.000000
      3        -21.665653   1.000000
      4          0.181097   1.000000
      5          2.458530  -0.000000
      6          3.038727  -0.000000
      7          4.109546  -0.000000
      8          4.656447  -0.000000
 
 -0.1875000E+00  0.2500000E+00  0.6250000E-01  0.5859375E-02
      1        -21.705938   1.000000
      2        -21.679562   1.000000
      3        -21.662926   1.000000
      4         -0.314181   1.000000
      5          2.667511  -0.000000
      6          3.253199  -0.000000
      7          4.155579  -0.000000
      8          4.450878  -0.000000
 
  0.3750000E+00  0.3125000E+00  0.6250000E-01  0.5859375E-02
      1        -21.706883   1.000000
      2        -21.675170   1.000000
      3        -21.672574   1.000000
      4         -0.250903   1.000000
      5          2.623226  -0.000000
      6          3.240164  -0.000000
      7          4.482507  -0.000000
      8          4.553904  -0.000000
 
  0.4375000E+00  0.3125000E+00  0.6250000E-01  0.1171875E-01
      1        -21.713134   1.000000
      2        -21.679661   1.000000
      3        -21.674561   1.000000
      4          0.176029   1.000000
      5          2.480545  -0.000000
      6          3.024571  -0.000000
      7          4.478022  -0.000000
      8          4.783961  -0.000000
 
  0.5000000E+00  0.3125000E+00  0.6250000E-01  0.1171875E-01
      1        -21.717089   1.000000
      2        -21.684929   1.000000
      3        -21.675734   1.000000
      4          0.658523   1.000000
      5          2.284757  -0.000018
      6          2.865324  -0.000000
      7          4.403783  -0.000000
      8          5.042889  -0.000000
 
 -0.4375000E+00  0.3125000E+00  0.6250000E-01  0.1171875E-01
      1        -21.717917   1.000000
      2        -21.690768   1.000000
      3        -21.675557   1.000000
      4          1.168532   1.002700
      5          1.999531  -0.012407
      6          2.769514  -0.000000
      7          4.310467  -0.000000
      8          5.157116  -0.000000
 
 -0.3750000E+00  0.3125000E+00  0.6250000E-01  0.1171875E-01
      1        -21.715703   1.000000
      2        -21.696056   1.000000
      3        -21.674079   1.000000
      4          1.616354   0.551378
      5          1.679909   0.290313
      6          2.684373  -0.000000
      7          4.234219  -0.000000
      8          5.089374  -0.000000
 
 -0.3125000E+00  0.3125000E+00  0.6250000E-01  0.1171875E-01
      1        -21.712332   1.000000
      2        -21.698341   1.000000
      3        -21.671623   1.000000
      4          1.165605   1.002546
      5          2.138615  -0.000921
      6          2.603556  -0.000000
      7          4.194672  -0.000000
      8          4.951691  -0.000000
 
 -0.2500000E+00  0.3125000E+00  0.6250000E-01  0.5859375E-02
      1        -21.711531   1.000000
      2        -21.693976   1.000000
      3        -21.668643   1.000000
      4          0.667981   1.000000
      5          2.426928  -0.000000
      6          2.687161  -0.000000
      7          4.165735  -0.000000
      8          4.776402  -0.000000
 
  0.4375000E+00  0.3750000E+00  0.6250000E-01  0.5859375E-02
      1        -21.717347   1.000000
      2        -21.680088   1.000000
      3        -21.677953   1.000000
      4          0.416136   1.000000
      5          2.427005  -0.000000
      6          2.876649  -0.000000
      7          4.747798  -0.000000
      8          4.883675  -0.000000
 
  0.5000000E+00  0.3750000E+00  0.6250000E-01  0.1171875E-01
      1        -21.720045   1.000000
      2        -21.684670   1.000000
      3        -21.679220   1.000000
      4          0.835208   1.000000
      5          2.327722  -0.000004
      6          2.689176  -0.000000
      7          4.696159  -0.000000
      8          5.103390  -0.000000
 
 -0.4375000E+00  0.3750000E+00  0.6250000E-01  0.1171875E-01
      1        -21.719475   1.000000
      2        -21.690953   1.000000
      3        -21.679031   1.000000
      4          1.275590   1.015826
      5          2.178461  -0.000353
      6          2.549979  -0.000000
      7          4.560952  -0.000000
      8          5.227813  -0.000000
 
 -0.3750000E+00  0.3750000E+00  0.6250000E-01  0.1171875E-01
      1        -21.715357   1.000000
      2        -21.698263   1.000000
      3        -21.677459   1.000000
      4          1.673378   0.315384
      5          1.989523  -0.014240
      6          2.426037  -0.000000
      7          4.408629  -0.000000
      8          5.176142  -0.000000
 
 -0.3125000E+00  0.3750000E+00  0.6250000E-01  0.5859375E-02
      1        -21.708349   1.000000
      2        -21.705386   1.000000
      3        -21.674835   1.000000
      4          1.570296   0.735177
      5          2.151163  -0.000688
      6          2.319992  -0.000006
      7          4.296745  -0.000000
      8          5.070865  -0.000000
 
  0.5000000E+00  0.4375000E+00  0.6250000E-01  0.5859375E-02
      1        -21.724217   1.000000
      2        -21.683382   1.000000
      3        -21.681593   1.000000
      4          1.041500   1.000134
      5          2.303143  -0.000010
      6          2.542648  -0.000000
      7          4.975483  -0.000000
      8          5.217503  -0.000000
 
 -0.4375000E+00  0.4375000E+00  0.6250000E-01  0.1171875E-01
      1        -21.723626   1.000000
      2        -21.687546   1.000000
      3        -21.681696   1.000000
      4          1.362833   1.034025
      5          2.251977  -0.000048
      6          2.396847  -0.000000
      7          4.827618  -0.000000
      8          5.327998  -0.000000
 
 -0.3750000E+00  0.4375000E+00  0.6250000E-01  0.5859375E-02
      1        -21.720040   1.000000
      2        -21.693348   1.000000
      3        -21.680155   1.000000
      4          1.602102   0.610715
      5          2.182859  -0.000316
      6          2.316699  -0.000006
      7          4.607356  -0.000000
      8          5.288135  -0.000000
 
 -0.4375000E+00  0.5000000E+00  0.6250000E-01  0.2929688E-02
      1        -21.726603   1.000000
      2        -21.684532   1.000000
      3        -21.682874   1.000000
      4          1.362682   1.034005
      5          2.260893  -0.000037
      6          2.349348  -0.000002
      7          5.057825  -0.000000
      8          5.388810  -0.000000
 
  0.3750000E+00  0.2500000E+00  0.1250000E+00  0.5859375E-02
      1        -21.700076   1.000000
      2        -21.673449   1.000000
      3        -21.663852   1.000000
      4         -0.652827   1.000000
      5          2.786370  -0.000000
      6          3.458604  -0.000000
      7          4.234865  -0.000000
      8          4.345695  -0.000000
 
  0.4375000E+00  0.2500000E+00  0.1250000E+00  0.1171875E-01
      1        -21.708182   1.000000
      2        -21.678621   1.000000
      3        -21.666176   1.000000
      4         -0.199173   1.000000
      5          2.589115  -0.000000
      6          3.238574  -0.000000
      7          4.176988  -0.000000
      8          4.564541  -0.000000
 
  0.5000000E+00  0.2500000E+00  0.1250000E+00  0.1171875E-01
      1        -21.715267   1.000000
      2        -21.682312   1.000000
      3        -21.668609   1.000000
      4          0.315201   1.000000
      5          2.299868  -0.000011
      6          3.102566  -0.000000
      7          4.100500  -0.000000
      8          4.815053  -0.000000
 
 -0.4375000E+00  0.2500000E+00  0.1250000E+00  0.1171875E-01
      1        -21.720103   1.000000
      2        -21.684430   1.000000
      3        -21.670472   1.000000
      4          0.856186   1.000000
      5          1.905612  -0.032291
      6          3.054447  -0.000000
      7          4.040832  -0.000000
      8          5.022851  -0.000000
 
 -0.3750000E+00  0.2500000E+00  0.1250000E+00  0.5859375E-02
      1        -21.721822   1.000000
      2        -21.685109   1.000000
      3        -21.671175   1.000000
      4          1.291279   1.019152
      5          1.522041   0.887370
      6          3.047055  -0.000000
      7          4.017575  -0.000000
      8          5.093893  -0.000000
 
  0.4375000E+00  0.3125000E+00  0.1250000E+00  0.5859375E-02
      1        -21.709306   1.000000
      2        -21.679582   1.000000
      3        -21.670382   1.000000
      4         -0.053655   1.000000
      5          2.569529  -0.000000
      6          3.130702  -0.000000
      7          4.346907  -0.000000
      8          4.602589  -0.000000
 
  0.5000000E+00  0.3125000E+00  0.1250000E+00  0.1171875E-01
      1        -21.713850   1.000000
      2        -21.684947   1.000000
      3        -21.672666   1.000000
      4          0.422800   1.000000
      5          2.405168  -0.000000
      6          2.926882  -0.000000
      7          4.293719  -0.000000
      8          4.817524  -0.000000
 
 -0.4375000E+00  0.3125000E+00  0.1250000E+00  0.1171875E-01
      1        -21.716465   1.000000
      2        -21.689433   1.000000
      3        -21.674373   1.000000
      4          0.936004   1.000006
      5          2.128427  -0.001160
      6          2.829688  -0.000000
      7          4.201138  -0.000000
      8          5.015987  -0.000000
 
 -0.3750000E+00  0.3125000E+00  0.1250000E+00  0.1171875E-01
      1        -21.716918   1.000000
      2        -21.692694   1.000000
      3        -21.674756   1.000000
      4          1.448351   1.011544
      5          1.741451   0.096479
      6          2.793926  -0.000000
      7          4.127531  -0.000000
      8          5.068707  -0.000000
 
 -0.3125000E+00  0.3125000E+00  0.1250000E+00  0.1171875E-01
      1        -21.715652   1.000000
      2        -21.693834   1.000000
      3        -21.673646   1.000000
      4          1.274273   1.015561
      5          1.919122  -0.029686
      6          2.762547  -0.000000
      7          4.120936  -0.000000
      8          5.023633  -0.000000
 
 -0.2500000E+00  0.3125000E+00  0.1250000E+00  0.1171875E-01
      1        -21.713620   1.000000
      2        -21.691704   1.000000
      3        -21.671413   1.000000
      4          0.765227   1.000000
      5          2.298220  -0.000012
      6          2.773264  -0.000000
      7          4.166609  -0.000000
      8          4.870378  -0.000000
 
 -0.1875000E+00  0.3125000E+00  0.1250000E+00  0.5859375E-02
      1        -21.711270   1.000000
      2        -21.686187   1.000000
      3        -21.668689   1.000000
      4          0.260632   1.000000
      5          2.498660  -0.000000
      6          2.948896  -0.000000
      7          4.207264  -0.000000
      8          4.677052  -0.000000
 
  0.5000000E+00  0.3750000E+00  0.1250000E+00  0.5859375E-02
      1        -21.716192   1.000000
      2        -21.684786   1.000000
      3        -21.676722   1.000000
      4          0.600773   1.000000
      5          2.398578  -0.000000
      6          2.802499  -0.000000
      7          4.500462  -0.000000
      8          4.910573  -0.000000
 
 -0.4375000E+00  0.3750000E+00  0.1250000E+00  0.1171875E-01
      1        -21.716814   1.000000
      2        -21.690299   1.000000
      3        -21.678403   1.000000
      4          1.062559   1.000234
      5          2.271262  -0.000027
      6          2.637075  -0.000000
      7          4.375578  -0.000000
      8          5.092910  -0.000000
 
 -0.3750000E+00  0.3750000E+00  0.1250000E+00  0.1171875E-01
      1        -21.714686   1.000000
      2        -21.696374   1.000000
      3        -21.678570   1.000000
      4          1.520906   0.890288
      5          2.035596  -0.007119
      6          2.555520  -0.000000
      7          4.212435  -0.000000
      8          5.157628  -0.000000
 
 -0.3125000E+00  0.3750000E+00  0.1250000E+00  0.1171875E-01
      1        -21.710466   1.000000
      2        -21.701844   1.000000
      3        -21.677104   1.000000
      4          1.640080   0.451179
      5          2.012533  -0.010261
      6          2.469213  -0.000000
      7          4.137002  -0.000000
      8          5.121300  -0.000000
 
 -0.2500000E+00  0.3750000E+00  0.1250000E+00  0.5859375E-02
      1        -21.710322   1.000000
      2        -21.700087   1.000000
      3        -21.674487   1.000000
      4          1.230329   1.008231
      5          2.336221  -0.000003
      6          2.430709  -0.000000
      7          4.159726  -0.000000
      8          5.002512  -0.000000
 
 -0.4375000E+00  0.4375000E+00  0.1250000E+00  0.5859375E-02
      1        -21.720324   1.000000
      2        -21.688264   1.000000
      3        -21.681360   1.000000
      4          1.218064   1.006727
      5          2.289952  -0.000015
      6          2.501909  -0.000000
      7          4.586492  -0.000000
      8          5.225430  -0.000000
 
 -0.3750000E+00  0.4375000E+00  0.1250000E+00  0.1171875E-01
      1        -21.717752   1.000000
      2        -21.693611   1.000000
      3        -21.681727   1.000000
      4          1.579380   0.701134
      5          2.214165  -0.000139
      6          2.373554  -0.000001
      7          4.345747  -0.000000
      8          5.311436  -0.000000
 
 -0.3125000E+00  0.4375000E+00  0.1250000E+00  0.5859375E-02
      1        -21.712751   1.000000
      2        -21.700091   1.000000
      3        -21.680060   1.000000
      4          1.786827   0.012152
      5          2.141218  -0.000868
      6          2.292460  -0.000014
      7          4.171903  -0.000000
      8          5.264046  -0.000000
 
 -0.3750000E+00  0.5000000E+00  0.1250000E+00  0.2929688E-02
      1        -21.721679   1.000000
      2        -21.689477   1.000000
      3        -21.683061   1.000000
      4          1.544324   0.823669
      5          2.252776  -0.000047
      6          2.318064  -0.000006
      7          4.585525  -0.000000
      8          5.389390  -0.000000
 
 -0.4375000E+00  0.3750000E+00  0.1875000E+00  0.5859375E-02
      1        -21.713925   1.000000
      2        -21.691804   1.000000
      3        -21.675325   1.000000
      4          0.885292   1.000001
      5          2.364477  -0.000001
      6          2.662643  -0.000000
      7          4.252883  -0.000000
      8          4.950550  -0.000000
 
 -0.3750000E+00  0.3750000E+00  0.1875000E+00  0.1171875E-01
      1        -21.712648   1.000000
      2        -21.697244   1.000000
      3        -21.677574   1.000000
      4          1.354911   1.032874
      5          2.175695  -0.000379
      6          2.554033  -0.000000
      7          4.127409  -0.000000
      8          5.098047  -0.000000
 
 -0.3125000E+00  0.3750000E+00  0.1875000E+00  0.5859375E-02
      1        -21.711651   1.000000
      2        -21.699601   1.000000
      3        -21.678456   1.000000
      4          1.714556   0.170623
      5          1.891651  -0.034336
      6          2.559218  -0.000000
      7          4.055692  -0.000000
      8          5.138809  -0.000000
 
 -0.3750000E+00  0.4375000E+00  0.1875000E+00  0.5859375E-02
      1        -21.714452   1.000000
      2        -21.695556   1.000000
      3        -21.680951   1.000000
      4          1.469019   0.989407
      5          2.278656  -0.000021
      6          2.425766  -0.000000
      7          4.169096  -0.000000
      8          5.236147  -0.000000
 
 -0.3125000E+00  0.4375000E+00  0.1875000E+00  0.1171875E-01
      1        -21.710230   1.000000
      2        -21.701194   1.000000
      3        -21.681817   1.000000
      4          1.792635   0.004875
      5          2.162822  -0.000520
      6          2.358984  -0.000002
      7          3.976304  -0.000000
      8          5.306297  -0.000000
 
 -0.2500000E+00  0.4375000E+00  0.1875000E+00  0.5859375E-02
      1        -21.707407   1.000000
      2        -21.704158   1.000000
      3        -21.680448   1.000000
      4          1.712805   0.176058
      5          2.278312  -0.000022
      6          2.278322  -0.000022
      7          3.983877  -0.000000
      8          5.248517  -0.000000
 
 -0.3125000E+00  0.5000000E+00  0.1875000E+00  0.2929688E-02
      1        -21.714300   1.000000
      2        -21.696873   1.000000
      3        -21.683245   1.000000
      4          1.777838   0.024906
      5          2.249177  -0.000052
      6          2.283282  -0.000019
      7          4.076642  -0.000000
      8          5.389958  -0.000000
 
 -0.2500000E+00  0.5000000E+00  0.2500000E+00  0.1464844E-02
      1        -21.705592   1.000000
      2        -21.705588   1.000000
      3        -21.683321   1.000000
      4          1.901961  -0.032901
      5          2.258424  -0.000040
      6          2.258426  -0.000040
      7          3.847100  -0.000000
      8          5.390195  -0.000000
