    1    1    1    1
  0.1799909E+02  0.2941633E-09  0.2941633E-09  0.2941634E-09  0.5000000E-15
   1.0000000000000000E-004
  CAR 
 Al FCC - EOS calculation                
      3    195      5
 
  0.1262379E-14  0.1262379E-14  0.1262379E-14  0.1714678E-03
      1         -3.424605   1.000000
      2         19.272996   0.000000
      3         19.273004   0.000000
      4         19.273005   0.000000
      5         20.130368   0.000000
 
  0.5555556E-01  0.1264256E-14  0.1262379E-14  0.1371742E-02
      1         -3.345419   1.000000
      2         17.688921   0.000000
      3         18.857291   0.000000
      4         18.857299   0.000000
      5         20.664514   0.000000
 
  0.1111111E+00  0.1255839E-14  0.1262379E-14  0.1371742E-02
      1         -3.108090   1.000000
      2         15.560962   0.000000
      3         18.301661   0.000000
      4         18.301669   0.000000
      5         20.991936   0.000000
 
  0.1666667E+00  0.1278392E-14  0.1262379E-14  0.1371742E-02
      1         -2.713355   1.000000
      2         13.432036   0.000000
      3         17.846872   0.000000
      4         17.846879   0.000000
      5         20.869860   0.000000
 
  0.2222222E+00  0.1265816E-14  0.1262379E-14  0.1371742E-02
      1         -2.162440   1.000000
      2         11.377060   0.000000
      3         17.517470   0.000000
      4         17.517477   0.000000
      5         20.725643   0.000000
 
  0.2777778E+00  0.1275451E-14  0.1262379E-14  0.1371742E-02
      1         -1.457028   1.000000
      2          9.424660  -0.000000
      3         17.318755   0.000000
      4         17.318762   0.000000
      5         20.639362   0.000000
 
  0.3333333E+00  0.1262875E-14  0.1262379E-14  0.1371742E-02
      1         -0.599163   1.000000
      2          7.589569  -0.000000
      3         17.251859   0.000000
      4         17.251865   0.000000
      5         19.782779   0.000000
 
  0.3888889E+00  0.1274323E-14  0.1262379E-14  0.1371742E-02
      1          0.408754   1.000000
      2          5.880534   1.000000
      3         17.313124   0.000000
      4         17.313131   0.000000
      5         19.056389   0.000000
 
  0.4444444E+00  0.1272837E-14  0.1262379E-14  0.1371742E-02
      1          1.563932   1.000000
      2          4.303518   1.000000
      3         17.485893   0.000000
      4         17.485899   0.000000
      5         18.481625   0.000000
 
  0.5000000E+00  0.1232505E-14  0.1262379E-14  0.6858711E-03
      1          2.855391   1.000000
      2          2.871345   1.000000
      3         17.640150   0.000000
      4         17.640155   0.000000
      5         18.192791   0.000000
 
  0.5555556E-01  0.5555556E-01  0.1262379E-14  0.1028807E-02
      1         -3.319025   1.000000
      2         18.116544   0.000000
      3         18.116550   0.000000
      4         18.566113   0.000000
      5         19.871546   0.000000
 
  0.1111111E+00  0.5555556E-01  0.1262379E-14  0.4115226E-02
      1         -3.134436   1.000000
      2         16.295954   0.000000
      3         17.478949   0.000000
      4         18.512430   0.000000
      5         20.066341   0.000000
 
  0.1666667E+00  0.5555556E-01  0.1262379E-14  0.4115226E-02
      1         -2.792204   1.000000
      2         14.181257   0.000000
      3         16.967751   0.000000
      4         18.192953   0.000000
      5         20.711692   0.000000
 
  0.2222222E+00  0.5555556E-01  0.1262379E-14  0.4115226E-02
      1         -2.293423   1.000000
      2         12.107240   0.000000
      3         16.588669   0.000000
      4         17.869422   0.000000
      5         20.369526   0.000000
 
  0.2777778E+00  0.5555556E-01  0.1262379E-14  0.4115226E-02
      1         -1.639591   1.000000
      2         10.123565   0.000000
      3         16.344259   0.000000
      4         17.642917   0.000000
      5         19.427593   0.000000
 
  0.3333333E+00  0.5555556E-01  0.1262379E-14  0.4115226E-02
      1         -0.832641   1.000000
      2          8.250995  -0.000000
      3         16.234627   0.000000
      4         17.528200   0.000000
      5         18.537559   0.000000
 
  0.3888889E+00  0.5555556E-01  0.1262379E-14  0.4115226E-02
      1          0.125114   1.000000
      2          6.500894   1.000000
      3         16.260043   0.000000
      4         17.438791   0.000000
      5         17.868604   0.000000
 
  0.4444444E+00  0.5555556E-01  0.1262379E-14  0.4115226E-02
      1          1.230995   1.000000
      2          4.880530   1.000000
      3         16.419813   0.000000
      4         16.968584   0.000000
      5         17.845393   0.000000
 
  0.5000000E+00  0.5555556E-01  0.1262379E-14  0.4115226E-02
      1          2.482028   1.000000
      2          3.395213   1.000000
      3         16.459786   0.000000
      4         16.711967   0.000000
      5         18.132647   0.000000
 
 -0.4444444E+00  0.5555556E-01  0.1262379E-14  0.4115226E-02
      1          2.049142   1.000000
      2          3.874888   1.000000
      3         16.070111   0.000000
      4         17.130177   0.000000
      5         18.574509   0.000000
 
 -0.3888889E+00  0.5555556E-01  0.1262379E-14  0.4115226E-02
      1          0.846102   1.000000
      2          5.405672   1.000000
      3         15.813983   0.000000
      4         17.650254   0.000000
      5         18.685506   0.000000
 
 -0.3333333E+00  0.5555556E-01  0.1262379E-14  0.4115226E-02
      1         -0.210733   1.000000
      2          7.069675   0.902740
      3         15.694738   0.000000
      4         18.132634   0.000000
      5         18.787127   0.000000
 
 -0.2777778E+00  0.5555556E-01  0.1262379E-14  0.4115226E-02
      1         -1.118489   1.000000
      2          8.861019  -0.000000
      3         15.713234   0.000000
      4         18.348925   0.000000
      5         19.411463   0.000000
 
 -0.2222222E+00  0.5555556E-01  0.1262379E-14  0.4115226E-02
      1         -1.874650   1.000000
      2         10.770931   0.000000
      3         15.869775   0.000000
      4         18.544313   0.000000
      5         20.282489   0.000000
 
 -0.1666667E+00  0.5555556E-01  0.1262379E-14  0.4115226E-02
      1         -2.477004   1.000000
      2         12.784169   0.000000
      3         16.164472   0.000000
      4         18.837726   0.000000
      5         21.093777   0.000000
 
 -0.1111111E+00  0.5555556E-01  0.1262379E-14  0.4115226E-02
      1         -2.923744   1.000000
      2         14.866004   0.000000
      3         16.602303   0.000000
      4         19.228608   0.000000
      5         20.858662   0.000000
 
 -0.5555556E-01  0.5555556E-01  0.1262379E-14  0.2057613E-02
      1         -3.213517   1.000000
      2         16.807345   0.000000
      3         17.315064   0.000000
      4         19.478008   0.000000
      5         20.245559   0.000000
 
  0.1111111E+00  0.1111111E+00  0.1262379E-14  0.1028807E-02
      1         -3.002707   1.000000
      2         16.782806   0.000000
      3         16.782812   0.000000
      4         17.292451   0.000000
      5         19.212423   0.000000
 
  0.1666667E+00  0.1111111E+00  0.1262379E-14  0.4115226E-02
      1         -2.713320   1.000000
      2         15.001614   0.000000
      3         16.219404   0.000000
      4         17.398908   0.000000
      5         19.217151   0.000000
 
  0.2222222E+00  0.1111111E+00  0.1262379E-14  0.4115226E-02
      1         -2.267174   1.000000
      2         12.949918   0.000000
      3         15.791425   0.000000
      4         17.263816   0.000000
      5         18.946223   0.000000
 
  0.2777778E+00  0.1111111E+00  0.1262379E-14  0.4115226E-02
      1         -1.665654   1.000000
      2         10.951463   0.000000
      3         15.499167   0.000000
      4         17.055516   0.000000
      5         17.918432   0.000000
 
  0.3333333E+00  0.1111111E+00  0.1262379E-14  0.4115226E-02
      1         -0.910523   1.000000
      2          9.049993  -0.000000
      3         15.343114   0.000000
      4         16.809012   0.000000
      5         17.064687   0.000000
 
  0.3888889E+00  0.1111111E+00  0.1262379E-14  0.4115226E-02
      1         -0.004026   1.000000
      2          7.264020  -0.032464
      3         15.323204   0.000000
      4         16.034251   0.000000
      5         16.982744   0.000000
 
  0.4444444E+00  0.1111111E+00  0.1262379E-14  0.4115226E-02
      1          1.051251   1.000000
      2          5.603688   1.000000
      3         15.311970   0.000000
      4         15.439311   0.000000
      5         17.116769   0.000000
 
  0.5000000E+00  0.1111111E+00  0.1262379E-14  0.4115226E-02
      1          2.252370   1.000000
      2          4.075728   1.000000
      3         14.722268   0.000000
      4         15.690990   0.000000
      5         17.396019   0.000000
 
 -0.4444444E+00  0.1111111E+00  0.1262379E-14  0.4115226E-02
      1          2.685093   1.000000
      2          3.595898   1.000000
      3         14.271572   0.000000
      4         16.077214   0.000000
      5         17.817022   0.000000
 
 -0.3888889E+00  0.1111111E+00  0.1262379E-14  0.4115226E-02
      1          1.435835   1.000000
      2          5.077707   1.000000
      3         13.962458   0.000000
      4         16.595725   0.000000
      5         18.377124   0.000000
 
 -0.3333333E+00  0.1111111E+00  0.1262379E-14  0.4115226E-02
      1          0.331461   1.000000
      2          6.692724   1.000000
      3         13.796673   0.000000
      4         17.240991   0.000000
      5         19.071939   0.000000
 
 -0.2777778E+00  0.1111111E+00  0.1262379E-14  0.4115226E-02
      1         -0.625021   1.000000
      2          8.433457  -0.000000
      3         13.776250   0.000000
      4         17.999539   0.000000
      5         19.833917   0.000000
 
 -0.2222222E+00  0.1111111E+00  0.1262379E-14  0.4115226E-02
      1         -1.430907   1.000000
      2         10.286524   0.000000
      3         13.906342   0.000000
      4         18.831154   0.000000
      5         20.001654   0.000000
 
 -0.1666667E+00  0.1111111E+00  0.1262379E-14  0.4115226E-02
      1         -2.083863   1.000000
      2         12.214509   0.000000
      3         14.209877   0.000000
      4         19.615761   0.000000
      5         20.335367   0.000000
 
 -0.1111111E+00  0.1111111E+00  0.1262379E-14  0.2057613E-02
      1         -2.581993   1.000000
      2         13.971856   0.000000
      3         14.903534   0.000000
      4         20.091966   0.000000
      5         20.308695   0.000000
 
  0.1666667E+00  0.1666667E+00  0.1262379E-14  0.1028807E-02
      1         -2.476944   1.000000
      2         15.606569   0.000000
      3         15.606575   0.000000
      4         16.038358   0.000000
      5         18.290215   0.000000
 
  0.2222222E+00  0.1666667E+00  0.1262379E-14  0.4115226E-02
      1         -2.083803   1.000000
      2         13.867489   0.000000
      3         15.130119   0.000000
      4         16.293180   0.000000
      5         17.525721   0.000000
 
  0.2777778E+00  0.1666667E+00  0.1262379E-14  0.4115226E-02
      1         -1.535154   1.000000
      2         11.893575   0.000000
      3         14.790415   0.000000
      4         16.266345   0.000000
      5         16.425928   0.000000
 
  0.3333333E+00  0.1666667E+00  0.1262379E-14  0.4115226E-02
      1         -0.832615   1.000000
      2          9.979075   0.000000
      3         14.587590   0.000000
      4         15.339772   0.000000
      5         16.207820   0.000000
 
  0.3888889E+00  0.1666667E+00  0.1262379E-14  0.4115226E-02
      1          0.021658   1.000000
      2          8.165248  -0.000000
      3         14.417249   0.000000
      4         14.521501   0.000000
      5         16.188943   0.000000
 
  0.4444444E+00  0.1666667E+00  0.1262379E-14  0.4115226E-02
      1          1.025113   1.000000
      2          6.469811   1.000000
      3         13.629615   0.000000
      4         14.592036   0.000000
      5         16.294607   0.000000
 
  0.5000000E+00  0.1666667E+00  0.1262379E-14  0.4115226E-02
      1          2.174720   1.000000
      2          4.902465   1.000000
      3         12.982326   0.000000
      4         14.798940   0.000000
      5         16.537757   0.000000
 
 -0.4444444E+00  0.1666667E+00  0.1262379E-14  0.4115226E-02
      1          3.459914   1.000000
      2          3.476631   1.000000
      3         12.478550   0.000000
      4         15.141904   0.000000
      5         16.922477   0.000000
 
 -0.3888889E+00  0.1666667E+00  0.1262379E-14  0.4115226E-02
      1          2.176059   1.000000
      2          4.896760   1.000000
      3         12.120994   0.000000
      4         15.620132   0.000000
      5         17.448171   0.000000
 
 -0.3333333E+00  0.1666667E+00  0.1262379E-14  0.4115226E-02
      1          1.025728   1.000000
      2          6.457326   1.000000
      3         11.913426   0.000000
      4         16.231852   0.000000
      5         18.111582   0.000000
 
 -0.2777778E+00  0.1666667E+00  0.1262379E-14  0.4115226E-02
      1          0.021915   1.000000
      2          8.135069  -0.000000
      3         11.864438   0.000000
      4         16.973782   0.000000
      5         18.906090   0.000000
 
 -0.2222222E+00  0.1666667E+00  0.1262379E-14  0.4115226E-02
      1         -0.832549   1.000000
      2          9.887836   0.000000
      3         12.008400   0.000000
      4         17.837303   0.000000
      5         19.819306   0.000000
 
 -0.1666667E+00  0.1666667E+00  0.1262379E-14  0.2057613E-02
      1         -1.535181   1.000000
      2         11.448106   0.000000
      3         12.599164   0.000000
      4         18.798555   0.000000
      5         20.824697   0.000000
 
  0.2222222E+00  0.2222222E+00  0.1262379E-14  0.1028807E-02
      1         -1.743903   1.000000
      2         14.606001   0.000000
      3         14.606007   0.000000
      4         14.933956   0.000000
      5         16.211888   0.000000
 
  0.2777778E+00  0.2222222E+00  0.1262379E-14  0.4115226E-02
      1         -1.248519   1.000000
      2         12.911160   0.000000
      3         14.219314   0.000000
      4         14.979872   0.000000
      5         15.332810   0.000000
 
  0.3333333E+00  0.2222222E+00  0.1262379E-14  0.4115226E-02
      1         -0.599231   1.000000
      2         11.022279   0.000000
      3         13.862944   0.000000
      4         13.969821   0.000000
      5         15.442337   0.000000
 
  0.3888889E+00  0.2222222E+00  0.1262379E-14  0.4115226E-02
      1          0.201944   1.000000
      2          9.196296  -0.000000
      3         12.878854   0.000000
      4         13.857399   0.000000
      5         15.450822   0.000000
 
  0.4444444E+00  0.2222222E+00  0.1262379E-14  0.4115226E-02
      1          1.152387   1.000000
      2          7.473650  -0.000005
      3         12.034126   0.000000
      4         13.881897   0.000000
      5         15.533997   0.000000
 
  0.5000000E+00  0.2222222E+00  0.1262379E-14  0.4115226E-02
      1          2.248872   1.000000
      2          5.871774   1.000000
      3         11.332743   0.000000
      4         14.043183   0.000000
      5         15.741120   0.000000
 
 -0.4444444E+00  0.2222222E+00  0.1262379E-14  0.4115226E-02
      1          3.486910   1.000000
      2          4.400267   1.000000
      3         10.778300   0.000000
      4         14.341124   0.000000
      5         16.086418   0.000000
 
 -0.3888889E+00  0.2222222E+00  0.1262379E-14  0.4115226E-02
      1          3.064200   1.000000
      2          4.860807   1.000000
      3         10.375545   0.000000
      4         14.775343   0.000000
      5         16.572722   0.000000
 
 -0.3333333E+00  0.2222222E+00  0.1262379E-14  0.4115226E-02
      1          1.869935   1.000000
      2          6.355770   1.000000
      3         10.135074   0.000000
      4         15.345256   0.000000
      5         17.198643   0.000000
 
 -0.2777778E+00  0.2222222E+00  0.1262379E-14  0.4115226E-02
      1          0.820321   1.000000
      2          7.928257  -0.000000
      3         10.096554   0.000000
      4         16.049248   0.000000
      5         17.958207   0.000000
 
 -0.2222222E+00  0.2222222E+00  0.1262379E-14  0.2057613E-02
      1         -0.081391   1.000000
      2          9.297901  -0.000000
      3         10.533074   0.000000
      4         16.883701   0.000000
      5         18.840260   0.000000
 
  0.2777778E+00  0.2777778E+00  0.1262379E-14  0.1028807E-02
      1         -0.806731   1.000000
      2         13.675712   0.000000
      3         13.785805   0.000000
      4         13.785812   0.000000
      5         14.014660   0.000000
 
  0.3333333E+00  0.2777778E+00  0.1262379E-14  0.4115226E-02
      1         -0.211212   1.000000
      2         12.138404   0.000000
      3         12.499812   0.000000
      4         13.489842   0.000000
      5         14.549731   0.000000
 
  0.3888889E+00  0.2777778E+00  0.1262379E-14  0.4115226E-02
      1          0.536013   1.000000
      2         10.339505   0.000000
      3         11.458216   0.000000
      4         13.331168   0.000000
      5         14.758603   0.000000
 
  0.4444444E+00  0.2777778E+00  0.1262379E-14  0.4115226E-02
      1          1.432206   1.000000
      2          8.605931  -0.000000
      3         10.558154   0.000000
      4         13.309578   0.000000
      5         14.866598   0.000000
 
  0.5000000E+00  0.2777778E+00  0.1262379E-14  0.4115226E-02
      1          2.473554   1.000000
      2          6.977680   1.028403
      3          9.804072   0.000000
      4         13.424959   0.000000
      5         15.050511   0.000000
 
 -0.4444444E+00  0.2777778E+00  0.1262379E-14  0.4115226E-02
      1          3.653875   1.000000
      2          5.472088   1.000000
      3          9.201495  -0.000000
      4         13.677199   0.000000
      5         15.358967   0.000000
 
 -0.3888889E+00  0.2777778E+00  0.1262379E-14  0.4115226E-02
      1          4.096669   1.000000
      2          4.962241   1.000000
      3          8.761751  -0.000000
      4         14.066335   0.000000
      5         15.805273   0.000000
 
 -0.3333333E+00  0.2777778E+00  0.1262379E-14  0.4115226E-02
      1          2.861258   1.000000
      2          6.351281   1.000000
      3          8.525742  -0.000000
      4         14.591972   0.000000
      5         16.391077   0.000000
 
 -0.2777778E+00  0.2777778E+00  0.1262379E-14  0.2057613E-02
      1          1.767768   1.000000
      2          7.536111  -0.000000
      3          8.776917  -0.000000
      4         15.253509   0.000000
      5         17.112182   0.000000
 
  0.3333333E+00  0.3333333E+00  0.1262379E-14  0.1028807E-02
      1          0.330057   1.000000
      2         11.261594   0.000000
      3         13.147604   0.000000
      4         13.147611   0.000000
      5         13.292800   0.000000
 
  0.3888889E+00  0.3333333E+00  0.1262379E-14  0.4115226E-02
      1          1.022418   1.000000
      2         10.162986   0.000000
      3         11.561711   0.000000
      4         12.942759   0.000000
      5         13.957491   0.000000
 
  0.4444444E+00  0.3333333E+00  0.1262379E-14  0.4115226E-02
      1          1.862720   1.000000
      2          9.204619  -0.000000
      3          9.861049   0.000000
      4         12.875082   0.000000
      5         14.262601   0.000000
 
  0.5000000E+00  0.3333333E+00  0.1262379E-14  0.4115226E-02
      1          2.845590   1.000000
      2          8.189419  -0.000000
      3          8.433655  -0.000000
      4         12.944473   0.000000
      5         14.470336   0.000000
 
 -0.4444444E+00  0.3333333E+00  0.1262379E-14  0.4115226E-02
      1          3.959372   1.000000
      2          6.676953   1.000000
      3          7.771432  -0.000000
      4         13.150878   0.000000
      5         14.755252   0.000000
 
 -0.3888889E+00  0.3333333E+00  0.1262379E-14  0.4115226E-02
      1          5.155199   1.000000
      2          5.278641   1.000000
      3          7.327985  -0.007489
      4         13.494279   0.000000
      5         15.164685   0.000000
 
 -0.3333333E+00  0.3333333E+00  0.1262379E-14  0.2057613E-02
      1          3.996178   1.000000
      2          6.166745   1.000000
      3          7.375132  -0.001202
      4         13.974778   0.000000
      5         15.710292   0.000000
 
  0.3888889E+00  0.3888889E+00  0.1262379E-14  0.1028807E-02
      1          1.658644   1.000000
      2          9.012594  -0.000000
      3         12.691815   0.000000
      4         12.691822   0.000000
      5         12.774588   0.000000
 
  0.4444444E+00  0.3888889E+00  0.1262379E-14  0.4115226E-02
      1          2.440112   1.000000
      2          8.008200  -0.000000
      3         11.173219   0.000000
      4         12.578118   0.000000
      5         13.560781   0.000000
 
  0.5000000E+00  0.3888889E+00  0.1262379E-14  0.4115226E-02
      1          3.356405   1.000000
      2          7.161934   0.216431
      3          9.563653  -0.000000
      4         12.601514   0.000000
      5         13.962375   0.000000
 
 -0.4444444E+00  0.3888889E+00  0.1262379E-14  0.4115226E-02
      1          4.369151   1.000000
      2          6.511588   1.000000
      3          8.022448  -0.000000
      4         12.761979   0.000000
      5         14.270418   0.000000
 
 -0.3888889E+00  0.3888889E+00  0.1262379E-14  0.2057613E-02
      1          5.189615   1.000000
      2          6.323343   1.000000
      3          6.611605   1.000000
      4         13.059528   0.000000
      5         14.656102   0.000000
 
  0.4444444E+00  0.4444444E+00  0.1262379E-14  0.1028807E-02
      1          3.155006   1.000000
      2          6.961786   1.021140
      3         12.418424   0.000000
      4         12.418431   0.000000
      5         12.462810   0.000000
 
  0.5000000E+00  0.4444444E+00  0.1262379E-14  0.4115226E-02
      1          3.971436   1.000000
      2          6.107143   1.000000
      3         10.978721   0.000000
      4         12.395848   0.000000
      5         13.361903   0.000000
 
 -0.4444444E+00  0.4444444E+00  0.1262379E-14  0.2057613E-02
      1          4.603937   1.000000
      2          5.730076   1.000000
      3          9.465398  -0.000000
      4         12.510343   0.000000
      5         13.861903   0.000000
 
  0.5000000E+00  0.5000000E+00  0.1262379E-14  0.5144033E-03
      1          4.408743   1.000000
      2          5.522777   1.000000
      3         12.327317   0.000000
      4         12.327323   0.000000
      5         12.358616   0.000000
 
  0.1666667E+00  0.1111111E+00  0.5555556E-01  0.4115226E-02
      1         -2.897417   1.000000
      2         15.406384   0.000000
      3         16.086118   0.000000
      4         18.777888   0.000000
      5         19.842483   0.000000
 
  0.2222222E+00  0.1111111E+00  0.5555556E-01  0.8230453E-02
      1         -2.503228   1.000000
      2         13.548439   0.000000
      3         15.400003   0.000000
      4         18.738207   0.000000
      5         20.007337   0.000000
 
  0.2777778E+00  0.1111111E+00  0.5555556E-01  0.8230453E-02
      1         -1.953056   1.000000
      2         11.540284   0.000000
      3         15.033248   0.000000
      4         18.463522   0.000000
      5         19.241288   0.000000
 
  0.3333333E+00  0.1111111E+00  0.5555556E-01  0.8230453E-02
      1         -1.248574   1.000000
      2          9.605956  -0.000000
      3         14.821639   0.000000
      4         18.031189   0.000000
      5         18.526806   0.000000
 
  0.3888889E+00  0.1111111E+00  0.5555556E-01  0.8230453E-02
      1         -0.391861   1.000000
      2          7.779990  -0.000000
      3         14.753216   0.000000
      4         17.247489   0.000000
      5         18.373969   0.000000
 
  0.4444444E+00  0.1111111E+00  0.5555556E-01  0.8230453E-02
      1          0.614655   1.000000
      2          6.076372   1.000000
      3         14.826004   0.000000
      4         16.503892   0.000000
      5         18.433234   0.000000
 
  0.5000000E+00  0.1111111E+00  0.5555556E-01  0.8230453E-02
      1          1.768169   1.000000
      2          4.503016   1.000000
      3         15.038951   0.000000
      4         15.881102   0.000000
      5         18.627047   0.000000
 
 -0.4444444E+00  0.1111111E+00  0.5555556E-01  0.4115226E-02
      1          3.063268   1.000000
      2          3.067745   1.000000
      3         15.381988   0.000000
      4         15.400791   0.000000
      5         18.829835   0.000000
 
  0.2222222E+00  0.1666667E+00  0.5555556E-01  0.4115226E-02
      1         -2.372021   1.000000
      2         14.166304   0.000000
      3         14.935852   0.000000
      4         17.647865   0.000000
      5         18.695747   0.000000
 
  0.2777778E+00  0.1666667E+00  0.5555556E-01  0.8230453E-02
      1         -1.874585   1.000000
      2         12.398906   0.000000
      3         14.313018   0.000000
      4         17.641687   0.000000
      5         17.858717   0.000000
 
  0.3333333E+00  0.1666667E+00  0.5555556E-01  0.8230453E-02
      1         -1.222511   1.000000
      2         10.474802   0.000000
      3         14.027922   0.000000
      4         16.638433   0.000000
      5         17.703806   0.000000
 
  0.3888889E+00  0.1666667E+00  0.5555556E-01  0.8230453E-02
      1         -0.417781   1.000000
      2          8.626303  -0.000000
      3         13.904386   0.000000
      4         15.688863   0.000000
      5         17.642231   0.000000
 
  0.4444444E+00  0.1666667E+00  0.5555556E-01  0.8230453E-02
      1          0.537274   1.000000
      2          6.889187   1.002047
      3         13.926880   0.000000
      4         14.865492   0.000000
      5         17.695605   0.000000
 
  0.5000000E+00  0.1666667E+00  0.5555556E-01  0.8230453E-02
      1          1.639850   1.000000
      2          5.277014   1.000000
      3         14.087679   0.000000
      4         14.182390   0.000000
      5         17.878827   0.000000
 
 -0.4444444E+00  0.1666667E+00  0.5555556E-01  0.8230453E-02
      1          2.886706   1.000000
      2          3.797516   1.000000
      3         13.628388   0.000000
      4         14.400822   0.000000
      5         18.195633   0.000000
 
 -0.3888889E+00  0.1666667E+00  0.5555556E-01  0.8230453E-02
      1          2.455856   1.000000
      2          4.274072   1.000000
      3         13.223198   0.000000
      4         14.847731   0.000000
      5         18.640990   0.000000
 
 -0.3333333E+00  0.1666667E+00  0.5555556E-01  0.8230453E-02
      1          1.256388   1.000000
      2          5.796829   1.000000
      3         12.962520   0.000000
      4         15.433010   0.000000
      5         19.184320   0.000000
 
 -0.2777778E+00  0.1666667E+00  0.5555556E-01  0.8230453E-02
      1          0.202511   1.000000
      2          7.447832  -0.000026
      3         12.849494   0.000000
      4         16.153264   0.000000
      5         19.552191   0.000000
 
 -0.2222222E+00  0.1666667E+00  0.5555556E-01  0.8230453E-02
      1         -0.702817   1.000000
      2          9.213584  -0.000000
      3         12.890921   0.000000
      4         17.002257   0.000000
      5         19.624027   0.000000
 
 -0.1666667E+00  0.1666667E+00  0.5555556E-01  0.8230453E-02
      1         -1.456950   1.000000
      2         11.054588   0.000000
      3         13.115253   0.000000
      4         17.965908   0.000000
      5         19.714292   0.000000
 
 -0.1111111E+00  0.1666667E+00  0.5555556E-01  0.4115226E-02
      1         -2.057676   1.000000
      2         12.714340   0.000000
      3         13.756978   0.000000
      4         18.996312   0.000000
      5         19.566935   0.000000
 
  0.2777778E+00  0.2222222E+00  0.5555556E-01  0.4115226E-02
      1         -1.639493   1.000000
      2         13.106468   0.000000
      3         13.935962   0.000000
      4         16.302029   0.000000
      5         16.617758   0.000000
 
  0.3333333E+00  0.2222222E+00  0.5555556E-01  0.8230453E-02
      1         -1.040418   1.000000
      2         11.432250   0.000000
      3         13.387992   0.000000
      4         15.160135   0.000000
      5         16.873957   0.000000
 
  0.3888889E+00  0.2222222E+00  0.5555556E-01  0.8230453E-02
      1         -0.288482   1.000000
      2          9.596735  -0.000000
      3         13.189093   0.000000
      4         14.141489   0.000000
      5         16.889174   0.000000
 
  0.4444444E+00  0.2222222E+00  0.5555556E-01  0.8230453E-02
      1          0.614045   1.000000
      2          7.838052  -0.000000
      3         13.143140   0.000000
      4         13.270240   0.000000
      5         16.935802   0.000000
 
  0.5000000E+00  0.2222222E+00  0.5555556E-01  0.8230453E-02
      1          1.664327   1.000000
      2          6.193011   1.000000
      3         12.507096   0.000000
      4         13.276845   0.000000
      5         17.091335   0.000000
 
 -0.4444444E+00  0.2222222E+00  0.5555556E-01  0.8230453E-02
      1          2.858844   1.000000
      2          4.675178   1.000000
      3         11.906409   0.000000
      4         13.535438   0.000000
      5         17.376147   0.000000
 
 -0.3888889E+00  0.2222222E+00  0.5555556E-01  0.8230453E-02
      1          3.291550   1.000000
      2          4.193549   1.000000
      3         11.451496   0.000000
      4         13.936872   0.000000
      5         17.795428   0.000000
 
 -0.3333333E+00  0.2222222E+00  0.5555556E-01  0.8230453E-02
      1          2.048258   1.000000
      2          5.660596   1.000000
      3         11.147298   0.000000
      4         14.478764   0.000000
      5         18.348020   0.000000
 
 -0.2777778E+00  0.2222222E+00  0.5555556E-01  0.8230453E-02
      1          0.948602   1.000000
      2          7.247123  -0.035430
      3         11.003644   0.000000
      4         15.158823   0.000000
      5         19.027374   0.000000
 
 -0.2222222E+00  0.2222222E+00  0.5555556E-01  0.8230453E-02
      1         -0.003948   1.000000
      2          8.909586  -0.000000
      3         11.057787   0.000000
      4         15.973377   0.000000
      5         19.816355   0.000000
 
 -0.1666667E+00  0.2222222E+00  0.5555556E-01  0.4115226E-02
      1         -0.806595   1.000000
      2         10.374076   0.000000
      3         11.573383   0.000000
      4         16.915664   0.000000
      5         20.664233   0.000000
 
  0.3333333E+00  0.2777778E+00  0.5555556E-01  0.4115226E-02
      1         -0.702947   1.000000
      2         12.234079   0.000000
      3         13.104666   0.000000
      4         13.771321   0.000000
      5         15.756089   0.000000
 
  0.3888889E+00  0.2777778E+00  0.5555556E-01  0.8230453E-02
      1         -0.004500   1.000000
      2         10.654325   0.000000
      3         12.606619   0.000000
      4         12.722876   0.000000
      5         16.116637   0.000000
 
  0.4444444E+00  0.2777778E+00  0.5555556E-01  0.8230453E-02
      1          0.844484   1.000000
      2          8.910226  -0.000000
      3         11.742560   0.000000
      4         12.537001   0.000000
      5         16.235297   0.000000
 
  0.5000000E+00  0.2777778E+00  0.5555556E-01  0.8230453E-02
      1          1.841029   1.000000
      2          7.244333  -0.035181
      3         10.944422   0.000000
      4         12.596109   0.000000
      5         16.381764   0.000000
 
 -0.4444444E+00  0.2777778E+00  0.5555556E-01  0.8230453E-02
      1          2.980980   1.000000
      2          5.694162   1.000000
      3         10.291348   0.000000
      4         12.805697   0.000000
      5         16.636281   0.000000
 
 -0.3888889E+00  0.2777778E+00  0.5555556E-01  0.8230453E-02
      1          4.239688   1.000000
      2          4.291363   1.000000
      3          9.789623   0.000000
      4         13.159997   0.000000
      5         17.019706   0.000000
 
 -0.3333333E+00  0.2777778E+00  0.5555556E-01  0.8230453E-02
      1          2.987464   1.000000
      2          5.659776   1.000000
      3          9.450373  -0.000000
      4         13.656476   0.000000
      5         17.536822   0.000000
 
 -0.2777778E+00  0.2777778E+00  0.5555556E-01  0.8230453E-02
      1          1.844085   1.000000
      2          7.140567   0.377989
      3          9.314389  -0.000000
      4         14.292966   0.000000
      5         18.185467   0.000000
 
 -0.2222222E+00  0.2777778E+00  0.5555556E-01  0.4115226E-02
      1          0.845879   1.000000
      2          8.417082  -0.000000
      3          9.660246  -0.000000
      4         15.066762   0.000000
      5         18.956783   0.000000
 
  0.3888889E+00  0.3333333E+00  0.5555556E-01  0.4115226E-02
      1          0.433065   1.000000
      2         11.355437   0.000000
      3         11.553146   0.000000
      4         12.461117   0.000000
      5         15.079894   0.000000
 
  0.4444444E+00  0.3333333E+00  0.5555556E-01  0.8230453E-02
      1          1.227436   1.000000
      2         10.061203   0.000000
      3         10.367269   0.000000
      4         12.078861   0.000000
      5         15.540779   0.000000
 
  0.5000000E+00  0.3333333E+00  0.5555556E-01  0.8230453E-02
      1          2.168390   1.000000
      2          8.416005  -0.000000
      3          9.510503  -0.000000
      4         12.062494   0.000000
      5         15.759248   0.000000
 
 -0.4444444E+00  0.3333333E+00  0.5555556E-01  0.8230453E-02
      1          3.250194   1.000000
      2          6.846710   1.000284
      3          8.807082  -0.000000
      4         12.217388   0.000000
      5         16.004325   0.000000
 
 -0.3888889E+00  0.3333333E+00  0.5555556E-01  0.8230453E-02
      1          4.459960   1.000000
      2          5.394653   1.000000
      3          8.266084  -0.000000
      4         12.522226   0.000000
      5         16.356756   0.000000
 
 -0.3333333E+00  0.3333333E+00  0.5555556E-01  0.8230453E-02
      1          4.070397   1.000000
      2          5.758291   1.000000
      3          7.928116  -0.000000
      4         12.971613   0.000000
      5         16.837028   0.000000
 
 -0.2777778E+00  0.3333333E+00  0.5555556E-01  0.4115226E-02
      1          2.885987   1.000000
      2          6.851331   1.000359
      3          8.079029  -0.000000
      4         13.562742   0.000000
      5         17.448501   0.000000
 
  0.4444444E+00  0.3888889E+00  0.5555556E-01  0.4115226E-02
      1          1.760716   1.000000
      2          9.110481  -0.000000
      3         11.065629   0.000000
      4         11.993475   0.000000
      5         14.594884   0.000000
 
  0.5000000E+00  0.3888889E+00  0.5555556E-01  0.8230453E-02
      1          2.642962   1.000000
      2          8.205503  -0.000000
      3          9.682036  -0.000000
      4         11.699943   0.000000
      5         15.153907   0.000000
 
 -0.4444444E+00  0.3888889E+00  0.5555556E-01  0.8230453E-02
      1          3.658140   1.000000
      2          7.456848  -0.000015
      3          8.133713  -0.000000
      4         11.777708   0.000000
      5         15.470898   0.000000
 
 -0.3888889E+00  0.3888889E+00  0.5555556E-01  0.8230453E-02
      1          4.766119   1.000000
      2          6.630196   1.000000
      3          6.942390   1.013091
      4         12.027637   0.000000
      5         15.813712   0.000000
 
 -0.3333333E+00  0.3888889E+00  0.5555556E-01  0.4115226E-02
      1          5.291059   1.000000
      2          5.678025   1.000000
      3          6.868770   1.000834
      4         12.427562   0.000000
      5         16.262677   0.000000
 
  0.5000000E+00  0.4444444E+00  0.5555556E-01  0.4115226E-02
      1          3.255730   1.000000
      2          7.062051   0.936861
      3         10.772649   0.000000
      4         11.712576   0.000000
      5         14.303326   0.000000
 
 -0.4444444E+00  0.4444444E+00  0.5555556E-01  0.8230453E-02
      1          4.170386   1.000000
      2          6.310231   1.000000
      3          9.485500  -0.000000
      4         11.510219   0.000000
      5         14.959764   0.000000
 
 -0.3888889E+00  0.4444444E+00  0.5555556E-01  0.4115226E-02
      1          4.896733   1.000000
      2          6.038864   1.000000
      3          8.030413  -0.000000
      4         11.682654   0.000000
      5         15.374318   0.000000
 
 -0.4444444E+00  0.5000000E+00  0.5555556E-01  0.2057613E-02
      1          4.506347   1.000000
      2          5.626587   1.000000
      3         10.674930   0.000000
      4         11.618815   0.000000
      5         14.206037   0.000000
 
  0.3333333E+00  0.2222222E+00  0.1111111E+00  0.4115226E-02
      1         -1.326642   1.000000
      2         11.644724   0.000000
      3         12.746163   0.000000
      4         16.555079   0.000000
      5         18.623425   0.000000
 
  0.3888889E+00  0.2222222E+00  0.1111111E+00  0.8230453E-02
      1         -0.625036   1.000000
      2         10.080969   0.000000
      3         12.176853   0.000000
      4         15.509449   0.000000
      5         18.895997   0.000000
 
  0.4444444E+00  0.2222222E+00  0.1111111E+00  0.8230453E-02
      1          0.228138   1.000000
      2          8.330002  -0.000000
      3         12.039771   0.000000
      4         14.590384   0.000000
      5         18.947073   0.000000
 
  0.5000000E+00  0.2222222E+00  0.1111111E+00  0.8230453E-02
      1          1.230287   1.000000
      2          6.654922   1.000000
      3         12.090679   0.000000
      4         13.806744   0.000000
      5         19.054664   0.000000
 
 -0.4444444E+00  0.2222222E+00  0.1111111E+00  0.8230453E-02
      1          2.378381   1.000000
      2          5.096742   1.000000
      3         12.296998   0.000000
      4         13.163833   0.000000
      5         19.255489   0.000000
 
 -0.3888889E+00  0.2222222E+00  0.1111111E+00  0.4115226E-02
      1          3.655832   1.000000
      2          3.681809   1.000000
      3         12.600530   0.000000
      4         12.715009   0.000000
      5         19.428633   0.000000
 
  0.3888889E+00  0.2777778E+00  0.1111111E+00  0.4115226E-02
      1         -0.391994   1.000000
      2         10.767102   0.000000
      3         11.900119   0.000000
      4         14.048470   0.000000
      5         17.789147   0.000000
 
  0.4444444E+00  0.2777778E+00  0.1111111E+00  0.8230453E-02
      1          0.408140   1.000000
      2          9.298648  -0.000000
      3         11.412615   0.000000
      4         13.069285   0.000000
      5         18.177607   0.000000
 
  0.5000000E+00  0.2777778E+00  0.1111111E+00  0.8230453E-02
      1          1.357352   1.000000
      2          7.639714  -0.000000
      3         11.364639   0.000000
      4         12.230589   0.000000
      5         18.342429   0.000000
 
 -0.4444444E+00  0.2777778E+00  0.1111111E+00  0.8230453E-02
      1          2.452395   1.000000
      2          6.057964   1.000000
      3         11.442514   0.000000
      4         11.599871   0.000000
      5         18.559609   0.000000
 
 -0.3888889E+00  0.2777778E+00  0.1111111E+00  0.8230453E-02
      1          3.688615   1.000000
      2          4.595465   1.000000
      3         10.963024   0.000000
      4         11.830594   0.000000
      5         18.886113   0.000000
 
 -0.3333333E+00  0.2777778E+00  0.1111111E+00  0.8230453E-02
      1          3.263928   1.000000
      2          5.060933   1.000000
      3         10.564151   0.000000
      4         12.280871   0.000000
      5         19.328420   0.000000
 
 -0.2777778E+00  0.2777778E+00  0.1111111E+00  0.8230453E-02
      1          2.072671   1.000000
      2          6.553653   1.000000
      3         10.324295   0.000000
      4         12.878686   0.000000
      5         19.863275   0.000000
 
 -0.2222222E+00  0.2777778E+00  0.1111111E+00  0.8230453E-02
      1          1.025142   1.000000
      2          8.124217  -0.000000
      3         10.283972   0.000000
      4         13.619051   0.000000
      5         20.285961   0.000000
 
 -0.1666667E+00  0.2777778E+00  0.1111111E+00  0.4115226E-02
      1          0.124964   1.000000
      2          9.494237  -0.000000
      3         10.713166   0.000000
      4         14.497852   0.000000
      5         19.991375   0.000000
 
  0.4444444E+00  0.3333333E+00  0.1111111E+00  0.4115226E-02
      1          0.741732   1.000000
      2         10.083495   0.000000
      3         11.216666   0.000000
      4         11.670093   0.000000
      5         17.125310   0.000000
 
  0.5000000E+00  0.3333333E+00  0.1111111E+00  0.8230453E-02
      1          1.636746   1.000000
      2          8.709817  -0.000000
      3         10.691114   0.000000
      4         10.901610   0.000000
      5         17.620418   0.000000
 
 -0.4444444E+00  0.3333333E+00  0.1111111E+00  0.8230453E-02
      1          2.676680   1.000000
      2          7.144926   0.342806
      3          9.991022   0.000000
      4         10.900012   0.000000
      5         17.889811   0.000000
 
 -0.3888889E+00  0.3333333E+00  0.1111111E+00  0.8230453E-02
      1          3.855276   1.000000
      2          5.659151   1.000000
      3          9.394198  -0.000000
      4         11.138748   0.000000
      5         18.207484   0.000000
 
 -0.3333333E+00  0.3333333E+00  0.1111111E+00  0.8230453E-02
      1          4.291995   1.000000
      2          5.161974   1.000000
      3          8.956454  -0.000000
      4         11.538852   0.000000
      5         18.633657   0.000000
 
 -0.2777778E+00  0.3333333E+00  0.1111111E+00  0.8230453E-02
      1          3.061327   1.000000
      2          6.548628   1.000000
      3          8.721069  -0.000000
      4         12.088809   0.000000
      5         19.179500   0.000000
 
 -0.2222222E+00  0.3333333E+00  0.1111111E+00  0.4115226E-02
      1          1.970657   1.000000
      2          7.732153  -0.000000
      3          8.970254  -0.000000
      4         12.783514   0.000000
      5         19.834341   0.000000
 
  0.5000000E+00  0.3888889E+00  0.1111111E+00  0.4115226E-02
      1          2.066568   1.000000
      2          9.400636  -0.000000
      3          9.594737  -0.000000
      4         10.768326   0.000000
      5         16.646288   0.000000
 
 -0.4444444E+00  0.3888889E+00  0.1111111E+00  0.8230453E-02
      1          3.047991   1.000000
      2          8.306974  -0.000000
      3          8.613770  -0.000000
      4         10.459982   0.000000
      5         17.243445   0.000000
 
 -0.3888889E+00  0.3888889E+00  0.1111111E+00  0.8230453E-02
      1          4.159942   1.000000
      2          6.845312   1.000264
      3          7.967972  -0.000000
      4         10.604438   0.000000
      5         17.612813   0.000000
 
 -0.3333333E+00  0.3888889E+00  0.1111111E+00  0.8230453E-02
      1          5.351950   1.000000
      2          5.467302   1.000000
      3          7.527236  -0.000000
      4         10.944000   0.000000
      5         18.027060   0.000000
 
 -0.2777778E+00  0.3888889E+00  0.1111111E+00  0.4115226E-02
      1          4.191779   1.000000
      2          6.362401   1.000000
      3          7.575175  -0.000000
      4         11.442152   0.000000
      5         18.546974   0.000000
 
 -0.4444444E+00  0.4444444E+00  0.1111111E+00  0.4115226E-02
      1          3.557626   1.000000
      2          7.361808  -0.002130
      3          9.301318  -0.000000
      4         10.475573   0.000000
      5         16.357446   0.000000
 
 -0.3888889E+00  0.4444444E+00  0.1111111E+00  0.8230453E-02
      1          4.567763   1.000000
      2          6.713759   1.000000
      3          8.125292  -0.000000
      4         10.263994   0.000000
      5         17.053608   0.000000
 
 -0.3333333E+00  0.4444444E+00  0.1111111E+00  0.4115226E-02
      1          5.385002   1.000000
      2          6.525298   1.000000
      3          6.781251   1.000006
      4         10.506817   0.000000
      5         17.519718   0.000000
 
 -0.3888889E+00  0.5000000E+00  0.1111111E+00  0.2057613E-02
      1          4.799119   1.000000
      2          5.936588   1.000000
      3          9.203526  -0.000000
      4         10.378397   0.000000
      5         16.261018   0.000000
 
  0.5000000E+00  0.3333333E+00  0.1666667E+00  0.4115226E-02
      1          1.254907   1.000000
      2          8.809577  -0.000000
      3         10.031863   0.000000
      4         12.132540   0.000000
      5         19.350116   0.000000
 
 -0.4444444E+00  0.3333333E+00  0.1666667E+00  0.8230453E-02
      1          2.248819   1.000000
      2          7.533702  -0.000000
      3          9.694666  -0.000000
      4         11.337465   0.000000
      5         19.874066   0.000000
 
 -0.3888889E+00  0.3333333E+00  0.1666667E+00  0.8230453E-02
      1          3.385704   1.000000
      2          6.057042   1.000000
      3          9.827977   0.000000
      4         10.691380   0.000000
      5         20.147625   0.000000
 
 -0.3333333E+00  0.3333333E+00  0.1666667E+00  0.4115226E-02
      1          4.628836   1.000000
      2          4.690472   1.000000
      3         10.080442   0.000000
      4         10.277551   0.000000
      5         20.319857   0.000000
 
 -0.4444444E+00  0.3888889E+00  0.1666667E+00  0.4115226E-02
      1          2.575128   1.000000
      2          8.320481  -0.000000
      3          9.509894  -0.000000
      4          9.940685   0.000000
      5         18.881503   0.000000
 
 -0.3888889E+00  0.3888889E+00  0.1666667E+00  0.8230453E-02
      1          3.653826   1.000000
      2          7.138980   0.390997
      3          9.128598  -0.000000
      4          9.383449  -0.000000
      5         19.522112   0.000000
 
 -0.3333333E+00  0.3888889E+00  0.1666667E+00  0.8230453E-02
      1          4.859568   1.000000
      2          5.759059   1.000000
      3          8.650431  -0.000000
      4          9.560011  -0.000000
      5         19.932911   0.000000
 
 -0.2777778E+00  0.3888889E+00  0.1666667E+00  0.8230453E-02
      1          4.457963   1.000000
      2          6.153575   1.000000
      3          8.319757  -0.000000
      4          9.991812   0.000000
      5         20.386324   0.000000
 
 -0.2222222E+00  0.3888889E+00  0.1666667E+00  0.4115226E-02
      1          3.284571   1.000000
      2          7.243057  -0.034975
      3          8.469997  -0.000000
      4         10.589091   0.000000
      5         20.893383   0.000000
 
 -0.3888889E+00  0.4444444E+00  0.1666667E+00  0.4115226E-02
      1          4.059687   1.000000
      2          7.854962  -0.000000
      3          8.026964  -0.000000
      4          9.267913  -0.000000
      5         18.597297   0.000000
 
 -0.3333333E+00  0.4444444E+00  0.1666667E+00  0.8230453E-02
      1          5.162667   1.000000
      2          6.933513   1.010120
      3          7.328171  -0.007443
      4          9.121770  -0.000000
      5         19.341071   0.000000
 
 -0.2777778E+00  0.4444444E+00  0.1666667E+00  0.4115226E-02
      1          5.655830   1.000000
      2          6.069174   1.000000
      3          7.269578  -0.030385
      4          9.455369  -0.000000
      5         19.851082   0.000000
 
 -0.3333333E+00  0.5000000E+00  0.1666667E+00  0.2057613E-02
      1          5.287347   1.000000
      2          6.448448   1.000000
      3          7.929166  -0.000000
      4          9.164779  -0.000000
      5         18.502247   0.000000
 
 -0.3333333E+00  0.4444444E+00  0.2222222E+00  0.4115226E-02
      1          4.760207   1.000000
      2          6.949655   1.015883
      3          8.135216  -0.000000
      4          8.607179  -0.000000
      5         21.012560   0.000000
 
 -0.2777778E+00  0.4444444E+00  0.2222222E+00  0.4115226E-02
      1          5.926402   1.000000
      2          5.982500   1.000000
      3          7.998618  -0.000000
      4          8.259681  -0.000000
      5         21.545558   0.000000
 
 -0.2777778E+00  0.5000000E+00  0.2222222E+00  0.2057613E-02
      1          5.971449   1.000000
      2          6.851856   1.000369
      3          7.144343   0.347457
      4          8.105008  -0.000000
      5         20.919794   0.000000
