       N       E                     dE             d eps       ncg     rms          rms(c)
DAV:   1     0.577537947107E+01    0.57754E+01   -0.25598E+03  2744   0.629E+02
DAV:   2    -0.112466840611E+02   -0.17022E+02   -0.16468E+02  3437   0.118E+02
DAV:   3    -0.114586862529E+02   -0.21200E+00   -0.21088E+00  3199   0.156E+01
DAV:   4    -0.114589634179E+02   -0.27717E-03   -0.27715E-03  4284   0.431E-01
DAV:   5    -0.114589634714E+02   -0.53529E-07   -0.53721E-07  3220   0.440E-03    0.963E+00
DAV:   6    -0.106807646389E+02    0.77820E+00   -0.13740E+00  3227   0.867E+00    0.278E+00
DAV:   7    -0.105371720335E+02    0.14359E+00   -0.58210E-01  3493   0.533E+00    0.105E+00
DAV:   8    -0.105350021401E+02    0.21699E-02   -0.29010E-03  2933   0.555E-01    0.283E-01
DAV:   9    -0.105346647380E+02    0.33740E-03   -0.73568E-04  3563   0.186E-01    0.262E-02
DAV:  10    -0.105346608286E+02    0.39093E-05   -0.95347E-06  3087   0.302E-02    0.173E-02
DAV:  11    -0.105346570127E+02    0.38160E-05   -0.12297E-06  2100   0.796E-03    0.198E-03
DAV:  12    -0.105346572347E+02   -0.22201E-06   -0.33204E-08  1708   0.159E-03
   1 F= -.10534657E+02 E0= -.10534768E+02  d E =0.332603E-03
