 running    1 mpi-ranks, with    2 threads/rank, on    1 nodes
 distrk:  each k-point on    1 cores,    1 groups
 distr:  one band on    1 cores,    1 groups
 OpenACC runtime initialized ...    1 GPUs detected
 vasp.6.4.2 20Jul23 (build Mar  2 2025 11:04:54) complex                         
 POSCAR found type information on POSCAR Na
 POSCAR found :  1 types and       2 ions
 scaLAPACK will be used selectively (only on CPU)
 LDA part: xc-table for Pade appr. of Perdew
 POSCAR, INCAR and KPOINTS ok, starting setup
 FFT: planning ... GRIDC
 FFT: planning ... GRID_SOFT
 FFT: planning ... GRID
 WAVECAR not read
 entering main loop
       N       E                     dE             d eps       ncg     rms          rms(c)
DAV:   1    -0.191945878344E+01   -0.19195E+01   -0.39672E+02   350   0.176E+02
DAV:   2    -0.261071771542E+01   -0.69126E+00   -0.66079E+00   430   0.118E+01
DAV:   3    -0.262019590878E+01   -0.94782E-02   -0.94782E-02   500   0.197E+00
DAV:   4    -0.262030122512E+01   -0.10532E-03   -0.10532E-03   495   0.149E-01
DAV:   5    -0.262030145955E+01   -0.23443E-06   -0.23449E-06   490   0.708E-03    0.291E-01
DAV:   6    -0.262028764086E+01    0.13819E-04   -0.99045E-05   455   0.830E-02    0.195E-01
DAV:   7    -0.261987535376E+01    0.41229E-03   -0.26227E-04   350   0.149E-01    0.113E-02
DAV:   8    -0.261986738671E+01    0.79671E-05   -0.32462E-06   470   0.113E-02    0.239E-03
DAV:   9    -0.261986707412E+01    0.31259E-06   -0.32472E-07   325   0.394E-03
   1 F= -.26198671E+01 E0= -.26191981E+01  d E =-.133797E-02
