   2   2   0   0
  0.5643294E+01  0.2517827E-09  0.2517827E-09  0.2517827E-09  0.5000000E-15
   1.0000000000000000E-004
  CAR 
 PBE Static SCF for C diamond Band Struct
     28.55352839    -13.66094491  301     10.12207372      1.00000000
    -13.661  0.0000E+00  0.0000E+00
    -13.520  0.0000E+00  0.0000E+00
    -13.380  0.0000E+00  0.0000E+00
    -13.239  0.0000E+00  0.0000E+00
    -13.098  0.0000E+00  0.0000E+00
    -12.957  0.0000E+00  0.0000E+00
    -12.817  0.0000E+00  0.0000E+00
    -12.676  0.0000E+00  0.0000E+00
    -12.535  0.0000E+00  0.0000E+00
    -12.395  0.0000E+00  0.0000E+00
    -12.254  0.0000E+00  0.0000E+00
    -12.113  0.0000E+00  0.0000E+00
    -11.972  0.5662E-13  0.7967E-14
    -11.832  0.8786E-05  0.1236E-05
    -11.691  0.7557E-02  0.1065E-02
    -11.550  0.3469E-01  0.5947E-02
    -11.410  0.5369E-01  0.1350E-01
    -11.269  0.8188E-01  0.2502E-01
    -11.128  0.7818E-01  0.3602E-01
    -10.987  0.9875E-01  0.4992E-01
    -10.847  0.1027E+00  0.6438E-01
    -10.706  0.7737E-01  0.7526E-01
    -10.565  0.1440E+00  0.9552E-01
    -10.425  0.1384E+00  0.1150E+00
    -10.284  0.1116E+00  0.1307E+00
    -10.143  0.1584E+00  0.1530E+00
    -10.002  0.1578E+00  0.1752E+00
     -9.862  0.1473E+00  0.1959E+00
     -9.721  0.9873E-01  0.2098E+00
     -9.580  0.2072E+00  0.2390E+00
     -9.439  0.2067E+00  0.2680E+00
     -9.299  0.1745E+00  0.2926E+00
     -9.158  0.1477E+00  0.3134E+00
     -9.017  0.1796E+00  0.3387E+00
     -8.877  0.2395E+00  0.3724E+00
     -8.736  0.1838E+00  0.3982E+00
     -8.595  0.1934E+00  0.4254E+00
     -8.454  0.1900E+00  0.4522E+00
     -8.314  0.2144E+00  0.4823E+00
     -8.173  0.2721E+00  0.5206E+00
     -8.032  0.2805E+00  0.5601E+00
     -7.892  0.1892E+00  0.5867E+00
     -7.751  0.1330E+00  0.6054E+00
     -7.610  0.2992E+00  0.6475E+00
     -7.469  0.2558E+00  0.6836E+00
     -7.329  0.2898E+00  0.7243E+00
     -7.188  0.2576E+00  0.7606E+00
     -7.047  0.2653E+00  0.7979E+00
     -6.907  0.2016E+00  0.8263E+00
     -6.766  0.3095E+00  0.8698E+00
     -6.625  0.3473E+00  0.9187E+00
     -6.484  0.2862E+00  0.9590E+00
     -6.344  0.3285E+00  0.1005E+01
     -6.203  0.3160E+00  0.1050E+01
     -6.062  0.2618E+00  0.1087E+01
     -5.922  0.3286E+00  0.1133E+01
     -5.781  0.4778E+00  0.1200E+01
     -5.640  0.3751E+00  0.1253E+01
     -5.499  0.4181E+00  0.1312E+01
     -5.359  0.2269E+00  0.1344E+01
     -5.218  0.3079E+00  0.1387E+01
     -5.077  0.2910E+00  0.1428E+01
     -4.937  0.5158E+00  0.1500E+01
     -4.796  0.2595E+00  0.1537E+01
     -4.655  0.2877E+00  0.1577E+01
     -4.514  0.2111E+00  0.1607E+01
     -4.374  0.3204E+00  0.1652E+01
     -4.233  0.2482E+00  0.1687E+01
     -4.092  0.3996E+00  0.1743E+01
     -3.952  0.1738E+00  0.1768E+01
     -3.811  0.1546E+00  0.1790E+01
     -3.670  0.2902E+00  0.1830E+01
     -3.529  0.2464E+00  0.1865E+01
     -3.389  0.2343E+00  0.1898E+01
     -3.248  0.3393E+00  0.1946E+01
     -3.107  0.1833E+00  0.1972E+01
     -2.967  0.2930E+00  0.2013E+01
     -2.826  0.3622E+00  0.2064E+01
     -2.685  0.2011E+00  0.2092E+01
     -2.544  0.2439E+00  0.2126E+01
     -2.404  0.3217E+00  0.2172E+01
     -2.263  0.2863E+00  0.2212E+01
     -2.122  0.3306E+00  0.2258E+01
     -1.982  0.3560E+00  0.2309E+01
     -1.841  0.6433E+00  0.2399E+01
     -1.700  0.5694E+00  0.2479E+01
     -1.559  0.5276E+00  0.2553E+01
     -1.419  0.4438E+00  0.2616E+01
     -1.278  0.6766E+00  0.2711E+01
     -1.137  0.4922E+00  0.2780E+01
     -0.997  0.2110E+00  0.2810E+01
     -0.856  0.2778E+00  0.2849E+01
     -0.715  0.4831E+00  0.2917E+01
     -0.574  0.4512E+00  0.2981E+01
     -0.434  0.2470E+00  0.3015E+01
     -0.293  0.2437E+00  0.3050E+01
     -0.152  0.2742E+00  0.3088E+01
     -0.012  0.2614E+00  0.3125E+01
      0.129  0.3916E+00  0.3180E+01
      0.270  0.1974E+00  0.3208E+01
      0.411  0.2357E+00  0.3241E+01
      0.551  0.3703E+00  0.3293E+01
      0.692  0.4307E+00  0.3354E+01
      0.833  0.3871E+00  0.3408E+01
      0.973  0.4045E+00  0.3465E+01
      1.114  0.5332E+00  0.3540E+01
      1.255  0.6079E+00  0.3626E+01
      1.396  0.4073E+00  0.3683E+01
      1.536  0.5445E+00  0.3760E+01
      1.677  0.5733E+00  0.3840E+01
      1.818  0.4300E+00  0.3901E+01
      1.958  0.3962E+00  0.3957E+01
      2.099  0.6659E+00  0.4050E+01
      2.240  0.5891E+00  0.4133E+01
      2.381  0.5339E+00  0.4208E+01
      2.521  0.4648E+00  0.4274E+01
      2.662  0.3997E+00  0.4330E+01
      2.803  0.6561E+00  0.4422E+01
      2.943  0.9237E+00  0.4552E+01
      3.084  0.3459E+00  0.4601E+01
      3.225  0.6224E+00  0.4689E+01
      3.366  0.7397E+00  0.4793E+01
      3.506  0.7637E+00  0.4900E+01
      3.647  0.7378E+00  0.5004E+01
      3.788  0.8890E+00  0.5129E+01
      3.928  0.7149E+00  0.5230E+01
      4.069  0.6040E+00  0.5315E+01
      4.210  0.1076E+01  0.5466E+01
      4.351  0.6422E+00  0.5556E+01
      4.491  0.5988E+00  0.5641E+01
      4.632  0.7211E+00  0.5742E+01
      4.773  0.9721E+00  0.5879E+01
      4.913  0.6491E+00  0.5970E+01
      5.054  0.6808E+00  0.6066E+01
      5.195  0.5999E+00  0.6150E+01
      5.336  0.8087E+00  0.6264E+01
      5.476  0.7315E+00  0.6367E+01
      5.617  0.5783E+00  0.6449E+01
      5.758  0.6613E+00  0.6542E+01
      5.898  0.7861E+00  0.6652E+01
      6.039  0.6417E+00  0.6742E+01
      6.180  0.6606E+00  0.6835E+01
      6.321  0.5690E+00  0.6916E+01
      6.461  0.7751E+00  0.7025E+01
      6.602  0.5483E+00  0.7102E+01
      6.743  0.5415E+00  0.7178E+01
      6.883  0.8274E+00  0.7294E+01
      7.024  0.5548E+00  0.7372E+01
      7.165  0.4107E+00  0.7430E+01
      7.306  0.4982E+00  0.7500E+01
      7.446  0.3981E+00  0.7556E+01
      7.587  0.3286E+00  0.7603E+01
      7.728  0.3175E+00  0.7647E+01
      7.868  0.4049E+00  0.7704E+01
      8.009  0.2785E+00  0.7743E+01
      8.150  0.1610E+00  0.7766E+01
      8.291  0.2904E+00  0.7807E+01
      8.431  0.2415E+00  0.7841E+01
      8.572  0.1057E+00  0.7856E+01
      8.713  0.2699E+00  0.7894E+01
      8.853  0.1614E+00  0.7916E+01
      8.994  0.9625E-01  0.7930E+01
      9.135  0.1637E+00  0.7953E+01
      9.276  0.9133E-01  0.7966E+01
      9.416  0.8713E-01  0.7978E+01
      9.557  0.9741E-01  0.7992E+01
      9.698  0.3361E-01  0.7997E+01
      9.838  0.2350E-01  0.8000E+01
      9.979  0.7356E-03  0.8000E+01
     10.120  0.1491E-08  0.8000E+01
     10.261  0.0000E+00  0.8000E+01
     10.401  0.0000E+00  0.8000E+01
     10.542  0.0000E+00  0.8000E+01
     10.683  0.0000E+00  0.8000E+01
     10.823  0.0000E+00  0.8000E+01
     10.964  0.0000E+00  0.8000E+01
     11.105  0.0000E+00  0.8000E+01
     11.246  0.0000E+00  0.8000E+01
     11.386  0.0000E+00  0.8000E+01
     11.527  0.0000E+00  0.8000E+01
     11.668  0.0000E+00  0.8000E+01
     11.808  0.0000E+00  0.8000E+01
     11.949  0.0000E+00  0.8000E+01
     12.090  0.0000E+00  0.8000E+01
     12.231  0.0000E+00  0.8000E+01
     12.371  0.0000E+00  0.8000E+01
     12.512  0.0000E+00  0.8000E+01
     12.653  0.0000E+00  0.8000E+01
     12.793  0.0000E+00  0.8000E+01
     12.934  0.0000E+00  0.8000E+01
     13.075  0.0000E+00  0.8000E+01
     13.216  0.0000E+00  0.8000E+01
     13.356  0.0000E+00  0.8000E+01
     13.497  0.0000E+00  0.8000E+01
     13.638  0.0000E+00  0.8000E+01
     13.778  0.4756E-08  0.8000E+01
     13.919  0.2423E-02  0.8000E+01
     14.060  0.2185E-01  0.8003E+01
     14.201  0.9842E-01  0.8017E+01
     14.341  0.1034E+00  0.8032E+01
     14.482  0.1492E+00  0.8053E+01
     14.623  0.1468E+00  0.8073E+01
     14.763  0.2365E+00  0.8107E+01
     14.904  0.2925E+00  0.8148E+01
     15.045  0.2820E+00  0.8188E+01
     15.186  0.2387E+00  0.8221E+01
     15.326  0.4602E+00  0.8286E+01
     15.467  0.4023E+00  0.8343E+01
     15.608  0.4151E+00  0.8401E+01
     15.748  0.3123E+00  0.8445E+01
     15.889  0.5687E+00  0.8525E+01
     16.030  0.5517E+00  0.8603E+01
     16.171  0.5341E+00  0.8678E+01
     16.311  0.5885E+00  0.8761E+01
     16.452  0.4674E+00  0.8826E+01
     16.593  0.5833E+00  0.8908E+01
     16.733  0.4881E+00  0.8977E+01
     16.874  0.6714E+00  0.9072E+01
     17.015  0.7442E+00  0.9176E+01
     17.156  0.7228E+00  0.9278E+01
     17.296  0.4367E+00  0.9339E+01
     17.437  0.9328E+00  0.9471E+01
     17.578  0.8314E+00  0.9588E+01
     17.718  0.9886E+00  0.9727E+01
     17.859  0.6479E+00  0.9818E+01
     18.000  0.8781E+00  0.9942E+01
     18.141  0.1386E+01  0.1014E+02
     18.281  0.9231E+00  0.1027E+02
     18.422  0.8524E+00  0.1039E+02
     18.563  0.8138E+00  0.1050E+02
     18.703  0.1266E+01  0.1068E+02
     18.844  0.1003E+01  0.1082E+02
     18.985  0.8150E+00  0.1093E+02
     19.126  0.9787E+00  0.1107E+02
     19.266  0.7454E+00  0.1118E+02
     19.407  0.1207E+01  0.1135E+02
     19.548  0.8074E+00  0.1146E+02
     19.688  0.5239E+00  0.1153E+02
     19.829  0.6445E+00  0.1163E+02
     19.970  0.6448E+00  0.1172E+02
     20.111  0.4089E+00  0.1177E+02
     20.251  0.1331E+01  0.1196E+02
     20.392  0.1379E+01  0.1216E+02
     20.533  0.4410E+00  0.1222E+02
     20.673  0.4212E+00  0.1228E+02
     20.814  0.5322E+00  0.1235E+02
     20.955  0.4570E+00  0.1242E+02
     21.096  0.3037E+00  0.1246E+02
     21.236  0.6944E+00  0.1256E+02
     21.377  0.5051E+00  0.1263E+02
     21.518  0.1010E+01  0.1277E+02
     21.658  0.6487E+00  0.1286E+02
     21.799  0.7694E+00  0.1297E+02
     21.940  0.6164E+00  0.1306E+02
     22.081  0.3973E+00  0.1311E+02
     22.221  0.4250E+00  0.1317E+02
     22.362  0.5561E+00  0.1325E+02
     22.503  0.1155E+01  0.1341E+02
     22.644  0.1191E+01  0.1358E+02
     22.784  0.7162E+00  0.1368E+02
     22.925  0.5601E+00  0.1376E+02
     23.066  0.5790E+00  0.1384E+02
     23.206  0.6255E+00  0.1393E+02
     23.347  0.5517E+00  0.1401E+02
     23.488  0.1152E+01  0.1417E+02
     23.629  0.1236E+01  0.1434E+02
     23.769  0.7435E+00  0.1445E+02
     23.910  0.1063E+01  0.1460E+02
     24.051  0.7780E+00  0.1471E+02
     24.191  0.9697E+00  0.1484E+02
     24.332  0.7139E+00  0.1494E+02
     24.473  0.5448E+00  0.1502E+02
     24.614  0.1078E+01  0.1517E+02
     24.754  0.5645E+00  0.1525E+02
     24.895  0.1228E+01  0.1542E+02
     25.036  0.5619E+00  0.1550E+02
     25.176  0.6469E+00  0.1559E+02
     25.317  0.4435E+00  0.1566E+02
     25.458  0.5563E+00  0.1573E+02
     25.599  0.6210E+00  0.1582E+02
     25.739  0.2800E+00  0.1586E+02
     25.880  0.3036E+00  0.1590E+02
     26.021  0.9448E-01  0.1592E+02
     26.161  0.1625E+00  0.1594E+02
     26.302  0.1733E+00  0.1596E+02
     26.443  0.1559E+00  0.1599E+02
     26.584  0.5724E-01  0.1599E+02
     26.724  0.4205E-01  0.1600E+02
     26.865  0.1308E-03  0.1600E+02
     27.006  0.7092E-12  0.1600E+02
     27.146  0.0000E+00  0.1600E+02
     27.287  0.0000E+00  0.1600E+02
     27.428  0.0000E+00  0.1600E+02
     27.569  0.0000E+00  0.1600E+02
     27.709  0.0000E+00  0.1600E+02
     27.850  0.0000E+00  0.1600E+02
     27.991  0.0000E+00  0.1600E+02
     28.131  0.0000E+00  0.1600E+02
     28.272  0.0000E+00  0.1600E+02
     28.413  0.0000E+00  0.1600E+02
     28.554  0.0000E+00  0.1600E+02
