  35  35   0   0
  0.1345832E+02  0.8906698E-09  0.8906698E-09  0.5937799E-09  0.5000000E-15
   1.0000000000000000E-004
  CAR 
 Cr Structural Relaxation (35 atoms, AFM 
     12.14362153     -2.26374170  301      7.47493486      1.00000000
     -2.264  0.0000E+00  0.0000E+00  0.0000E+00  0.0000E+00
     -2.216  0.0000E+00  0.0000E+00  0.0000E+00  0.0000E+00
     -2.168  0.0000E+00  0.0000E+00  0.0000E+00  0.0000E+00
     -2.120  0.0000E+00  0.0000E+00  0.0000E+00  0.0000E+00
     -2.072  0.0000E+00  0.0000E+00  0.0000E+00  0.0000E+00
     -2.024  0.0000E+00  0.0000E+00  0.0000E+00  0.0000E+00
     -1.976  0.0000E+00  0.0000E+00  0.0000E+00  0.0000E+00
     -1.928  0.0000E+00  0.0000E+00  0.0000E+00  0.0000E+00
     -1.880 -0.1112E-30 -0.1113E-30 -0.5341E-32 -0.5343E-32
     -1.832 -0.4821E-29 -0.4823E-29 -0.2369E-30 -0.2370E-30
     -1.783 -0.1898E-27 -0.1899E-27 -0.9352E-29 -0.9356E-29
     -1.735 -0.6650E-26 -0.6653E-26 -0.3287E-27 -0.3288E-27
     -1.687 -0.2073E-24 -0.2074E-24 -0.1028E-25 -0.1029E-25
     -1.639 -0.5749E-23 -0.5751E-23 -0.2864E-24 -0.2865E-24
     -1.591 -0.1418E-21 -0.1419E-21 -0.7098E-23 -0.7100E-23
     -1.543 -0.3112E-20 -0.3113E-20 -0.1565E-21 -0.1566E-21
     -1.495 -0.6072E-19 -0.6074E-19 -0.3072E-20 -0.3073E-20
     -1.447 -0.9930E-18 -0.9934E-18 -0.5076E-19 -0.5078E-19
     -1.399 -0.1576E-16 -0.1576E-16 -0.8076E-18 -0.8078E-18
     -1.351 -0.2151E-15 -0.2151E-15 -0.1114E-16 -0.1114E-16
     -1.303 -0.2610E-14 -0.2611E-14 -0.1365E-15 -0.1365E-15
     -1.255 -0.2811E-13 -0.2812E-13 -0.1487E-14 -0.1487E-14
     -1.207 -0.2687E-12 -0.2688E-12 -0.1439E-13 -0.1440E-13
     -1.159 -0.2278E-11 -0.2279E-11 -0.1238E-12 -0.1238E-12
     -1.111 -0.1712E-10 -0.1712E-10 -0.9459E-12 -0.9461E-12
     -1.063 -0.1140E-09 -0.1140E-09 -0.6419E-11 -0.6420E-11
     -1.015 -0.6715E-09 -0.6716E-09 -0.3867E-10 -0.3868E-10
     -0.967 -0.3500E-08 -0.3501E-08 -0.2068E-09 -0.2068E-09
     -0.919 -0.1613E-07 -0.1613E-07 -0.9812E-09 -0.9814E-09
     -0.871 -0.6560E-07 -0.6561E-07 -0.4132E-08 -0.4132E-08
     -0.823 -0.2355E-06 -0.2355E-06 -0.1544E-07 -0.1544E-07
     -0.775 -0.7448E-06 -0.7449E-06 -0.5121E-07 -0.5122E-07
     -0.727 -0.2075E-05 -0.2075E-05 -0.1509E-06 -0.1509E-06
     -0.679 -0.5085E-05 -0.5085E-05 -0.3951E-06 -0.3951E-06
     -0.631 -0.1095E-04 -0.1095E-04 -0.9208E-06 -0.9208E-06
     -0.583 -0.2063E-04 -0.2064E-04 -0.1912E-05 -0.1912E-05
     -0.535 -0.3377E-04 -0.3378E-04 -0.3534E-05 -0.3534E-05
     -0.487 -0.4687E-04 -0.4687E-04 -0.5785E-05 -0.5785E-05
     -0.439 -0.5115E-04 -0.5115E-04 -0.8241E-05 -0.8242E-05
     -0.391 -0.3036E-04 -0.3036E-04 -0.9699E-05 -0.9699E-05
     -0.343  0.4051E-04  0.4053E-04 -0.7754E-05 -0.7753E-05
     -0.295  0.1935E-03  0.1935E-03  0.1537E-05  0.1539E-05
     -0.247  0.4603E-03  0.4604E-03  0.2364E-04  0.2365E-04
     -0.199  0.8609E-03  0.8610E-03  0.6499E-04  0.6500E-04
     -0.151  0.1390E-02  0.1390E-02  0.1317E-03  0.1318E-03
     -0.103  0.2009E-02  0.2009E-02  0.2282E-03  0.2282E-03
     -0.055  0.2641E-02  0.2641E-02  0.3551E-03  0.3551E-03
     -0.007  0.3186E-02  0.3186E-02  0.5081E-03  0.5081E-03
      0.041  0.3539E-02  0.3539E-02  0.6780E-03  0.6780E-03
      0.089  0.3638E-02  0.3638E-02  0.8527E-03  0.8528E-03
      0.137  0.3496E-02  0.3496E-02  0.1021E-02  0.1021E-02
      0.186  0.3218E-02  0.3218E-02  0.1175E-02  0.1175E-02
      0.234  0.2978E-02  0.2978E-02  0.1318E-02  0.1318E-02
      0.282  0.2973E-02  0.2973E-02  0.1461E-02  0.1461E-02
      0.330  0.3352E-02  0.3352E-02  0.1622E-02  0.1622E-02
      0.378  0.4144E-02  0.4144E-02  0.1821E-02  0.1821E-02
      0.426  0.5222E-02  0.5222E-02  0.2072E-02  0.2072E-02
      0.474  0.6323E-02  0.6323E-02  0.2375E-02  0.2375E-02
      0.522  0.7136E-02  0.7137E-02  0.2718E-02  0.2718E-02
      0.570  0.7418E-02  0.7418E-02  0.3074E-02  0.3074E-02
      0.618  0.7092E-02  0.7092E-02  0.3415E-02  0.3415E-02
      0.666  0.6281E-02  0.6281E-02  0.3717E-02  0.3717E-02
      0.714  0.5270E-02  0.5270E-02  0.3970E-02  0.3970E-02
      0.762  0.4391E-02  0.4390E-02  0.4181E-02  0.4181E-02
      0.810  0.3916E-02  0.3916E-02  0.4369E-02  0.4369E-02
      0.858  0.3976E-02  0.3976E-02  0.4560E-02  0.4560E-02
      0.906  0.4543E-02  0.4543E-02  0.4778E-02  0.4778E-02
      0.954  0.5475E-02  0.5475E-02  0.5041E-02  0.5041E-02
      1.002  0.6598E-02  0.6598E-02  0.5358E-02  0.5358E-02
      1.050  0.7760E-02  0.7760E-02  0.5730E-02  0.5730E-02
      1.098  0.8831E-02  0.8831E-02  0.6154E-02  0.6154E-02
      1.146  0.9670E-02  0.9670E-02  0.6619E-02  0.6619E-02
      1.194  0.1013E-01  0.1013E-01  0.7105E-02  0.7105E-02
      1.242  0.1012E-01  0.1012E-01  0.7591E-02  0.7591E-02
      1.290  0.9689E-02  0.9689E-02  0.8057E-02  0.8057E-02
      1.338  0.9050E-02  0.9050E-02  0.8491E-02  0.8491E-02
      1.386  0.8523E-02  0.8523E-02  0.8901E-02  0.8901E-02
      1.434  0.8395E-02  0.8395E-02  0.9304E-02  0.9304E-02
      1.482  0.8766E-02  0.8766E-02  0.9725E-02  0.9725E-02
      1.530  0.9469E-02  0.9469E-02  0.1018E-01  0.1018E-01
      1.578  0.1012E-01  0.1012E-01  0.1067E-01  0.1067E-01
      1.626  0.1031E-01  0.1031E-01  0.1116E-01  0.1116E-01
      1.674  0.9846E-02  0.9846E-02  0.1163E-01  0.1163E-01
      1.722  0.8863E-02  0.8863E-02  0.1206E-01  0.1206E-01
      1.770  0.7781E-02  0.7781E-02  0.1243E-01  0.1243E-01
      1.818  0.7135E-02  0.7135E-02  0.1278E-01  0.1278E-01
      1.866  0.7373E-02  0.7373E-02  0.1313E-01  0.1313E-01
      1.914  0.8700E-02  0.8700E-02  0.1355E-01  0.1355E-01
      1.962  0.1099E-01  0.1099E-01  0.1407E-01  0.1407E-01
      2.010  0.1378E-01  0.1378E-01  0.1474E-01  0.1474E-01
      2.058  0.1641E-01  0.1641E-01  0.1552E-01  0.1553E-01
      2.106  0.1822E-01  0.1822E-01  0.1640E-01  0.1640E-01
      2.155  0.1878E-01  0.1878E-01  0.1730E-01  0.1730E-01
      2.203  0.1812E-01  0.1812E-01  0.1817E-01  0.1817E-01
      2.251  0.1672E-01  0.1672E-01  0.1897E-01  0.1897E-01
      2.299  0.1522E-01  0.1522E-01  0.1971E-01  0.1971E-01
      2.347  0.1412E-01  0.1412E-01  0.2038E-01  0.2038E-01
      2.395  0.1362E-01  0.1362E-01  0.2104E-01  0.2104E-01
      2.443  0.1365E-01  0.1365E-01  0.2169E-01  0.2169E-01
      2.491  0.1408E-01  0.1408E-01  0.2237E-01  0.2237E-01
      2.539  0.1480E-01  0.1480E-01  0.2308E-01  0.2308E-01
      2.587  0.1571E-01  0.1571E-01  0.2383E-01  0.2383E-01
      2.635  0.1669E-01  0.1669E-01  0.2464E-01  0.2464E-01
      2.683  0.1756E-01  0.1756E-01  0.2548E-01  0.2548E-01
      2.731  0.1826E-01  0.1826E-01  0.2636E-01  0.2636E-01
      2.779  0.1888E-01  0.1888E-01  0.2726E-01  0.2726E-01
      2.827  0.1981E-01  0.1981E-01  0.2821E-01  0.2821E-01
      2.875  0.2168E-01  0.2168E-01  0.2926E-01  0.2926E-01
      2.923  0.2528E-01  0.2528E-01  0.3047E-01  0.3047E-01
      2.971  0.3131E-01  0.3131E-01  0.3197E-01  0.3197E-01
      3.019  0.3992E-01  0.3992E-01  0.3389E-01  0.3389E-01
      3.067  0.5042E-01  0.5042E-01  0.3631E-01  0.3631E-01
      3.115  0.6120E-01  0.6121E-01  0.3925E-01  0.3925E-01
      3.163  0.7015E-01  0.7015E-01  0.4262E-01  0.4262E-01
      3.211  0.7532E-01  0.7532E-01  0.4624E-01  0.4624E-01
      3.259  0.7595E-01  0.7595E-01  0.4988E-01  0.4989E-01
      3.307  0.7306E-01  0.7306E-01  0.5339E-01  0.5339E-01
      3.355  0.6947E-01  0.6947E-01  0.5673E-01  0.5673E-01
      3.403  0.6869E-01  0.6869E-01  0.6003E-01  0.6003E-01
      3.451  0.7310E-01  0.7310E-01  0.6354E-01  0.6354E-01
      3.499  0.8248E-01  0.8249E-01  0.6750E-01  0.6750E-01
      3.547  0.9388E-01  0.9388E-01  0.7201E-01  0.7201E-01
      3.595  0.1031E+00  0.1031E+00  0.7696E-01  0.7696E-01
      3.643  0.1073E+00  0.1073E+00  0.8211E-01  0.8212E-01
      3.691  0.1063E+00  0.1063E+00  0.8722E-01  0.8722E-01
      3.739  0.1028E+00  0.1028E+00  0.9215E-01  0.9216E-01
      3.787  0.1003E+00  0.1003E+00  0.9697E-01  0.9697E-01
      3.835  0.1013E+00  0.1013E+00  0.1018E+00  0.1018E+00
      3.883  0.1060E+00  0.1060E+00  0.1069E+00  0.1069E+00
      3.931  0.1127E+00  0.1127E+00  0.1123E+00  0.1123E+00
      3.979  0.1198E+00  0.1198E+00  0.1181E+00  0.1181E+00
      4.027  0.1256E+00  0.1256E+00  0.1241E+00  0.1241E+00
      4.075  0.1292E+00  0.1292E+00  0.1303E+00  0.1303E+00
      4.124  0.1297E+00  0.1297E+00  0.1366E+00  0.1366E+00
      4.172  0.1262E+00  0.1262E+00  0.1426E+00  0.1426E+00
      4.220  0.1190E+00  0.1190E+00  0.1483E+00  0.1483E+00
      4.268  0.1092E+00  0.1092E+00  0.1536E+00  0.1536E+00
      4.316  0.9883E-01  0.9883E-01  0.1583E+00  0.1583E+00
      4.364  0.9032E-01  0.9033E-01  0.1627E+00  0.1627E+00
      4.412  0.8531E-01  0.8532E-01  0.1668E+00  0.1668E+00
      4.460  0.8415E-01  0.8415E-01  0.1708E+00  0.1708E+00
      4.508  0.8560E-01  0.8561E-01  0.1749E+00  0.1749E+00
      4.556  0.8724E-01  0.8724E-01  0.1791E+00  0.1791E+00
      4.604  0.8640E-01  0.8640E-01  0.1833E+00  0.1833E+00
      4.652  0.8154E-01  0.8153E-01  0.1872E+00  0.1872E+00
      4.700  0.7330E-01  0.7330E-01  0.1907E+00  0.1907E+00
      4.748  0.6471E-01  0.6471E-01  0.1938E+00  0.1938E+00
      4.796  0.6020E-01  0.6020E-01  0.1967E+00  0.1967E+00
      4.844  0.6394E-01  0.6393E-01  0.1998E+00  0.1998E+00
      4.892  0.7793E-01  0.7793E-01  0.2035E+00  0.2035E+00
      4.940  0.1011E+00  0.1011E+00  0.2084E+00  0.2084E+00
      4.988  0.1295E+00  0.1295E+00  0.2146E+00  0.2146E+00
      5.036  0.1576E+00  0.1576E+00  0.2221E+00  0.2221E+00
      5.084  0.1802E+00  0.1803E+00  0.2308E+00  0.2308E+00
      5.132  0.1938E+00  0.1938E+00  0.2401E+00  0.2401E+00
      5.180  0.1971E+00  0.1971E+00  0.2496E+00  0.2496E+00
      5.228  0.1915E+00  0.1915E+00  0.2588E+00  0.2588E+00
      5.276  0.1801E+00  0.1801E+00  0.2674E+00  0.2674E+00
      5.324  0.1673E+00  0.1673E+00  0.2755E+00  0.2755E+00
      5.372  0.1566E+00  0.1566E+00  0.2830E+00  0.2830E+00
      5.420  0.1500E+00  0.1500E+00  0.2902E+00  0.2902E+00
      5.468  0.1468E+00  0.1468E+00  0.2972E+00  0.2972E+00
      5.516  0.1452E+00  0.1453E+00  0.3042E+00  0.3042E+00
      5.564  0.1435E+00  0.1435E+00  0.3111E+00  0.3111E+00
      5.612  0.1411E+00  0.1411E+00  0.3179E+00  0.3179E+00
      5.660  0.1390E+00  0.1390E+00  0.3245E+00  0.3245E+00
      5.708  0.1386E+00  0.1386E+00  0.3312E+00  0.3312E+00
      5.756  0.1404E+00  0.1404E+00  0.3379E+00  0.3379E+00
      5.804  0.1442E+00  0.1442E+00  0.3449E+00  0.3449E+00
      5.852  0.1491E+00  0.1491E+00  0.3520E+00  0.3520E+00
      5.900  0.1545E+00  0.1545E+00  0.3594E+00  0.3595E+00
      5.948  0.1596E+00  0.1596E+00  0.3671E+00  0.3671E+00
      5.996  0.1642E+00  0.1642E+00  0.3750E+00  0.3750E+00
      6.045  0.1682E+00  0.1682E+00  0.3831E+00  0.3831E+00
      6.093  0.1714E+00  0.1714E+00  0.3913E+00  0.3913E+00
      6.141  0.1739E+00  0.1739E+00  0.3997E+00  0.3997E+00
      6.189  0.1748E+00  0.1748E+00  0.4081E+00  0.4081E+00
      6.237  0.1736E+00  0.1736E+00  0.4164E+00  0.4164E+00
      6.285  0.1699E+00  0.1699E+00  0.4246E+00  0.4246E+00
      6.333  0.1642E+00  0.1641E+00  0.4324E+00  0.4324E+00
      6.381  0.1573E+00  0.1573E+00  0.4400E+00  0.4400E+00
      6.429  0.1498E+00  0.1498E+00  0.4472E+00  0.4472E+00
      6.477  0.1407E+00  0.1407E+00  0.4539E+00  0.4539E+00
      6.525  0.1293E+00  0.1293E+00  0.4601E+00  0.4602E+00
      6.573  0.1154E+00  0.1154E+00  0.4657E+00  0.4657E+00
      6.621  0.1005E+00  0.1005E+00  0.4705E+00  0.4705E+00
      6.669  0.8659E-01  0.8660E-01  0.4747E+00  0.4747E+00
      6.717  0.7526E-01  0.7527E-01  0.4783E+00  0.4783E+00
      6.765  0.6712E-01  0.6712E-01  0.4815E+00  0.4815E+00
      6.813  0.6208E-01  0.6208E-01  0.4845E+00  0.4845E+00
      6.861  0.5998E-01  0.5997E-01  0.4874E+00  0.4874E+00
      6.909  0.6055E-01  0.6055E-01  0.4903E+00  0.4903E+00
      6.957  0.6313E-01  0.6312E-01  0.4933E+00  0.4933E+00
      7.005  0.6637E-01  0.6637E-01  0.4965E+00  0.4965E+00
      7.053  0.6881E-01  0.6880E-01  0.4998E+00  0.4998E+00
      7.101  0.6948E-01  0.6948E-01  0.5031E+00  0.5031E+00
      7.149  0.6833E-01  0.6833E-01  0.5064E+00  0.5064E+00
      7.197  0.6588E-01  0.6589E-01  0.5096E+00  0.5096E+00
      7.245  0.6273E-01  0.6273E-01  0.5126E+00  0.5126E+00
      7.293  0.5926E-01  0.5927E-01  0.5154E+00  0.5155E+00
      7.341  0.5578E-01  0.5579E-01  0.5181E+00  0.5181E+00
      7.389  0.5272E-01  0.5273E-01  0.5207E+00  0.5207E+00
      7.437  0.5072E-01  0.5073E-01  0.5231E+00  0.5231E+00
      7.485  0.5060E-01  0.5062E-01  0.5255E+00  0.5255E+00
      7.533  0.5321E-01  0.5323E-01  0.5281E+00  0.5281E+00
      7.581  0.5910E-01  0.5912E-01  0.5309E+00  0.5309E+00
      7.629  0.6810E-01  0.6812E-01  0.5342E+00  0.5342E+00
      7.677  0.7897E-01  0.7899E-01  0.5380E+00  0.5380E+00
      7.725  0.8970E-01  0.8971E-01  0.5423E+00  0.5423E+00
      7.773  0.9831E-01  0.9830E-01  0.5470E+00  0.5470E+00
      7.821  0.1038E+00  0.1038E+00  0.5520E+00  0.5520E+00
      7.869  0.1067E+00  0.1067E+00  0.5571E+00  0.5571E+00
      7.917  0.1085E+00  0.1085E+00  0.5623E+00  0.5623E+00
      7.965  0.1110E+00  0.1109E+00  0.5677E+00  0.5677E+00
      8.014  0.1154E+00  0.1154E+00  0.5732E+00  0.5732E+00
      8.062  0.1225E+00  0.1225E+00  0.5791E+00  0.5791E+00
      8.110  0.1319E+00  0.1319E+00  0.5854E+00  0.5854E+00
      8.158  0.1424E+00  0.1425E+00  0.5923E+00  0.5923E+00
      8.206  0.1524E+00  0.1524E+00  0.5996E+00  0.5996E+00
      8.254  0.1604E+00  0.1604E+00  0.6073E+00  0.6073E+00
      8.302  0.1664E+00  0.1664E+00  0.6153E+00  0.6153E+00
      8.350  0.1713E+00  0.1713E+00  0.6235E+00  0.6235E+00
      8.398  0.1766E+00  0.1766E+00  0.6320E+00  0.6320E+00
      8.446  0.1828E+00  0.1828E+00  0.6408E+00  0.6408E+00
      8.494  0.1898E+00  0.1898E+00  0.6499E+00  0.6499E+00
      8.542  0.1965E+00  0.1965E+00  0.6593E+00  0.6593E+00
      8.590  0.2023E+00  0.2023E+00  0.6690E+00  0.6690E+00
      8.638  0.2070E+00  0.2070E+00  0.6790E+00  0.6790E+00
      8.686  0.2107E+00  0.2107E+00  0.6891E+00  0.6891E+00
      8.734  0.2141E+00  0.2141E+00  0.6994E+00  0.6994E+00
      8.782  0.2185E+00  0.2185E+00  0.7099E+00  0.7099E+00
      8.830  0.2258E+00  0.2258E+00  0.7207E+00  0.7207E+00
      8.878  0.2376E+00  0.2377E+00  0.7321E+00  0.7321E+00
      8.926  0.2540E+00  0.2541E+00  0.7443E+00  0.7443E+00
      8.974  0.2723E+00  0.2723E+00  0.7574E+00  0.7574E+00
      9.022  0.2870E+00  0.2870E+00  0.7712E+00  0.7712E+00
      9.070  0.2915E+00  0.2916E+00  0.7852E+00  0.7852E+00
      9.118  0.2813E+00  0.2813E+00  0.7987E+00  0.7987E+00
      9.166  0.2561E+00  0.2561E+00  0.8110E+00  0.8110E+00
      9.214  0.2208E+00  0.2208E+00  0.8216E+00  0.8216E+00
      9.262  0.1834E+00  0.1834E+00  0.8304E+00  0.8304E+00
      9.310  0.1520E+00  0.1520E+00  0.8377E+00  0.8377E+00
      9.358  0.1316E+00  0.1316E+00  0.8440E+00  0.8440E+00
      9.406  0.1225E+00  0.1225E+00  0.8499E+00  0.8499E+00
      9.454  0.1214E+00  0.1213E+00  0.8557E+00  0.8557E+00
      9.502  0.1229E+00  0.1228E+00  0.8616E+00  0.8616E+00
      9.550  0.1221E+00  0.1221E+00  0.8675E+00  0.8675E+00
      9.598  0.1165E+00  0.1165E+00  0.8731E+00  0.8731E+00
      9.646  0.1057E+00  0.1057E+00  0.8782E+00  0.8782E+00
      9.694  0.9148E-01  0.9150E-01  0.8826E+00  0.8826E+00
      9.742  0.7585E-01  0.7587E-01  0.8862E+00  0.8862E+00
      9.790  0.6036E-01  0.6038E-01  0.8891E+00  0.8891E+00
      9.838  0.4588E-01  0.4588E-01  0.8913E+00  0.8913E+00
      9.886  0.3292E-01  0.3290E-01  0.8929E+00  0.8929E+00
      9.934  0.2194E-01  0.2191E-01  0.8939E+00  0.8939E+00
      9.983  0.1331E-01  0.1327E-01  0.8946E+00  0.8946E+00
     10.031  0.7132E-02  0.7091E-02  0.8949E+00  0.8949E+00
     10.079  0.3156E-02  0.3130E-02  0.8951E+00  0.8951E+00
     10.127  0.9039E-03  0.8951E-03  0.8951E+00  0.8951E+00
     10.175 -0.1766E-03 -0.1721E-03  0.8951E+00  0.8951E+00
     10.223 -0.5620E-03 -0.5510E-03  0.8951E+00  0.8951E+00
     10.271 -0.5927E-03 -0.5813E-03  0.8951E+00  0.8951E+00
     10.319 -0.4779E-03 -0.4696E-03  0.8950E+00  0.8950E+00
     10.367 -0.3306E-03 -0.3261E-03  0.8950E+00  0.8950E+00
     10.415 -0.2029E-03 -0.2014E-03  0.8950E+00  0.8950E+00
     10.463 -0.1117E-03 -0.1117E-03  0.8950E+00  0.8950E+00
     10.511 -0.5529E-04 -0.5578E-04  0.8950E+00  0.8950E+00
     10.559 -0.2460E-04 -0.2506E-04  0.8950E+00  0.8950E+00
     10.607 -0.9828E-05 -0.1012E-04  0.8950E+00  0.8950E+00
     10.655 -0.3522E-05 -0.3666E-05  0.8950E+00  0.8950E+00
     10.703 -0.1130E-05 -0.1190E-05  0.8950E+00  0.8950E+00
     10.751 -0.3247E-06 -0.3458E-06  0.8950E+00  0.8950E+00
     10.799 -0.8338E-07 -0.8980E-07  0.8950E+00  0.8950E+00
     10.847 -0.1912E-07 -0.2083E-07  0.8950E+00  0.8950E+00
     10.895 -0.3914E-08 -0.4309E-08  0.8950E+00  0.8950E+00
     10.943 -0.7143E-09 -0.7949E-09  0.8950E+00  0.8950E+00
     10.991 -0.1162E-09 -0.1306E-09  0.8950E+00  0.8950E+00
     11.039 -0.1683E-10 -0.1912E-10  0.8950E+00  0.8950E+00
     11.087 -0.2172E-11 -0.2492E-11  0.8950E+00  0.8950E+00
     11.135 -0.2495E-12 -0.2890E-12  0.8950E+00  0.8950E+00
     11.183 -0.2550E-13 -0.2982E-13  0.8950E+00  0.8950E+00
     11.231 -0.2319E-14 -0.2737E-14  0.8950E+00  0.8950E+00
     11.279 -0.1881E-15 -0.2237E-15  0.8950E+00  0.8950E+00
     11.327 -0.1324E-16 -0.1613E-16  0.8950E+00  0.8950E+00
     11.375 -0.9632E-18 -0.1204E-17  0.8950E+00  0.8950E+00
     11.423  0.0000E+00  0.0000E+00  0.8950E+00  0.8950E+00
     11.471  0.0000E+00  0.0000E+00  0.8950E+00  0.8950E+00
     11.519  0.0000E+00  0.0000E+00  0.8950E+00  0.8950E+00
     11.567  0.0000E+00  0.0000E+00  0.8950E+00  0.8950E+00
     11.615  0.0000E+00  0.0000E+00  0.8950E+00  0.8950E+00
     11.663  0.0000E+00  0.0000E+00  0.8950E+00  0.8950E+00
     11.711  0.0000E+00  0.0000E+00  0.8950E+00  0.8950E+00
     11.759  0.0000E+00  0.0000E+00  0.8950E+00  0.8950E+00
     11.807  0.0000E+00  0.0000E+00  0.8950E+00  0.8950E+00
     11.855  0.0000E+00  0.0000E+00  0.8950E+00  0.8950E+00
     11.903  0.0000E+00  0.0000E+00  0.8950E+00  0.8950E+00
     11.952  0.0000E+00  0.0000E+00  0.8950E+00  0.8950E+00
     12.000  0.0000E+00  0.0000E+00  0.8950E+00  0.8950E+00
     12.048  0.0000E+00  0.0000E+00  0.8950E+00  0.8950E+00
     12.096  0.0000E+00  0.0000E+00  0.8950E+00  0.8950E+00
     12.144  0.0000E+00  0.0000E+00  0.8950E+00  0.8950E+00
