 running    4 mpi-ranks, with    2 threads/rank, on    1 nodes
 distrk:  each k-point on    1 cores,    4 groups
 distr:  one band on    1 cores,    1 groups
 Offloading initialized ...    4 GPUs detected
 vasp.6.5.1 10Mar25 (build Apr 15 2026 12:55:44) complex                         
 POSCAR found type information on POSCAR Cr
 POSCAR found :  1 types and      35 ions
 scaLAPACK will be used selectively (only on CPU)
 -----------------------------------------------------------------------------
|                                                                             |
|               ----> ADVICE to this user running VASP <----                  |
|                                                                             |
|     You have a (more or less) 'large supercell' and for larger cells it     |
|     might be more efficient to use real-space projection operators.         |
|     Therefore, try LREAL= Auto in the INCAR file.                           |
|     Mind: For very accurate calculation, you might also keep the            |
|     reciprocal projection scheme (i.e. LREAL=.FALSE.).                      |
|                                                                             |
 -----------------------------------------------------------------------------

 LDA part: xc-table for (Slater+PW92), standard interpolation
 -----------------------------------------------------------------------------
|                                                                             |
|           W    W    AA    RRRRR   N    N  II  N    N   GGGG   !!!           |
|           W    W   A  A   R    R  NN   N  II  NN   N  G    G  !!!           |
|           W    W  A    A  R    R  N N  N  II  N N  N  G       !!!           |
|           W WW W  AAAAAA  RRRRR   N  N N  II  N  N N  G  GGG   !            |
|           WW  WW  A    A  R   R   N   NN  II  N   NN  G    G                |
|           W    W  A    A  R    R  N    N  II  N    N   GGGG   !!!           |
|                                                                             |
|     Your reciprocal lattice and k-lattice belong to different lattice       |
|     classes:                                                                |
|                                                                             |
|        The reciprocal lattice is simple monoclinic,                         |
|        whereas your k-lattice is rhombohedral (trigonal).                   |
|                                                                             |
|     Results are often still useful ...                                      |
|                                                                             |
 -----------------------------------------------------------------------------

 POSCAR, INCAR and KPOINTS ok, starting setup
 FFT: planning ... GRIDC
 FFT: planning ... GRID_SOFT
 FFT: planning ... GRID
 WAVECAR not read
 entering main loop
       N       E                     dE             d eps       ncg     rms          rms(c)
DAV:   1     0.182938890336E+04    0.18294E+04   -0.74370E+04 37232   0.141E+03
DAV:   2    -0.910659080600E+02   -0.19205E+04   -0.18071E+04 37232   0.319E+02
DAV:   3    -0.306372356435E+03   -0.21531E+03   -0.17177E+03 37472   0.144E+02
DAV:   4    -0.336776236307E+03   -0.30404E+02   -0.27901E+02 66400   0.430E+01
DAV:   5    -0.338504675644E+03   -0.17284E+01   -0.16613E+01 61560   0.126E+01    0.801E+01
DAV:   6    -0.311136416454E+03    0.27368E+02   -0.33324E+02 55450   0.791E+01    0.535E+01
DAV:   7    -0.440169039136E+03   -0.12903E+03   -0.49410E+02 70336   0.161E+02    0.111E+02
DAV:   8    -0.361158861638E+03    0.79010E+02   -0.19610E+02 72270   0.883E+01    0.791E+01
DAV:   9    -0.317318176530E+03    0.43841E+02   -0.10105E+02 69648   0.646E+01    0.296E+01
DAV:  10    -0.319056410856E+03   -0.17382E+01   -0.17326E+01 61237   0.185E+01    0.225E+01
DAV:  11    -0.319816139096E+03   -0.75973E+00   -0.72641E+00 67528   0.164E+01    0.232E+01
DAV:  12    -0.324450309872E+03   -0.46342E+01   -0.15861E+01 65575   0.205E+01    0.207E+01
DAV:  13    -0.323331821005E+03    0.11185E+01   -0.11131E+01 69496   0.216E+01    0.104E+01
DAV:  14    -0.323274547996E+03    0.57273E-01   -0.15499E+00 65509   0.721E+00    0.592E+00
DAV:  15    -0.323202327240E+03    0.72221E-01   -0.91342E-01 71136   0.649E+00    0.488E+00
DAV:  16    -0.323065996475E+03    0.13633E+00   -0.39177E-01 62501   0.394E+00    0.232E+00
DAV:  17    -0.323121085651E+03   -0.55089E-01   -0.23781E-01 70333   0.305E+00    0.324E+00
DAV:  18    -0.323074872127E+03    0.46214E-01   -0.20223E-01 67744   0.288E+00    0.164E+00
DAV:  19    -0.323083431317E+03   -0.85592E-02   -0.53164E-02 67626   0.139E+00    0.168E+00
DAV:  20    -0.323087372196E+03   -0.39409E-02   -0.25745E-02 65880   0.943E-01    0.134E+00
DAV:  21    -0.323073332383E+03    0.14040E-01   -0.37830E-02 71112   0.111E+00    0.152E+00
DAV:  22    -0.323055602200E+03    0.17730E-01   -0.45648E-02 71704   0.123E+00    0.109E+00
DAV:  23    -0.323048841100E+03    0.67611E-02   -0.75758E-02 69648   0.132E+00    0.964E-01
DAV:  24    -0.323046891652E+03    0.19494E-02   -0.14994E-02 66093   0.738E-01    0.710E-01
DAV:  25    -0.323048564563E+03   -0.16729E-02   -0.71001E-03 70888   0.530E-01    0.627E-01
DAV:  26    -0.323047462678E+03    0.11019E-02   -0.60766E-03 72970   0.515E-01    0.362E-01
DAV:  27    -0.323048539392E+03   -0.10767E-02   -0.49407E-03 71200   0.388E-01    0.312E-01
DAV:  28    -0.323048184497E+03    0.35490E-03   -0.18761E-03 67400   0.285E-01    0.164E-01
DAV:  29    -0.323048662885E+03   -0.47839E-03   -0.17479E-03 71360   0.203E-01    0.153E-01
DAV:  30    -0.323048784759E+03   -0.12187E-03   -0.54900E-04 63240   0.128E-01    0.130E-01
DAV:  31    -0.323049111679E+03   -0.32692E-03   -0.83724E-04 71936   0.150E-01    0.119E-01
DAV:  32    -0.323049183145E+03   -0.71467E-04   -0.43743E-04 65432   0.118E-01    0.884E-02
DAV:  33    -0.323049433753E+03   -0.25061E-03   -0.12232E-03 71288   0.174E-01    0.105E-01
DAV:  34    -0.323049457914E+03   -0.24161E-04   -0.35050E-04 63728   0.102E-01    0.656E-02
DAV:  35    -0.323049599369E+03   -0.14146E-03   -0.85152E-04 71584   0.142E-01    0.553E-02
DAV:  36    -0.323049640906E+03   -0.41537E-04   -0.28637E-04 63376   0.797E-02    0.416E-02
DAV:  37    -0.323049712803E+03   -0.71897E-04   -0.33526E-04 69312   0.886E-02    0.445E-02
DAV:  38    -0.323049721930E+03   -0.91270E-05   -0.97990E-05 61888   0.512E-02    0.297E-02
DAV:  39    -0.323049753263E+03   -0.31333E-04   -0.19963E-04 71320   0.658E-02    0.242E-02
DAV:  40    -0.323049762788E+03   -0.95254E-05   -0.59104E-05 62816   0.364E-02    0.217E-02
DAV:  41    -0.323049777356E+03   -0.14568E-04   -0.11615E-04 71384   0.512E-02    0.172E-02
DAV:  42    -0.323049780849E+03   -0.34930E-05   -0.29477E-05 61896   0.263E-02    0.152E-02
DAV:  43    -0.323049784325E+03   -0.34754E-05   -0.76231E-05 71424   0.419E-02    0.945E-03
DAV:  44    -0.323049785592E+03   -0.12673E-05   -0.12167E-05 52832   0.174E-02    0.956E-03
DAV:  45    -0.323049785502E+03    0.89773E-07   -0.51206E-06 52448   0.125E-02
   1 F= -.32304979E+03 E0= -.32307184E+03  d E =-.323050E+03  mag=     0.0023
 curvature:   0.00 expect dE= 0.000E+00 dE for cont linesearch  0.000E+00
 trial: gam= 0.00000 g(F)=  0.256E-01 g(S)=  0.264E+02 ort = 0.000E+00 (trialstep = 0.100E+01)
 search vector abs. value=  0.264E+02
 bond charge predicted
       N       E                     dE             d eps       ncg     rms          rms(c)
DAV:   1    -0.389092027597E+03   -0.66042E+02   -0.32770E+03 37232   0.241E+02    0.117E+02
DAV:   2    -0.321314809016E+03    0.67777E+02   -0.21246E+02 39216   0.709E+01    0.193E+01
DAV:   3    -0.330658200735E+03   -0.93434E+01   -0.49311E+01 64256   0.575E+01    0.387E+01
DAV:   4    -0.315382052919E+03    0.15276E+02   -0.30763E+01 69831   0.557E+01    0.123E+01
DAV:   5    -0.316331528107E+03   -0.94948E+00   -0.78131E+00 65137   0.206E+01    0.170E+01
DAV:   6    -0.314053952407E+03    0.22776E+01   -0.53566E+00 55788   0.179E+01    0.523E+00
DAV:   7    -0.314258651909E+03   -0.20470E+00   -0.20221E+00 68712   0.108E+01    0.712E+00
DAV:   8    -0.313810068084E+03    0.44858E+00   -0.87830E-01 63644   0.834E+00    0.117E+00
DAV:   9    -0.313826105266E+03   -0.16037E-01   -0.16783E-01 63206   0.277E+00    0.167E+00
DAV:  10    -0.313809882367E+03    0.16223E-01   -0.43039E-02 56189   0.179E+00    0.695E-01
DAV:  11    -0.313811730898E+03   -0.18485E-02   -0.12402E-02 59487   0.720E-01    0.493E-01
DAV:  12    -0.313811929805E+03   -0.19891E-03   -0.61379E-03 60197   0.707E-01    0.335E-01
DAV:  13    -0.313812141666E+03   -0.21186E-03   -0.30762E-03 58900   0.420E-01    0.229E-01
DAV:  14    -0.313812068478E+03    0.73188E-04   -0.78461E-04 62264   0.213E-01    0.177E-01
DAV:  15    -0.313811882022E+03    0.18646E-03   -0.34026E-04 60956   0.163E-01    0.857E-02
DAV:  16    -0.313811852631E+03    0.29391E-04   -0.12743E-04 48072   0.657E-02    0.549E-02
DAV:  17    -0.313811836749E+03    0.15881E-04   -0.41225E-05 45885   0.464E-02    0.327E-02
DAV:  18    -0.313811826304E+03    0.10445E-04   -0.16291E-05 57440   0.223E-02    0.184E-02
DAV:  19    -0.313811824100E+03    0.22042E-05   -0.48946E-06 53776   0.205E-02    0.128E-02
DAV:  20    -0.313811821749E+03    0.23509E-05   -0.85356E-07 21688   0.828E-03    0.746E-03
DAV:  21    -0.313811821578E+03    0.17096E-06   -0.39602E-07 20912   0.477E-03
   2 F= -.31381182E+03 E0= -.31381608E+03  d E =0.923796E+01  mag=     0.0000
 trial-energy change:    9.237964  1 .order   13.905127  -26.405223   54.215478
 step:   0.4116(harm=  0.3275)  dis= 0.00383  next Energy=  -328.810179 (dE=-0.576E+01)
 bond charge predicted
       N       E                     dE             d eps       ncg     rms          rms(c)
DAV:   1    -0.355268417455E+03   -0.41457E+02   -0.13255E+03 37264   0.184E+02    0.477E+01
DAV:   2    -0.332751186605E+03    0.22517E+02   -0.10836E+02 41880   0.477E+01    0.186E+01
DAV:   3    -0.367884577917E+03   -0.35133E+02   -0.82760E+01 70256   0.743E+01    0.670E+01
DAV:   4    -0.329272895422E+03    0.38612E+02   -0.73021E+01 70904   0.648E+01    0.102E+01
DAV:   5    -0.329965377992E+03   -0.69248E+00   -0.11511E+01 60424   0.154E+01    0.811E+00
DAV:   6    -0.329576985312E+03    0.38839E+00   -0.15648E+00 55442   0.101E+01    0.531E+00
DAV:   7    -0.329806153149E+03   -0.22917E+00   -0.14239E+00 66065   0.851E+00    0.860E+00
DAV:   8    -0.329408359078E+03    0.39779E+00   -0.16467E+00 57733   0.835E+00    0.564E+00
DAV:   9    -0.329354951036E+03    0.53408E-01   -0.37439E-01 66664   0.395E+00    0.456E+00
DAV:  10    -0.329330064575E+03    0.24886E-01   -0.12213E-01 56593   0.224E+00    0.239E+00
DAV:  11    -0.329315868802E+03    0.14196E-01   -0.29959E-02 66472   0.126E+00    0.199E+00
DAV:  12    -0.329285928435E+03    0.29940E-01   -0.53765E-02 50436   0.120E+00    0.121E+00
DAV:  13    -0.329281824318E+03    0.41041E-02   -0.15434E-02 52847   0.623E-01    0.870E-01
DAV:  14    -0.329278613222E+03    0.32111E-02   -0.17185E-02 47865   0.687E-01    0.285E-01
DAV:  15    -0.329278656676E+03   -0.43454E-04   -0.21059E-03 55112   0.230E-01    0.208E-01
DAV:  16    -0.329278599471E+03    0.57205E-04   -0.32162E-04 58857   0.132E-01    0.181E-01
DAV:  17    -0.329278521226E+03    0.78245E-04   -0.15922E-04 54949   0.727E-02    0.129E-01
DAV:  18    -0.329278550542E+03   -0.29316E-04   -0.29058E-04 69154   0.114E-01    0.125E-01
DAV:  19    -0.329278486217E+03    0.64325E-04   -0.28985E-04 61008   0.113E-01    0.553E-02
DAV:  20    -0.329278488120E+03   -0.19028E-05   -0.49553E-05 61328   0.443E-02    0.545E-02
DAV:  21    -0.329278476686E+03    0.11434E-04   -0.13221E-05 55944   0.272E-02    0.377E-02
DAV:  22    -0.329278472706E+03    0.39801E-05   -0.76979E-06 49625   0.150E-02    0.273E-02
DAV:  23    -0.329278468904E+03    0.38022E-05   -0.68808E-06 42485   0.147E-02    0.140E-02
DAV:  24    -0.329278467504E+03    0.13992E-05   -0.27706E-06 28473   0.818E-03    0.651E-03
DAV:  25    -0.329278467092E+03    0.41210E-06   -0.77081E-07 21007   0.663E-03
   3 F= -.32927847E+03 E0= -.32929852E+03  d E =-.622868E+01  mag=    -0.0001
 curvature:  -0.16 expect dE=-0.286E-01 dE for cont linesearch -0.177E-01
 ZBRENT: interpolating
 opt :   0.4296  next Energy=  -329.293727 (dE=-0.624E+01)
 bond charge predicted
       N       E                     dE             d eps       ncg     rms          rms(c)
DAV:   1    -0.329324241456E+03   -0.45774E-01   -0.11913E+00 37282   0.520E+00    0.146E+00
DAV:   2    -0.329300893669E+03    0.23348E-01   -0.10600E-01 40493   0.148E+00    0.370E-01
DAV:   3    -0.329322253185E+03   -0.21360E-01   -0.49197E-02 69018   0.184E+00    0.156E+00
DAV:   4    -0.329299047837E+03    0.23205E-01   -0.31800E-02 71514   0.152E+00    0.196E-01
DAV:   5    -0.329298980503E+03    0.67334E-04   -0.25867E-03 62237   0.263E-01    0.169E-01
DAV:   6    -0.329298730257E+03    0.25025E-03   -0.83700E-04 60347   0.184E-01    0.133E-01
DAV:   7    -0.329298576108E+03    0.15415E-03   -0.43491E-04 63020   0.159E-01    0.561E-02
DAV:   8    -0.329298558470E+03    0.17638E-04   -0.13009E-04 61404   0.703E-02    0.465E-02
DAV:   9    -0.329298543815E+03    0.14655E-04   -0.53950E-05 61637   0.598E-02    0.204E-02
DAV:  10    -0.329298540377E+03    0.34380E-05   -0.98629E-06 60807   0.197E-02    0.793E-03
DAV:  11    -0.329298539269E+03    0.11086E-05   -0.26580E-06 42257   0.135E-02    0.872E-03
DAV:  12    -0.329298532981E+03    0.62879E-05   -0.10481E-06 23519   0.102E-02    0.424E-03
DAV:  13    -0.329298532584E+03    0.39707E-06   -0.40953E-07 22014   0.620E-03
   4 F= -.32929853E+03 E0= -.32931842E+03  d E =-.624875E+01  mag=    -0.0002
 curvature:  -0.14 expect dE=-0.112E-01 dE for cont linesearch -0.812E-03
 ZBRENT: interpolating
 opt :   0.4349  next Energy=  -329.299587 (dE=-0.625E+01)
 bond charge predicted
       N       E                     dE             d eps       ncg     rms          rms(c)
DAV:   1    -0.329301919601E+03   -0.33866E-02   -0.10565E-01 37348   0.155E+00    0.435E-01
DAV:   2    -0.329299909579E+03    0.20100E-02   -0.92730E-03 40631   0.438E-01    0.112E-01
DAV:   3    -0.329301864016E+03   -0.19544E-02   -0.44402E-03 69068   0.557E-01    0.469E-01
DAV:   4    -0.329299765403E+03    0.20986E-02   -0.28618E-03 71672   0.458E-01    0.590E-02
DAV:   5    -0.329299760312E+03    0.50903E-05   -0.23382E-04 62140   0.785E-02    0.497E-02
DAV:   6    -0.329299744532E+03    0.15781E-04   -0.73924E-05 60235   0.547E-02    0.402E-02
DAV:   7    -0.329299731979E+03    0.12553E-04   -0.39243E-05 62946   0.477E-02    0.167E-02
DAV:   8    -0.329299733386E+03   -0.14068E-05   -0.11951E-05 58551   0.212E-02    0.142E-02
DAV:   9    -0.329299732128E+03    0.12580E-05   -0.46150E-06 50561   0.183E-02    0.623E-03
DAV:  10    -0.329299731251E+03    0.87706E-06   -0.83027E-07 22252   0.692E-03
   5 F= -.32929973E+03 E0= -.32931956E+03  d E =-.624995E+01  mag=    -0.0003
 curvature:  -0.18 expect dE=-0.140E-01 dE for cont linesearch -0.237E-06
 trial: gam= 0.00271 g(F)=  0.772E-01 g(S)=  0.257E-03 ort = 0.588E-02 (trialstep = 0.887E+00)
 search vector abs. value=  0.777E-01
 bond charge predicted
       N       E                     dE             d eps       ncg     rms          rms(c)
DAV:   1    -0.329345316264E+03   -0.45584E-01   -0.58738E+00 37232   0.444E+00    0.898E-01
DAV:   2    -0.329581766812E+03   -0.23645E+00   -0.56787E-01 68456   0.625E+00    0.471E+00
DAV:   3    -0.329352541327E+03    0.22923E+00   -0.30471E-01 71333   0.500E+00    0.771E-01
DAV:   4    -0.329350760166E+03    0.17812E-02   -0.32555E-02 61490   0.871E-01    0.464E-01
DAV:   5    -0.329349788501E+03    0.97166E-03   -0.71600E-03 56142   0.540E-01    0.420E-01
DAV:   6    -0.329349251983E+03    0.53652E-03   -0.70900E-03 63842   0.626E-01    0.356E-01
DAV:   7    -0.329348763835E+03    0.48815E-03   -0.32672E-03 67772   0.390E-01    0.260E-01
DAV:   8    -0.329348196553E+03    0.56728E-03   -0.16075E-03 70415   0.313E-01    0.847E-02
DAV:   9    -0.329348155942E+03    0.40611E-04   -0.30946E-04 63527   0.112E-01    0.572E-02
DAV:  10    -0.329348131544E+03    0.24397E-04   -0.10167E-04 64976   0.801E-02    0.210E-02
DAV:  11    -0.329348128125E+03    0.34195E-05   -0.14947E-05 55774   0.274E-02    0.946E-03
DAV:  12    -0.329348128143E+03   -0.18787E-07   -0.30720E-06 45968   0.146E-02
   6 F= -.32934813E+03 E0= -.32936857E+03  d E =-.483969E-01  mag=    -0.0005
 trial-energy change:   -0.048397  1 .order   -0.048502   -0.068701   -0.028304
 step:   1.5084(harm=  1.5084)  dis= 0.02711  next Energy=  -329.358149 (dE=-0.584E-01)
 bond charge predicted
       N       E                     dE             d eps       ncg     rms          rms(c)
DAV:   1    -0.329356487184E+03   -0.83591E-02   -0.28869E+00 37232   0.312E+00    0.645E-01
DAV:   2    -0.329480454031E+03   -0.12397E+00   -0.29538E-01 68328   0.451E+00    0.343E+00
DAV:   3    -0.329360341129E+03    0.12011E+00   -0.15910E-01 71524   0.361E+00    0.568E-01
DAV:   4    -0.329359174567E+03    0.11666E-02   -0.16122E-02 61922   0.613E-01    0.320E-01
DAV:   5    -0.329358761513E+03    0.41305E-03   -0.33834E-03 56196   0.369E-01    0.296E-01
DAV:   6    -0.329358491595E+03    0.26992E-03   -0.33522E-03 64090   0.432E-01    0.250E-01
DAV:   7    -0.329358269197E+03    0.22240E-03   -0.16716E-03 68632   0.277E-01    0.190E-01
DAV:   8    -0.329357961660E+03    0.30754E-03   -0.86247E-04 71306   0.230E-01    0.604E-02
DAV:   9    -0.329357936645E+03    0.25015E-04   -0.14703E-04 62725   0.773E-02    0.362E-02
DAV:  10    -0.329357928085E+03    0.85602E-05   -0.46636E-05 65176   0.540E-02    0.170E-02
DAV:  11    -0.329357925491E+03    0.25939E-05   -0.87008E-06 55587   0.219E-02    0.684E-03
DAV:  12    -0.329357925440E+03    0.50311E-07   -0.14735E-06 32030   0.108E-02
   7 F= -.32935793E+03 E0= -.32937884E+03  d E =-.581942E-01  mag=    -0.0008
 curvature:  -0.76 expect dE=-0.166E-02 dE for cont linesearch -0.674E-06
 trial: gam= 0.03017 g(F)=  0.210E-02 g(S)=  0.936E-04 ort =-0.263E-03 (trialstep = 0.101E+01)
 search vector abs. value=  0.225E-02
 bond charge predicted
       N       E                     dE             d eps       ncg     rms          rms(c)
DAV:   1    -0.329359312776E+03   -0.13873E-02   -0.21886E-01 37277   0.982E-01    0.257E-01
DAV:   2    -0.329376693797E+03   -0.17381E-01   -0.41186E-02 66552   0.179E+00    0.125E+00
DAV:   3    -0.329359317607E+03    0.17376E-01   -0.20346E-02 71677   0.136E+00    0.188E-01
DAV:   4    -0.329359274612E+03    0.42995E-04   -0.17155E-03 62622   0.192E-01    0.132E-01
DAV:   5    -0.329359208073E+03    0.66538E-04   -0.39072E-04 58675   0.133E-01    0.103E-01
DAV:   6    -0.329359219495E+03   -0.11422E-04   -0.47004E-04 68144   0.160E-01    0.109E-01
DAV:   7    -0.329359169190E+03    0.50305E-04   -0.25403E-04 70736   0.116E-01    0.762E-02
DAV:   8    -0.329359120767E+03    0.48423E-04   -0.10806E-04 71821   0.817E-02    0.269E-02
DAV:   9    -0.329359117841E+03    0.29259E-05   -0.24750E-05 68652   0.331E-02    0.205E-02
DAV:  10    -0.329359113976E+03    0.38645E-05   -0.77118E-06 61464   0.221E-02    0.348E-03
DAV:  11    -0.329359114172E+03   -0.19610E-06   -0.83214E-07 24590   0.547E-03
   8 F= -.32935911E+03 E0= -.32938014E+03  d E =-.118873E-02  mag=    -0.0011
 trial-energy change:   -0.001189  1 .order   -0.001206   -0.002215   -0.000197
 step:   1.1155(harm=  1.1098)  dis= 0.00320  next Energy=  -329.359124 (dE=-0.120E-02)
 reached required accuracy - stopping structural energy minimisation
Warning: ieee_invalid is signaling
Warning: ieee_divide_by_zero is signaling
Warning: ieee_overflow is signaling
Warning: ieee_underflow is signaling
Warning: ieee_inexact is signaling
FORTRAN STOP
Warning: ieee_invalid is signaling
Warning: ieee_divide_by_zero is signaling
Warning: ieee_overflow is signaling
Warning: ieee_underflow is signaling
Warning: ieee_inexact is signaling
FORTRAN STOP
Warning: ieee_invalid is signaling
Warning: ieee_divide_by_zero is signaling
Warning: ieee_overflow is signaling
Warning: ieee_underflow is signaling
Warning: ieee_inexact is signaling
FORTRAN STOP
Warning: ieee_invalid is signaling
Warning: ieee_divide_by_zero is signaling
Warning: ieee_overflow is signaling
Warning: ieee_underflow is signaling
Warning: ieee_inexact is signaling
FORTRAN STOP
