[1776503332.082628] [d01:3073056:f]        vfs_fuse.c:281  UCX  ERROR inotify_add_watch(/tmp) failed: No space left on device
 running    1 mpi-ranks, with    2 threads/rank, on    1 nodes
 distrk:  each k-point on    1 cores,    1 groups
 distr:  one band on    1 cores,    1 groups
 OpenACC runtime initialized ...    1 GPUs detected
 vasp.6.4.2 20Jul23 (build Mar  2 2025 11:04:54) complex                         
 POSCAR found type information on POSCAR Cu
 POSCAR found :  1 types and      26 ions
 scaLAPACK will be used selectively (only on CPU)
 -----------------------------------------------------------------------------
|                                                                             |
|               ----> ADVICE to this user running VASP <----                  |
|                                                                             |
|     You have a (more or less) 'large supercell' and for larger cells it     |
|     might be more efficient to use real-space projection operators.         |
|     Therefore, try LREAL= Auto in the INCAR file.                           |
|     Mind: For very accurate calculation, you might also keep the            |
|     reciprocal projection scheme (i.e. LREAL=.FALSE.).                      |
|                                                                             |
 -----------------------------------------------------------------------------

 LDA part: xc-table for Pade appr. of Perdew
 -----------------------------------------------------------------------------
|                                                                             |
|           W    W    AA    RRRRR   N    N  II  N    N   GGGG   !!!           |
|           W    W   A  A   R    R  NN   N  II  NN   N  G    G  !!!           |
|           W    W  A    A  R    R  N N  N  II  N N  N  G       !!!           |
|           W WW W  AAAAAA  RRRRR   N  N N  II  N  N N  G  GGG   !            |
|           WW  WW  A    A  R   R   N   NN  II  N   NN  G    G                |
|           W    W  A    A  R    R  N    N  II  N    N   GGGG   !!!           |
|                                                                             |
|     The requested file  could not be found or opened for reading            |
|     k-point information. Automatic k-point generation is used as a          |
|     fallback, which may lead to unwanted results.                           |
|                                                                             |
 -----------------------------------------------------------------------------

 POSCAR, INCAR and KPOINTS ok, starting setup
 FFT: planning ... GRIDC
 FFT: planning ... GRID_SOFT
 FFT: planning ... GRID
 WAVECAR not read
 entering main loop
       N       E                     dE             d eps       ncg     rms          rms(c)
DAV:   1     0.320868075037E+04    0.32087E+04   -0.11350E+05  5488   0.301E+03
DAV:   2     0.525524906796E+03   -0.26832E+04   -0.25957E+04  5472   0.652E+02
DAV:   3    -0.658198519964E+02   -0.59134E+03   -0.55414E+03  5472   0.306E+02
DAV:   4    -0.117854833896E+03   -0.52035E+02   -0.49036E+02  5728   0.120E+02
DAV:   5    -0.119091734608E+03   -0.12369E+01   -0.12305E+01  5961   0.225E+01    0.393E+01
DAV:   6    -0.103962516292E+03    0.15129E+02   -0.24192E+02  6096   0.132E+02    0.189E+01
DAV:   7    -0.957460524634E+02    0.82165E+01   -0.44737E+01  6168   0.606E+01    0.293E+00
DAV:   8    -0.958305074935E+02   -0.84455E-01   -0.34560E+00  6232   0.279E+01    0.303E+00
DAV:   9    -0.957169044657E+02    0.11360E+00   -0.70986E-01  6221   0.125E+01    0.214E+00
DAV:  10    -0.956497698245E+02    0.67135E-01   -0.14156E-01  7216   0.252E+00    0.106E+00
DAV:  11    -0.956355600456E+02    0.14210E-01   -0.33976E-02  6762   0.141E+00    0.557E-01
DAV:  12    -0.956322288183E+02    0.33312E-02   -0.76457E-03  6256   0.151E+00    0.361E-01
DAV:  13    -0.956303636124E+02    0.18652E-02   -0.44362E-03  7384   0.951E-01    0.106E-01
DAV:  14    -0.956303393348E+02    0.24278E-04   -0.27492E-03  6200   0.492E-01    0.164E-02
DAV:  15    -0.956304003572E+02   -0.61022E-04   -0.67987E-04  5645   0.219E-01    0.239E-02
DAV:  16    -0.956303992024E+02    0.11548E-05   -0.55022E-05  5848   0.943E-02    0.119E-02
DAV:  17    -0.956303985698E+02    0.63266E-06   -0.18933E-05  6730   0.689E-02    0.116E-02
DAV:  18    -0.956303953887E+02    0.31811E-05   -0.12257E-05  5656   0.565E-02    0.202E-03
DAV:  19    -0.956303953674E+02    0.21246E-07   -0.53873E-07  2959   0.813E-03
   1 F= -.95630395E+02 E0= -.95624907E+02  d E =-.956304E+02
 curvature:   0.00 expect dE= 0.000E+00 dE for cont linesearch  0.000E+00
 trial: gam= 0.00000 g(F)=  0.541E-01 g(S)=  0.608E+00 ort = 0.000E+00 (trialstep = 0.100E+01)
 search vector abs. value=  0.663E+00
 bond charge predicted
       N       E                     dE             d eps       ncg     rms          rms(c)
DAV:   1    -0.114796811101E+03   -0.19166E+02   -0.33324E+02  5504   0.150E+02    0.346E+01
DAV:   2    -0.100139553440E+03    0.14657E+02   -0.14061E+02  5937   0.988E+01    0.107E+01
DAV:   3    -0.962824582513E+02    0.38571E+01   -0.20021E+01  5692   0.420E+01    0.555E+00
DAV:   4    -0.960456577210E+02    0.23680E+00   -0.22174E+00  6428   0.284E+01    0.395E+00
DAV:   5    -0.957770725567E+02    0.26859E+00   -0.31671E-01  8192   0.128E+01    0.883E-01
DAV:   6    -0.957753130102E+02    0.17595E-02   -0.10888E-01  8853   0.375E+00    0.244E-01
DAV:   7    -0.957774364996E+02   -0.21235E-02   -0.24079E-02  5655   0.117E+00    0.213E-01
DAV:   8    -0.957773152379E+02    0.12126E-03   -0.29944E-03  5880   0.882E-01    0.134E-01
DAV:   9    -0.957771952921E+02    0.11995E-03   -0.16110E-03  6272   0.691E-01    0.457E-02
DAV:  10    -0.957772230440E+02   -0.27752E-04   -0.41312E-04  8021   0.206E-01    0.295E-02
DAV:  11    -0.957772159719E+02    0.70721E-05   -0.24907E-05  8496   0.778E-02    0.154E-02
DAV:  12    -0.957772289547E+02   -0.12983E-04   -0.34588E-05  6104   0.533E-02    0.185E-02
DAV:  13    -0.957772222681E+02    0.66867E-05   -0.13853E-05  5997   0.602E-02    0.392E-03
DAV:  14    -0.957772216768E+02    0.59125E-06   -0.43652E-06  4343   0.186E-02
   2 F= -.95777222E+02 E0= -.95773271E+02  d E =-.146826E+00
 trial-energy change:   -0.146826  1 .order   -0.164121   -0.662548    0.334306
 step:   0.6407(harm=  0.6646)  dis= 0.00925  next Energy=   -95.838086 (dE=-0.208E+00)
 bond charge predicted
       N       E                     dE             d eps       ncg     rms          rms(c)
DAV:   1    -0.984854926672E+02   -0.27083E+01   -0.40189E+01  5513   0.485E+01    0.138E+01
DAV:   2    -0.967892390740E+02    0.16963E+01   -0.24295E+01  5699   0.422E+01    0.556E+00
DAV:   3    -0.958878923589E+02    0.90135E+00   -0.41022E+00  5801   0.181E+01    0.173E+00
DAV:   4    -0.958663244265E+02    0.21568E-01   -0.26927E-01  6956   0.985E+00    0.145E+00
DAV:   5    -0.958409109996E+02    0.25413E-01   -0.63071E-02  7048   0.600E+00    0.453E-01
DAV:   6    -0.958365906629E+02    0.43203E-02   -0.13377E-02  9976   0.119E+00    0.166E-01
DAV:   7    -0.958361601208E+02    0.43054E-03   -0.45323E-03  6440   0.482E-01    0.610E-02
DAV:   8    -0.958361556416E+02    0.44793E-05   -0.48941E-04  5850   0.407E-01    0.540E-02
DAV:   9    -0.958361928655E+02   -0.37224E-04   -0.30372E-04  5842   0.295E-01    0.590E-02
DAV:  10    -0.958360870053E+02    0.10586E-03   -0.14158E-04  6064   0.103E-01    0.160E-02
DAV:  11    -0.958360846366E+02    0.23687E-05   -0.39274E-05  6648   0.384E-02    0.915E-03
DAV:  12    -0.958360843955E+02    0.24109E-06   -0.11084E-06  3292   0.832E-03
   3 F= -.95836084E+02 E0= -.95831692E+02  d E =-.205689E+00
 curvature:  -0.33 expect dE=-0.522E-02 dE for cont linesearch -0.370E-03
 ZBRENT: interpolating
 opt :   0.6154  next Energy=   -95.836429 (dE=-0.206E+00)
 bond charge predicted
       N       E                     dE             d eps       ncg     rms          rms(c)
DAV:   1    -0.958484737732E+02   -0.12389E-01   -0.20029E-01  5540   0.349E+00    0.943E-01
DAV:   2    -0.958399224410E+02    0.85513E-02   -0.11105E-01  5747   0.284E+00    0.359E-01
DAV:   3    -0.958360292677E+02    0.38932E-02   -0.17888E-02  5814   0.120E+00    0.126E-01
DAV:   4    -0.958358811430E+02    0.14812E-03   -0.11245E-03  7133   0.668E-01    0.950E-02
DAV:   5    -0.958357605648E+02    0.12058E-03   -0.24652E-04  7848   0.408E-01    0.267E-02
DAV:   6    -0.958357468381E+02    0.13727E-04   -0.53097E-05 10088   0.805E-02    0.906E-03
DAV:   7    -0.958357435550E+02    0.32831E-05   -0.14743E-05  5492   0.291E-02    0.421E-03
DAV:   8    -0.958357421308E+02    0.14242E-05   -0.25512E-06  3636   0.285E-02    0.375E-03
DAV:   9    -0.958357412366E+02    0.89425E-06   -0.10538E-06  2877   0.167E-02
   4 F= -.95835741E+02 E0= -.95831316E+02  d E =-.205346E+00
 curvature:  -0.31 expect dE=-0.382E-02 dE for cont linesearch -0.168E-03
 ZBRENT: interpolating
 opt :   0.6258  next Energy=   -95.835840 (dE=-0.205E+00)
 bond charge predicted
       N       E                     dE             d eps       ncg     rms          rms(c)
DAV:   1    -0.958381344533E+02   -0.23923E-02   -0.34285E-02  5540   0.145E+00    0.388E-01
DAV:   2    -0.958366489753E+02    0.14855E-02   -0.18783E-02  5761   0.117E+00    0.147E-01
DAV:   3    -0.958360006064E+02    0.64837E-03   -0.29978E-03  5817   0.497E-01    0.524E-02
DAV:   4    -0.958359780135E+02    0.22593E-04   -0.21906E-04  6981   0.289E-01    0.415E-02
DAV:   5    -0.958359530318E+02    0.24982E-04   -0.41556E-05  8016   0.162E-01    0.117E-02
DAV:   6    -0.958359511933E+02    0.18385E-05   -0.80688E-06  6429   0.339E-02    0.428E-03
DAV:   7    -0.958359520694E+02   -0.87611E-06   -0.41036E-06  4738   0.141E-02
   5 F= -.95835952E+02 E0= -.95831541E+02  d E =-.205557E+00
 curvature:  -0.18 expect dE=-0.222E-02 dE for cont linesearch -0.377E-04
 ZBRENT: bisectioning
 opt :   0.6332  next Energy=   -95.836020 (dE=-0.206E+00)
 bond charge predicted
       N       E                     dE             d eps       ncg     rms          rms(c)
DAV:   1    -0.958371652816E+02   -0.12141E-02   -0.17672E-02  5540   0.104E+00    0.278E-01
DAV:   2    -0.958363984129E+02    0.76687E-03   -0.96742E-03  5758   0.839E-01    0.106E-01
DAV:   3    -0.958360655852E+02    0.33283E-03   -0.15409E-03  5825   0.360E-01    0.376E-02
DAV:   4    -0.958360560524E+02    0.95328E-05   -0.12258E-04  6746   0.212E-01    0.308E-02
DAV:   5    -0.958360420763E+02    0.13976E-04   -0.21947E-05  7976   0.111E-01    0.870E-03
DAV:   6    -0.958360409210E+02    0.11553E-05   -0.22210E-06  3460   0.255E-02    0.312E-03
DAV:   7    -0.958360413678E+02   -0.44689E-06   -0.26822E-06  3505   0.113E-02
   6 F= -.95836041E+02 E0= -.95831642E+02  d E =-.205646E+00
 curvature:  -0.33 expect dE=-0.385E-02 dE for cont linesearch -0.716E-04
 ZBRENT: bisectioning
 opt :   0.6370  next Energy=   -95.836087 (dE=-0.206E+00)
 bond charge predicted
       N       E                     dE             d eps       ncg     rms          rms(c)
DAV:   1    -0.958363415492E+02   -0.30063E-03   -0.43100E-03  5546   0.513E-01    0.137E-01
DAV:   2    -0.958361528102E+02    0.18874E-03   -0.23381E-03  5753   0.413E-01    0.520E-02
DAV:   3    -0.958360728361E+02    0.79974E-04   -0.37131E-04  5814   0.183E-01    0.189E-02
DAV:   4    -0.958360711252E+02    0.17108E-05   -0.36944E-05  6586   0.111E-01    0.159E-02
DAV:   5    -0.958360671231E+02    0.40021E-05   -0.49601E-06  5453   0.478E-02    0.476E-03
DAV:   6    -0.958360668226E+02    0.30055E-06   -0.58850E-07  2875   0.120E-02
   7 F= -.95836067E+02 E0= -.95831673E+02  d E =-.205671E+00
 curvature:  -0.21 expect dE=-0.238E-02 dE for cont linesearch -0.498E-04
 ZBRENT: bisectioning
 opt :   0.6388  next Energy=   -95.836091 (dE=-0.206E+00)
 bond charge predicted
       N       E                     dE             d eps       ncg     rms          rms(c)
DAV:   1    -0.958361460403E+02   -0.78917E-04   -0.10748E-03  5535   0.256E-01    0.693E-02
DAV:   2    -0.958360964672E+02    0.49573E-04   -0.60636E-04  5745   0.209E-01    0.267E-02
DAV:   3    -0.958360763557E+02    0.20112E-04   -0.97056E-05  5820   0.896E-02    0.919E-03
DAV:   4    -0.958360757037E+02    0.65204E-06   -0.67468E-06  5253   0.518E-02
   8 F= -.95836076E+02 E0= -.95831687E+02  d E =-.205680E+00
 curvature:  -0.10 expect dE=-0.118E-02 dE for cont linesearch -0.201E-05
 ZBRENT: interpolating
 opt :   0.6394  next Energy=   -95.836077 (dE=-0.206E+00)
 bond charge predicted
       N       E                     dE             d eps       ncg     rms          rms(c)
DAV:   1    -0.958360853879E+02   -0.90321E-05   -0.12157E-04  5729   0.897E-02    0.234E-02
DAV:   2    -0.958360787334E+02    0.66545E-05   -0.70001E-05  5796   0.720E-02    0.901E-03
DAV:   3    -0.958360767943E+02    0.19391E-05   -0.98222E-06  5130   0.344E-02    0.300E-03
DAV:   4    -0.958360768777E+02   -0.83430E-07   -0.19938E-06  2826   0.221E-02
   9 F= -.95836077E+02 E0= -.95831687E+02  d E =-.205682E+00
 curvature:  -0.07 expect dE=-0.797E-03 dE for cont linesearch -0.109E-06
 trial: gam= 0.01687 g(F)=  0.113E-01 g(S)=  0.919E-03 ort = 0.105E-02 (trialstep = 0.928E+00)
 search vector abs. value=  0.125E-01
 bond charge predicted
       N       E                     dE             d eps       ncg     rms          rms(c)
DAV:   1    -0.958489062603E+02   -0.12829E-01   -0.30225E+00  6751   0.521E+00    0.775E-01
DAV:   2    -0.958481015958E+02    0.80466E-03   -0.12644E-01  7581   0.258E+00    0.339E-01
DAV:   3    -0.958455857112E+02    0.25159E-02   -0.16645E-02  5909   0.193E+00    0.170E-01
DAV:   4    -0.958454798179E+02    0.10589E-03   -0.43897E-03  5897   0.110E+00    0.109E-01
DAV:   5    -0.958453826680E+02    0.97150E-04   -0.16085E-03  6023   0.287E-01    0.584E-02
DAV:   6    -0.958453136844E+02    0.68984E-04   -0.22326E-04  6408   0.129E-01    0.844E-03
DAV:   7    -0.958453085385E+02    0.51459E-05   -0.22120E-05  7141   0.434E-02    0.685E-03
DAV:   8    -0.958453068835E+02    0.16550E-05   -0.48744E-06  5207   0.354E-02    0.386E-03
DAV:   9    -0.958453059514E+02    0.93214E-06   -0.27347E-06  3341   0.179E-02
  10 F= -.95845306E+02 E0= -.95841119E+02  d E =-.922907E-02
 trial-energy change:   -0.009229  1 .order   -0.009253   -0.011367   -0.007139
 step:   2.6650(harm=  2.4947)  dis= 0.01803  next Energy=   -95.851831 (dE=-0.158E-01)
 bond charge predicted
       N       E                     dE             d eps       ncg     rms          rms(c)
DAV:   1    -0.958615361483E+02   -0.16229E-01   -0.10538E+01  6559   0.964E+00    0.145E+00
DAV:   2    -0.958606812287E+02    0.85492E-03   -0.46224E-01  7789   0.484E+00    0.632E-01
DAV:   3    -0.958517512639E+02    0.89300E-02   -0.55869E-02  5909   0.360E+00    0.318E-01
DAV:   4    -0.958514413258E+02    0.30994E-03   -0.15982E-02  5873   0.207E+00    0.206E-01
DAV:   5    -0.958510802379E+02    0.36109E-03   -0.56587E-03  6071   0.559E-01    0.107E-01
DAV:   6    -0.958508620497E+02    0.21819E-03   -0.74043E-04  6536   0.250E-01    0.172E-02
DAV:   7    -0.958508457568E+02    0.16293E-04   -0.86831E-05  7175   0.818E-02    0.123E-02
DAV:   8    -0.958508411440E+02    0.46128E-05   -0.18434E-05  5887   0.593E-02    0.655E-03
DAV:   9    -0.958508401251E+02    0.10190E-05   -0.79114E-06  5556   0.375E-02    0.320E-03
DAV:  10    -0.958508381605E+02    0.19645E-05   -0.16124E-06  2908   0.124E-02    0.106E-03
DAV:  11    -0.958508375984E+02    0.56216E-06   -0.31386E-07  2852   0.470E-03
  11 F= -.95850838E+02 E0= -.95847035E+02  d E =-.147607E-01
 curvature:  -1.25 expect dE=-0.515E-03 dE for cont linesearch -0.143E-03
 ZBRENT: interpolating
 opt :   2.4316  next Energy=   -95.850977 (dE=-0.149E-01)
 bond charge predicted
       N       E                     dE             d eps       ncg     rms          rms(c)
DAV:   1    -0.958512954589E+02   -0.45730E-03   -0.19307E-01  7106   0.134E+00    0.195E-01
DAV:   2    -0.958511539151E+02    0.14154E-03   -0.72431E-03  7221   0.651E-01    0.853E-02
DAV:   3    -0.958510067109E+02    0.14720E-03   -0.11136E-03  5896   0.507E-01    0.434E-02
DAV:   4    -0.958509961107E+02    0.10600E-04   -0.26194E-04  5897   0.286E-01    0.264E-02
DAV:   5    -0.958509907984E+02    0.53123E-05   -0.11047E-04  5930   0.709E-02    0.160E-02
DAV:   6    -0.958509857795E+02    0.50189E-05   -0.18453E-05  5858   0.346E-02    0.157E-03
DAV:   7    -0.958509866770E+02   -0.89746E-06   -0.12468E-06  2931   0.716E-03
  12 F= -.95850987E+02 E0= -.95847133E+02  d E =-.149098E-01
 curvature:  -1.22 expect dE=-0.920E-03 dE for cont linesearch -0.639E-05
 trial: gam= 0.11062 g(F)=  0.114E-03 g(S)=  0.642E-03 ort =-0.256E-03 (trialstep = 0.123E+01)
 search vector abs. value=  0.852E-03
 reached required accuracy - stopping structural energy minimisation
Warning: ieee_invalid is signaling
Warning: ieee_divide_by_zero is signaling
Warning: ieee_underflow is signaling
Warning: ieee_inexact is signaling
FORTRAN STOP
