  39  39   0   0
  0.1265707E+02  0.7903140E-09  0.7903130E-09  0.7903130E-09  0.5000000E-15
   1.0000000000000000E-004
  CAR 
 BaFeO3 Full Structural Relaxation with D
     12.88516350    -24.25238924  301      1.89717100      1.00000000
    -24.252  0.0000E+00  0.0000E+00  0.0000E+00  0.0000E+00
    -24.129  0.0000E+00  0.0000E+00  0.0000E+00  0.0000E+00
    -24.005  0.0000E+00  0.0000E+00  0.0000E+00  0.0000E+00
    -23.881  0.0000E+00  0.0000E+00  0.0000E+00  0.0000E+00
    -23.757  0.0000E+00  0.0000E+00  0.0000E+00  0.0000E+00
    -23.633  0.0000E+00  0.0000E+00  0.0000E+00  0.0000E+00
    -23.510  0.0000E+00  0.0000E+00  0.0000E+00  0.0000E+00
    -23.386  0.0000E+00  0.0000E+00  0.0000E+00  0.0000E+00
    -23.262  0.0000E+00  0.0000E+00  0.0000E+00  0.0000E+00
    -23.138  0.0000E+00  0.0000E+00  0.0000E+00  0.0000E+00
    -23.014  0.0000E+00  0.0000E+00  0.0000E+00  0.0000E+00
    -22.891  0.0000E+00  0.0000E+00  0.0000E+00  0.0000E+00
    -22.767  0.5107E-11  0.1506E-11  0.6322E-12  0.1864E-12
    -22.643  0.3722E-04  0.2083E-04  0.4608E-05  0.2579E-05
    -22.519  0.2347E-01  0.2033E-01  0.2909E-02  0.2519E-02
    -22.396  0.1702E+00  0.1692E+00  0.2398E-01  0.2346E-01
    -22.272  0.8842E-01  0.9257E-01  0.3493E-01  0.3492E-01
    -22.148  0.5659E-03  0.6421E-03  0.3500E-01  0.3500E-01
    -22.024  0.5603E-09  0.7104E-09  0.3500E-01  0.3500E-01
    -21.900  0.0000E+00  0.0000E+00  0.3500E-01  0.3500E-01
    -21.777  0.0000E+00  0.0000E+00  0.3500E-01  0.3500E-01
    -21.653  0.0000E+00  0.0000E+00  0.3500E-01  0.3500E-01
    -21.529  0.0000E+00  0.0000E+00  0.3500E-01  0.3500E-01
    -21.405  0.0000E+00  0.0000E+00  0.3500E-01  0.3500E-01
    -21.281  0.0000E+00  0.0000E+00  0.3500E-01  0.3500E-01
    -21.158  0.0000E+00  0.0000E+00  0.3500E-01  0.3500E-01
    -21.034  0.0000E+00  0.0000E+00  0.3500E-01  0.3500E-01
    -20.910  0.0000E+00  0.0000E+00  0.3500E-01  0.3500E-01
    -20.786  0.0000E+00  0.0000E+00  0.3500E-01  0.3500E-01
    -20.662  0.0000E+00  0.0000E+00  0.3500E-01  0.3500E-01
    -20.539  0.0000E+00  0.0000E+00  0.3500E-01  0.3500E-01
    -20.415  0.0000E+00  0.0000E+00  0.3500E-01  0.3500E-01
    -20.291  0.0000E+00  0.0000E+00  0.3500E-01  0.3500E-01
    -20.167  0.0000E+00  0.0000E+00  0.3500E-01  0.3500E-01
    -20.043  0.0000E+00  0.0000E+00  0.3500E-01  0.3500E-01
    -19.920  0.0000E+00  0.0000E+00  0.3500E-01  0.3500E-01
    -19.796  0.0000E+00  0.0000E+00  0.3500E-01  0.3500E-01
    -19.672  0.0000E+00  0.0000E+00  0.3500E-01  0.3500E-01
    -19.548  0.0000E+00  0.0000E+00  0.3500E-01  0.3500E-01
    -19.425  0.0000E+00  0.0000E+00  0.3500E-01  0.3500E-01
    -19.301  0.0000E+00  0.0000E+00  0.3500E-01  0.3500E-01
    -19.177  0.0000E+00  0.0000E+00  0.3500E-01  0.3500E-01
    -19.053  0.0000E+00  0.0000E+00  0.3500E-01  0.3500E-01
    -18.929  0.0000E+00  0.0000E+00  0.3500E-01  0.3500E-01
    -18.806  0.0000E+00  0.0000E+00  0.3500E-01  0.3500E-01
    -18.682  0.0000E+00  0.0000E+00  0.3500E-01  0.3500E-01
    -18.558  0.0000E+00  0.0000E+00  0.3500E-01  0.3500E-01
    -18.434  0.0000E+00  0.0000E+00  0.3500E-01  0.3500E-01
    -18.310  0.0000E+00  0.0000E+00  0.3500E-01  0.3500E-01
    -18.187  0.0000E+00  0.0000E+00  0.3500E-01  0.3500E-01
    -18.063  0.0000E+00  0.0000E+00  0.3500E-01  0.3500E-01
    -17.939  0.0000E+00  0.0000E+00  0.3500E-01  0.3500E-01
    -17.815  0.0000E+00  0.0000E+00  0.3500E-01  0.3500E-01
    -17.691  0.0000E+00  0.0000E+00  0.3500E-01  0.3500E-01
    -17.568  0.0000E+00  0.0000E+00  0.3500E-01  0.3500E-01
    -17.444  0.0000E+00  0.0000E+00  0.3500E-01  0.3500E-01
    -17.320  0.0000E+00  0.0000E+00  0.3500E-01  0.3500E-01
    -17.196  0.0000E+00  0.0000E+00  0.3500E-01  0.3500E-01
    -17.072  0.0000E+00  0.0000E+00  0.3500E-01  0.3500E-01
    -16.949  0.0000E+00  0.0000E+00  0.3500E-01  0.3500E-01
    -16.825  0.0000E+00  0.0000E+00  0.3500E-01  0.3500E-01
    -16.701  0.0000E+00  0.0000E+00  0.3500E-01  0.3500E-01
    -16.577  0.0000E+00  0.0000E+00  0.3500E-01  0.3500E-01
    -16.454  0.0000E+00  0.0000E+00  0.3500E-01  0.3500E-01
    -16.330  0.0000E+00  0.0000E+00  0.3500E-01  0.3500E-01
    -16.206  0.0000E+00  0.0000E+00  0.3500E-01  0.3500E-01
    -16.082  0.0000E+00  0.0000E+00  0.3500E-01  0.3500E-01
    -15.958  0.0000E+00  0.0000E+00  0.3500E-01  0.3500E-01
    -15.835  0.0000E+00  0.0000E+00  0.3500E-01  0.3500E-01
    -15.711  0.2409E-13  0.0000E+00  0.3500E-01  0.3500E-01
    -15.587  0.1836E-05  0.0000E+00  0.3500E-01  0.3500E-01
    -15.463  0.5781E-02  0.0000E+00  0.3572E-01  0.3500E-01
    -15.339  0.7064E-01  0.2112E-16  0.4446E-01  0.3500E-01
    -15.216  0.8540E-01  0.4906E-07  0.5503E-01  0.3500E-01
    -15.092  0.6031E-01  0.2041E-02  0.6250E-01  0.3525E-01
    -14.968  0.4607E-01  0.7068E-01  0.6820E-01  0.4400E-01
    -14.844  0.2658E-01  0.7914E-01  0.7149E-01  0.5380E-01
    -14.720  0.1542E+00  0.5658E-01  0.9058E-01  0.6080E-01
    -14.597  0.9352E-01  0.4546E-01  0.1022E+00  0.6643E-01
    -14.473  0.1526E+00  0.3272E-01  0.1210E+00  0.7048E-01
    -14.349  0.2596E+00  0.2825E-01  0.1532E+00  0.7398E-01
    -14.225  0.1477E-01  0.1135E+00  0.1550E+00  0.8803E-01
    -14.101  0.4543E-06  0.2088E+00  0.1550E+00  0.1139E+00
    -13.978  0.9135E-15  0.1847E+00  0.1550E+00  0.1367E+00
    -13.854  0.0000E+00  0.1432E+00  0.1550E+00  0.1545E+00
    -13.730  0.0000E+00  0.4322E-02  0.1550E+00  0.1550E+00
    -13.606  0.0000E+00  0.4450E-07  0.1550E+00  0.1550E+00
    -13.482  0.0000E+00  0.5465E-17  0.1550E+00  0.1550E+00
    -13.359  0.0000E+00  0.0000E+00  0.1550E+00  0.1550E+00
    -13.235  0.0000E+00  0.0000E+00  0.1550E+00  0.1550E+00
    -13.111  0.0000E+00  0.0000E+00  0.1550E+00  0.1550E+00
    -12.987  0.0000E+00  0.0000E+00  0.1550E+00  0.1550E+00
    -12.864  0.0000E+00  0.0000E+00  0.1550E+00  0.1550E+00
    -12.740  0.0000E+00  0.0000E+00  0.1550E+00  0.1550E+00
    -12.616  0.0000E+00  0.0000E+00  0.1550E+00  0.1550E+00
    -12.492  0.0000E+00  0.0000E+00  0.1550E+00  0.1550E+00
    -12.368  0.0000E+00  0.0000E+00  0.1550E+00  0.1550E+00
    -12.245  0.0000E+00  0.0000E+00  0.1550E+00  0.1550E+00
    -12.121  0.0000E+00  0.0000E+00  0.1550E+00  0.1550E+00
    -11.997  0.0000E+00  0.0000E+00  0.1550E+00  0.1550E+00
    -11.873  0.0000E+00  0.0000E+00  0.1550E+00  0.1550E+00
    -11.749  0.0000E+00  0.0000E+00  0.1550E+00  0.1550E+00
    -11.626  0.0000E+00  0.0000E+00  0.1550E+00  0.1550E+00
    -11.502  0.0000E+00  0.0000E+00  0.1550E+00  0.1550E+00
    -11.378  0.0000E+00  0.0000E+00  0.1550E+00  0.1550E+00
    -11.254  0.0000E+00  0.0000E+00  0.1550E+00  0.1550E+00
    -11.130  0.0000E+00  0.0000E+00  0.1550E+00  0.1550E+00
    -11.007  0.0000E+00  0.0000E+00  0.1550E+00  0.1550E+00
    -10.883  0.0000E+00  0.0000E+00  0.1550E+00  0.1550E+00
    -10.759  0.0000E+00  0.0000E+00  0.1550E+00  0.1550E+00
    -10.635  0.0000E+00  0.0000E+00  0.1550E+00  0.1550E+00
    -10.511  0.0000E+00  0.0000E+00  0.1550E+00  0.1550E+00
    -10.388  0.0000E+00  0.0000E+00  0.1550E+00  0.1550E+00
    -10.264  0.0000E+00  0.0000E+00  0.1550E+00  0.1550E+00
    -10.140  0.0000E+00  0.0000E+00  0.1550E+00  0.1550E+00
    -10.016  0.0000E+00  0.0000E+00  0.1550E+00  0.1550E+00
     -9.893  0.0000E+00  0.0000E+00  0.1550E+00  0.1550E+00
     -9.769  0.0000E+00  0.0000E+00  0.1550E+00  0.1550E+00
     -9.645  0.0000E+00  0.0000E+00  0.1550E+00  0.1550E+00
     -9.521  0.0000E+00  0.0000E+00  0.1550E+00  0.1550E+00
     -9.397  0.0000E+00  0.0000E+00  0.1550E+00  0.1550E+00
     -9.274  0.0000E+00  0.0000E+00  0.1550E+00  0.1550E+00
     -9.150  0.0000E+00  0.0000E+00  0.1550E+00  0.1550E+00
     -9.026  0.0000E+00  0.0000E+00  0.1550E+00  0.1550E+00
     -8.902  0.0000E+00  0.0000E+00  0.1550E+00  0.1550E+00
     -8.778  0.0000E+00  0.0000E+00  0.1550E+00  0.1550E+00
     -8.655  0.9104E-13  0.0000E+00  0.1550E+00  0.1550E+00
     -8.531  0.2806E-05  0.3901E-13  0.1550E+00  0.1550E+00
     -8.407  0.1648E-02  0.1843E-05  0.1552E+00  0.1550E+00
     -8.283  0.2115E-01  0.1672E-02  0.1578E+00  0.1552E+00
     -8.159  0.2985E-01  0.2340E-01  0.1615E+00  0.1581E+00
     -8.036  0.6217E-01  0.3862E-01  0.1692E+00  0.1629E+00
     -7.912  0.6785E-01  0.6714E-01  0.1776E+00  0.1712E+00
     -7.788  0.1623E+00  0.1096E+00  0.1977E+00  0.1848E+00
     -7.664  0.1872E+00  0.2103E+00  0.2209E+00  0.2108E+00
     -7.540  0.1590E+00  0.1807E+00  0.2406E+00  0.2332E+00
     -7.417  0.1294E+00  0.1545E+00  0.2566E+00  0.2523E+00
     -7.293  0.2734E-01  0.6133E-01  0.2600E+00  0.2599E+00
     -7.169  0.2142E-03  0.9263E-03  0.2600E+00  0.2600E+00
     -7.045  0.5902E-08  0.4804E-07  0.2600E+00  0.2600E+00
     -6.922  0.2242E-17  0.9214E-16  0.2600E+00  0.2600E+00
     -6.798  0.0000E+00  0.0000E+00  0.2600E+00  0.2600E+00
     -6.674  0.0000E+00  0.0000E+00  0.2600E+00  0.2600E+00
     -6.550  0.0000E+00  0.0000E+00  0.2600E+00  0.2600E+00
     -6.426  0.0000E+00  0.0000E+00  0.2600E+00  0.2600E+00
     -6.303  0.2021E-16  0.0000E+00  0.2600E+00  0.2600E+00
     -6.179  0.7708E-07  0.0000E+00  0.2600E+00  0.2600E+00
     -6.055  0.2679E-02  0.0000E+00  0.2603E+00  0.2600E+00
     -5.931  0.3830E-01  0.0000E+00  0.2651E+00  0.2600E+00
     -5.807  0.6543E-01  0.0000E+00  0.2732E+00  0.2600E+00
     -5.684  0.6601E-01  0.0000E+00  0.2813E+00  0.2600E+00
     -5.560  0.6720E-01  0.0000E+00  0.2897E+00  0.2600E+00
     -5.436  0.5184E-01  0.0000E+00  0.2961E+00  0.2600E+00
     -5.312  0.4691E-01  0.0000E+00  0.3019E+00  0.2600E+00
     -5.188  0.1542E+00  0.0000E+00  0.3210E+00  0.2600E+00
     -5.065  0.2381E+00  0.0000E+00  0.3504E+00  0.2600E+00
     -4.941  0.5078E+00  0.0000E+00  0.4133E+00  0.2600E+00
     -4.817  0.1667E+00  0.0000E+00  0.4339E+00  0.2600E+00
     -4.693  0.6199E-01  0.0000E+00  0.4416E+00  0.2600E+00
     -4.569  0.2339E-01  0.0000E+00  0.4445E+00  0.2600E+00
     -4.446  0.5642E-02  0.0000E+00  0.4452E+00  0.2600E+00
     -4.322  0.7945E-02  0.0000E+00  0.4462E+00  0.2600E+00
     -4.198  0.4695E-01  0.0000E+00  0.4520E+00  0.2600E+00
     -4.074  0.1876E-01  0.0000E+00  0.4543E+00  0.2600E+00
     -3.951  0.2916E-01  0.0000E+00  0.4579E+00  0.2600E+00
     -3.827  0.3795E-02  0.3828E-12  0.4584E+00  0.2600E+00
     -3.703  0.1641E-01  0.3143E-05  0.4604E+00  0.2600E+00
     -3.579  0.9414E-02  0.5287E-03  0.4616E+00  0.2601E+00
     -3.455  0.4054E-02  0.3098E-02  0.4621E+00  0.2604E+00
     -3.332  0.4268E-03  0.6526E-02  0.4622E+00  0.2613E+00
     -3.208  0.7900E-02  0.7152E-02  0.4631E+00  0.2621E+00
     -3.084  0.2190E-01  0.9765E-02  0.4658E+00  0.2634E+00
     -2.960  0.4081E-02  0.1818E-01  0.4664E+00  0.2656E+00
     -2.836  0.1361E-01  0.2332E-01  0.4680E+00  0.2685E+00
     -2.713  0.9867E-02  0.3555E-01  0.4693E+00  0.2729E+00
     -2.589  0.3349E-02  0.2785E-01  0.4697E+00  0.2763E+00
     -2.465  0.7342E-03  0.3778E-01  0.4698E+00  0.2810E+00
     -2.341  0.1934E-02  0.3252E-01  0.4700E+00  0.2850E+00
     -2.217  0.4598E-01  0.3041E-01  0.4757E+00  0.2888E+00
     -2.094  0.4599E-01  0.3157E-01  0.4814E+00  0.2927E+00
     -1.970  0.1719E-01  0.1231E-01  0.4835E+00  0.2942E+00
     -1.846  0.2160E-01  0.1634E-01  0.4862E+00  0.2963E+00
     -1.722  0.4789E-02  0.1058E-01  0.4868E+00  0.2976E+00
     -1.598  0.2148E-02  0.3755E-01  0.4871E+00  0.3022E+00
     -1.475  0.2530E-01  0.1424E+00  0.4902E+00  0.3199E+00
     -1.351  0.6780E-01  0.6018E-01  0.4986E+00  0.3273E+00
     -1.227  0.6420E-01  0.1424E+00  0.5065E+00  0.3449E+00
     -1.103  0.3512E-01  0.1956E+00  0.5109E+00  0.3691E+00
     -0.980  0.1390E-01  0.8964E-01  0.5126E+00  0.3802E+00
     -0.856  0.7499E-02  0.3986E-01  0.5135E+00  0.3852E+00
     -0.732  0.2960E-01  0.3960E-01  0.5172E+00  0.3901E+00
     -0.608  0.2875E-01  0.6053E-01  0.5207E+00  0.3976E+00
     -0.484  0.2743E-02  0.3247E-01  0.5211E+00  0.4016E+00
     -0.361  0.3407E-01  0.1675E-01  0.5253E+00  0.4037E+00
     -0.237  0.8555E-01  0.2679E-01  0.5359E+00  0.4070E+00
     -0.113  0.8954E-01  0.5326E-01  0.5470E+00  0.4136E+00
      0.011  0.7888E-01  0.1021E+00  0.5567E+00  0.4262E+00
      0.135  0.7551E-01  0.1117E+00  0.5661E+00  0.4400E+00
      0.258  0.5114E-01  0.9108E-01  0.5724E+00  0.4513E+00
      0.382  0.1320E+00  0.9016E-01  0.5888E+00  0.4625E+00
      0.506  0.1557E+00  0.7061E-01  0.6080E+00  0.4712E+00
      0.630  0.2436E+00  0.5392E-01  0.6382E+00  0.4779E+00
      0.754  0.1741E+00  0.8003E-01  0.6598E+00  0.4878E+00
      0.877  0.1517E+00  0.7054E-01  0.6785E+00  0.4965E+00
      1.001  0.1422E+00  0.3300E-01  0.6961E+00  0.5006E+00
      1.125  0.1260E+00  0.6492E-01  0.7117E+00  0.5087E+00
      1.249  0.1075E+00  0.1482E+00  0.7250E+00  0.5270E+00
      1.373  0.1116E+00  0.1734E+00  0.7389E+00  0.5485E+00
      1.496  0.1117E+00  0.1075E+00  0.7527E+00  0.5618E+00
      1.620  0.1096E+00  0.9568E-01  0.7663E+00  0.5736E+00
      1.744  0.1067E+00  0.1280E+00  0.7795E+00  0.5895E+00
      1.868  0.7446E-01  0.7639E-01  0.7887E+00  0.5989E+00
      1.991  0.2528E-01  0.5146E-01  0.7918E+00  0.6053E+00
      2.115  0.2819E-01  0.5750E-01  0.7953E+00  0.6124E+00
      2.239  0.6960E-01  0.5040E-01  0.8039E+00  0.6186E+00
      2.363  0.1021E-01  0.1086E-01  0.8052E+00  0.6200E+00
      2.487  0.7747E-02  0.7779E-04  0.8061E+00  0.6200E+00
      2.610  0.4817E-01  0.3243E-10  0.8121E+00  0.6200E+00
      2.734  0.3318E-01  0.0000E+00  0.8162E+00  0.6200E+00
      2.858  0.1669E-01  0.0000E+00  0.8183E+00  0.6200E+00
      2.982  0.1334E-01  0.0000E+00  0.8199E+00  0.6200E+00
      3.106  0.6550E-03  0.0000E+00  0.8200E+00  0.6200E+00
      3.229  0.1659E-08  0.0000E+00  0.8200E+00  0.6200E+00
      3.353  0.0000E+00  0.0000E+00  0.8200E+00  0.6200E+00
      3.477  0.0000E+00  0.4461E-09  0.8200E+00  0.6200E+00
      3.601  0.0000E+00  0.3122E-03  0.8200E+00  0.6200E+00
      3.725  0.0000E+00  0.2277E-01  0.8200E+00  0.6229E+00
      3.848  0.0000E+00  0.4067E-01  0.8200E+00  0.6279E+00
      3.972  0.0000E+00  0.9308E-01  0.8200E+00  0.6394E+00
      4.096  0.0000E+00  0.5962E-01  0.8200E+00  0.6468E+00
      4.220  0.0000E+00  0.1132E+00  0.8200E+00  0.6608E+00
      4.344  0.0000E+00  0.1115E+00  0.8200E+00  0.6746E+00
      4.467  0.0000E+00  0.7055E-01  0.8200E+00  0.6833E+00
      4.591  0.0000E+00  0.1453E+00  0.8200E+00  0.7013E+00
      4.715  0.0000E+00  0.2175E+00  0.8200E+00  0.7282E+00
      4.839  0.0000E+00  0.1893E+00  0.8200E+00  0.7517E+00
      4.962  0.0000E+00  0.1336E+00  0.8200E+00  0.7682E+00
      5.086  0.0000E+00  0.6615E-01  0.8200E+00  0.7764E+00
      5.210  0.0000E+00  0.2707E-01  0.8200E+00  0.7798E+00
      5.334  0.0000E+00  0.4863E-01  0.8200E+00  0.7858E+00
      5.458  0.0000E+00  0.3140E-01  0.8200E+00  0.7897E+00
      5.581  0.0000E+00  0.3363E-01  0.8200E+00  0.7938E+00
      5.705  0.0000E+00  0.6182E-02  0.8200E+00  0.7946E+00
      5.829  0.0000E+00  0.4318E-01  0.8200E+00  0.7999E+00
      5.953  0.0000E+00  0.3203E-01  0.8200E+00  0.8039E+00
      6.077  0.0000E+00  0.8096E-02  0.8200E+00  0.8049E+00
      6.200  0.0000E+00  0.7754E-02  0.8200E+00  0.8059E+00
      6.324  0.0000E+00  0.4923E-01  0.8200E+00  0.8120E+00
      6.448  0.0000E+00  0.1420E-01  0.8200E+00  0.8137E+00
      6.572  0.0000E+00  0.3540E-01  0.8200E+00  0.8181E+00
      6.696  0.0000E+00  0.7062E-02  0.8200E+00  0.8190E+00
      6.819  0.0000E+00  0.8316E-02  0.8200E+00  0.8200E+00
      6.943  0.0000E+00  0.6648E-05  0.8200E+00  0.8200E+00
      7.067  0.0000E+00  0.6827E-13  0.8200E+00  0.8200E+00
      7.191  0.0000E+00  0.0000E+00  0.8200E+00  0.8200E+00
      7.315  0.0000E+00  0.0000E+00  0.8200E+00  0.8200E+00
      7.438  0.2643E-11  0.8033E-16  0.8200E+00  0.8200E+00
      7.562  0.1107E-04  0.5883E-07  0.8200E+00  0.8200E+00
      7.686  0.1087E-02  0.4320E-03  0.8201E+00  0.8201E+00
      7.810  0.3157E-03  0.8293E-03  0.8202E+00  0.8202E+00
      7.933  0.6173E-02  0.2219E-02  0.8209E+00  0.8204E+00
      8.057  0.3937E-02  0.5362E-02  0.8214E+00  0.8211E+00
      8.181  0.9762E-02  0.6767E-02  0.8226E+00  0.8219E+00
      8.305  0.8167E-02  0.8503E-02  0.8236E+00  0.8230E+00
      8.429  0.1206E-01  0.1003E-01  0.8251E+00  0.8242E+00
      8.552  0.4857E-02  0.9361E-02  0.8257E+00  0.8254E+00
      8.676  0.7713E-02  0.2561E-02  0.8267E+00  0.8257E+00
      8.800  0.1721E-01  0.1254E-01  0.8288E+00  0.8273E+00
      8.924  0.1919E-01  0.1150E-01  0.8312E+00  0.8287E+00
      9.048  0.2640E-01  0.1753E-01  0.8345E+00  0.8308E+00
      9.171  0.3095E-01  0.2146E-01  0.8383E+00  0.8335E+00
      9.295  0.1762E-01  0.2745E-01  0.8405E+00  0.8369E+00
      9.419  0.2999E-01  0.1386E-01  0.8442E+00  0.8386E+00
      9.543  0.5483E-01  0.3281E-01  0.8510E+00  0.8427E+00
      9.667  0.5831E-01  0.6129E-01  0.8582E+00  0.8503E+00
      9.790  0.5228E-01  0.5651E-01  0.8647E+00  0.8573E+00
      9.914  0.5141E-01  0.4032E-01  0.8710E+00  0.8623E+00
     10.038  0.7363E-01  0.4336E-01  0.8802E+00  0.8676E+00
     10.162  0.8539E-01  0.6096E-01  0.8907E+00  0.8752E+00
     10.286  0.6215E-01  0.8916E-01  0.8984E+00  0.8862E+00
     10.409  0.5996E-01  0.6446E-01  0.9058E+00  0.8942E+00
     10.533  0.6832E-01  0.7916E-01  0.9143E+00  0.9040E+00
     10.657  0.4735E-01  0.3946E-01  0.9202E+00  0.9089E+00
     10.781  0.4287E-01  0.6572E-01  0.9255E+00  0.9170E+00
     10.904  0.2220E-01  0.4645E-01  0.9282E+00  0.9228E+00
     11.028  0.1299E-01  0.3207E-01  0.9298E+00  0.9267E+00
     11.152  0.1465E-02  0.2080E-01  0.9300E+00  0.9293E+00
     11.276  0.3871E-06  0.5604E-02  0.9300E+00  0.9300E+00
     11.400  0.1808E-14  0.4856E-04  0.9300E+00  0.9300E+00
     11.523  0.0000E+00  0.1343E-10  0.9300E+00  0.9300E+00
     11.647  0.0000E+00  0.0000E+00  0.9300E+00  0.9300E+00
     11.771  0.0000E+00  0.0000E+00  0.9300E+00  0.9300E+00
     11.895  0.0000E+00  0.0000E+00  0.9300E+00  0.9300E+00
     12.019  0.0000E+00  0.0000E+00  0.9300E+00  0.9300E+00
     12.142  0.0000E+00  0.0000E+00  0.9300E+00  0.9300E+00
     12.266  0.0000E+00  0.0000E+00  0.9300E+00  0.9300E+00
     12.390  0.0000E+00  0.0000E+00  0.9300E+00  0.9300E+00
     12.514  0.0000E+00  0.0000E+00  0.9300E+00  0.9300E+00
     12.638  0.0000E+00  0.0000E+00  0.9300E+00  0.9300E+00
     12.761  0.0000E+00  0.0000E+00  0.9300E+00  0.9300E+00
     12.885  0.0000E+00  0.0000E+00  0.9300E+00  0.9300E+00
