Li27 La12 Zr8 O48                       
    1.000000000000000     
    -6.5693774250554711    6.5693774648919350    6.4065109061046517
     6.5693774250554711   -6.5693774648919350    6.4065109061046517
     6.5693774648919350    6.5693774250554711   -6.4065109061046517
   Li   La   Zr   O 
    27    12     8    48
Direct
     0.0000000000000000    0.0000000000000000    0.0000000000000000
     0.2500000000000000    0.7500000000000000    0.5000000000000000
     0.7500000000000000    0.2500000000000000    0.5000000000000000
     0.8985973648212585    0.8813152985971654    0.3523380855847163
     0.1186847014028345    0.4710227869875439    0.0172820662240929
     0.6424759961132982    0.1678374733744871    0.8641773415962601
     0.8321625266255133    0.6963398682217659    0.4746385227388113
     0.3036601317782338    0.7782986545170451    0.1358226584037398
     0.2217013454829549    0.3575240038867014    0.5253614772611885
     0.5289772130124561    0.5462592792365490    0.6476619144152835
     0.4537407207634512    0.1014026351787419    0.9827179337759074
     0.9034346676499057    0.1685578333119269    0.9212233727850406
     0.6538572445401944    0.6159406995866629    0.1659234962341358
     0.9122855079395158    0.1519205482892997    0.4210599768678354
     0.2406719774361304    0.6551313121582613    0.2696680371717297
     0.3448686878417392    0.6145377250134665    0.5855406652778694
     0.5087744689283197    0.0877144920604842    0.2396340403497866
     0.3840593004133371    0.5499817966474752    0.0379165449535313
     0.0177887051351346    0.0965653323500941    0.2651241656620185
     0.4500182033525246    0.4879347483060558    0.8340765037658638
     0.2473344605268863    0.9822112948648654    0.0787766272149594
     0.3854622749865340    0.9710029402644036    0.7303319628282706
     0.7308605714214641    0.4912255310716804    0.5789400231321642
     0.8480794517107000    0.2691394285785355    0.7603659596502136
     0.0289970597355966    0.7593280225638694    0.4144593347221304
     0.8314421666880731    0.7526655394731140    0.7348758343379819
     0.5120652516939441    0.3461427554598058    0.9620834550464681
     0.7562177249321848    0.7562177249321848    0.0000000000000000
     0.2437822750678156    0.2437822750678156    0.0000000000000000
     0.5011968133938136    0.0011968133938136    0.5000000000000000
     0.9988031866061864    0.4988031866061864    0.5000000000000000
     0.3740646990555110    0.7549782036306745    0.8784897142918549
     0.3759978940310787    0.2487092216529600    0.3730355148103077
     0.5044250152363440    0.6259353009444887    0.3809135045751632
     0.7512907783470401    0.1243262931573478    0.1272886723781188
     0.8756737068426521    0.0029623792207710    0.6269644851896923
     0.8764884893388195    0.4955749847636563    0.1215102857081452
     0.9970376207792290    0.6240021059689209    0.8727113276218808
     0.2450217963693257    0.1235115106611806    0.6190864954248367
     0.6261708899972211    0.8824339832393625    0.7530774896939038
     0.6266393805447846    0.3738777999997757    0.2477583869946911
     0.6261222000002242    0.8738805869949151    0.2527615805450087
     0.1269065996966824    0.3738291100027787    0.2562630932421415
     0.1261194130050851    0.3788809935500936    0.7522416130053090
     0.1293564935454591    0.8730934003033175    0.2469225103060962
     0.1175660167606373    0.8706435064545410    0.7437369067578584
     0.6211190064499065    0.3733606194552154    0.7472384194549914
     0.5271487142330152    0.7003222375786505    0.7761338417650934
     0.4181684603178140    0.1807083332083549    0.1522664199506644
     0.4482887534713246    0.7827419480438728    0.2847540777220404
     0.0133851101865591    0.2774983849916903    0.3489779272230813
     0.7225016150083101    0.0714795422313841    0.7358867251948618
     0.8364653242507232    0.5517112465286754    0.3344531945725551
     0.8192916667916451    0.9715580867423165    0.2374601271094590
     0.2489851275320712    0.4728512857669849    0.1731735233456279
     0.0284419132576834    0.2659020403671495    0.8477335800493353
     0.9241883958135568    0.7510148724679291    0.2238661582349065
     0.9285204577686162    0.6644071829634778    0.6510220727769188
     0.4979878703218324    0.1635346757492771    0.7152459222779521
     0.2172580519561272    0.5020121296781677    0.6655468054274445
     0.3355928170365223    0.9866148898134406    0.2641132748051312
     0.2996777624213497    0.0758116041864432    0.8268264766543723
     0.7340979596328500    0.5818315396821858    0.7625398728905405
     0.9433813994737775    0.3988101490641184    0.6622860235182767
     0.2371792645979634    0.8902001597476821    0.4483477154901048
     0.1495014413221741    0.1940576020689155    0.1605631590055202
     0.5485153982524403    0.6932224675793219    0.0515904102166018
     0.3067775324206781    0.3583679426372799    0.8552929306731111
     0.0110617176833390    0.8504985586778260    0.0445561607467415
     0.1097998402523179    0.5581475557424229    0.3469791048502740
     0.7189046240444920    0.0566186005262228    0.4554287495903411
     0.4418524442575777    0.7888315491078589    0.5516522845098951
     0.7365241255458487    0.2810953759555077    0.3377139764817232
     0.6416320573627196    0.4969249880358387    0.9484095897833982
     0.0334944430634025    0.9889382823166610    0.8394368409944796
     0.8059423979310839    0.9665055569365976    0.9554438392532583
     0.5030750119641610    0.4514846017475596    0.1447070693268885
     0.6011898509358815    0.2634758744541512    0.5445712504096591
     0.2111684508921413    0.7628207354020364    0.6530208951497257
     0.2193327275261016    0.5813319709576567    0.9383403024905800
     0.1668367505715963    0.0805811799316711    0.3734775288263943
     0.3312998797977141    0.4576583325195893    0.4403315435625008
     0.5353915404857446    0.9516321811880040    0.1255120659282876
     0.0483678188119961    0.1738798847402768    0.5837593592977406
     0.1090316637647798    0.6687001202022785    0.1263584527218750
     0.9194188200683218    0.2928963488947233    0.0862555706399181
     0.7190075749644786    0.7806672724738989    0.3619992434315480
     0.7071036511052767    0.7933592217451950    0.6265224711736057
     0.6429916684670763    0.2809924250355216    0.0616596975094198
     0.8261201152597161    0.4098794745574639    0.8744879340717124
     0.0173267889570882    0.8909683362352203    0.5596684564374987
     0.5423416674804108    0.9826732110429118    0.8736415472781253
     0.5901205254425358    0.4646084595142554    0.4162406407022592
     0.4186680290423434    0.3570083315329237    0.6380007565684515
     0.2066407782548051    0.8331632494284034    0.9137444293600813
 
  0.00000000E+00  0.00000000E+00  0.00000000E+00
  0.00000000E+00  0.00000000E+00  0.00000000E+00
  0.00000000E+00  0.00000000E+00  0.00000000E+00
  0.00000000E+00  0.00000000E+00  0.00000000E+00
  0.00000000E+00  0.00000000E+00  0.00000000E+00
  0.00000000E+00  0.00000000E+00  0.00000000E+00
  0.00000000E+00  0.00000000E+00  0.00000000E+00
  0.00000000E+00  0.00000000E+00  0.00000000E+00
  0.00000000E+00  0.00000000E+00  0.00000000E+00
  0.00000000E+00  0.00000000E+00  0.00000000E+00
  0.00000000E+00  0.00000000E+00  0.00000000E+00
  0.00000000E+00  0.00000000E+00  0.00000000E+00
  0.00000000E+00  0.00000000E+00  0.00000000E+00
  0.00000000E+00  0.00000000E+00  0.00000000E+00
  0.00000000E+00  0.00000000E+00  0.00000000E+00
  0.00000000E+00  0.00000000E+00  0.00000000E+00
  0.00000000E+00  0.00000000E+00  0.00000000E+00
  0.00000000E+00  0.00000000E+00  0.00000000E+00
  0.00000000E+00  0.00000000E+00  0.00000000E+00
  0.00000000E+00  0.00000000E+00  0.00000000E+00
  0.00000000E+00  0.00000000E+00  0.00000000E+00
  0.00000000E+00  0.00000000E+00  0.00000000E+00
  0.00000000E+00  0.00000000E+00  0.00000000E+00
  0.00000000E+00  0.00000000E+00  0.00000000E+00
  0.00000000E+00  0.00000000E+00  0.00000000E+00
  0.00000000E+00  0.00000000E+00  0.00000000E+00
  0.00000000E+00  0.00000000E+00  0.00000000E+00
  0.00000000E+00  0.00000000E+00  0.00000000E+00
  0.00000000E+00  0.00000000E+00  0.00000000E+00
  0.00000000E+00  0.00000000E+00  0.00000000E+00
  0.00000000E+00  0.00000000E+00  0.00000000E+00
  0.00000000E+00  0.00000000E+00  0.00000000E+00
  0.00000000E+00  0.00000000E+00  0.00000000E+00
  0.00000000E+00  0.00000000E+00  0.00000000E+00
  0.00000000E+00  0.00000000E+00  0.00000000E+00
  0.00000000E+00  0.00000000E+00  0.00000000E+00
  0.00000000E+00  0.00000000E+00  0.00000000E+00
  0.00000000E+00  0.00000000E+00  0.00000000E+00
  0.00000000E+00  0.00000000E+00  0.00000000E+00
  0.00000000E+00  0.00000000E+00  0.00000000E+00
  0.00000000E+00  0.00000000E+00  0.00000000E+00
  0.00000000E+00  0.00000000E+00  0.00000000E+00
  0.00000000E+00  0.00000000E+00  0.00000000E+00
  0.00000000E+00  0.00000000E+00  0.00000000E+00
  0.00000000E+00  0.00000000E+00  0.00000000E+00
  0.00000000E+00  0.00000000E+00  0.00000000E+00
  0.00000000E+00  0.00000000E+00  0.00000000E+00
  0.00000000E+00  0.00000000E+00  0.00000000E+00
  0.00000000E+00  0.00000000E+00  0.00000000E+00
  0.00000000E+00  0.00000000E+00  0.00000000E+00
  0.00000000E+00  0.00000000E+00  0.00000000E+00
  0.00000000E+00  0.00000000E+00  0.00000000E+00
  0.00000000E+00  0.00000000E+00  0.00000000E+00
  0.00000000E+00  0.00000000E+00  0.00000000E+00
  0.00000000E+00  0.00000000E+00  0.00000000E+00
  0.00000000E+00  0.00000000E+00  0.00000000E+00
  0.00000000E+00  0.00000000E+00  0.00000000E+00
  0.00000000E+00  0.00000000E+00  0.00000000E+00
  0.00000000E+00  0.00000000E+00  0.00000000E+00
  0.00000000E+00  0.00000000E+00  0.00000000E+00
  0.00000000E+00  0.00000000E+00  0.00000000E+00
  0.00000000E+00  0.00000000E+00  0.00000000E+00
  0.00000000E+00  0.00000000E+00  0.00000000E+00
  0.00000000E+00  0.00000000E+00  0.00000000E+00
  0.00000000E+00  0.00000000E+00  0.00000000E+00
  0.00000000E+00  0.00000000E+00  0.00000000E+00
  0.00000000E+00  0.00000000E+00  0.00000000E+00
  0.00000000E+00  0.00000000E+00  0.00000000E+00
  0.00000000E+00  0.00000000E+00  0.00000000E+00
  0.00000000E+00  0.00000000E+00  0.00000000E+00
  0.00000000E+00  0.00000000E+00  0.00000000E+00
  0.00000000E+00  0.00000000E+00  0.00000000E+00
  0.00000000E+00  0.00000000E+00  0.00000000E+00
  0.00000000E+00  0.00000000E+00  0.00000000E+00
  0.00000000E+00  0.00000000E+00  0.00000000E+00
  0.00000000E+00  0.00000000E+00  0.00000000E+00
  0.00000000E+00  0.00000000E+00  0.00000000E+00
  0.00000000E+00  0.00000000E+00  0.00000000E+00
  0.00000000E+00  0.00000000E+00  0.00000000E+00
  0.00000000E+00  0.00000000E+00  0.00000000E+00
  0.00000000E+00  0.00000000E+00  0.00000000E+00
  0.00000000E+00  0.00000000E+00  0.00000000E+00
  0.00000000E+00  0.00000000E+00  0.00000000E+00
  0.00000000E+00  0.00000000E+00  0.00000000E+00
  0.00000000E+00  0.00000000E+00  0.00000000E+00
  0.00000000E+00  0.00000000E+00  0.00000000E+00
  0.00000000E+00  0.00000000E+00  0.00000000E+00
  0.00000000E+00  0.00000000E+00  0.00000000E+00
  0.00000000E+00  0.00000000E+00  0.00000000E+00
  0.00000000E+00  0.00000000E+00  0.00000000E+00
  0.00000000E+00  0.00000000E+00  0.00000000E+00
  0.00000000E+00  0.00000000E+00  0.00000000E+00
  0.00000000E+00  0.00000000E+00  0.00000000E+00
  0.00000000E+00  0.00000000E+00  0.00000000E+00
  0.00000000E+00  0.00000000E+00  0.00000000E+00
