   1   1   0   0
  0.1690745E+02  0.2800485E-09  0.2800485E-09  0.2800486E-09  0.5000000E-15
   1.0000000000000000E-004
  CAR 
 static single-point for EOS             
     25.00483738     -3.41702644  301      7.06069762      1.00000000
     -3.417  0.0000E+00  0.0000E+00
     -3.322  0.0000E+00  0.0000E+00
     -3.228  0.0000E+00  0.0000E+00
     -3.133  0.0000E+00  0.0000E+00
     -3.038  0.0000E+00  0.0000E+00
     -2.943  0.0000E+00  0.0000E+00
     -2.849  0.0000E+00  0.0000E+00
     -2.754  0.0000E+00  0.0000E+00
     -2.659  0.0000E+00  0.0000E+00
     -2.564  0.0000E+00  0.0000E+00
     -2.470  0.0000E+00  0.0000E+00
     -2.375  0.2481E-14  0.2350E-15
     -2.280  0.1786E-07  0.1692E-08
     -2.185  0.1356E-03  0.1285E-04
     -2.091  0.2686E-02  0.2673E-03
     -1.996  0.2184E-01  0.2336E-02
     -1.901  0.2080E-01  0.4307E-02
     -1.806  0.2153E-01  0.6347E-02
     -1.712  0.6177E-01  0.1220E-01
     -1.617  0.3407E-01  0.1543E-01
     -1.522  0.4949E-01  0.2011E-01
     -1.427  0.4098E-01  0.2400E-01
     -1.333  0.4894E-01  0.2863E-01
     -1.238  0.1107E+00  0.3912E-01
     -1.143  0.2394E-01  0.4138E-01
     -1.049  0.9096E-01  0.5000E-01
     -0.954  0.7292E-01  0.5691E-01
     -0.859  0.6878E-01  0.6343E-01
     -0.764  0.6462E-01  0.6955E-01
     -0.670  0.1319E+00  0.8204E-01
     -0.575  0.1195E+00  0.9336E-01
     -0.480  0.3981E-01  0.9714E-01
     -0.385  0.1319E+00  0.1096E+00
     -0.291  0.7039E-01  0.1163E+00
     -0.196  0.1231E+00  0.1280E+00
     -0.101  0.1128E+00  0.1387E+00
     -0.006  0.1758E+00  0.1553E+00
      0.088  0.1962E+00  0.1739E+00
      0.183  0.4517E-01  0.1782E+00
      0.278  0.1623E+00  0.1935E+00
      0.373  0.8570E-01  0.2017E+00
      0.467  0.1837E+00  0.2191E+00
      0.562  0.1789E+00  0.2360E+00
      0.657  0.2916E+00  0.2637E+00
      0.752  0.2724E+00  0.2895E+00
      0.846  0.6187E-01  0.2953E+00
      0.941  0.2578E+00  0.3197E+00
      1.036  0.1247E+00  0.3316E+00
      1.130  0.2045E+00  0.3509E+00
      1.225  0.5781E+00  0.4057E+00
      1.320  0.6081E+00  0.4633E+00
      1.415  0.7105E+00  0.5306E+00
      1.509  0.3371E+00  0.5626E+00
      1.604  0.7468E+00  0.6333E+00
      1.699  0.5016E+00  0.6808E+00
      1.794  0.5943E+00  0.7371E+00
      1.888  0.1016E+01  0.8334E+00
      1.983  0.9089E+00  0.9195E+00
      2.078  0.5739E+00  0.9739E+00
      2.173  0.5159E+00  0.1023E+01
      2.267  0.7912E+00  0.1098E+01
      2.362  0.1220E+01  0.1213E+01
      2.457  0.1104E+01  0.1318E+01
      2.552  0.7668E+00  0.1391E+01
      2.646  0.5911E+00  0.1447E+01
      2.741  0.1629E+01  0.1601E+01
      2.836  0.1400E+01  0.1733E+01
      2.931  0.1134E+01  0.1841E+01
      3.025  0.6648E+00  0.1904E+01
      3.120  0.6613E+00  0.1967E+01
      3.215  0.9026E+00  0.2052E+01
      3.309  0.4800E+00  0.2098E+01
      3.404  0.3035E+00  0.2126E+01
      3.499  0.3466E+00  0.2159E+01
      3.594  0.5456E+00  0.2211E+01
      3.688  0.2821E+00  0.2238E+01
      3.783  0.3785E+00  0.2273E+01
      3.878  0.1228E+01  0.2390E+01
      3.973  0.1543E+01  0.2536E+01
      4.067  0.2604E+01  0.2783E+01
      4.162  0.1876E+01  0.2960E+01
      4.257  0.1926E+01  0.3143E+01
      4.352  0.1901E+01  0.3323E+01
      4.446  0.1304E+01  0.3446E+01
      4.541  0.1235E+01  0.3563E+01
      4.636  0.1312E+01  0.3688E+01
      4.731  0.1042E+01  0.3786E+01
      4.825  0.1240E+01  0.3904E+01
      4.920  0.1501E+01  0.4046E+01
      5.015  0.1365E+01  0.4175E+01
      5.110  0.1740E+01  0.4340E+01
      5.204  0.1879E+01  0.4518E+01
      5.299  0.1819E+01  0.4690E+01
      5.394  0.1733E+01  0.4855E+01
      5.488  0.1432E+01  0.4990E+01
      5.583  0.1384E+01  0.5121E+01
      5.678  0.1264E+01  0.5241E+01
      5.773  0.1209E+01  0.5356E+01
      5.867  0.8949E+00  0.5440E+01
      5.962  0.8862E+00  0.5524E+01
      6.057  0.5359E+00  0.5575E+01
      6.152  0.3960E+00  0.5613E+01
      6.246  0.3426E+00  0.5645E+01
      6.341  0.5015E+00  0.5693E+01
      6.436  0.4650E+00  0.5737E+01
      6.531  0.2512E+00  0.5760E+01
      6.625  0.3035E+00  0.5789E+01
      6.720  0.2593E+00  0.5814E+01
      6.815  0.6290E+00  0.5873E+01
      6.910  0.4888E+00  0.5920E+01
      7.004  0.5383E+00  0.5971E+01
      7.099  0.5100E+00  0.6019E+01
      7.194  0.3471E+00  0.6052E+01
      7.289  0.1613E+00  0.6067E+01
      7.383  0.5186E+00  0.6116E+01
      7.478  0.9342E+00  0.6205E+01
      7.573  0.9946E+00  0.6299E+01
      7.668  0.5207E+00  0.6348E+01
      7.762  0.5364E+00  0.6399E+01
      7.857  0.6425E+00  0.6460E+01
      7.952  0.1080E+01  0.6562E+01
      8.046  0.9449E+00  0.6652E+01
      8.141  0.7939E+00  0.6727E+01
      8.236  0.9003E+00  0.6812E+01
      8.331  0.1115E+01  0.6918E+01
      8.425  0.1358E+01  0.7047E+01
      8.520  0.1062E+01  0.7147E+01
      8.615  0.8943E+00  0.7232E+01
      8.710  0.1090E+01  0.7335E+01
      8.804  0.9545E+00  0.7426E+01
      8.899  0.1150E+01  0.7535E+01
      8.994  0.1072E+01  0.7636E+01
      9.089  0.1239E+01  0.7754E+01
      9.183  0.1332E+01  0.7880E+01
      9.278  0.1865E+01  0.8057E+01
      9.373  0.1633E+01  0.8211E+01
      9.468  0.1182E+01  0.8323E+01
      9.562  0.1231E+01  0.8440E+01
      9.657  0.1026E+01  0.8537E+01
      9.752  0.1455E+01  0.8675E+01
      9.847  0.1975E+01  0.8862E+01
      9.941  0.3214E+01  0.9167E+01
     10.036  0.3557E+01  0.9504E+01
     10.131  0.1417E+01  0.9638E+01
     10.225  0.1156E+01  0.9747E+01
     10.320  0.8531E+00  0.9828E+01
     10.415  0.1378E+01  0.9959E+01
     10.510  0.9314E+00  0.1005E+02
     10.604  0.1452E+01  0.1018E+02
     10.699  0.7673E+00  0.1026E+02
     10.794  0.6080E+00  0.1032E+02
     10.889  0.3732E+00  0.1035E+02
     10.983  0.1678E+00  0.1037E+02
     11.078  0.3272E+00  0.1040E+02
     11.173  0.5279E+00  0.1045E+02
     11.268  0.2424E+00  0.1047E+02
     11.362  0.2757E+00  0.1050E+02
     11.457  0.4510E+00  0.1054E+02
     11.552  0.8539E+00  0.1062E+02
     11.647  0.1108E+01  0.1072E+02
     11.741  0.5434E+00  0.1078E+02
     11.836  0.4674E+00  0.1082E+02
     11.931  0.5427E+00  0.1087E+02
     12.026  0.3071E+00  0.1090E+02
     12.120  0.1290E+00  0.1091E+02
     12.215  0.1407E+00  0.1093E+02
     12.310  0.1564E+00  0.1094E+02
     12.404  0.9944E-01  0.1095E+02
     12.499  0.4358E+00  0.1099E+02
     12.594  0.4412E+00  0.1103E+02
     12.689  0.3678E+00  0.1107E+02
     12.783  0.3659E+00  0.1110E+02
     12.878  0.7062E+00  0.1117E+02
     12.973  0.3959E+00  0.1121E+02
     13.068  0.1535E+00  0.1122E+02
     13.162  0.3441E+00  0.1126E+02
     13.257  0.3205E+00  0.1129E+02
     13.352  0.2037E+00  0.1130E+02
     13.447  0.3007E+00  0.1133E+02
     13.541  0.3210E+00  0.1136E+02
     13.636  0.2321E+00  0.1139E+02
     13.731  0.2886E+00  0.1141E+02
     13.826  0.3292E+00  0.1144E+02
     13.920  0.2389E+00  0.1147E+02
     14.015  0.4695E+00  0.1151E+02
     14.110  0.4912E+00  0.1156E+02
     14.205  0.1974E+00  0.1158E+02
     14.299  0.3123E+00  0.1161E+02
     14.394  0.4516E+00  0.1165E+02
     14.489  0.2990E+00  0.1168E+02
     14.583  0.2391E+00  0.1170E+02
     14.678  0.4413E+00  0.1174E+02
     14.773  0.2252E+00  0.1176E+02
     14.868  0.3273E+00  0.1179E+02
     14.962  0.1662E+00  0.1181E+02
     15.057  0.6486E+00  0.1187E+02
     15.152  0.4752E+00  0.1192E+02
     15.247  0.3346E+00  0.1195E+02
     15.341  0.2538E+00  0.1197E+02
     15.436  0.1212E+00  0.1198E+02
     15.531  0.1277E+00  0.1200E+02
     15.626  0.1801E+00  0.1201E+02
     15.720  0.4410E+00  0.1205E+02
     15.815  0.7821E+00  0.1213E+02
     15.910  0.3976E+00  0.1217E+02
     16.005  0.2364E+00  0.1219E+02
     16.099  0.2977E+00  0.1222E+02
     16.194  0.1846E+00  0.1223E+02
     16.289  0.2101E+00  0.1225E+02
     16.384  0.3166E+00  0.1228E+02
     16.478  0.5219E+00  0.1233E+02
     16.573  0.4258E+00  0.1237E+02
     16.668  0.7391E+00  0.1244E+02
     16.762  0.1024E+01  0.1254E+02
     16.857  0.8326E+00  0.1262E+02
     16.952  0.3691E+00  0.1265E+02
     17.047  0.2561E+00  0.1268E+02
     17.141  0.2069E+00  0.1270E+02
     17.236  0.1096E+00  0.1271E+02
     17.331  0.2272E+00  0.1273E+02
     17.426  0.6841E+00  0.1280E+02
     17.520  0.3205E+00  0.1283E+02
     17.615  0.2190E+00  0.1285E+02
     17.710  0.3223E+00  0.1288E+02
     17.805  0.2342E+00  0.1290E+02
     17.899  0.4454E+00  0.1294E+02
     17.994  0.5570E+00  0.1299E+02
     18.089  0.2980E+00  0.1302E+02
     18.184  0.9870E-01  0.1303E+02
     18.278  0.1869E+00  0.1305E+02
     18.373  0.1487E+00  0.1306E+02
     18.468  0.2771E+00  0.1309E+02
     18.563  0.3126E+00  0.1312E+02
     18.657  0.7087E-01  0.1313E+02
     18.752  0.2317E+00  0.1315E+02
     18.847  0.1428E+00  0.1316E+02
     18.942  0.2235E+00  0.1318E+02
     19.036  0.2219E+00  0.1320E+02
     19.131  0.4872E+00  0.1325E+02
     19.226  0.2453E+00  0.1327E+02
     19.320  0.3020E+00  0.1330E+02
     19.415  0.1662E+00  0.1332E+02
     19.510  0.7615E-01  0.1332E+02
     19.605  0.9409E-01  0.1333E+02
     19.699  0.3491E+00  0.1337E+02
     19.794  0.9057E-01  0.1338E+02
     19.889  0.6984E-01  0.1338E+02
     19.984  0.4206E+00  0.1342E+02
     20.078  0.2151E+00  0.1344E+02
     20.173  0.1003E+00  0.1345E+02
     20.268  0.1920E+00  0.1347E+02
     20.363  0.2450E+00  0.1349E+02
     20.457  0.3011E+00  0.1352E+02
     20.552  0.8104E-01  0.1353E+02
     20.647  0.4271E-01  0.1353E+02
     20.742  0.4250E+00  0.1357E+02
     20.836  0.2037E+00  0.1359E+02
     20.931  0.2709E+00  0.1362E+02
     21.026  0.9580E-01  0.1363E+02
     21.121  0.3490E-01  0.1363E+02
     21.215  0.7252E-01  0.1364E+02
     21.310  0.4209E+00  0.1368E+02
     21.405  0.1908E+00  0.1370E+02
     21.499  0.1254E+00  0.1371E+02
     21.594  0.1006E+00  0.1372E+02
     21.689  0.9626E-01  0.1373E+02
     21.784  0.1543E+00  0.1374E+02
     21.878  0.1187E+00  0.1375E+02
     21.973  0.8489E-01  0.1376E+02
     22.068  0.1060E+00  0.1377E+02
     22.163  0.6755E-01  0.1378E+02
     22.257  0.1972E+00  0.1380E+02
     22.352  0.1430E+00  0.1381E+02
     22.447  0.1726E+00  0.1383E+02
     22.542  0.1521E+00  0.1384E+02
     22.636  0.1348E+00  0.1385E+02
     22.731  0.2739E+00  0.1388E+02
     22.826  0.3491E+00  0.1391E+02
     22.921  0.2125E+00  0.1393E+02
     23.015  0.1317E+00  0.1394E+02
     23.110  0.3467E-01  0.1395E+02
     23.205  0.1808E+00  0.1396E+02
     23.300  0.1614E+00  0.1398E+02
     23.394  0.9584E-01  0.1399E+02
     23.489  0.2372E-01  0.1399E+02
     23.584  0.5595E-03  0.1399E+02
     23.678  0.2601E-01  0.1399E+02
     23.773  0.6254E-01  0.1400E+02
     23.868  0.3261E-02  0.1400E+02
     23.963  0.4287E-06  0.1400E+02
     24.057  0.5954E-13  0.1400E+02
     24.152  0.0000E+00  0.1400E+02
     24.247  0.0000E+00  0.1400E+02
     24.342  0.0000E+00  0.1400E+02
     24.436  0.0000E+00  0.1400E+02
     24.531  0.0000E+00  0.1400E+02
     24.626  0.0000E+00  0.1400E+02
     24.721  0.0000E+00  0.1400E+02
     24.815  0.0000E+00  0.1400E+02
     24.910  0.0000E+00  0.1400E+02
     25.005  0.0000E+00  0.1400E+02
