<?xml version="1.0" encoding="ISO-8859-1"?>
<modeling>
 <generator>
  <i name="program" type="string">vasp </i>
  <i name="version" type="string">6.4.2  </i>
  <i name="subversion" type="string">20Jul23 (build Mar  2 2025 11:04:54) complex                          parallel </i>
  <i name="platform" type="string">LinuxNV </i>
  <i name="date" type="string">2026 04 11 </i>
  <i name="time" type="string">15:44:58 </i>
 </generator>
 <incar>
  <i type="string" name="SYSTEM">static single-point for EOS</i>
  <i type="string" name="PREC">Accurate</i>
  <i type="int" name="IBRION">    -1</i>
  <i name="EDIFF">      0.00000100</i>
  <i type="int" name="NSW">     0</i>
  <i type="int" name="ISIF">     2</i>
  <i name="ENCUT">    450.00000000</i>
  <i type="int" name="ISMEAR">     0</i>
  <i name="SIGMA">      0.05000000</i>
  <i name="KSPACING">      0.15000000</i>
  <i type="logical" name="KGAMMA"> T  </i>
  <i type="logical" name="LWAVE"> F  </i>
  <i type="logical" name="LCHARG"> F  </i>
 </incar>
 <primitive_cell>
  <structure name="primitive_cell" >
   <crystal>
    <varray name="basis" >
     <v>       2.64032242       0.00000000      -0.93349604 </v>
     <v>      -1.32016120       2.28658640      -0.93349604 </v>
     <v>      -0.00000000      -0.00000001       2.80048608 </v>
    </varray>
    <i name="volume">     16.90744551 </i>
    <varray name="rec_basis" >
     <v>       0.37874162       0.21866657       0.00000000 </v>
     <v>       0.00000000       0.43733314       0.00000000 </v>
     <v>       0.12624730       0.21866673       0.35708087 </v>
    </varray>
   </crystal>
   <varray name="positions" >
    <v>       0.00000000       0.00000000       0.00000000 </v>
   </varray>
  </structure>
  <varray name="primitive_index" >
   <v type="int" >        1 </v>
  </varray>
 </primitive_cell>
 <kpoints>
  <generation param="Gamma">
   <v type="int" name="divisions">      19       19       19 </v>
   <v name="usershift">      0.00000000       0.00000000       0.00000000 </v>
   <v name="genvec1">      0.05263158       0.00000000      -0.00000000 </v>
   <v name="genvec2">     -0.00000000       0.05263158      -0.00000000 </v>
   <v name="genvec3">     -0.00000000      -0.00000000       0.05263158 </v>
   <v name="shift">      0.00000000       0.00000000       0.00000000 </v>
  </generation>
  <varray name="kpointlist" >
   <v>       0.00000000       0.00000000       0.00000000 </v>
   <v>       0.05263158       0.00000000       0.00000000 </v>
   <v>       0.10526316       0.00000000       0.00000000 </v>
   <v>       0.15789474       0.00000000       0.00000000 </v>
   <v>       0.21052632       0.00000000       0.00000000 </v>
   <v>       0.26315789       0.00000000       0.00000000 </v>
   <v>       0.31578947       0.00000000       0.00000000 </v>
   <v>       0.36842105       0.00000000       0.00000000 </v>
   <v>       0.42105263       0.00000000       0.00000000 </v>
   <v>       0.47368421       0.00000000       0.00000000 </v>
   <v>       0.05263158       0.05263158       0.00000000 </v>
   <v>       0.10526316       0.05263158       0.00000000 </v>
   <v>       0.15789474       0.05263158       0.00000000 </v>
   <v>       0.21052632       0.05263158       0.00000000 </v>
   <v>       0.26315789       0.05263158       0.00000000 </v>
   <v>       0.31578947       0.05263158       0.00000000 </v>
   <v>       0.36842105       0.05263158       0.00000000 </v>
   <v>       0.42105263       0.05263158       0.00000000 </v>
   <v>       0.47368421       0.05263158       0.00000000 </v>
   <v>       0.10526316       0.10526316       0.00000000 </v>
   <v>       0.15789474       0.10526316       0.00000000 </v>
   <v>       0.21052632       0.10526316       0.00000000 </v>
   <v>       0.26315789       0.10526316       0.00000000 </v>
   <v>       0.31578947       0.10526316       0.00000000 </v>
   <v>       0.36842105       0.10526316       0.00000000 </v>
   <v>       0.42105263       0.10526316       0.00000000 </v>
   <v>       0.15789474       0.15789474       0.00000000 </v>
   <v>       0.21052632       0.15789474       0.00000000 </v>
   <v>       0.26315789       0.15789474       0.00000000 </v>
   <v>       0.31578947       0.15789474       0.00000000 </v>
   <v>       0.36842105       0.15789474       0.00000000 </v>
   <v>       0.42105263       0.15789474       0.00000000 </v>
   <v>       0.21052632       0.21052632       0.00000000 </v>
   <v>       0.26315789       0.21052632       0.00000000 </v>
   <v>       0.31578947       0.21052632       0.00000000 </v>
   <v>       0.36842105       0.21052632       0.00000000 </v>
   <v>       0.26315789       0.26315789       0.00000000 </v>
   <v>       0.31578947       0.26315789       0.00000000 </v>
   <v>       0.36842105       0.26315789       0.00000000 </v>
   <v>       0.31578947       0.31578947       0.00000000 </v>
   <v>       0.05263158       0.05263158       0.05263158 </v>
   <v>       0.10526316       0.05263158       0.05263158 </v>
   <v>       0.15789474       0.05263158       0.05263158 </v>
   <v>       0.21052632       0.05263158       0.05263158 </v>
   <v>       0.26315789       0.05263158       0.05263158 </v>
   <v>       0.31578947       0.05263158       0.05263158 </v>
   <v>       0.36842105       0.05263158       0.05263158 </v>
   <v>       0.42105263       0.05263158       0.05263158 </v>
   <v>      -0.05263158       0.05263158       0.05263158 </v>
   <v>       0.10526316       0.10526316       0.05263158 </v>
   <v>       0.15789474       0.10526316       0.05263158 </v>
   <v>       0.21052632       0.10526316       0.05263158 </v>
   <v>       0.26315789       0.10526316       0.05263158 </v>
   <v>       0.31578947       0.10526316       0.05263158 </v>
   <v>       0.36842105       0.10526316       0.05263158 </v>
   <v>       0.42105263       0.10526316       0.05263158 </v>
   <v>      -0.10526316       0.10526316       0.05263158 </v>
   <v>       0.15789474       0.15789474       0.05263158 </v>
   <v>       0.21052632       0.15789474       0.05263158 </v>
   <v>       0.26315789       0.15789474       0.05263158 </v>
   <v>       0.31578947       0.15789474       0.05263158 </v>
   <v>       0.36842105       0.15789474       0.05263158 </v>
   <v>      -0.15789474       0.15789474       0.05263158 </v>
   <v>      -0.10526316       0.15789474       0.05263158 </v>
   <v>       0.21052632       0.21052632       0.05263158 </v>
   <v>       0.26315789       0.21052632       0.05263158 </v>
   <v>       0.31578947       0.21052632       0.05263158 </v>
   <v>       0.36842105       0.21052632       0.05263158 </v>
   <v>      -0.21052632       0.21052632       0.05263158 </v>
   <v>      -0.15789474       0.21052632       0.05263158 </v>
   <v>       0.26315789       0.26315789       0.05263158 </v>
   <v>       0.31578947       0.26315789       0.05263158 </v>
   <v>      -0.26315789       0.26315789       0.05263158 </v>
   <v>      -0.21052632       0.26315789       0.05263158 </v>
   <v>      -0.15789474       0.26315789       0.05263158 </v>
   <v>       0.31578947       0.31578947       0.05263158 </v>
   <v>      -0.31578947       0.31578947       0.05263158 </v>
   <v>      -0.26315789       0.31578947       0.05263158 </v>
   <v>      -0.21052632       0.31578947       0.05263158 </v>
   <v>      -0.36842105       0.36842105       0.05263158 </v>
   <v>      -0.31578947       0.36842105       0.05263158 </v>
   <v>      -0.26315789       0.36842105       0.05263158 </v>
   <v>      -0.21052632       0.36842105       0.05263158 </v>
   <v>      -0.42105263       0.42105263       0.05263158 </v>
   <v>      -0.36842105       0.42105263       0.05263158 </v>
   <v>      -0.31578947       0.42105263       0.05263158 </v>
   <v>      -0.26315789       0.42105263       0.05263158 </v>
   <v>      -0.47368421       0.47368421       0.05263158 </v>
   <v>      -0.42105263       0.47368421       0.05263158 </v>
   <v>      -0.36842105       0.47368421       0.05263158 </v>
   <v>      -0.31578947       0.47368421       0.05263158 </v>
   <v>      -0.26315789       0.47368421       0.05263158 </v>
   <v>      -0.47368421      -0.47368421       0.05263158 </v>
   <v>      -0.42105263      -0.47368421       0.05263158 </v>
   <v>      -0.36842105      -0.47368421       0.05263158 </v>
   <v>      -0.31578947      -0.47368421       0.05263158 </v>
   <v>      -0.42105263      -0.42105263       0.05263158 </v>
   <v>      -0.36842105      -0.42105263       0.05263158 </v>
   <v>      -0.31578947      -0.42105263       0.05263158 </v>
   <v>      -0.36842105      -0.36842105       0.05263158 </v>
   <v>       0.10526316       0.10526316       0.10526316 </v>
   <v>       0.15789474       0.10526316       0.10526316 </v>
   <v>       0.21052632       0.10526316       0.10526316 </v>
   <v>       0.26315789       0.10526316       0.10526316 </v>
   <v>       0.31578947       0.10526316       0.10526316 </v>
   <v>       0.36842105       0.10526316       0.10526316 </v>
   <v>      -0.10526316       0.10526316       0.10526316 </v>
   <v>       0.15789474       0.15789474       0.10526316 </v>
   <v>       0.21052632       0.15789474       0.10526316 </v>
   <v>       0.26315789       0.15789474       0.10526316 </v>
   <v>       0.31578947       0.15789474       0.10526316 </v>
   <v>       0.36842105       0.15789474       0.10526316 </v>
   <v>      -0.15789474       0.15789474       0.10526316 </v>
   <v>       0.21052632       0.21052632       0.10526316 </v>
   <v>       0.26315789       0.21052632       0.10526316 </v>
   <v>       0.31578947       0.21052632       0.10526316 </v>
   <v>      -0.21052632       0.21052632       0.10526316 </v>
   <v>      -0.15789474       0.21052632       0.10526316 </v>
   <v>       0.26315789       0.26315789       0.10526316 </v>
   <v>       0.31578947       0.26315789       0.10526316 </v>
   <v>      -0.26315789       0.26315789       0.10526316 </v>
   <v>      -0.21052632       0.26315789       0.10526316 </v>
   <v>      -0.31578947       0.31578947       0.10526316 </v>
   <v>      -0.26315789       0.31578947       0.10526316 </v>
   <v>      -0.21052632       0.31578947       0.10526316 </v>
   <v>      -0.36842105       0.36842105       0.10526316 </v>
   <v>      -0.31578947       0.36842105       0.10526316 </v>
   <v>      -0.26315789       0.36842105       0.10526316 </v>
   <v>      -0.42105263       0.42105263       0.10526316 </v>
   <v>      -0.36842105       0.42105263       0.10526316 </v>
   <v>      -0.31578947       0.42105263       0.10526316 </v>
   <v>      -0.26315789       0.42105263       0.10526316 </v>
   <v>      -0.47368421       0.47368421       0.10526316 </v>
   <v>      -0.42105263       0.47368421       0.10526316 </v>
   <v>      -0.36842105       0.47368421       0.10526316 </v>
   <v>      -0.31578947       0.47368421       0.10526316 </v>
   <v>      -0.47368421      -0.47368421       0.10526316 </v>
   <v>      -0.42105263      -0.47368421       0.10526316 </v>
   <v>      -0.36842105      -0.47368421       0.10526316 </v>
   <v>      -0.31578947      -0.47368421       0.10526316 </v>
   <v>      -0.42105263      -0.42105263       0.10526316 </v>
   <v>      -0.36842105      -0.42105263       0.10526316 </v>
   <v>      -0.36842105      -0.36842105       0.10526316 </v>
   <v>       0.15789474       0.15789474       0.15789474 </v>
   <v>       0.21052632       0.15789474       0.15789474 </v>
   <v>       0.26315789       0.15789474       0.15789474 </v>
   <v>       0.31578947       0.15789474       0.15789474 </v>
   <v>      -0.15789474       0.15789474       0.15789474 </v>
   <v>       0.21052632       0.21052632       0.15789474 </v>
   <v>       0.26315789       0.21052632       0.15789474 </v>
   <v>       0.31578947       0.21052632       0.15789474 </v>
   <v>      -0.21052632       0.21052632       0.15789474 </v>
   <v>       0.26315789       0.26315789       0.15789474 </v>
   <v>      -0.26315789       0.26315789       0.15789474 </v>
   <v>      -0.21052632       0.26315789       0.15789474 </v>
   <v>      -0.31578947       0.31578947       0.15789474 </v>
   <v>      -0.26315789       0.31578947       0.15789474 </v>
   <v>      -0.36842105       0.36842105       0.15789474 </v>
   <v>      -0.31578947       0.36842105       0.15789474 </v>
   <v>      -0.26315789       0.36842105       0.15789474 </v>
   <v>      -0.42105263       0.42105263       0.15789474 </v>
   <v>      -0.36842105       0.42105263       0.15789474 </v>
   <v>      -0.31578947       0.42105263       0.15789474 </v>
   <v>      -0.47368421       0.47368421       0.15789474 </v>
   <v>      -0.42105263       0.47368421       0.15789474 </v>
   <v>      -0.36842105       0.47368421       0.15789474 </v>
   <v>      -0.31578947       0.47368421       0.15789474 </v>
   <v>      -0.47368421      -0.47368421       0.15789474 </v>
   <v>      -0.42105263      -0.47368421       0.15789474 </v>
   <v>      -0.36842105      -0.47368421       0.15789474 </v>
   <v>      -0.42105263      -0.42105263       0.15789474 </v>
   <v>      -0.36842105      -0.42105263       0.15789474 </v>
   <v>       0.21052632       0.21052632       0.21052632 </v>
   <v>       0.26315789       0.21052632       0.21052632 </v>
   <v>      -0.21052632       0.21052632       0.21052632 </v>
   <v>       0.26315789       0.26315789       0.21052632 </v>
   <v>      -0.26315789       0.26315789       0.21052632 </v>
   <v>      -0.31578947       0.31578947       0.21052632 </v>
   <v>      -0.26315789       0.31578947       0.21052632 </v>
   <v>      -0.36842105       0.36842105       0.21052632 </v>
   <v>      -0.31578947       0.36842105       0.21052632 </v>
   <v>      -0.42105263       0.42105263       0.21052632 </v>
   <v>      -0.36842105       0.42105263       0.21052632 </v>
   <v>      -0.31578947       0.42105263       0.21052632 </v>
   <v>      -0.47368421       0.47368421       0.21052632 </v>
   <v>      -0.42105263       0.47368421       0.21052632 </v>
   <v>      -0.36842105       0.47368421       0.21052632 </v>
   <v>      -0.47368421      -0.47368421       0.21052632 </v>
   <v>      -0.42105263      -0.47368421       0.21052632 </v>
   <v>      -0.36842105      -0.47368421       0.21052632 </v>
   <v>      -0.42105263      -0.42105263       0.21052632 </v>
   <v>      -0.26315789       0.26315789       0.26315789 </v>
   <v>      -0.31578947       0.31578947       0.26315789 </v>
   <v>      -0.36842105       0.36842105       0.26315789 </v>
   <v>      -0.31578947       0.36842105       0.26315789 </v>
   <v>      -0.42105263       0.42105263       0.26315789 </v>
   <v>      -0.36842105       0.42105263       0.26315789 </v>
   <v>      -0.47368421       0.47368421       0.26315789 </v>
   <v>      -0.42105263       0.47368421       0.26315789 </v>
   <v>      -0.36842105       0.47368421       0.26315789 </v>
   <v>      -0.47368421      -0.47368421       0.26315789 </v>
   <v>      -0.42105263      -0.47368421       0.26315789 </v>
   <v>      -0.42105263      -0.42105263       0.26315789 </v>
   <v>      -0.31578947       0.31578947       0.31578947 </v>
   <v>      -0.36842105       0.36842105       0.31578947 </v>
   <v>      -0.42105263       0.42105263       0.31578947 </v>
   <v>      -0.36842105       0.42105263       0.31578947 </v>
   <v>      -0.47368421       0.47368421       0.31578947 </v>
   <v>      -0.42105263       0.47368421       0.31578947 </v>
   <v>      -0.47368421      -0.47368421       0.31578947 </v>
   <v>      -0.42105263      -0.47368421       0.31578947 </v>
   <v>      -0.36842105       0.36842105       0.36842105 </v>
   <v>      -0.42105263       0.42105263       0.36842105 </v>
   <v>      -0.47368421       0.47368421       0.36842105 </v>
   <v>      -0.42105263       0.47368421       0.36842105 </v>
   <v>      -0.47368421      -0.47368421       0.36842105 </v>
   <v>      -0.42105263       0.42105263       0.42105263 </v>
   <v>      -0.47368421       0.47368421       0.42105263 </v>
   <v>      -0.47368421      -0.47368421       0.42105263 </v>
   <v>      -0.47368421       0.47368421       0.47368421 </v>
  </varray>
  <varray name="weights" >
   <v>       0.00014579 </v>
   <v>       0.00174953 </v>
   <v>       0.00174953 </v>
   <v>       0.00174953 </v>
   <v>       0.00174953 </v>
   <v>       0.00174953 </v>
   <v>       0.00174953 </v>
   <v>       0.00174953 </v>
   <v>       0.00174953 </v>
   <v>       0.00174953 </v>
   <v>       0.00349905 </v>
   <v>       0.00699810 </v>
   <v>       0.00699810 </v>
   <v>       0.00699810 </v>
   <v>       0.00699810 </v>
   <v>       0.00699810 </v>
   <v>       0.00699810 </v>
   <v>       0.00699810 </v>
   <v>       0.00349905 </v>
   <v>       0.00349905 </v>
   <v>       0.00699810 </v>
   <v>       0.00699810 </v>
   <v>       0.00699810 </v>
   <v>       0.00699810 </v>
   <v>       0.00699810 </v>
   <v>       0.00699810 </v>
   <v>       0.00349905 </v>
   <v>       0.00699810 </v>
   <v>       0.00699810 </v>
   <v>       0.00699810 </v>
   <v>       0.00699810 </v>
   <v>       0.00349905 </v>
   <v>       0.00349905 </v>
   <v>       0.00699810 </v>
   <v>       0.00699810 </v>
   <v>       0.00699810 </v>
   <v>       0.00349905 </v>
   <v>       0.00699810 </v>
   <v>       0.00349905 </v>
   <v>       0.00349905 </v>
   <v>       0.00116635 </v>
   <v>       0.00349905 </v>
   <v>       0.00349905 </v>
   <v>       0.00349905 </v>
   <v>       0.00349905 </v>
   <v>       0.00349905 </v>
   <v>       0.00349905 </v>
   <v>       0.00349905 </v>
   <v>       0.00087476 </v>
   <v>       0.00349905 </v>
   <v>       0.00699810 </v>
   <v>       0.00699810 </v>
   <v>       0.00699810 </v>
   <v>       0.00699810 </v>
   <v>       0.00699810 </v>
   <v>       0.00349905 </v>
   <v>       0.00349905 </v>
   <v>       0.00349905 </v>
   <v>       0.00699810 </v>
   <v>       0.00699810 </v>
   <v>       0.00699810 </v>
   <v>       0.00699810 </v>
   <v>       0.00349905 </v>
   <v>       0.00349905 </v>
   <v>       0.00349905 </v>
   <v>       0.00699810 </v>
   <v>       0.00699810 </v>
   <v>       0.00349905 </v>
   <v>       0.00349905 </v>
   <v>       0.00699810 </v>
   <v>       0.00349905 </v>
   <v>       0.00699810 </v>
   <v>       0.00349905 </v>
   <v>       0.00699810 </v>
   <v>       0.00349905 </v>
   <v>       0.00116635 </v>
   <v>       0.00349905 </v>
   <v>       0.00699810 </v>
   <v>       0.00699810 </v>
   <v>       0.00349905 </v>
   <v>       0.00699810 </v>
   <v>       0.00699810 </v>
   <v>       0.00349905 </v>
   <v>       0.00349905 </v>
   <v>       0.00699810 </v>
   <v>       0.00699810 </v>
   <v>       0.00699810 </v>
   <v>       0.00349905 </v>
   <v>       0.00699810 </v>
   <v>       0.00699810 </v>
   <v>       0.00699810 </v>
   <v>       0.00349905 </v>
   <v>       0.00349905 </v>
   <v>       0.00699810 </v>
   <v>       0.00699810 </v>
   <v>       0.00699810 </v>
   <v>       0.00349905 </v>
   <v>       0.00699810 </v>
   <v>       0.00349905 </v>
   <v>       0.00349905 </v>
   <v>       0.00116635 </v>
   <v>       0.00349905 </v>
   <v>       0.00349905 </v>
   <v>       0.00349905 </v>
   <v>       0.00349905 </v>
   <v>       0.00349905 </v>
   <v>       0.00087476 </v>
   <v>       0.00349905 </v>
   <v>       0.00699810 </v>
   <v>       0.00699810 </v>
   <v>       0.00699810 </v>
   <v>       0.00349905 </v>
   <v>       0.00349905 </v>
   <v>       0.00349905 </v>
   <v>       0.00699810 </v>
   <v>       0.00699810 </v>
   <v>       0.00349905 </v>
   <v>       0.00349905 </v>
   <v>       0.00349905 </v>
   <v>       0.00349905 </v>
   <v>       0.00349905 </v>
   <v>       0.00699810 </v>
   <v>       0.00349905 </v>
   <v>       0.00699810 </v>
   <v>       0.00349905 </v>
   <v>       0.00349905 </v>
   <v>       0.00699810 </v>
   <v>       0.00699810 </v>
   <v>       0.00349905 </v>
   <v>       0.00699810 </v>
   <v>       0.00699810 </v>
   <v>       0.00349905 </v>
   <v>       0.00349905 </v>
   <v>       0.00699810 </v>
   <v>       0.00699810 </v>
   <v>       0.00699810 </v>
   <v>       0.00349905 </v>
   <v>       0.00699810 </v>
   <v>       0.00699810 </v>
   <v>       0.00349905 </v>
   <v>       0.00349905 </v>
   <v>       0.00699810 </v>
   <v>       0.00116635 </v>
   <v>       0.00116635 </v>
   <v>       0.00349905 </v>
   <v>       0.00349905 </v>
   <v>       0.00349905 </v>
   <v>       0.00087476 </v>
   <v>       0.00349905 </v>
   <v>       0.00699810 </v>
   <v>       0.00349905 </v>
   <v>       0.00349905 </v>
   <v>       0.00349905 </v>
   <v>       0.00349905 </v>
   <v>       0.00349905 </v>
   <v>       0.00349905 </v>
   <v>       0.00699810 </v>
   <v>       0.00349905 </v>
   <v>       0.00699810 </v>
   <v>       0.00349905 </v>
   <v>       0.00349905 </v>
   <v>       0.00699810 </v>
   <v>       0.00699810 </v>
   <v>       0.00349905 </v>
   <v>       0.00699810 </v>
   <v>       0.00699810 </v>
   <v>       0.00349905 </v>
   <v>       0.00349905 </v>
   <v>       0.00699810 </v>
   <v>       0.00699810 </v>
   <v>       0.00349905 </v>
   <v>       0.00349905 </v>
   <v>       0.00116635 </v>
   <v>       0.00349905 </v>
   <v>       0.00087476 </v>
   <v>       0.00116635 </v>
   <v>       0.00349905 </v>
   <v>       0.00349905 </v>
   <v>       0.00349905 </v>
   <v>       0.00349905 </v>
   <v>       0.00699810 </v>
   <v>       0.00349905 </v>
   <v>       0.00699810 </v>
   <v>       0.00349905 </v>
   <v>       0.00349905 </v>
   <v>       0.00699810 </v>
   <v>       0.00699810 </v>
   <v>       0.00349905 </v>
   <v>       0.00699810 </v>
   <v>       0.00349905 </v>
   <v>       0.00349905 </v>
   <v>       0.00087476 </v>
   <v>       0.00349905 </v>
   <v>       0.00349905 </v>
   <v>       0.00349905 </v>
   <v>       0.00349905 </v>
   <v>       0.00699810 </v>
   <v>       0.00349905 </v>
   <v>       0.00699810 </v>
   <v>       0.00349905 </v>
   <v>       0.00349905 </v>
   <v>       0.00699810 </v>
   <v>       0.00116635 </v>
   <v>       0.00087476 </v>
   <v>       0.00349905 </v>
   <v>       0.00349905 </v>
   <v>       0.00349905 </v>
   <v>       0.00349905 </v>
   <v>       0.00699810 </v>
   <v>       0.00349905 </v>
   <v>       0.00349905 </v>
   <v>       0.00087476 </v>
   <v>       0.00349905 </v>
   <v>       0.00349905 </v>
   <v>       0.00349905 </v>
   <v>       0.00349905 </v>
   <v>       0.00087476 </v>
   <v>       0.00349905 </v>
   <v>       0.00116635 </v>
   <v>       0.00087476 </v>
  </varray>
 </kpoints>
 <parameters>
  <separator name="general" >
   <i type="string" name="SYSTEM">static single-point for EOS</i>
   <i type="logical" name="LCOMPAT"> F  </i>
  </separator>
  <separator name="electronic" >
   <i type="string" name="PREC">accura</i>
   <i name="ENMAX">    450.00000000</i>
   <i name="ENAUG">    373.43800000</i>
   <i name="EDIFF">      0.00000100</i>
   <i type="int" name="IALGO">    38</i>
   <i type="int" name="IWAVPR">    10</i>
   <i type="int" name="NBANDS">     7</i>
   <i type="int" name="NBANDSLOW">    -1</i>
   <i type="int" name="NBANDSHIGH">    -1</i>
   <i name="NELECT">      6.00000000</i>
   <i type="int" name="TURBO">     0</i>
   <i type="int" name="IRESTART">     0</i>
   <i type="int" name="NREBOOT">     0</i>
   <i type="int" name="NMIN">     0</i>
   <i name="EREF">      0.00000000</i>
   <separator name="electronic smearing" >
    <i type="int" name="ISMEAR">     0</i>
    <i name="SIGMA">      0.05000000</i>
    <i name="KSPACING">      0.15000000</i>
    <i type="logical" name="KGAMMA"> T  </i>
    <i type="logical" name="KBLOWUP"> T  </i>
   </separator>
   <separator name="electronic projectors" >
    <i type="logical" name="LREAL"> F  </i>
    <v name="ROPT">      0.00000000</v>
    <i type="int" name="LMAXPAW">  -100</i>
    <i type="int" name="LMAXMIX">     2</i>
    <i type="logical" name="NLSPLINE"> F  </i>
   </separator>
   <separator name="electronic startup" >
    <i type="int" name="ISTART">     0</i>
    <i type="int" name="ICHARG">     2</i>
    <i type="int" name="INIWAV">     1</i>
   </separator>
   <separator name="electronic spin" >
    <i type="int" name="ISPIN">     1</i>
    <i type="logical" name="LNONCOLLINEAR"> F  </i>
    <v name="MAGMOM">      1.00000000</v>
    <i name="NUPDOWN">     -1.00000000</i>
    <i type="logical" name="LSORBIT"> F  </i>
    <v name="SAXIS">      0.00000000      0.00000000      1.00000000</v>
    <i type="logical" name="LSPIRAL"> F  </i>
    <v name="QSPIRAL">      0.00000000      0.00000000      0.00000000</v>
    <i type="logical" name="LZEROZ"> F  </i>
   </separator>
   <separator name="electronic exchange-correlation" >
    <i type="logical" name="LASPH"> F  </i>
    <i type="logical" name="LMETAGGA"> F  </i>
   </separator>
   <separator name="electronic convergence" >
    <i type="int" name="NELM">    60</i>
    <i type="int" name="NELMDL">    -5</i>
    <i type="int" name="NELMIN">     2</i>
    <i name="ENINI">    450.00000000</i>
    <separator name="electronic convergence detail" >
     <i type="logical" name="LDIAG"> T  </i>
     <i type="logical" name="LSUBROT"> F  </i>
     <i name="WEIMIN">      0.00000000</i>
     <i name="EBREAK">      0.00000004</i>
     <i name="DEPER">      0.30000000</i>
     <i type="int" name="NRMM">     4</i>
     <i name="TIME">      0.40000000</i>
    </separator>
   </separator>
   <separator name="electronic mixer" >
    <i name="AMIX">      0.40000000</i>
    <i name="BMIX">      1.00000000</i>
    <i name="AMIN">      0.10000000</i>
    <i name="AMIX_MAG">      1.60000000</i>
    <i name="BMIX_MAG">      1.00000000</i>
    <separator name="electronic mixer details" >
     <i type="int" name="IMIX">     4</i>
     <i type="logical" name="MIXFIRST"> F  </i>
     <i type="int" name="MAXMIX">   -45</i>
     <i name="WC">    100.00000000</i>
     <i type="int" name="INIMIX">     1</i>
     <i type="int" name="MIXPRE">     1</i>
     <i type="int" name="MREMOVE">     5</i>
    </separator>
   </separator>
   <separator name="electronic dipolcorrection" >
    <i type="logical" name="LDIPOL"> F  </i>
    <i type="logical" name="LMONO"> F  </i>
    <i type="int" name="IDIPOL">     0</i>
    <i name="EPSILON">      1.00000000</i>
    <v name="DIPOL">   -100.00000000   -100.00000000   -100.00000000</v>
    <i name="EFIELD">      0.00000000</i>
   </separator>
  </separator>
  <separator name="grids" >
   <i type="int" name="NGX">    20</i>
   <i type="int" name="NGY">    20</i>
   <i type="int" name="NGZ">    20</i>
   <i type="int" name="NGXF">    40</i>
   <i type="int" name="NGYF">    40</i>
   <i type="int" name="NGZF">    40</i>
   <i type="logical" name="ADDGRID"> F  </i>
  </separator>
  <separator name="ionic" >
   <i type="int" name="NSW">     0</i>
   <i type="int" name="IBRION">    -1</i>
   <i type="int" name="MDALGO">     0</i>
   <i type="int" name="ISIF">     2</i>
   <i name="PSTRESS">      0.00000000</i>
   <i name="EDIFFG">      0.00001000</i>
   <i type="int" name="NFREE">     0</i>
   <i name="POTIM">      0.50000000</i>
   <i name="SMASS">     -3.00000000</i>
   <i name="SCALEE">      1.00000000</i>
  </separator>
  <separator name="ionic md" >
   <i name="TEBEG">      0.00010000</i>
   <i name="TEEND">      0.00010000</i>
   <i type="int" name="NBLOCK">     1</i>
   <i type="int" name="KBLOCK">     1</i>
   <i type="int" name="NPACO">   256</i>
   <i name="APACO">     10.00000000</i>
  </separator>
  <separator name="symmetry" >
   <i type="int" name="ISYM">     2</i>
   <i name="SYMPREC">      0.00001000</i>
  </separator>
  <separator name="dos" >
   <i type="int" name="LORBIT">     0</i>
   <v name="RWIGS">     -1.00000000</v>
   <i type="int" name="NEDOS">   301</i>
   <i name="EMIN">     10.00000000</i>
   <i name="EMAX">    -10.00000000</i>
   <i name="EFERMI">      0.00000000</i>
  </separator>
  <separator name="writing" >
   <i type="int" name="NWRITE">     2</i>
   <i type="logical" name="LWAVE"> F  </i>
   <i type="logical" name="LDOWNSAMPLE"> F  </i>
   <i type="logical" name="LCHARG"> F  </i>
   <i type="logical" name="LPARD"> F  </i>
   <i type="logical" name="LVTOT"> F  </i>
   <i type="logical" name="LVHAR"> F  </i>
   <i type="logical" name="LELF"> F  </i>
   <i type="logical" name="LOPTICS"> F  </i>
   <v name="STM">      0.00000000      0.00000000      0.00000000      0.00000000      0.00000000      0.00000000      0.00000000</v>
  </separator>
  <separator name="performance" >
   <i type="int" name="NPAR">     1</i>
   <i type="int" name="NSIM">     4</i>
   <i type="int" name="NBLK">    -1</i>
   <i type="logical" name="LPLANE"> T  </i>
   <i type="logical" name="LSCALAPACK"> T  </i>
   <i type="logical" name="LSCAAWARE"> F  </i>
   <i type="logical" name="LSCALU"> F  </i>
   <i type="logical" name="LASYNC"> F  </i>
   <i type="logical" name="LORBITALREAL"> F  </i>
  </separator>
  <separator name="miscellaneous" >
   <i type="int" name="IDIOT">     3</i>
   <i type="int" name="PHON_NSTRUCT">    -1</i>
   <i type="logical" name="LMUSIC"> F  </i>
   <v name="POMASS">    183.85000000</v>
   <v name="DARWINR">      0.00000000</v>
   <v name="DARWINV">      1.00000000</v>
   <i type="logical" name="LCORR"> T  </i>
  </separator>
  <i type="logical" name="GGA_COMPAT"> T  </i>
  <i type="logical" name="LBERRY"> F  </i>
  <i type="int" name="ICORELEVEL">     0</i>
  <i type="logical" name="LDAU"> F  </i>
  <i type="int" name="I_CONSTRAINED_M">     0</i>
  <separator name="electronic exchange-correlation" >
   <i type="string" name="GGA">--</i>
   <i type="int" name="VOSKOWN">     0</i>
   <i type="logical" name="LHFCALC"> F  </i>
   <i type="string" name="PRECFOCK"></i>
   <i type="logical" name="LSYMGRAD"> F  </i>
   <i type="logical" name="LHFONE"> F  </i>
   <i type="logical" name="LRHFCALC"> F  </i>
   <i type="logical" name="LTHOMAS"> F  </i>
   <i type="logical" name="LMODELHF"> F  </i>
   <i type="logical" name="LFOCKACE"> F  </i>
   <i name="ENCUT4O">     -1.00000000</i>
   <i type="int" name="EXXOEP">     0</i>
   <i type="int" name="FOURORBIT">     0</i>
   <i name="AEXX">      0.00000000</i>
   <i name="HFALPHA">      0.00000000</i>
   <i name="MCALPHA">      0.00000000</i>
   <i name="ALDAX">      1.00000000</i>
   <i name="AGGAX">      1.00000000</i>
   <i name="ALDAC">      1.00000000</i>
   <i name="AGGAC">      1.00000000</i>
   <i type="int" name="NKREDX">     1</i>
   <i type="int" name="NKREDY">     1</i>
   <i type="int" name="NKREDZ">     1</i>
   <i type="logical" name="SHIFTRED"> F  </i>
   <i type="logical" name="ODDONLY"> F  </i>
   <i type="logical" name="EVENONLY"> F  </i>
   <i type="int" name="LMAXFOCK">     0</i>
   <i type="int" name="NMAXFOCKAE">     0</i>
   <i type="logical" name="LFOCKAEDFT"> F  </i>
   <i name="HFSCREEN">      0.00000000</i>
   <i name="HFSCREENC">      0.00000000</i>
   <i type="int" name="NBANDSGWLOW">     0</i>
  </separator>
  <separator name="vdW DFT" >
   <i type="logical" name="LUSE_VDW"> F  </i>
   <i type="int" name="IVDW_NL">     1</i>
   <i type="logical" name="LSPIN_VDW"> F  </i>
   <i name="Zab_VDW">     -0.84910000</i>
   <i name="PARAM1">      0.12340000</i>
   <i name="PARAM2">      1.00000000</i>
   <i name="PARAM3">      0.00000000</i>
  </separator>
  <separator name="model GW" >
   <i type="int" name="MODEL_GW">     0</i>
   <i name="MODEL_EPS0">     10.14446730</i>
   <i name="MODEL_ALPHA">      1.00000000</i>
  </separator>
  <separator name="linear response parameters" >
   <i type="logical" name="LEPSILON"> F  </i>
   <i type="logical" name="LRPA"> F  </i>
   <i type="logical" name="LNABLA"> F  </i>
   <i type="logical" name="LVEL"> F  </i>
   <i name="CSHIFT">      0.10000000</i>
   <i name="OMEGAMAX">     -1.00000000</i>
   <i name="DEG_THRESHOLD">      0.00200000</i>
   <i name="RTIME">     -0.10000000</i>
   <i name="WPLASMAI">      0.00000000</i>
   <v name="DFIELD">      0.00000000      0.00000000      0.00000000</v>
   <v name="WPLASMA">      0.00000000      0.00000000      0.00000000      0.00000000      0.00000000      0.00000000      0.00000000      0.00000000      0.00000000</v>
  </separator>
  <separator name="orbital magnetization" >
   <i type="logical" name="NUCIND"> F  </i>
   <v name="MAGPOS">      0.00000000      0.00000000      0.00000000</v>
   <i type="logical" name="LNICSALL"> T  </i>
   <i type="logical" name="ORBITALMAG"> F  </i>
   <i type="logical" name="LMAGBLOCH"> F  </i>
   <i type="logical" name="LCHIMAG"> F  </i>
   <i type="logical" name="LGAUGE"> T  </i>
   <i type="int" name="MAGATOM">     0</i>
   <v name="MAGDIPOL">      0.00000000      0.00000000      0.00000000</v>
   <v name="AVECCONST">      0.00000000      0.00000000      0.00000000</v>
  </separator>
  <separator name="response functions" >
   <i type="logical" name="LALL_IN_ONE"> F  </i>
   <i type="int" name="IALL_IN_ONE">    -1</i>
   <i type="int" name="NBANDS_WAVE">    -1</i>
   <i type="logical" name="LFINITE_TEMPERATURE"> F  </i>
   <i type="logical" name="LADDER"> F  </i>
   <i type="logical" name="LRPAFORCE"> F  </i>
   <i type="logical" name="LFXC"> F  </i>
   <i type="logical" name="LHARTREE"> T  </i>
   <i type="int" name="IBSE">     0</i>
   <v type="int" name="KPOINT">    -1     0     0     0</v>
   <i type="logical" name="LTCTC"> F  </i>
   <i type="logical" name="LTCTE"> F  </i>
   <i type="logical" name="LTETE"> F  </i>
   <i type="logical" name="LTRIPLET"> F  </i>
   <i type="logical" name="LFXCEPS"> F  </i>
   <i type="logical" name="LFXHEG"> F  </i>
   <i type="int" name="NATURALO">     2</i>
   <i type="logical" name="LHOLEGF"> F  </i>
   <i type="logical" name="L2ORDER"> F  </i>
   <i type="logical" name="LDMP1"> F  </i>
   <i type="logical" name="LMP2LT"> F  </i>
   <i type="logical" name="LSMP2LT"> F  </i>
   <i type="logical" name="LGWLF"> F  </i>
   <i name="ENCUTGW">     -1.60000002</i>
   <i name="ENCUTGWSOFT">     -1.60000002</i>
   <i name="ENCUTLF">     -1.00000000</i>
   <i type="logical" name="LESF_SPLINES"> F  </i>
   <i type="int" name="LMAXMP2">    -1</i>
   <i name="SCISSOR">      0.00000000</i>
   <i type="int" name="NOMEGA">     0</i>
   <i type="int" name="NOMEGAR">     0</i>
   <i type="int" name="NBANDSGW">    -1</i>
   <i type="int" name="NBANDSO">    -1</i>
   <i type="int" name="NBANDSV">    -1</i>
   <i type="int" name="NELMGW">     1</i>
   <i type="int" name="NELMHF">     1</i>
   <i type="int" name="DIM">     3</i>
   <i type="int" name="IESPILON">     4</i>
   <i type="int" name="ANTIRES">     0</i>
   <i name="OMEGAMAX">    -30.00000000</i>
   <i name="OMEGAMIN">    -30.00000000</i>
   <i name="OMEGATL">   -200.00000000</i>
   <i type="int" name="OMEGAGRID">     0</i>
   <i name="CSHIFT">     -0.10000000</i>
   <i type="logical" name="LSELFENERGY"> F  </i>
   <i type="logical" name="LSPECTRAL"> F  </i>
   <i type="logical" name="LSPECTRALGW"> F  </i>
   <i type="logical" name="LSINGLES"> F  </i>
   <i type="logical" name="LFERMIGW"> F  </i>
   <i type="logical" name="ODDONLYGW"> F  </i>
   <i type="logical" name="EVENONLYGW"> F  </i>
   <i type="int" name="NKREDLFX">     1</i>
   <i type="int" name="NKREDLFY">     1</i>
   <i type="int" name="NKREDLFZ">     1</i>
   <i type="int" name="MAXMEM">  2800</i>
   <i type="int" name="TELESCOPE">     0</i>
   <i type="int" name="NTAUPAR">    -1</i>
   <i type="int" name="NOMEGAPAR">    -1</i>
   <i name="DAMP_NEWTON">      0.80000001</i>
   <i name="LAMBDA">      1.00000000</i>
  </separator>
  <separator name="External order field" >
   <i name="OFIELD_KAPPA">      0.00000000</i>
   <v name="OFIELD_K">      0.00000000      0.00000000      0.00000000</v>
   <i name="OFIELD_Q6_NEAR">      0.00000000</i>
   <i name="OFIELD_Q6_FAR">      0.00000000</i>
   <i name="OFIELD_A">      0.00000000</i>
  </separator>
  <separator name="optional k-points parameters" >
   <i type="int" name="KPOINTS_OPT_MODE">     1</i>
   <i type="logical" name="LKPOINTS_OPT"> F  </i>
  </separator>
 </parameters>
 <atominfo>
  <atoms>       1 </atoms>
  <types>       1 </types>
  <array name="atoms" >
   <dimension dim="1">ion</dimension>
   <field type="string">element</field>
   <field type="int">atomtype</field>
   <set>
    <rc><c>W </c><c>   1</c></rc>
   </set>
  </array>
  <array name="atomtypes" >
   <dimension dim="1">type</dimension>
   <field type="int">atomspertype</field>
   <field type="string">element</field>
   <field>mass</field>
   <field>valence</field>
   <field type="string">pseudopotential</field>
   <set>
    <rc><c>   1</c><c>W </c><c>    183.85000000</c><c>      6.00000000</c><c>  PAW_PBE W 08Apr2002                   </c></rc>
   </set>
  </array>
 </atominfo>
 <structure name="initialpos" >
  <crystal>
   <varray name="basis" >
    <v>       2.64032242       0.00000000      -0.93349604 </v>
    <v>      -1.32016120       2.28658640      -0.93349604 </v>
    <v>      -0.00000000      -0.00000001       2.80048608 </v>
   </varray>
   <i name="volume">     16.90744551 </i>
   <varray name="rec_basis" >
    <v>       0.37874162       0.21866657       0.00000000 </v>
    <v>       0.00000000       0.43733314       0.00000000 </v>
    <v>       0.12624730       0.21866673       0.35708087 </v>
   </varray>
  </crystal>
  <varray name="positions" >
   <v>       0.00000000       0.00000000       0.00000000 </v>
  </varray>
 </structure>
 <calculation>
  <scstep>
   <time name="dav">    2.90   10.08</time>
   <time name="total">    2.95   10.24</time>
   <energy>
    <i name="alphaZ">     43.10720503 </i>
    <i name="ewald">   -291.69959744 </i>
    <i name="hartreedc">     -6.71458714 </i>
    <i name="XCdc">    -48.00548679 </i>
    <i name="pawpsdc">    241.86431167 </i>
    <i name="pawaedc">   -182.72649807 </i>
    <i name="eentropy">     -0.00031016 </i>
    <i name="bandstr">     44.69126666 </i>
    <i name="atom">    204.60810279 </i>
    <i name="e_fr_energy">      5.12440654 </i>
    <i name="e_wo_entrp">      5.12471671 </i>
    <i name="e_0_energy">      5.12456162 </i>
   </energy>
  </scstep>
  <scstep>
   <time name="dav">    3.39   11.92</time>
   <time name="total">    3.40   11.94</time>
   <energy>
    <i name="e_fr_energy">    -13.45586797 </i>
    <i name="e_wo_entrp">    -13.45520154 </i>
    <i name="e_0_energy">    -13.45553476 </i>
   </energy>
  </scstep>
  <scstep>
   <time name="dav">    2.99   10.35</time>
   <time name="total">    2.99   10.36</time>
   <energy>
    <i name="e_fr_energy">    -13.70916736 </i>
    <i name="e_wo_entrp">    -13.70854844 </i>
    <i name="e_0_energy">    -13.70885790 </i>
   </energy>
  </scstep>
  <scstep>
   <time name="dav">    3.88   13.65</time>
   <time name="total">    3.89   13.66</time>
   <energy>
    <i name="e_fr_energy">    -13.70985136 </i>
    <i name="e_wo_entrp">    -13.70923439 </i>
    <i name="e_0_energy">    -13.70954287 </i>
   </energy>
  </scstep>
  <scstep>
   <time name="dav">    3.19   11.15</time>
   <time name="total">    3.49   12.09</time>
   <energy>
    <i name="e_fr_energy">    -13.70985205 </i>
    <i name="e_wo_entrp">    -13.70923507 </i>
    <i name="e_0_energy">    -13.70954356 </i>
   </energy>
  </scstep>
  <scstep>
   <time name="dav">    3.14   11.03</time>
   <time name="total">    3.44   11.97</time>
   <energy>
    <i name="e_fr_energy">    -13.16978877 </i>
    <i name="e_wo_entrp">    -13.16930502 </i>
    <i name="e_0_energy">    -13.16954690 </i>
   </energy>
  </scstep>
  <scstep>
   <time name="dav">    3.33   11.65</time>
   <time name="total">    3.63   12.61</time>
   <energy>
    <i name="e_fr_energy">    -12.97104334 </i>
    <i name="e_wo_entrp">    -12.97044309 </i>
    <i name="e_0_energy">    -12.97074321 </i>
   </energy>
  </scstep>
  <scstep>
   <time name="dav">    2.90   10.14</time>
   <time name="total">    3.20   11.13</time>
   <energy>
    <i name="e_fr_energy">    -12.96958074 </i>
    <i name="e_wo_entrp">    -12.96896887 </i>
    <i name="e_0_energy">    -12.96927481 </i>
   </energy>
  </scstep>
  <scstep>
   <time name="dav">    3.64   12.69</time>
   <time name="total">    3.94   13.61</time>
   <energy>
    <i name="e_fr_energy">    -12.96934834 </i>
    <i name="e_wo_entrp">    -12.96870264 </i>
    <i name="e_0_energy">    -12.96902549 </i>
   </energy>
  </scstep>
  <scstep>
   <time name="dav">    3.15   11.24</time>
   <time name="total">    3.45   12.23</time>
   <energy>
    <i name="e_fr_energy">    -12.96934940 </i>
    <i name="e_wo_entrp">    -12.96870509 </i>
    <i name="e_0_energy">    -12.96902725 </i>
   </energy>
  </scstep>
  <scstep>
   <time name="dav">    2.18    7.83</time>
   <time name="total">    2.48    8.84</time>
   <energy>
    <i name="e_fr_energy">    -12.96934814 </i>
    <i name="e_wo_entrp">    -12.96870462 </i>
    <i name="e_0_energy">    -12.96902638 </i>
   </energy>
  </scstep>
  <scstep>
   <time name="dav">    1.79    6.57</time>
   <time name="total">    1.81    6.63</time>
   <energy>
    <i name="alphaZ">     43.10720503 </i>
    <i name="ewald">   -291.69959744 </i>
    <i name="hartreedc">     -2.63675338 </i>
    <i name="XCdc">    -47.37710307 </i>
    <i name="pawpsdc">    663.69645812 </i>
    <i name="pawaedc">   -606.02482169 </i>
    <i name="eentropy">     -0.00064353 </i>
    <i name="bandstr">     23.35780494 </i>
    <i name="atom">    204.60810279 </i>
    <i name="e_fr_energy">    -12.96934823 </i>
    <i name="e_wo_entrp">    -12.96870470 </i>
    <i name="e_0_energy">    -12.96902646 </i>
   </energy>
  </scstep>
  <structure>
   <crystal>
    <varray name="basis" >
     <v>       2.64032242       0.00000000      -0.93349604 </v>
     <v>      -1.32016120       2.28658640      -0.93349604 </v>
     <v>      -0.00000000      -0.00000001       2.80048608 </v>
    </varray>
    <i name="volume">     16.90744551 </i>
    <varray name="rec_basis" >
     <v>       0.37874162       0.21866657       0.00000000 </v>
     <v>       0.00000000       0.43733314       0.00000000 </v>
     <v>       0.12624730       0.21866673       0.35708087 </v>
    </varray>
   </crystal>
   <varray name="positions" >
    <v>       0.00000000       0.00000000       0.00000000 </v>
   </varray>
  </structure>
  <varray name="forces" >
   <v>       0.00000000       0.00000000       0.00000000 </v>
  </varray>
  <varray name="stress" >
   <v>    -160.64225558      -0.00000015       0.00004158 </v>
   <v>      -0.00000015    -160.64227024       0.00007260 </v>
   <v>       0.00004158       0.00007260    -160.64239929 </v>
  </varray>
  <energy>
   <i name="e_fr_energy">    -12.96934823 </i>
   <i name="e_wo_entrp">    -12.96870470 </i>
   <i name="e_0_energy">    -12.96902646 </i>
  </energy>
  <time name="totalsc">   46.42  156.88</time>
  <eigenvalues>
   <array>
    <dimension dim="1">band</dimension>
    <dimension dim="2">kpoint</dimension>
    <dimension dim="3">spin</dimension>
    <field>eigene</field>
    <field>occ</field>
    <set>
     <set comment="spin 1">
      <set comment="kpoint 1">
       <r>   -2.1251    1.0000 </r>
       <r>    5.9708    1.0000 </r>
       <r>    5.9708    1.0000 </r>
       <r>    5.9708    1.0000 </r>
       <r>    9.1755    0.0000 </r>
       <r>    9.1755    0.0000 </r>
       <r>   22.1348    0.0000 </r>
      </set>
      <set comment="kpoint 2">
       <r>   -2.0034    1.0000 </r>
       <r>    5.8976    1.0000 </r>
       <r>    5.9560    1.0000 </r>
       <r>    6.0899    1.0000 </r>
       <r>    9.0613    0.0000 </r>
       <r>    9.1779    0.0000 </r>
       <r>   22.2359    0.0000 </r>
      </set>
      <set comment="kpoint 3">
       <r>   -1.6483    1.0000 </r>
       <r>    5.6929    1.0000 </r>
       <r>    5.8914    1.0000 </r>
       <r>    6.4438    1.0000 </r>
       <r>    8.8029    0.0000 </r>
       <r>    9.1894    0.0000 </r>
       <r>   22.4856    0.0000 </r>
      </set>
      <set comment="kpoint 4">
       <r>   -1.0923    1.0000 </r>
       <r>    5.3947    1.0000 </r>
       <r>    5.7388    1.0000 </r>
       <r>    7.0217    0.8651 </r>
       <r>    8.5823    0.0000 </r>
       <r>    9.2213    0.0000 </r>
       <r>   22.6866    0.0000 </r>
      </set>
      <set comment="kpoint 5">
       <r>   -0.4004    1.0000 </r>
       <r>    5.0499    1.0000 </r>
       <r>    5.5200    1.0000 </r>
       <r>    7.8041    0.0000 </r>
       <r>    8.5306    0.0000 </r>
       <r>    9.2857    0.0000 </r>
       <r>   22.4890    0.0000 </r>
      </set>
      <set comment="kpoint 6">
       <r>    0.3118    1.0000 </r>
       <r>    4.7022    1.0000 </r>
       <r>    5.3802    1.0000 </r>
       <r>    8.6461    0.0000 </r>
       <r>    8.7593    0.0000 </r>
       <r>    9.3896    0.0000 </r>
       <r>   21.7652    0.0000 </r>
      </set>
      <set comment="kpoint 7">
       <r>    0.8770    1.0000 </r>
       <r>    4.3872    1.0000 </r>
       <r>    5.5291    1.0000 </r>
       <r>    8.8484    0.0000 </r>
       <r>    9.5292    0.0000 </r>
       <r>    9.8360    0.0000 </r>
       <r>   20.8107    0.0000 </r>
      </set>
      <set comment="kpoint 8">
       <r>    1.1769    1.0000 </r>
       <r>    4.1309    1.0000 </r>
       <r>    6.0733    1.0000 </r>
       <r>    9.0395    0.0000 </r>
       <r>    9.6863    0.0000 </r>
       <r>   10.9468    0.0000 </r>
       <r>   19.3637    0.0000 </r>
      </set>
      <set comment="kpoint 9">
       <r>    1.2656    1.0000 </r>
       <r>    3.9510    1.0000 </r>
       <r>    6.8605    1.0000 </r>
       <r>    9.1220    0.0000 </r>
       <r>    9.8279    0.0000 </r>
       <r>   11.9372    0.0000 </r>
       <r>   18.0293    0.0000 </r>
      </set>
      <set comment="kpoint 10">
       <r>    1.2719    1.0000 </r>
       <r>    3.8585    1.0000 </r>
       <r>    7.5170    0.0000 </r>
       <r>    9.0620    0.0000 </r>
       <r>    9.9135    0.0000 </r>
       <r>   12.5583    0.0000 </r>
       <r>   17.2482    0.0000 </r>
      </set>
      <set comment="kpoint 11">
       <r>   -1.7648    1.0000 </r>
       <r>    5.7981    1.0000 </r>
       <r>    5.8618    1.0000 </r>
       <r>    6.3425    1.0000 </r>
       <r>    8.8616    0.0000 </r>
       <r>    9.1982    0.0000 </r>
       <r>   22.4181    0.0000 </r>
      </set>
      <set comment="kpoint 12">
       <r>   -1.3071    1.0000 </r>
       <r>    5.5532    1.0000 </r>
       <r>    5.7356    1.0000 </r>
       <r>    6.8234    1.0000 </r>
       <r>    8.5944    0.0000 </r>
       <r>    9.2485    0.0000 </r>
       <r>   22.7243    0.0000 </r>
      </set>
      <set comment="kpoint 13">
       <r>   -0.6758    1.0000 </r>
       <r>    5.2263    1.0000 </r>
       <r>    5.5410    1.0000 </r>
       <r>    7.5146    0.0000 </r>
       <r>    8.4386    0.0000 </r>
       <r>    9.3243    0.0000 </r>
       <r>   22.8038    0.0000 </r>
      </set>
      <set comment="kpoint 14">
       <r>    0.0441    1.0000 </r>
       <r>    4.8771    1.0000 </r>
       <r>    5.3365    1.0000 </r>
       <r>    8.3616    0.0000 </r>
       <r>    8.5012    0.0000 </r>
       <r>    9.4254    0.0000 </r>
       <r>   22.2573    0.0000 </r>
      </set>
      <set comment="kpoint 15">
       <r>    0.7090    1.0000 </r>
       <r>    4.5461    1.0000 </r>
       <r>    5.3042    1.0000 </r>
       <r>    8.6301    0.0000 </r>
       <r>    9.4361    0.0000 </r>
       <r>    9.5483    0.0000 </r>
       <r>   21.2353    0.0000 </r>
      </set>
      <set comment="kpoint 16">
       <r>    1.1515    1.0000 </r>
       <r>    4.2632    1.0000 </r>
       <r>    5.6280    1.0000 </r>
       <r>    8.8640    0.0000 </r>
       <r>    9.6820    0.0000 </r>
       <r>   10.5462    0.0000 </r>
       <r>   19.9471    0.0000 </r>
      </set>
      <set comment="kpoint 17">
       <r>    1.3309    1.0000 </r>
       <r>    4.0484    1.0000 </r>
       <r>    6.2952    1.0000 </r>
       <r>    9.0398    0.0000 </r>
       <r>    9.8293    0.0000 </r>
       <r>   11.6214    0.0000 </r>
       <r>   18.5364    0.0000 </r>
      </set>
      <set comment="kpoint 18">
       <r>    1.3629    1.0000 </r>
       <r>    3.9147    1.0000 </r>
       <r>    7.0289    0.8161 </r>
       <r>    9.0553    0.0000 </r>
       <r>    9.9827    0.0000 </r>
       <r>   12.4608    0.0000 </r>
       <r>   17.4445    0.0000 </r>
      </set>
      <set comment="kpoint 19">
       <r>    1.3607    1.0000 </r>
       <r>    3.8693    1.0000 </r>
       <r>    7.3816    0.0000 </r>
       <r>    8.9993    0.0000 </r>
       <r>   10.0571    0.0000 </r>
       <r>   12.7912    0.0000 </r>
       <r>   17.0263    0.0000 </r>
      </set>
      <set comment="kpoint 20">
       <r>   -0.7689    1.0000 </r>
       <r>    5.3540    1.0000 </r>
       <r>    5.4667    1.0000 </r>
       <r>    7.4472    0.0000 </r>
       <r>    8.3652    0.0000 </r>
       <r>    9.3726    0.0000 </r>
       <r>   23.1315    0.0000 </r>
      </set>
      <set comment="kpoint 21">
       <r>   -0.0893    1.0000 </r>
       <r>    5.0489    1.0000 </r>
       <r>    5.2148    1.0000 </r>
       <r>    8.2348    0.0000 </r>
       <r>    8.3102    0.0000 </r>
       <r>    9.5139    0.0000 </r>
       <r>   22.8781    0.0000 </r>
      </set>
      <set comment="kpoint 22">
       <r>    0.6277    1.0000 </r>
       <r>    4.7098    1.0000 </r>
       <r>    5.0598    1.0000 </r>
       <r>    8.3496    0.0000 </r>
       <r>    9.2697    0.0000 </r>
       <r>    9.6517    0.0000 </r>
       <r>   21.7154    0.0000 </r>
      </set>
      <set comment="kpoint 23">
       <r>    1.2151    1.0000 </r>
       <r>    4.4113    1.0000 </r>
       <r>    5.1462    1.0000 </r>
       <r>    8.5642    0.0000 </r>
       <r>    9.7568    0.0000 </r>
       <r>   10.3891    0.0000 </r>
       <r>   20.3720    0.0000 </r>
      </set>
      <set comment="kpoint 24">
       <r>    1.5305    1.0000 </r>
       <r>    4.1788    1.0000 </r>
       <r>    5.5892    1.0000 </r>
       <r>    8.8154    0.0000 </r>
       <r>    9.8665    0.0000 </r>
       <r>   11.5234    0.0000 </r>
       <r>   18.9525    0.0000 </r>
      </set>
      <set comment="kpoint 25">
       <r>    1.6184    1.0000 </r>
       <r>    4.0196    1.0000 </r>
       <r>    6.2466    1.0000 </r>
       <r>    8.9543    0.0000 </r>
       <r>   10.0298    0.0000 </r>
       <r>   12.5316    0.0000 </r>
       <r>   17.6407    0.0000 </r>
      </set>
      <set comment="kpoint 26">
       <r>    1.6207    1.0000 </r>
       <r>    3.9384    1.0000 </r>
       <r>    6.7603    1.0000 </r>
       <r>    8.9320    0.0000 </r>
       <r>   10.2156    0.0000 </r>
       <r>   13.1649    0.0000 </r>
       <r>   16.8077    0.0000 </r>
      </set>
      <set comment="kpoint 27">
       <r>    0.6050    1.0000 </r>
       <r>    4.8283    1.0000 </r>
       <r>    4.9091    1.0000 </r>
       <r>    8.2309    0.0000 </r>
       <r>    9.2251    0.0000 </r>
       <r>    9.7014    0.0000 </r>
       <r>   21.9837    0.0000 </r>
      </set>
      <set comment="kpoint 28">
       <r>    1.2883    1.0000 </r>
       <r>    4.5092    1.0000 </r>
       <r>    4.8392    1.0000 </r>
       <r>    8.3429    0.0000 </r>
       <r>    9.8059    0.0000 </r>
       <r>   10.3605    0.0000 </r>
       <r>   20.6835    0.0000 </r>
      </set>
      <set comment="kpoint 29">
       <r>    1.7802    1.0000 </r>
       <r>    4.2736    1.0000 </r>
       <r>    5.0143    1.0000 </r>
       <r>    8.5697    0.0000 </r>
       <r>    9.8880    0.0000 </r>
       <r>   11.5446    0.0000 </r>
       <r>   19.2774    0.0000 </r>
      </set>
      <set comment="kpoint 30">
       <r>    1.9851    1.0000 </r>
       <r>    4.1206    1.0000 </r>
       <r>    5.4767    1.0000 </r>
       <r>    8.8039    0.0000 </r>
       <r>    9.9745    0.0000 </r>
       <r>   12.7008    0.0000 </r>
       <r>   17.8486    0.0000 </r>
      </set>
      <set comment="kpoint 31">
       <r>    2.0168    1.0000 </r>
       <r>    4.0317    1.0000 </r>
       <r>    5.9914    1.0000 </r>
       <r>    8.8932    0.0000 </r>
       <r>   10.1643    0.0000 </r>
       <r>   13.6278    0.0000 </r>
       <r>   16.6739    0.0000 </r>
      </set>
      <set comment="kpoint 32">
       <r>    2.0121    1.0000 </r>
       <r>    4.0021    1.0000 </r>
       <r>    6.2191    1.0000 </r>
       <r>    8.8844    0.0000 </r>
       <r>   10.2954    0.0000 </r>
       <r>   14.0115    0.0000 </r>
       <r>   16.1873    0.0000 </r>
      </set>
      <set comment="kpoint 33">
       <r>    1.9063    1.0000 </r>
       <r>    4.2801    1.0000 </r>
       <r>    4.8089    1.0000 </r>
       <r>    8.4643    0.0000 </r>
       <r>    9.8939    0.0000 </r>
       <r>   11.5665    0.0000 </r>
       <r>   19.4125    0.0000 </r>
      </set>
      <set comment="kpoint 34">
       <r>    2.3124    1.0000 </r>
       <r>    4.1397    1.0000 </r>
       <r>    4.9867    1.0000 </r>
       <r>    8.6885    0.0000 </r>
       <r>    9.9162    0.0000 </r>
       <r>   12.8261    0.0000 </r>
       <r>   18.0042    0.0000 </r>
      </set>
      <set comment="kpoint 35">
       <r>    2.4557    1.0000 </r>
       <r>    4.0923    1.0000 </r>
       <r>    5.3201    1.0000 </r>
       <r>    8.9009    0.0000 </r>
       <r>    9.9918    0.0000 </r>
       <r>   13.9977    0.0000 </r>
       <r>   16.6644    0.0000 </r>
      </set>
      <set comment="kpoint 36">
       <r>    2.4728    1.0000 </r>
       <r>    4.0803    1.0000 </r>
       <r>    5.5878    1.0000 </r>
       <r>    8.9757    0.0000 </r>
       <r>   10.1610    0.0000 </r>
       <r>   14.8292    0.0000 </r>
       <r>   15.7466    0.0000 </r>
      </set>
      <set comment="kpoint 37">
       <r>    2.6860    1.0000 </r>
       <r>    4.0923    1.0000 </r>
       <r>    5.0343    1.0000 </r>
       <r>    8.9185    0.0000 </r>
       <r>    9.8974    0.0000 </r>
       <r>   14.1322    0.0000 </r>
       <r>   16.6908    0.0000 </r>
      </set>
      <set comment="kpoint 38">
       <r>    2.8446    1.0000 </r>
       <r>    4.1543    1.0000 </r>
       <r>    5.0874    1.0000 </r>
       <r>    9.1509    0.0000 </r>
       <r>    9.9361    0.0000 </r>
       <r>   15.1558    0.0000 </r>
       <r>   15.7758    0.0000 </r>
      </set>
      <set comment="kpoint 39">
       <r>    2.8765    1.0000 </r>
       <r>    4.2019    1.0000 </r>
       <r>    5.1069    1.0000 </r>
       <r>    9.2323    0.0000 </r>
       <r>   10.0014    0.0000 </r>
       <r>   15.0317    0.0000 </r>
       <r>   16.0503    0.0000 </r>
      </set>
      <set comment="kpoint 40">
       <r>    3.0460    1.0000 </r>
       <r>    4.3681    1.0000 </r>
       <r>    4.7812    1.0000 </r>
       <r>    9.4741    0.0000 </r>
       <r>    9.8068    0.0000 </r>
       <r>   14.7766    0.0000 </r>
       <r>   16.7847    0.0000 </r>
      </set>
      <set comment="kpoint 41">
       <r>   -1.4200    1.0000 </r>
       <r>    5.6288    1.0000 </r>
       <r>    5.6288    1.0000 </r>
       <r>    6.8112    1.0000 </r>
       <r>    8.9616    0.0000 </r>
       <r>    8.9617    0.0000 </r>
       <r>   22.6090    0.0000 </r>
      </set>
      <set comment="kpoint 42">
       <r>   -0.8759    1.0000 </r>
       <r>    5.3089    1.0000 </r>
       <r>    5.4308    1.0000 </r>
       <r>    7.4645    0.0000 </r>
       <r>    8.7435    0.0000 </r>
       <r>    9.0918    0.0000 </r>
       <r>   22.9455    0.0000 </r>
      </set>
      <set comment="kpoint 43">
       <r>   -0.1896    1.0000 </r>
       <r>    4.9585    1.0000 </r>
       <r>    5.2060    1.0000 </r>
       <r>    8.2907    0.0000 </r>
       <r>    8.6713    0.0000 </r>
       <r>    9.2351    0.0000 </r>
       <r>   22.8088    0.0000 </r>
      </set>
      <set comment="kpoint 44">
       <r>    0.5321    1.0000 </r>
       <r>    4.6194    1.0000 </r>
       <r>    5.0632    1.0000 </r>
       <r>    8.7160    0.0000 </r>
       <r>    9.3116    0.0000 </r>
       <r>    9.3886    0.0000 </r>
       <r>   22.0209    0.0000 </r>
      </set>
      <set comment="kpoint 45">
       <r>    1.1181    1.0000 </r>
       <r>    4.3208    1.0000 </r>
       <r>    5.1952    1.0000 </r>
       <r>    8.8885    0.0000 </r>
       <r>    9.5512    0.0000 </r>
       <r>   10.4065    0.0000 </r>
       <r>   20.8341    0.0000 </r>
      </set>
      <set comment="kpoint 46">
       <r>    1.4292    1.0000 </r>
       <r>    4.0821    1.0000 </r>
       <r>    5.7239    1.0000 </r>
       <r>    9.0648    0.0000 </r>
       <r>    9.7126    0.0000 </r>
       <r>   11.5227    0.0000 </r>
       <r>   19.1125    0.0000 </r>
      </set>
      <set comment="kpoint 47">
       <r>    1.5160    1.0000 </r>
       <r>    3.9165    1.0000 </r>
       <r>    6.4960    1.0000 </r>
       <r>    9.1598    0.0000 </r>
       <r>    9.8490    0.0000 </r>
       <r>   12.5026    0.0000 </r>
       <r>   17.6886    0.0000 </r>
      </set>
      <set comment="kpoint 48">
       <r>    1.5189    1.0000 </r>
       <r>    3.8318    1.0000 </r>
       <r>    7.1176    0.0536 </r>
       <r>    9.1430    0.0000 </r>
       <r>    9.9291    0.0000 </r>
       <r>   13.1087    0.0000 </r>
       <r>   16.8521    0.0000 </r>
      </set>
      <set comment="kpoint 49">
       <r>   -1.8825    1.0000 </r>
       <r>    5.9487    1.0000 </r>
       <r>    5.9487    1.0000 </r>
       <r>    6.0862    1.0000 </r>
       <r>    8.8225    0.0000 </r>
       <r>    9.3003    0.0000 </r>
       <r>   22.4845    0.0000 </r>
      </set>
      <set comment="kpoint 50">
       <r>   -0.2684    1.0000 </r>
       <r>    5.0380    1.0000 </r>
       <r>    5.0955    1.0000 </r>
       <r>    8.2881    0.0000 </r>
       <r>    8.7247    0.0000 </r>
       <r>    9.1764    0.0000 </r>
       <r>   23.3578    0.0000 </r>
      </set>
      <set comment="kpoint 51">
       <r>    0.4493    1.0000 </r>
       <r>    4.7124    1.0000 </r>
       <r>    4.8491    1.0000 </r>
       <r>    8.7142    0.0000 </r>
       <r>    9.2741    0.0000 </r>
       <r>    9.3681    0.0000 </r>
       <r>   22.6399    0.0000 </r>
      </set>
      <set comment="kpoint 52">
       <r>    1.1467    1.0000 </r>
       <r>    4.4042    1.0000 </r>
       <r>    4.7816    1.0000 </r>
       <r>    8.8156    0.0000 </r>
       <r>    9.5505    0.0000 </r>
       <r>   10.3821    0.0000 </r>
       <r>   21.3089    0.0000 </r>
      </set>
      <set comment="kpoint 53">
       <r>    1.6296    1.0000 </r>
       <r>    4.1540    1.0000 </r>
       <r>    5.0588    1.0000 </r>
       <r>    8.9860    0.0000 </r>
       <r>    9.7092    0.0000 </r>
       <r>   11.5412    0.0000 </r>
       <r>   19.6116    0.0000 </r>
      </set>
      <set comment="kpoint 54">
       <r>    1.8177    1.0000 </r>
       <r>    3.9714    1.0000 </r>
       <r>    5.7005    1.0000 </r>
       <r>    9.1438    0.0000 </r>
       <r>    9.8425    0.0000 </r>
       <r>   12.6351    0.0000 </r>
       <r>   17.9619    0.0000 </r>
      </set>
      <set comment="kpoint 55">
       <r>    1.8424    1.0000 </r>
       <r>    3.8601    1.0000 </r>
       <r>    6.4064    1.0000 </r>
       <r>    9.2053    0.0000 </r>
       <r>    9.9544    0.0000 </r>
       <r>   13.4719    0.0000 </r>
       <r>   16.7383    0.0000 </r>
      </set>
      <set comment="kpoint 56">
       <r>    1.8364    1.0000 </r>
       <r>    3.8228    1.0000 </r>
       <r>    6.7289    1.0000 </r>
       <r>    9.1976    0.0000 </r>
       <r>   10.0061    0.0000 </r>
       <r>   13.7982    0.0000 </r>
       <r>   16.2724    0.0000 </r>
      </set>
      <set comment="kpoint 57">
       <r>   -1.5296    1.0000 </r>
       <r>    5.7853    1.0000 </r>
       <r>    5.9046    1.0000 </r>
       <r>    6.4028    1.0000 </r>
       <r>    8.4599    0.0000 </r>
       <r>    9.4013    0.0000 </r>
       <r>   22.7669    0.0000 </r>
      </set>
      <set comment="kpoint 58">
       <r>    1.1688    1.0000 </r>
       <r>    4.4955    1.0000 </r>
       <r>    4.5611    1.0000 </r>
       <r>    8.7620    0.0000 </r>
       <r>    9.5759    0.0000 </r>
       <r>   10.3838    0.0000 </r>
       <r>   21.5161    0.0000 </r>
      </set>
      <set comment="kpoint 59">
       <r>    1.8152    1.0000 </r>
       <r>    4.2403    1.0000 </r>
       <r>    4.5718    1.0000 </r>
       <r>    8.8858    0.0000 </r>
       <r>    9.7456    0.0000 </r>
       <r>   11.5815    0.0000 </r>
       <r>   19.9308    0.0000 </r>
      </set>
      <set comment="kpoint 60">
       <r>    2.1830    1.0000 </r>
       <r>    4.0547    1.0000 </r>
       <r>    4.9483    1.0000 </r>
       <r>    9.0632    0.0000 </r>
       <r>    9.8579    0.0000 </r>
       <r>   12.7766    0.0000 </r>
       <r>   18.2205    0.0000 </r>
      </set>
      <set comment="kpoint 61">
       <r>    2.2761    1.0000 </r>
       <r>    3.9371    1.0000 </r>
       <r>    5.5785    1.0000 </r>
       <r>    9.2109    0.0000 </r>
       <r>    9.9484    0.0000 </r>
       <r>   13.8245    0.0000 </r>
       <r>   16.7324    0.0000 </r>
      </set>
      <set comment="kpoint 62">
       <r>    2.2724    1.0000 </r>
       <r>    3.8797    1.0000 </r>
       <r>    6.0692    1.0000 </r>
       <r>    9.2568    0.0000 </r>
       <r>   10.0415    0.0000 </r>
       <r>   14.4946    0.0000 </r>
       <r>   15.8140    0.0000 </r>
      </set>
      <set comment="kpoint 63">
       <r>   -0.9769    1.0000 </r>
       <r>    5.4957    1.0000 </r>
       <r>    5.7700    1.0000 </r>
       <r>    6.9777    0.9906 </r>
       <r>    8.1703    0.0000 </r>
       <r>    9.4857    0.0000 </r>
       <r>   22.9728    0.0000 </r>
      </set>
      <set comment="kpoint 64">
       <r>   -1.0786    1.0000 </r>
       <r>    5.6832    1.0000 </r>
       <r>    5.7862    1.0000 </r>
       <r>    6.7842    1.0000 </r>
       <r>    8.0487    0.0000 </r>
       <r>    9.5580    0.0000 </r>
       <r>   23.1922    0.0000 </r>
      </set>
      <set comment="kpoint 65">
       <r>    2.3779    1.0000 </r>
       <r>    4.1268    1.0000 </r>
       <r>    4.5771    1.0000 </r>
       <r>    9.0189    0.0000 </r>
       <r>    9.8667    0.0000 </r>
       <r>   12.8356    0.0000 </r>
       <r>   18.3370    0.0000 </r>
      </set>
      <set comment="kpoint 66">
       <r>    2.6552    1.0000 </r>
       <r>    4.0539    1.0000 </r>
       <r>    4.9125    1.0000 </r>
       <r>    9.1987    0.0000 </r>
       <r>    9.9201    0.0000 </r>
       <r>   14.0409    0.0000 </r>
       <r>   16.7909    0.0000 </r>
      </set>
      <set comment="kpoint 67">
       <r>    2.7122    1.0000 </r>
       <r>    4.0139    1.0000 </r>
       <r>    5.3654    1.0000 </r>
       <r>    9.3384    0.0000 </r>
       <r>    9.9784    0.0000 </r>
       <r>   14.9937    0.0000 </r>
       <r>   15.6376    0.0000 </r>
      </set>
      <set comment="kpoint 68">
       <r>    2.7126    1.0000 </r>
       <r>    4.0013    1.0000 </r>
       <r>    5.5706    1.0000 </r>
       <r>    9.3765    0.0000 </r>
       <r>   10.0303    0.0000 </r>
       <r>   15.0615    0.0000 </r>
       <r>   15.5270    0.0000 </r>
      </set>
      <set comment="kpoint 69">
       <r>   -0.2886    1.0000 </r>
       <r>    5.1569    1.0000 </r>
       <r>    5.5405    1.0000 </r>
       <r>    7.7603    0.0000 </r>
       <r>    8.0948    0.0000 </r>
       <r>    9.5754    0.0000 </r>
       <r>   22.6481    0.0000 </r>
      </set>
      <set comment="kpoint 70">
       <r>   -0.4562    1.0000 </r>
       <r>    5.4143    1.0000 </r>
       <r>    5.5895    1.0000 </r>
       <r>    7.4495    0.0000 </r>
       <r>    7.8089    0.0000 </r>
       <r>    9.6899    0.0000 </r>
       <r>   23.2406    0.0000 </r>
      </set>
      <set comment="kpoint 71">
       <r>    2.9147    1.0000 </r>
       <r>    4.1635    1.0000 </r>
       <r>    4.9667    1.0000 </r>
       <r>    9.3899    0.0000 </r>
       <r>    9.9222    0.0000 </r>
       <r>   15.0834    0.0000 </r>
       <r>   15.7178    0.0000 </r>
      </set>
      <set comment="kpoint 72">
       <r>    2.9937    1.0000 </r>
       <r>    4.2659    1.0000 </r>
       <r>    5.0522    1.0000 </r>
       <r>    9.5457    0.0000 </r>
       <r>    9.9239    0.0000 </r>
       <r>   14.6417    0.0000 </r>
       <r>   16.3678    0.0000 </r>
      </set>
      <set comment="kpoint 73">
       <r>    0.4221    1.0000 </r>
       <r>    4.8143    1.0000 </r>
       <r>    5.3556    1.0000 </r>
       <r>    8.2365    0.0000 </r>
       <r>    8.7171    0.0000 </r>
       <r>    9.6729    0.0000 </r>
       <r>   21.6412    0.0000 </r>
      </set>
      <set comment="kpoint 74">
       <r>    0.2560    1.0000 </r>
       <r>    5.0777    1.0000 </r>
       <r>    5.3479    1.0000 </r>
       <r>    7.8289    0.0000 </r>
       <r>    8.3292    0.0000 </r>
       <r>    9.8026    0.0000 </r>
       <r>   22.1731    0.0000 </r>
      </set>
      <set comment="kpoint 75">
       <r>    0.2020    1.0000 </r>
       <r>    5.2347    1.0000 </r>
       <r>    5.2973    1.0000 </r>
       <r>    7.6480    0.0000 </r>
       <r>    8.2131    0.0000 </r>
       <r>    9.8555    0.0000 </r>
       <r>   22.5069    0.0000 </r>
      </set>
      <set comment="kpoint 76">
       <r>    3.0776    1.0000 </r>
       <r>    4.6572    1.0000 </r>
       <r>    4.6572    1.0000 </r>
       <r>    9.7716    0.0000 </r>
       <r>    9.7716    0.0000 </r>
       <r>   14.3173    0.0000 </r>
       <r>   17.5916    0.0000 </r>
      </set>
      <set comment="kpoint 77">
       <r>    0.9896    1.0000 </r>
       <r>    4.5034    1.0000 </r>
       <r>    5.4290    1.0000 </r>
       <r>    8.5102    0.0000 </r>
       <r>    9.7745    0.0000 </r>
       <r>    9.7965    0.0000 </r>
       <r>   20.4209    0.0000 </r>
      </set>
      <set comment="kpoint 78">
       <r>    0.9202    1.0000 </r>
       <r>    4.7507    1.0000 </r>
       <r>    5.2199    1.0000 </r>
       <r>    8.0688    0.0000 </r>
       <r>    9.3517    0.0000 </r>
       <r>    9.9027    0.0000 </r>
       <r>   20.8923    0.0000 </r>
      </set>
      <set comment="kpoint 79">
       <r>    0.9027    1.0000 </r>
       <r>    4.8609    1.0000 </r>
       <r>    5.1577    1.0000 </r>
       <r>    7.7353    0.0000 </r>
       <r>    9.1661    0.0000 </r>
       <r>    9.9881    0.0000 </r>
       <r>   21.2679    0.0000 </r>
      </set>
      <set comment="kpoint 80">
       <r>    1.2912    1.0000 </r>
       <r>    4.2500    1.0000 </r>
       <r>    5.8678    1.0000 </r>
       <r>    8.7884    0.0000 </r>
       <r>    9.9072    0.0000 </r>
       <r>   10.9112    0.0000 </r>
       <r>   19.1666    0.0000 </r>
      </set>
      <set comment="kpoint 81">
       <r>    1.3687    1.0000 </r>
       <r>    4.4780    1.0000 </r>
       <r>    5.3854    1.0000 </r>
       <r>    8.4041    0.0000 </r>
       <r>    9.9545    0.0000 </r>
       <r>   10.5163    0.0000 </r>
       <r>   19.6571    0.0000 </r>
      </set>
      <set comment="kpoint 82">
       <r>    1.4928    1.0000 </r>
       <r>    4.5722    1.0000 </r>
       <r>    5.1159    1.0000 </r>
       <r>    8.0115    0.0000 </r>
       <r>    9.8763    0.0000 </r>
       <r>   10.4588    0.0000 </r>
       <r>   20.0540    0.0000 </r>
      </set>
      <set comment="kpoint 83">
       <r>    1.5553    1.0000 </r>
       <r>    4.5166    1.0000 </r>
       <r>    5.1144    1.0000 </r>
       <r>    7.8379    0.0000 </r>
       <r>    9.8291    0.0000 </r>
       <r>   10.4754    0.0000 </r>
       <r>   20.2217    0.0000 </r>
      </set>
      <set comment="kpoint 84">
       <r>    1.3781    1.0000 </r>
       <r>    4.0721    1.0000 </r>
       <r>    6.5201    1.0000 </r>
       <r>    8.8926    0.0000 </r>
       <r>   10.1450    0.0000 </r>
       <r>   11.9066    0.0000 </r>
       <r>   17.9797    0.0000 </r>
      </set>
      <set comment="kpoint 85">
       <r>    1.5492    1.0000 </r>
       <r>    4.2736    1.0000 </r>
       <r>    5.8514    1.0000 </r>
       <r>    8.6396    0.0000 </r>
       <r>   10.1785    0.0000 </r>
       <r>   11.6016    0.0000 </r>
       <r>   18.4399    0.0000 </r>
      </set>
      <set comment="kpoint 86">
       <r>    1.8227    1.0000 </r>
       <r>    4.3981    1.0000 </r>
       <r>    5.3017    1.0000 </r>
       <r>    8.3354    0.0000 </r>
       <r>   10.0328    0.0000 </r>
       <r>   11.5773    0.0000 </r>
       <r>   18.8273    0.0000 </r>
      </set>
      <set comment="kpoint 87">
       <r>    2.0659    1.0000 </r>
       <r>    4.2815    1.0000 </r>
       <r>    5.1413    1.0000 </r>
       <r>    8.1063    0.0000 </r>
       <r>    9.9085    0.0000 </r>
       <r>   11.6271    0.0000 </r>
       <r>   19.0747    0.0000 </r>
      </set>
      <set comment="kpoint 88">
       <r>    1.3824    1.0000 </r>
       <r>    3.9806    1.0000 </r>
       <r>    7.0444    0.6777 </r>
       <r>    8.8134    0.0000 </r>
       <r>   10.3956    0.0000 </r>
       <r>   12.5321    0.0000 </r>
       <r>   17.2048    0.0000 </r>
      </set>
      <set comment="kpoint 89">
       <r>    1.5770    1.0000 </r>
       <r>    4.1464    1.0000 </r>
       <r>    6.3776    1.0000 </r>
       <r>    8.6292    0.0000 </r>
       <r>   10.5583    0.0000 </r>
       <r>   12.4662    0.0000 </r>
       <r>   17.3856    0.0000 </r>
      </set>
      <set comment="kpoint 90">
       <r>    1.9140    1.0000 </r>
       <r>    4.2898    1.0000 </r>
       <r>    5.6808    1.0000 </r>
       <r>    8.4801    0.0000 </r>
       <r>   10.3435    0.0000 </r>
       <r>   12.6547    0.0000 </r>
       <r>   17.5943    0.0000 </r>
      </set>
      <set comment="kpoint 91">
       <r>    2.3122    1.0000 </r>
       <r>    4.2285    1.0000 </r>
       <r>    5.2486    1.0000 </r>
       <r>    8.3935    0.0000 </r>
       <r>   10.0216    0.0000 </r>
       <r>   12.8669    0.0000 </r>
       <r>   17.7999    0.0000 </r>
      </set>
      <set comment="kpoint 92">
       <r>    2.5328    1.0000 </r>
       <r>    4.0712    1.0000 </r>
       <r>    5.1643    1.0000 </r>
       <r>    8.3686    0.0000 </r>
       <r>    9.8769    0.0000 </r>
       <r>   12.9489    0.0000 </r>
       <r>   17.8923    0.0000 </r>
      </set>
      <set comment="kpoint 93">
       <r>    1.5726    1.0000 </r>
       <r>    4.1031    1.0000 </r>
       <r>    6.6223    1.0000 </r>
       <r>    8.5604    0.0000 </r>
       <r>   10.7736    0.0000 </r>
       <r>   12.8115    0.0000 </r>
       <r>   16.9371    0.0000 </r>
      </set>
      <set comment="kpoint 94">
       <r>    1.9132    1.0000 </r>
       <r>    4.2331    1.0000 </r>
       <r>    5.9951    1.0000 </r>
       <r>    8.4387    0.0000 </r>
       <r>   10.7224    0.0000 </r>
       <r>   13.3751    0.0000 </r>
       <r>   16.7036    0.0000 </r>
      </set>
      <set comment="kpoint 95">
       <r>    2.3595    1.0000 </r>
       <r>    4.2593    1.0000 </r>
       <r>    5.4023    1.0000 </r>
       <r>    8.5001    0.0000 </r>
       <r>   10.3507    0.0000 </r>
       <r>   13.9451    0.0000 </r>
       <r>   16.6181    0.0000 </r>
      </set>
      <set comment="kpoint 96">
       <r>    2.7805    1.0000 </r>
       <r>    4.0729    1.0000 </r>
       <r>    5.1056    1.0000 </r>
       <r>    8.6720    0.0000 </r>
       <r>    9.9657    0.0000 </r>
       <r>   14.2554    0.0000 </r>
       <r>   16.6679    0.0000 </r>
      </set>
      <set comment="kpoint 97">
       <r>    2.3563    1.0000 </r>
       <r>    4.2758    1.0000 </r>
       <r>    5.4787    1.0000 </r>
       <r>    8.4986    0.0000 </r>
       <r>   10.5699    0.0000 </r>
       <r>   14.4560    0.0000 </r>
       <r>   16.0526    0.0000 </r>
      </set>
      <set comment="kpoint 98">
       <r>    2.8394    1.0000 </r>
       <r>    4.2086    1.0000 </r>
       <r>    5.0001    1.0000 </r>
       <r>    8.8123    0.0000 </r>
       <r>   10.1972    0.0000 </r>
       <r>   15.2568    0.0000 </r>
       <r>   15.7852    0.0000 </r>
      </set>
      <set comment="kpoint 99">
       <r>    3.1215    1.0000 </r>
       <r>    4.0790    1.0000 </r>
       <r>    4.8170    1.0000 </r>
       <r>    9.0859    0.0000 </r>
       <r>    9.9050    0.0000 </r>
       <r>   15.2563    0.0000 </r>
       <r>   16.0902    0.0000 </r>
      </set>
      <set comment="kpoint 100">
       <r>    3.2297    1.0000 </r>
       <r>    4.2274    1.0000 </r>
       <r>    4.5683    1.0000 </r>
       <r>    9.3080    0.0000 </r>
       <r>    9.8716    0.0000 </r>
       <r>   15.0699    0.0000 </r>
       <r>   16.7644    0.0000 </r>
      </set>
      <set comment="kpoint 101">
       <r>    0.3898    1.0000 </r>
       <r>    4.7396    1.0000 </r>
       <r>    4.7396    1.0000 </r>
       <r>    9.0589    0.0000 </r>
       <r>    9.0589    0.0000 </r>
       <r>    9.2865    0.0000 </r>
       <r>   23.3812    0.0000 </r>
      </set>
      <set comment="kpoint 102">
       <r>    1.1305    1.0000 </r>
       <r>    4.4282    1.0000 </r>
       <r>    4.5186    1.0000 </r>
       <r>    9.0559    0.0000 </r>
       <r>    9.3442    0.0000 </r>
       <r>   10.4101    0.0000 </r>
       <r>   22.3742    0.0000 </r>
      </set>
      <set comment="kpoint 103">
       <r>    1.7882    1.0000 </r>
       <r>    4.1741    1.0000 </r>
       <r>    4.5337    1.0000 </r>
       <r>    9.1456    0.0000 </r>
       <r>    9.5786    0.0000 </r>
       <r>   11.6033    0.0000 </r>
       <r>   20.3244    0.0000 </r>
      </set>
      <set comment="kpoint 104">
       <r>    2.1442    1.0000 </r>
       <r>    3.9822    1.0000 </r>
       <r>    4.9699    1.0000 </r>
       <r>    9.2708    0.0000 </r>
       <r>    9.7643    0.0000 </r>
       <r>   12.7732    0.0000 </r>
       <r>   18.3590    0.0000 </r>
      </set>
      <set comment="kpoint 105">
       <r>    2.2218    1.0000 </r>
       <r>    3.8542    1.0000 </r>
       <r>    5.6926    1.0000 </r>
       <r>    9.3638    0.0000 </r>
       <r>    9.8977    0.0000 </r>
       <r>   13.7707    0.0000 </r>
       <r>   16.7772    0.0000 </r>
      </set>
      <set comment="kpoint 106">
       <r>    2.2113    1.0000 </r>
       <r>    3.7903    1.0000 </r>
       <r>    6.2627    1.0000 </r>
       <r>    9.3895    0.0000 </r>
       <r>    9.9689    0.0000 </r>
       <r>   14.3800    0.0000 </r>
       <r>   15.8483    0.0000 </r>
      </set>
      <set comment="kpoint 107">
       <r>   -1.1832    1.0000 </r>
       <r>    5.9242    1.0000 </r>
       <r>    5.9243    1.0000 </r>
       <r>    6.4279    1.0000 </r>
       <r>    7.9107    0.0000 </r>
       <r>    9.6342    0.0000 </r>
       <r>   23.3654    0.0000 </r>
      </set>
      <set comment="kpoint 108">
       <r>    1.8739    1.0000 </r>
       <r>    4.2393    1.0000 </r>
       <r>    4.2582    1.0000 </r>
       <r>    9.2072    0.0000 </r>
       <r>    9.5261    0.0000 </r>
       <r>   11.6343    0.0000 </r>
       <r>   20.6975    0.0000 </r>
      </set>
      <set comment="kpoint 109">
       <r>    2.4681    1.0000 </r>
       <r>    4.0454    1.0000 </r>
       <r>    4.3562    1.0000 </r>
       <r>    9.3225    0.0000 </r>
       <r>    9.7316    0.0000 </r>
       <r>   12.8734    0.0000 </r>
       <r>   18.6888    0.0000 </r>
      </set>
      <set comment="kpoint 110">
       <r>    2.6860    1.0000 </r>
       <r>    3.9133    1.0000 </r>
       <r>    4.8993    1.0000 </r>
       <r>    9.4420    0.0000 </r>
       <r>    9.8781    0.0000 </r>
       <r>   14.0116    0.0000 </r>
       <r>   16.9099    0.0000 </r>
      </set>
      <set comment="kpoint 111">
       <r>    2.6897    1.0000 </r>
       <r>    3.8381    1.0000 </r>
       <r>    5.5561    1.0000 </r>
       <r>    9.5167    0.0000 </r>
       <r>    9.9708    0.0000 </r>
       <r>   14.8646    0.0000 </r>
       <r>   15.6364    0.0000 </r>
      </set>
      <set comment="kpoint 112">
       <r>    2.6743    1.0000 </r>
       <r>    3.8137    1.0000 </r>
       <r>    5.8505    1.0000 </r>
       <r>    9.5338    0.0000 </r>
       <r>   10.0071    0.0000 </r>
       <r>   15.0974    0.0000 </r>
       <r>   15.2557    0.0000 </r>
      </set>
      <set comment="kpoint 113">
       <r>   -0.6412    1.0000 </r>
       <r>    5.7632    1.0000 </r>
       <r>    5.8649    1.0000 </r>
       <r>    6.8896    1.0000 </r>
       <r>    7.4528    0.0000 </r>
       <r>    9.8077    0.0000 </r>
       <r>   23.7129    0.0000 </r>
      </set>
      <set comment="kpoint 114">
       <r>    2.9543    1.0000 </r>
       <r>    4.0435    1.0000 </r>
       <r>    4.4029    1.0000 </r>
       <r>    9.4619    0.0000 </r>
       <r>    9.8712    0.0000 </r>
       <r>   14.1042    0.0000 </r>
       <r>   16.9943    0.0000 </r>
      </set>
      <set comment="kpoint 115">
       <r>    3.0856    1.0000 </r>
       <r>    4.0181    1.0000 </r>
       <r>    4.8656    1.0000 </r>
       <r>    9.5920    0.0000 </r>
       <r>    9.9506    0.0000 </r>
       <r>   15.0427    0.0000 </r>
       <r>   15.7212    0.0000 </r>
      </set>
      <set comment="kpoint 116">
       <r>    3.0835    1.0000 </r>
       <r>    3.9942    1.0000 </r>
       <r>    5.2857    1.0000 </r>
       <r>    9.6652    0.0000 </r>
       <r>    9.9978    0.0000 </r>
       <r>   14.5987    0.0000 </r>
       <r>   16.0449    0.0000 </r>
      </set>
      <set comment="kpoint 117">
       <r>    0.0351    1.0000 </r>
       <r>    5.4636    1.0000 </r>
       <r>    5.6096    1.0000 </r>
       <r>    7.3328    0.0000 </r>
       <r>    7.6506    0.0000 </r>
       <r>    9.9338    0.0000 </r>
       <r>   22.7626    0.0000 </r>
      </set>
      <set comment="kpoint 118">
       <r>   -0.0379    1.0000 </r>
       <r>    5.6882    1.0000 </r>
       <r>    5.7188    1.0000 </r>
       <r>    7.0724    0.3703 </r>
       <r>    7.3936    0.0000 </r>
       <r>    9.9854    0.0000 </r>
       <r>   23.1684    0.0000 </r>
      </set>
      <set comment="kpoint 119">
       <r>    3.2300    1.0000 </r>
       <r>    4.2616    1.0000 </r>
       <r>    4.8764    1.0000 </r>
       <r>    9.7401    0.0000 </r>
       <r>    9.9647    0.0000 </r>
       <r>   14.4240    0.0000 </r>
       <r>   16.4366    0.0000 </r>
      </set>
      <set comment="kpoint 120">
       <r>    3.2539    1.0000 </r>
       <r>    4.3761    1.0000 </r>
       <r>    4.8984    1.0000 </r>
       <r>    9.8172    0.0000 </r>
       <r>    9.9550    0.0000 </r>
       <r>   14.0513    0.0000 </r>
       <r>   17.0911    0.0000 </r>
      </set>
      <set comment="kpoint 121">
       <r>    0.7389    1.0000 </r>
       <r>    5.1428    1.0000 </r>
       <r>    5.2847    1.0000 </r>
       <r>    7.5497    0.0000 </r>
       <r>    8.6038    0.0000 </r>
       <r>   10.0192    0.0000 </r>
       <r>   21.4250    0.0000 </r>
      </set>
      <set comment="kpoint 122">
       <r>    0.6546    1.0000 </r>
       <r>    5.2892    1.0000 </r>
       <r>    5.5281    1.0000 </r>
       <r>    7.1121    0.0729 </r>
       <r>    8.2143    0.0000 </r>
       <r>   10.0958    0.0000 </r>
       <r>   21.8639    0.0000 </r>
      </set>
      <set comment="kpoint 123">
       <r>    1.3107    1.0000 </r>
       <r>    4.8467    1.0000 </r>
       <r>    5.1569    1.0000 </r>
       <r>    7.9334    0.0000 </r>
       <r>    9.6869    0.0000 </r>
       <r>   10.0971    0.0000 </r>
       <r>   20.2293    0.0000 </r>
      </set>
      <set comment="kpoint 124">
       <r>    1.3116    1.0000 </r>
       <r>    4.9102    1.0000 </r>
       <r>    5.3001    1.0000 </r>
       <r>    7.4462    0.0000 </r>
       <r>    9.2082    0.0000 </r>
       <r>   10.1801    0.0000 </r>
       <r>   20.7068    0.0000 </r>
      </set>
      <set comment="kpoint 125">
       <r>    1.3199    1.0000 </r>
       <r>    4.8391    1.0000 </r>
       <r>    5.5089    1.0000 </r>
       <r>    7.1914    0.0001 </r>
       <r>    9.0536    0.0000 </r>
       <r>   10.2133    0.0000 </r>
       <r>   20.9140    0.0000 </r>
      </set>
      <set comment="kpoint 126">
       <r>    1.6167    1.0000 </r>
       <r>    4.6037    1.0000 </r>
       <r>    5.3600    1.0000 </r>
       <r>    8.2697    0.0000 </r>
       <r>   10.3038    0.0000 </r>
       <r>   10.8106    0.0000 </r>
       <r>   19.1024    0.0000 </r>
      </set>
      <set comment="kpoint 127">
       <r>    1.7692    1.0000 </r>
       <r>    4.7262    1.0000 </r>
       <r>    5.1534    1.0000 </r>
       <r>    7.8569    0.0000 </r>
       <r>   10.0363    0.0000 </r>
       <r>   10.5960    0.0000 </r>
       <r>   19.6424    0.0000 </r>
      </set>
      <set comment="kpoint 128">
       <r>    1.9055    1.0000 </r>
       <r>    4.4697    1.0000 </r>
       <r>    5.4234    1.0000 </r>
       <r>    7.5145    0.0000 </r>
       <r>    9.7431    0.0000 </r>
       <r>   10.6464    0.0000 </r>
       <r>   19.9820    0.0000 </r>
      </set>
      <set comment="kpoint 129">
       <r>    1.6970    1.0000 </r>
       <r>    4.4323    1.0000 </r>
       <r>    5.7808    1.0000 </r>
       <r>    8.3317    0.0000 </r>
       <r>   10.7960    0.0000 </r>
       <r>   11.8194    0.0000 </r>
       <r>   17.9600    0.0000 </r>
      </set>
      <set comment="kpoint 130">
       <r>    1.9502    1.0000 </r>
       <r>    4.6542    1.0000 </r>
       <r>    5.2505    1.0000 </r>
       <r>    8.0720    0.0000 </r>
       <r>   10.5210    0.0000 </r>
       <r>   11.6308    0.0000 </r>
       <r>   18.4923    0.0000 </r>
      </set>
      <set comment="kpoint 131">
       <r>    2.2608    1.0000 </r>
       <r>    4.3469    1.0000 </r>
       <r>    5.3112    1.0000 </r>
       <r>    7.8793    0.0000 </r>
       <r>   10.0322    0.0000 </r>
       <r>   11.7204    0.0000 </r>
       <r>   18.9059    0.0000 </r>
      </set>
      <set comment="kpoint 132">
       <r>    2.4296    1.0000 </r>
       <r>    4.1098    1.0000 </r>
       <r>    5.4330    1.0000 </r>
       <r>    7.8018    0.0000 </r>
       <r>    9.8246    0.0000 </r>
       <r>   11.7653    0.0000 </r>
       <r>   19.0698    0.0000 </r>
      </set>
      <set comment="kpoint 133">
       <r>    1.6937    1.0000 </r>
       <r>    4.3440    1.0000 </r>
       <r>    6.1363    1.0000 </r>
       <r>    8.2152    0.0000 </r>
       <r>   11.3169    0.0000 </r>
       <r>   12.4570    0.0000 </r>
       <r>   17.1043    0.0000 </r>
      </set>
      <set comment="kpoint 134">
       <r>    1.9665    1.0000 </r>
       <r>    4.5819    1.0000 </r>
       <r>    5.5289    1.0000 </r>
       <r>    8.0126    0.0000 </r>
       <r>   11.1659    0.0000 </r>
       <r>   12.5590    0.0000 </r>
       <r>   17.3402    0.0000 </r>
      </set>
      <set comment="kpoint 135">
       <r>    2.3562    1.0000 </r>
       <r>    4.4657    1.0000 </r>
       <r>    5.2173    1.0000 </r>
       <r>    8.0168    0.0000 </r>
       <r>   10.5252    0.0000 </r>
       <r>   12.8942    0.0000 </r>
       <r>   17.6392    0.0000 </r>
      </set>
      <set comment="kpoint 136">
       <r>    2.7546    1.0000 </r>
       <r>    4.0018    1.0000 </r>
       <r>    5.2732    1.0000 </r>
       <r>    8.1684    0.0000 </r>
       <r>    9.9806    0.0000 </r>
       <r>   13.0820    0.0000 </r>
       <r>   17.8736    0.0000 </r>
      </set>
      <set comment="kpoint 137">
       <r>    1.9561    1.0000 </r>
       <r>    4.5519    1.0000 </r>
       <r>    5.6761    1.0000 </r>
       <r>    7.9354    0.0000 </r>
       <r>   11.5137    0.0000 </r>
       <r>   12.9614    0.0000 </r>
       <r>   16.7865    0.0000 </r>
      </set>
      <set comment="kpoint 138">
       <r>    2.3451    1.0000 </r>
       <r>    4.6132    1.0000 </r>
       <r>    5.1669    1.0000 </r>
       <r>    7.9822    0.0000 </r>
       <r>   11.0581    0.0000 </r>
       <r>   13.7895    0.0000 </r>
       <r>   16.5831    0.0000 </r>
      </set>
      <set comment="kpoint 139">
       <r>    2.8255    1.0000 </r>
       <r>    4.2186    1.0000 </r>
       <r>    4.9839    1.0000 </r>
       <r>    8.3483    0.0000 </r>
       <r>   10.4049    0.0000 </r>
       <r>   14.3335    0.0000 </r>
       <r>   16.6419    0.0000 </r>
      </set>
      <set comment="kpoint 140">
       <r>    3.1873    1.0000 </r>
       <r>    3.8235    1.0000 </r>
       <r>    4.9698    1.0000 </r>
       <r>    8.6568    0.0000 </r>
       <r>    9.9996    0.0000 </r>
       <r>   14.4897    0.0000 </r>
       <r>   16.7549    0.0000 </r>
      </set>
      <set comment="kpoint 141">
       <r>    2.8172    1.0000 </r>
       <r>    4.5080    1.0000 </r>
       <r>    4.6961    1.0000 </r>
       <r>    8.3784    0.0000 </r>
       <r>   10.6767    0.0000 </r>
       <r>   15.0811    0.0000 </r>
       <r>   15.9068    0.0000 </r>
      </set>
      <set comment="kpoint 142">
       <r>    3.3463    1.0000 </r>
       <r>    4.0444    1.0000 </r>
       <r>    4.5186    1.0000 </r>
       <r>    8.9868    0.0000 </r>
       <r>   10.1359    0.0000 </r>
       <r>   15.4179    0.0000 </r>
       <r>   16.2237    0.0000 </r>
      </set>
      <set comment="kpoint 143">
       <r>    3.7838    1.0000 </r>
       <r>    4.0328    1.0000 </r>
       <r>    4.0328    1.0000 </r>
       <r>    9.6536    0.0000 </r>
       <r>    9.6536    0.0000 </r>
       <r>   15.2480    0.0000 </r>
       <r>   17.5658    0.0000 </r>
      </set>
      <set comment="kpoint 144">
       <r>    2.6454    1.0000 </r>
       <r>    4.0541    1.0000 </r>
       <r>    4.0541    1.0000 </r>
       <r>    9.5503    0.0000 </r>
       <r>    9.5503    0.0000 </r>
       <r>   12.9183    0.0000 </r>
       <r>   18.9608    0.0000 </r>
      </set>
      <set comment="kpoint 145">
       <r>    3.1757    1.0000 </r>
       <r>    3.9300    1.0000 </r>
       <r>    4.2102    1.0000 </r>
       <r>    9.6207    0.0000 </r>
       <r>    9.7922    0.0000 </r>
       <r>   14.1375    0.0000 </r>
       <r>   17.1120    0.0000 </r>
      </set>
      <set comment="kpoint 146">
       <r>    3.2242    1.0000 </r>
       <r>    3.8557    1.0000 </r>
       <r>    4.8553    1.0000 </r>
       <r>    9.6918    0.0000 </r>
       <r>    9.9434    0.0000 </r>
       <r>   15.0299    0.0000 </r>
       <r>   15.7433    0.0000 </r>
      </set>
      <set comment="kpoint 147">
       <r>    3.1795    1.0000 </r>
       <r>    3.8214    1.0000 </r>
       <r>    5.3764    1.0000 </r>
       <r>    9.7278    0.0000 </r>
       <r>   10.0155    0.0000 </r>
       <r>   14.5919    0.0000 </r>
       <r>   15.9330    0.0000 </r>
      </set>
      <set comment="kpoint 148">
       <r>   -0.1174    1.0000 </r>
       <r>    5.9934    1.0000 </r>
       <r>    5.9934    1.0000 </r>
       <r>    6.7236    1.0000 </r>
       <r>    6.9819    0.9870 </r>
       <r>   10.0359    0.0000 </r>
       <r>   23.6515    0.0000 </r>
      </set>
      <set comment="kpoint 149">
       <r>    3.5749    1.0000 </r>
       <r>    4.0110    1.0000 </r>
       <r>    4.2891    1.0000 </r>
       <r>    9.7747    0.0000 </r>
       <r>    9.9113    0.0000 </r>
       <r>   15.0470    0.0000 </r>
       <r>   15.8745    0.0000 </r>
      </set>
      <set comment="kpoint 150">
       <r>    3.5665    1.0000 </r>
       <r>    4.0146    1.0000 </r>
       <r>    4.7979    1.0000 </r>
       <r>    9.8527    0.0000 </r>
       <r>   10.0028    0.0000 </r>
       <r>   14.3322    0.0000 </r>
       <r>   16.4368    0.0000 </r>
      </set>
      <set comment="kpoint 151">
       <r>    3.5467    1.0000 </r>
       <r>    4.0068    1.0000 </r>
       <r>    5.0380    1.0000 </r>
       <r>    9.8775    0.0000 </r>
       <r>   10.0350    0.0000 </r>
       <r>   13.9357    0.0000 </r>
       <r>   16.8392    0.0000 </r>
      </set>
      <set comment="kpoint 152">
       <r>    0.5343    1.0000 </r>
       <r>    5.7211    1.0000 </r>
       <r>    5.9028    1.0000 </r>
       <r>    6.5451    1.0000 </r>
       <r>    7.5589    0.0000 </r>
       <r>   10.1669    0.0000 </r>
       <r>   22.3663    0.0000 </r>
      </set>
      <set comment="kpoint 153">
       <r>    3.6155    1.0000 </r>
       <r>    4.3552    1.0000 </r>
       <r>    4.6991    1.0000 </r>
       <r>    9.9567    0.0000 </r>
       <r>   10.0173    0.0000 </r>
       <r>   13.6970    0.0000 </r>
       <r>   17.4140    0.0000 </r>
      </set>
      <set comment="kpoint 154">
       <r>    1.2161    1.0000 </r>
       <r>    5.1469    1.0000 </r>
       <r>    5.6580    1.0000 </r>
       <r>    6.9215    1.0000 </r>
       <r>    8.4622    0.0000 </r>
       <r>   10.2217    0.0000 </r>
       <r>   21.2607    0.0000 </r>
      </set>
      <set comment="kpoint 155">
       <r>    1.1869    1.0000 </r>
       <r>    5.2248    1.0000 </r>
       <r>    5.9685    1.0000 </r>
       <r>    6.5923    1.0000 </r>
       <r>    8.1628    0.0000 </r>
       <r>   10.2434    0.0000 </r>
       <r>   21.5077    0.0000 </r>
      </set>
      <set comment="kpoint 156">
       <r>    1.7839    1.0000 </r>
       <r>    4.7702    1.0000 </r>
       <r>    5.4001    1.0000 </r>
       <r>    7.3958    0.0000 </r>
       <r>    9.5338    0.0000 </r>
       <r>   10.3020    0.0000 </r>
       <r>   20.3139    0.0000 </r>
      </set>
      <set comment="kpoint 157">
       <r>    1.8125    1.0000 </r>
       <r>    4.6780    1.0000 </r>
       <r>    5.8383    1.0000 </r>
       <r>    6.9888    0.9790 </r>
       <r>    9.0618    0.0000 </r>
       <r>   10.3102    0.0000 </r>
       <r>   20.7450    0.0000 </r>
      </set>
      <set comment="kpoint 158">
       <r>    2.0914    1.0000 </r>
       <r>    4.7264    1.0000 </r>
       <r>    5.1798    1.0000 </r>
       <r>    7.7126    0.0000 </r>
       <r>   10.6578    0.0000 </r>
       <r>   10.6630    0.0000 </r>
       <r>   19.2974    0.0000 </r>
      </set>
      <set comment="kpoint 159">
       <r>    2.2681    1.0000 </r>
       <r>    4.3571    1.0000 </r>
       <r>    5.6385    1.0000 </r>
       <r>    7.4264    0.0000 </r>
       <r>    9.9141    0.0000 </r>
       <r>   10.7434    0.0000 </r>
       <r>   19.9087    0.0000 </r>
      </set>
      <set comment="kpoint 160">
       <r>    2.3563    1.0000 </r>
       <r>    4.1979    1.0000 </r>
       <r>    5.8747    1.0000 </r>
       <r>    7.2903    0.0000 </r>
       <r>    9.6197    0.0000 </r>
       <r>   10.7713    0.0000 </r>
       <r>   20.1507    0.0000 </r>
      </set>
      <set comment="kpoint 161">
       <r>    2.1535    1.0000 </r>
       <r>    4.9495    1.0000 </r>
       <r>    5.0219    1.0000 </r>
       <r>    7.7037    0.0000 </r>
       <r>   11.4394    0.0000 </r>
       <r>   11.6880    0.0000 </r>
       <r>   18.0498    0.0000 </r>
      </set>
      <set comment="kpoint 162">
       <r>    2.4406    1.0000 </r>
       <r>    4.3712    1.0000 </r>
       <r>    5.4426    1.0000 </r>
       <r>    7.6030    0.0000 </r>
       <r>   10.6383    0.0000 </r>
       <r>   11.7664    0.0000 </r>
       <r>   18.7208    0.0000 </r>
      </set>
      <set comment="kpoint 163">
       <r>    2.7313    1.0000 </r>
       <r>    3.9238    1.0000 </r>
       <r>    5.6945    1.0000 </r>
       <r>    7.7061    0.0000 </r>
       <r>    9.9532    0.0000 </r>
       <r>   11.8667    0.0000 </r>
       <r>   19.1604    0.0000 </r>
      </set>
      <set comment="kpoint 164">
       <r>    2.1321    1.0000 </r>
       <r>    4.9399    1.0000 </r>
       <r>    5.1816    1.0000 </r>
       <r>    7.5636    0.0000 </r>
       <r>   12.2564    0.0000 </r>
       <r>   12.3429    0.0000 </r>
       <r>   16.9773    0.0000 </r>
      </set>
      <set comment="kpoint 165">
       <r>    2.4270    1.0000 </r>
       <r>    4.5963    1.0000 </r>
       <r>    5.2686    1.0000 </r>
       <r>    7.5316    0.0000 </r>
       <r>   11.4534    0.0000 </r>
       <r>   12.8532    0.0000 </r>
       <r>   17.3441    0.0000 </r>
      </set>
      <set comment="kpoint 166">
       <r>    2.8171    1.0000 </r>
       <r>    4.0097    1.0000 </r>
       <r>    5.4049    1.0000 </r>
       <r>    7.9082    0.0000 </r>
       <r>   10.5479    0.0000 </r>
       <r>   13.1584    0.0000 </r>
       <r>   17.7823    0.0000 </r>
      </set>
      <set comment="kpoint 167">
       <r>    3.1358    1.0000 </r>
       <r>    3.6206    1.0000 </r>
       <r>    5.4271    1.0000 </r>
       <r>    8.2452    0.0000 </r>
       <r>   10.0485    0.0000 </r>
       <r>   13.2502    0.0000 </r>
       <r>   17.9945    0.0000 </r>
      </set>
      <set comment="kpoint 168">
       <r>    2.4023    1.0000 </r>
       <r>    4.7480    1.0000 </r>
       <r>    5.1678    1.0000 </r>
       <r>    7.4668    0.0000 </r>
       <r>   11.8554    0.0000 </r>
       <r>   13.4371    0.0000 </r>
       <r>   16.5929    0.0000 </r>
      </set>
      <set comment="kpoint 169">
       <r>    2.7701    1.0000 </r>
       <r>    4.2629    1.0000 </r>
       <r>    5.1240    1.0000 </r>
       <r>    7.9307    0.0000 </r>
       <r>   11.1555    0.0000 </r>
       <r>   14.3096    0.0000 </r>
       <r>   16.4896    0.0000 </r>
      </set>
      <set comment="kpoint 170">
       <r>    3.2213    1.0000 </r>
       <r>    3.7416    1.0000 </r>
       <r>    5.0242    1.0000 </r>
       <r>    8.6353    0.0000 </r>
       <r>   10.3880    0.0000 </r>
       <r>   14.6439    0.0000 </r>
       <r>   16.7674    0.0000 </r>
      </set>
      <set comment="kpoint 171">
       <r>    3.1729    1.0000 </r>
       <r>    3.9595    1.0000 </r>
       <r>    4.7752    1.0000 </r>
       <r>    8.7397    0.0000 </r>
       <r>   10.6353    0.0000 </r>
       <r>   15.7561    0.0000 </r>
       <r>   15.7928    0.0000 </r>
      </set>
      <set comment="kpoint 172">
       <r>    3.5496    1.0000 </r>
       <r>    3.6470    1.0000 </r>
       <r>    4.6039    1.0000 </r>
       <r>    9.3916    0.0000 </r>
       <r>   10.1167    0.0000 </r>
       <r>   15.5232    0.0000 </r>
       <r>   16.6680    0.0000 </r>
      </set>
      <set comment="kpoint 173">
       <r>    4.0068    1.0000 </r>
       <r>    4.0068    1.0000 </r>
       <r>    4.3632    1.0000 </r>
       <r>    9.9633    0.0000 </r>
       <r>    9.9633    0.0000 </r>
       <r>   14.2467    0.0000 </r>
       <r>   16.6075    0.0000 </r>
      </set>
      <set comment="kpoint 174">
       <r>    4.0108    1.0000 </r>
       <r>    4.0447    1.0000 </r>
       <r>    4.6616    1.0000 </r>
       <r>    9.9973    0.0000 </r>
       <r>   10.0487    0.0000 </r>
       <r>   13.5805    0.0000 </r>
       <r>   17.4329    0.0000 </r>
      </set>
      <set comment="kpoint 175">
       <r>    1.1441    1.0000 </r>
       <r>    5.4881    1.0000 </r>
       <r>    6.2546    1.0000 </r>
       <r>    6.2546    1.0000 </r>
       <r>    7.7222    0.0000 </r>
       <r>   10.2615    0.0000 </r>
       <r>   21.7770    0.0000 </r>
      </set>
      <set comment="kpoint 176">
       <r>    4.0254    1.0000 </r>
       <r>    4.4123    1.0000 </r>
       <r>    4.4123    1.0000 </r>
       <r>   10.0550    0.0000 </r>
       <r>   10.0550    0.0000 </r>
       <r>   13.3038    0.0000 </r>
       <r>   18.3494    0.0000 </r>
      </set>
      <set comment="kpoint 177">
       <r>    1.7705    1.0000 </r>
       <r>    4.8396    1.0000 </r>
       <r>    6.2773    1.0000 </r>
       <r>    6.6209    1.0000 </r>
       <r>    8.3880    0.0000 </r>
       <r>   10.2680    0.0000 </r>
       <r>   21.2497    0.0000 </r>
      </set>
      <set comment="kpoint 178">
       <r>    2.2951    1.0000 </r>
       <r>    4.3168    1.0000 </r>
       <r>    6.1259    1.0000 </r>
       <r>    7.0880    0.2197 </r>
       <r>    9.3839    0.0000 </r>
       <r>   10.3669    0.0000 </r>
       <r>   20.6968    0.0000 </r>
      </set>
      <set comment="kpoint 179">
       <r>    2.3087    1.0000 </r>
       <r>    4.2970    1.0000 </r>
       <r>    6.4337    1.0000 </r>
       <r>    6.9188    1.0000 </r>
       <r>    9.0328    0.0000 </r>
       <r>   10.3206    0.0000 </r>
       <r>   21.0234    0.0000 </r>
      </set>
      <set comment="kpoint 180">
       <r>    2.5794    1.0000 </r>
       <r>    4.0823    1.0000 </r>
       <r>    5.9556    1.0000 </r>
       <r>    7.3504    0.0000 </r>
       <r>   10.4959    0.0000 </r>
       <r>   10.8842    0.0000 </r>
       <r>   19.7263    0.0000 </r>
      </set>
      <set comment="kpoint 181">
       <r>    2.7042    1.0000 </r>
       <r>    3.8624    1.0000 </r>
       <r>    6.3272    1.0000 </r>
       <r>    7.3510    0.0000 </r>
       <r>    9.7955    0.0000 </r>
       <r>   10.8175    0.0000 </r>
       <r>   20.4096    0.0000 </r>
      </set>
      <set comment="kpoint 182">
       <r>    2.5945    1.0000 </r>
       <r>    4.1533    1.0000 </r>
       <r>    5.8236    1.0000 </r>
       <r>    7.3050    0.0000 </r>
       <r>   11.5308    0.0000 </r>
       <r>   11.9261    0.0000 </r>
       <r>   18.2406    0.0000 </r>
      </set>
      <set comment="kpoint 183">
       <r>    2.8310    1.0000 </r>
       <r>    3.7247    1.0000 </r>
       <r>    6.1352    1.0000 </r>
       <r>    7.5591    0.0000 </r>
       <r>   10.5952    0.0000 </r>
       <r>   11.9165    0.0000 </r>
       <r>   19.0542    0.0000 </r>
      </set>
      <set comment="kpoint 184">
       <r>    3.0109    1.0000 </r>
       <r>    3.4778    1.0000 </r>
       <r>    6.1759    1.0000 </r>
       <r>    7.9057    0.0000 </r>
       <r>   10.0352    0.0000 </r>
       <r>   11.9495    0.0000 </r>
       <r>   19.4176    0.0000 </r>
      </set>
      <set comment="kpoint 185">
       <r>    2.5349    1.0000 </r>
       <r>    4.2896    1.0000 </r>
       <r>    5.7530    1.0000 </r>
       <r>    7.1777    0.0005 </r>
       <r>   12.2040    0.0000 </r>
       <r>   13.0597    0.0000 </r>
       <r>   16.8447    0.0000 </r>
      </set>
      <set comment="kpoint 186">
       <r>    2.7488    1.0000 </r>
       <r>    3.8334    1.0000 </r>
       <r>    5.9599    1.0000 </r>
       <r>    7.5520    0.0000 </r>
       <r>   11.4625    0.0000 </r>
       <r>   13.2174    0.0000 </r>
       <r>   17.3969    0.0000 </r>
      </set>
      <set comment="kpoint 187">
       <r>    3.0421    1.0000 </r>
       <r>    3.4135    1.0000 </r>
       <r>    5.8951    1.0000 </r>
       <r>    8.3207    0.0000 </r>
       <r>   10.5401    0.0000 </r>
       <r>   13.3475    0.0000 </r>
       <r>   17.9373    0.0000 </r>
      </set>
      <set comment="kpoint 188">
       <r>    2.6979    1.0000 </r>
       <r>    3.9054    1.0000 </r>
       <r>    5.8855    1.0000 </r>
       <r>    7.5251    0.0000 </r>
       <r>   11.8694    0.0000 </r>
       <r>   14.0779    0.0000 </r>
       <r>   16.3737    0.0000 </r>
      </set>
      <set comment="kpoint 189">
       <r>    2.9214    1.0000 </r>
       <r>    3.5438    1.0000 </r>
       <r>    5.6914    1.0000 </r>
       <r>    8.4566    0.0000 </r>
       <r>   11.1146    0.0000 </r>
       <r>   14.7447    0.0000 </r>
       <r>   16.4665    0.0000 </r>
      </set>
      <set comment="kpoint 190">
       <r>    3.1494    1.0000 </r>
       <r>    3.2708    1.0000 </r>
       <r>    5.5970    1.0000 </r>
       <r>    9.1342    0.0000 </r>
       <r>   10.5083    0.0000 </r>
       <r>   14.8388    0.0000 </r>
       <r>   16.8477    0.0000 </r>
      </set>
      <set comment="kpoint 191">
       <r>    3.1051    1.0000 </r>
       <r>    3.3152    1.0000 </r>
       <r>    5.4707    1.0000 </r>
       <r>    9.4884    0.0000 </r>
       <r>   10.5130    0.0000 </r>
       <r>   15.7663    0.0000 </r>
       <r>   16.3508    0.0000 </r>
      </set>
      <set comment="kpoint 192">
       <r>    2.2917    1.0000 </r>
       <r>    4.3428    1.0000 </r>
       <r>    6.7791    1.0000 </r>
       <r>    6.7791    1.0000 </r>
       <r>    8.6058    0.0000 </r>
       <r>   10.2386    0.0000 </r>
       <r>   21.3985    0.0000 </r>
      </set>
      <set comment="kpoint 193">
       <r>    2.6849    1.0000 </r>
       <r>    3.8332    1.0000 </r>
       <r>    6.9349    0.9998 </r>
       <r>    7.1747    0.0006 </r>
       <r>    9.3264    0.0000 </r>
       <r>   10.3662    0.0000 </r>
       <r>   21.3696    0.0000 </r>
      </set>
      <set comment="kpoint 194">
       <r>    2.8726    1.0000 </r>
       <r>    3.4919    1.0000 </r>
       <r>    6.8892    1.0000 </r>
       <r>    7.4296    0.0000 </r>
       <r>   10.3482    0.0000 </r>
       <r>   11.0058    0.0000 </r>
       <r>   20.2624    0.0000 </r>
      </set>
      <set comment="kpoint 195">
       <r>    2.9028    1.0000 </r>
       <r>    3.3944    1.0000 </r>
       <r>    7.0624    0.4812 </r>
       <r>    7.6824    0.0000 </r>
       <r>    9.8769    0.0000 </r>
       <r>   10.8645    0.0000 </r>
       <r>   20.8992    0.0000 </r>
      </set>
      <set comment="kpoint 196">
       <r>    2.7920    1.0000 </r>
       <r>    3.4516    1.0000 </r>
       <r>    6.8103    1.0000 </r>
       <r>    7.4260    0.0000 </r>
       <r>   11.3693    0.0000 </r>
       <r>   12.2322    0.0000 </r>
       <r>   18.4433    0.0000 </r>
      </set>
      <set comment="kpoint 197">
       <r>    2.9149    1.0000 </r>
       <r>    3.1500    1.0000 </r>
       <r>    6.9454    0.9994 </r>
       <r>    8.0880    0.0000 </r>
       <r>   10.5640    0.0000 </r>
       <r>   12.0183    0.0000 </r>
       <r>   19.2886    0.0000 </r>
      </set>
      <set comment="kpoint 198">
       <r>    2.6775    1.0000 </r>
       <r>    3.5054    1.0000 </r>
       <r>    6.7609    1.0000 </r>
       <r>    7.3540    0.0000 </r>
       <r>   12.0567    0.0000 </r>
       <r>   13.6488    0.0000 </r>
       <r>   16.7162    0.0000 </r>
      </set>
      <set comment="kpoint 199">
       <r>    2.7382    1.0000 </r>
       <r>    3.1655    1.0000 </r>
       <r>    6.8180    1.0000 </r>
       <r>    8.2172    0.0000 </r>
       <r>   11.3824    0.0000 </r>
       <r>   13.4795    0.0000 </r>
       <r>   17.4361    0.0000 </r>
      </set>
      <set comment="kpoint 200">
       <r>    2.8518    1.0000 </r>
       <r>    2.9553    1.0000 </r>
       <r>    6.7583    1.0000 </r>
       <r>    8.9216    0.0000 </r>
       <r>   10.7344    0.0000 </r>
       <r>   13.4683    0.0000 </r>
       <r>   17.8990    0.0000 </r>
      </set>
      <set comment="kpoint 201">
       <r>    2.6655    1.0000 </r>
       <r>    3.1820    1.0000 </r>
       <r>    6.7666    1.0000 </r>
       <r>    8.2365    0.0000 </r>
       <r>   11.7777    0.0000 </r>
       <r>   14.6226    0.0000 </r>
       <r>   16.1444    0.0000 </r>
      </set>
      <set comment="kpoint 202">
       <r>    2.7292    1.0000 </r>
       <r>    2.9361    1.0000 </r>
       <r>    6.6348    1.0000 </r>
       <r>    9.3567    0.0000 </r>
       <r>   11.0418    0.0000 </r>
       <r>   15.0091    0.0000 </r>
       <r>   16.5023    0.0000 </r>
      </set>
      <set comment="kpoint 203">
       <r>    2.7907    1.0000 </r>
       <r>    2.7907    1.0000 </r>
       <r>    6.5639    1.0000 </r>
       <r>   10.3669    0.0000 </r>
       <r>   10.3669    0.0000 </r>
       <r>   15.8702    0.0000 </r>
       <r>   16.7903    0.0000 </r>
      </set>
      <set comment="kpoint 204">
       <r>    2.8620    1.0000 </r>
       <r>    3.3673    1.0000 </r>
       <r>    7.6046    0.0000 </r>
       <r>    7.6046    0.0000 </r>
       <r>    9.5655    0.0000 </r>
       <r>   10.5111    0.0000 </r>
       <r>   22.2682    0.0000 </r>
      </set>
      <set comment="kpoint 205">
       <r>    2.8645    1.0000 </r>
       <r>    2.9932    1.0000 </r>
       <r>    7.8915    0.0000 </r>
       <r>    8.0034    0.0000 </r>
       <r>   10.2904    0.0000 </r>
       <r>   11.1558    0.0000 </r>
       <r>   20.4848    0.0000 </r>
      </set>
      <set comment="kpoint 206">
       <r>    2.6582    1.0000 </r>
       <r>    2.8847    1.0000 </r>
       <r>    7.9382    0.0000 </r>
       <r>    8.1389    0.0000 </r>
       <r>   11.2293    0.0000 </r>
       <r>   12.4323    0.0000 </r>
       <r>   18.4779    0.0000 </r>
      </set>
      <set comment="kpoint 207">
       <r>    2.6688    1.0000 </r>
       <r>    2.7504    1.0000 </r>
       <r>    7.9807    0.0000 </r>
       <r>    8.7827    0.0000 </r>
       <r>   10.7407    0.0000 </r>
       <r>   12.1652    0.0000 </r>
       <r>   19.0765    0.0000 </r>
      </set>
      <set comment="kpoint 208">
       <r>    2.5137    1.0000 </r>
       <r>    2.8548    1.0000 </r>
       <r>    7.9307    0.0000 </r>
       <r>    8.1470    0.0000 </r>
       <r>   11.9171    0.0000 </r>
       <r>   14.0149    0.0000 </r>
       <r>   16.5696    0.0000 </r>
      </set>
      <set comment="kpoint 209">
       <r>    2.4744    1.0000 </r>
       <r>    2.6398    1.0000 </r>
       <r>    7.9376    0.0000 </r>
       <r>    9.2275    0.0000 </r>
       <r>   11.3262    0.0000 </r>
       <r>   13.6539    0.0000 </r>
       <r>   17.3435    0.0000 </r>
      </set>
      <set comment="kpoint 210">
       <r>    2.4070    1.0000 </r>
       <r>    2.5996    1.0000 </r>
       <r>    7.9144    0.0000 </r>
       <r>    9.3336    0.0000 </r>
       <r>   11.6664    0.0000 </r>
       <r>   14.9940    0.0000 </r>
       <r>   15.9139    0.0000 </r>
      </set>
      <set comment="kpoint 211">
       <r>    2.4044    1.0000 </r>
       <r>    2.4760    1.0000 </r>
       <r>    7.8723    0.0000 </r>
       <r>   10.2371    0.0000 </r>
       <r>   11.1024    0.0000 </r>
       <r>   15.1820    0.0000 </r>
       <r>   16.4188    0.0000 </r>
      </set>
      <set comment="kpoint 212">
       <r>    2.6071    1.0000 </r>
       <r>    2.6797    1.0000 </r>
       <r>    8.7345    0.0000 </r>
       <r>    8.7345    0.0000 </r>
       <r>   10.4999    0.0000 </r>
       <r>   11.6150    0.0000 </r>
       <r>   19.6996    0.0000 </r>
      </set>
      <set comment="kpoint 213">
       <r>    2.3497    1.0000 </r>
       <r>    2.4775    1.0000 </r>
       <r>    9.1212    0.0000 </r>
       <r>    9.1807    0.0000 </r>
       <r>   11.1518    0.0000 </r>
       <r>   12.6884    0.0000 </r>
       <r>   18.1277    0.0000 </r>
      </set>
      <set comment="kpoint 214">
       <r>    2.2223    1.0000 </r>
       <r>    2.3553    1.0000 </r>
       <r>    9.2115    0.0000 </r>
       <r>    9.3270    0.0000 </r>
       <r>   11.7998    0.0000 </r>
       <r>   14.2254    0.0000 </r>
       <r>   16.3411    0.0000 </r>
      </set>
      <set comment="kpoint 215">
       <r>    2.1681    1.0000 </r>
       <r>    2.2619    1.0000 </r>
       <r>    9.2412    0.0000 </r>
       <r>   10.1494    0.0000 </r>
       <r>   11.4315    0.0000 </r>
       <r>   13.8778    0.0000 </r>
       <r>   16.9474    0.0000 </r>
      </set>
      <set comment="kpoint 216">
       <r>    2.1184    1.0000 </r>
       <r>    2.1732    1.0000 </r>
       <r>    9.2532    0.0000 </r>
       <r>   10.5338    0.0000 </r>
       <r>   11.5698    0.0000 </r>
       <r>   15.2074    0.0000 </r>
       <r>   15.6776    0.0000 </r>
      </set>
      <set comment="kpoint 217">
       <r>    2.0885    1.0000 </r>
       <r>    2.1871    1.0000 </r>
       <r>   10.1185    0.0000 </r>
       <r>   10.1185    0.0000 </r>
       <r>   11.2691    0.0000 </r>
       <r>   13.2802    0.0000 </r>
       <r>   17.2486    0.0000 </r>
      </set>
      <set comment="kpoint 218">
       <r>    1.9651    1.0000 </r>
       <r>    2.0164    1.0000 </r>
       <r>   10.5022    0.0000 </r>
       <r>   10.5845    0.0000 </r>
       <r>   11.7179    0.0000 </r>
       <r>   14.4045    0.0000 </r>
       <r>   15.9417    0.0000 </r>
      </set>
      <set comment="kpoint 219">
       <r>    1.9133    1.0000 </r>
       <r>    1.9133    1.0000 </r>
       <r>   10.6063    0.0000 </r>
       <r>   11.5056    0.0000 </r>
       <r>   11.5056    0.0000 </r>
       <r>   15.3088    0.0000 </r>
       <r>   15.3088    0.0000 </r>
      </set>
      <set comment="kpoint 220">
       <r>    1.8260    1.0000 </r>
       <r>    1.8406    1.0000 </r>
       <r>   11.4832    0.0000 </r>
       <r>   11.4832    0.0000 </r>
       <r>   11.7125    0.0000 </r>
       <r>   14.7350    0.0000 </r>
       <r>   15.3377    0.0000 </r>
      </set>
     </set>
    </set>
   </array>
  </eigenvalues>
  <separator name="orbital magnetization" >
   <v name="MAGDIPOLOUT">      0.00000000      0.00000000      0.00000000</v>
  </separator>
  <dos>
   <i name="efermi">      7.06069762 </i>
   <total>
    <array>
     <dimension dim="1">gridpoints</dimension>
     <dimension dim="2">spin</dimension>
     <field>energy</field>
     <field>total</field>
     <field>integrated</field>
     <set>
      <set comment="spin 1">
       <r>    -3.4170     0.0000     0.0000 </r>
       <r>    -3.3223     0.0000     0.0000 </r>
       <r>    -3.2275     0.0000     0.0000 </r>
       <r>    -3.1328     0.0000     0.0000 </r>
       <r>    -3.0381     0.0000     0.0000 </r>
       <r>    -2.9433     0.0000     0.0000 </r>
       <r>    -2.8486     0.0000     0.0000 </r>
       <r>    -2.7538     0.0000     0.0000 </r>
       <r>    -2.6591     0.0000     0.0000 </r>
       <r>    -2.5644     0.0000     0.0000 </r>
       <r>    -2.4696     0.0000     0.0000 </r>
       <r>    -2.3749     0.0000     0.0000 </r>
       <r>    -2.2802     0.0000     0.0000 </r>
       <r>    -2.1854     0.0001     0.0000 </r>
       <r>    -2.0907     0.0027     0.0003 </r>
       <r>    -1.9959     0.0218     0.0023 </r>
       <r>    -1.9012     0.0208     0.0043 </r>
       <r>    -1.8065     0.0215     0.0063 </r>
       <r>    -1.7117     0.0618     0.0122 </r>
       <r>    -1.6170     0.0341     0.0154 </r>
       <r>    -1.5222     0.0495     0.0201 </r>
       <r>    -1.4275     0.0410     0.0240 </r>
       <r>    -1.3328     0.0489     0.0286 </r>
       <r>    -1.2380     0.1107     0.0391 </r>
       <r>    -1.1433     0.0239     0.0414 </r>
       <r>    -1.0485     0.0910     0.0500 </r>
       <r>    -0.9538     0.0729     0.0569 </r>
       <r>    -0.8591     0.0688     0.0634 </r>
       <r>    -0.7643     0.0646     0.0695 </r>
       <r>    -0.6696     0.1319     0.0820 </r>
       <r>    -0.5748     0.1195     0.0934 </r>
       <r>    -0.4801     0.0398     0.0971 </r>
       <r>    -0.3854     0.1319     0.1096 </r>
       <r>    -0.2906     0.0704     0.1163 </r>
       <r>    -0.1959     0.1231     0.1280 </r>
       <r>    -0.1011     0.1128     0.1387 </r>
       <r>    -0.0064     0.1758     0.1553 </r>
       <r>     0.0883     0.1962     0.1739 </r>
       <r>     0.1831     0.0452     0.1782 </r>
       <r>     0.2778     0.1623     0.1935 </r>
       <r>     0.3726     0.0857     0.2017 </r>
       <r>     0.4673     0.1837     0.2191 </r>
       <r>     0.5620     0.1789     0.2360 </r>
       <r>     0.6568     0.2916     0.2637 </r>
       <r>     0.7515     0.2724     0.2895 </r>
       <r>     0.8463     0.0619     0.2953 </r>
       <r>     0.9410     0.2578     0.3197 </r>
       <r>     1.0357     0.1247     0.3316 </r>
       <r>     1.1305     0.2045     0.3509 </r>
       <r>     1.2252     0.5781     0.4057 </r>
       <r>     1.3200     0.6081     0.4633 </r>
       <r>     1.4147     0.7105     0.5306 </r>
       <r>     1.5094     0.3371     0.5626 </r>
       <r>     1.6042     0.7468     0.6333 </r>
       <r>     1.6989     0.5016     0.6808 </r>
       <r>     1.7936     0.5943     0.7371 </r>
       <r>     1.8884     1.0163     0.8334 </r>
       <r>     1.9831     0.9089     0.9195 </r>
       <r>     2.0779     0.5739     0.9739 </r>
       <r>     2.1726     0.5159     1.0228 </r>
       <r>     2.2673     0.7912     1.0977 </r>
       <r>     2.3621     1.2202     1.2133 </r>
       <r>     2.4568     1.1035     1.3179 </r>
       <r>     2.5516     0.7668     1.3905 </r>
       <r>     2.6463     0.5911     1.4465 </r>
       <r>     2.7410     1.6291     1.6009 </r>
       <r>     2.8358     1.3998     1.7335 </r>
       <r>     2.9305     1.1338     1.8409 </r>
       <r>     3.0253     0.6648     1.9039 </r>
       <r>     3.1200     0.6613     1.9665 </r>
       <r>     3.2147     0.9026     2.0520 </r>
       <r>     3.3095     0.4800     2.0975 </r>
       <r>     3.4042     0.3035     2.1263 </r>
       <r>     3.4990     0.3466     2.1591 </r>
       <r>     3.5937     0.5456     2.2108 </r>
       <r>     3.6884     0.2821     2.2375 </r>
       <r>     3.7832     0.3785     2.2734 </r>
       <r>     3.8779     1.2276     2.3897 </r>
       <r>     3.9727     1.5429     2.5359 </r>
       <r>     4.0674     2.6041     2.7826 </r>
       <r>     4.1621     1.8756     2.9603 </r>
       <r>     4.2569     1.9262     3.1427 </r>
       <r>     4.3516     1.9006     3.3228 </r>
       <r>     4.4464     1.3035     3.4463 </r>
       <r>     4.5411     1.2350     3.5633 </r>
       <r>     4.6358     1.3125     3.6876 </r>
       <r>     4.7306     1.0421     3.7864 </r>
       <r>     4.8253     1.2401     3.9039 </r>
       <r>     4.9201     1.5008     4.0460 </r>
       <r>     5.0148     1.3645     4.1753 </r>
       <r>     5.1095     1.7396     4.3401 </r>
       <r>     5.2043     1.8787     4.5181 </r>
       <r>     5.2990     1.8188     4.6904 </r>
       <r>     5.3938     1.7332     4.8546 </r>
       <r>     5.4885     1.4317     4.9903 </r>
       <r>     5.5832     1.3836     5.1214 </r>
       <r>     5.6780     1.2641     5.2411 </r>
       <r>     5.7727     1.2086     5.3556 </r>
       <r>     5.8674     0.8949     5.4404 </r>
       <r>     5.9622     0.8862     5.5244 </r>
       <r>     6.0569     0.5359     5.5751 </r>
       <r>     6.1517     0.3960     5.6126 </r>
       <r>     6.2464     0.3426     5.6451 </r>
       <r>     6.3411     0.5015     5.6926 </r>
       <r>     6.4359     0.4650     5.7367 </r>
       <r>     6.5306     0.2512     5.7605 </r>
       <r>     6.6254     0.3035     5.7892 </r>
       <r>     6.7201     0.2593     5.8138 </r>
       <r>     6.8148     0.6290     5.8734 </r>
       <r>     6.9096     0.4888     5.9197 </r>
       <r>     7.0043     0.5383     5.9707 </r>
       <r>     7.0991     0.5100     6.0190 </r>
       <r>     7.1938     0.3471     6.0519 </r>
       <r>     7.2885     0.1613     6.0672 </r>
       <r>     7.3833     0.5186     6.1163 </r>
       <r>     7.4780     0.9342     6.2048 </r>
       <r>     7.5728     0.9946     6.2990 </r>
       <r>     7.6675     0.5207     6.3484 </r>
       <r>     7.7622     0.5364     6.3992 </r>
       <r>     7.8570     0.6425     6.4601 </r>
       <r>     7.9517     1.0802     6.5624 </r>
       <r>     8.0465     0.9449     6.6519 </r>
       <r>     8.1412     0.7939     6.7271 </r>
       <r>     8.2359     0.9003     6.8124 </r>
       <r>     8.3307     1.1153     6.9181 </r>
       <r>     8.4254     1.3580     7.0468 </r>
       <r>     8.5202     1.0622     7.1474 </r>
       <r>     8.6149     0.8943     7.2321 </r>
       <r>     8.7096     1.0903     7.3354 </r>
       <r>     8.8044     0.9545     7.4258 </r>
       <r>     8.8991     1.1501     7.5348 </r>
       <r>     8.9939     1.0715     7.6363 </r>
       <r>     9.0886     1.2392     7.7537 </r>
       <r>     9.1833     1.3321     7.8799 </r>
       <r>     9.2781     1.8651     8.0566 </r>
       <r>     9.3728     1.6334     8.2114 </r>
       <r>     9.4676     1.1817     8.3233 </r>
       <r>     9.5623     1.2314     8.4400 </r>
       <r>     9.6570     1.0263     8.5372 </r>
       <r>     9.7518     1.4548     8.6750 </r>
       <r>     9.8465     1.9750     8.8621 </r>
       <r>     9.9412     3.2142     9.1667 </r>
       <r>    10.0360     3.5574     9.5037 </r>
       <r>    10.1307     1.4173     9.6380 </r>
       <r>    10.2255     1.1561     9.7475 </r>
       <r>    10.3202     0.8531     9.8283 </r>
       <r>    10.4149     1.3784     9.9589 </r>
       <r>    10.5097     0.9314    10.0472 </r>
       <r>    10.6044     1.4521    10.1847 </r>
       <r>    10.6992     0.7673    10.2574 </r>
       <r>    10.7939     0.6080    10.3150 </r>
       <r>    10.8886     0.3732    10.3504 </r>
       <r>    10.9834     0.1678    10.3663 </r>
       <r>    11.0781     0.3272    10.3973 </r>
       <r>    11.1729     0.5279    10.4473 </r>
       <r>    11.2676     0.2424    10.4703 </r>
       <r>    11.3623     0.2757    10.4964 </r>
       <r>    11.4571     0.4510    10.5391 </r>
       <r>    11.5518     0.8539    10.6200 </r>
       <r>    11.6466     1.1078    10.7250 </r>
       <r>    11.7413     0.5434    10.7764 </r>
       <r>    11.8360     0.4674    10.8207 </r>
       <r>    11.9308     0.5427    10.8721 </r>
       <r>    12.0255     0.3071    10.9012 </r>
       <r>    12.1203     0.1290    10.9135 </r>
       <r>    12.2150     0.1407    10.9268 </r>
       <r>    12.3097     0.1564    10.9416 </r>
       <r>    12.4045     0.0994    10.9510 </r>
       <r>    12.4992     0.4358    10.9923 </r>
       <r>    12.5940     0.4412    11.0341 </r>
       <r>    12.6887     0.3678    11.0690 </r>
       <r>    12.7834     0.3659    11.1036 </r>
       <r>    12.8782     0.7062    11.1705 </r>
       <r>    12.9729     0.3959    11.2080 </r>
       <r>    13.0677     0.1535    11.2226 </r>
       <r>    13.1624     0.3441    11.2552 </r>
       <r>    13.2571     0.3205    11.2856 </r>
       <r>    13.3519     0.2037    11.3049 </r>
       <r>    13.4466     0.3007    11.3333 </r>
       <r>    13.5414     0.3210    11.3638 </r>
       <r>    13.6361     0.2321    11.3858 </r>
       <r>    13.7308     0.2886    11.4131 </r>
       <r>    13.8256     0.3292    11.4443 </r>
       <r>    13.9203     0.2389    11.4669 </r>
       <r>    14.0151     0.4695    11.5114 </r>
       <r>    14.1098     0.4912    11.5579 </r>
       <r>    14.2045     0.1974    11.5766 </r>
       <r>    14.2993     0.3123    11.6062 </r>
       <r>    14.3940     0.4516    11.6490 </r>
       <r>    14.4887     0.2990    11.6773 </r>
       <r>    14.5835     0.2391    11.7000 </r>
       <r>    14.6782     0.4413    11.7418 </r>
       <r>    14.7730     0.2252    11.7631 </r>
       <r>    14.8677     0.3273    11.7941 </r>
       <r>    14.9624     0.1662    11.8099 </r>
       <r>    15.0572     0.6486    11.8713 </r>
       <r>    15.1519     0.4752    11.9163 </r>
       <r>    15.2467     0.3346    11.9481 </r>
       <r>    15.3414     0.2538    11.9721 </r>
       <r>    15.4361     0.1212    11.9836 </r>
       <r>    15.5309     0.1277    11.9957 </r>
       <r>    15.6256     0.1801    12.0128 </r>
       <r>    15.7204     0.4410    12.0545 </r>
       <r>    15.8151     0.7821    12.1286 </r>
       <r>    15.9098     0.3976    12.1663 </r>
       <r>    16.0046     0.2364    12.1887 </r>
       <r>    16.0993     0.2977    12.2169 </r>
       <r>    16.1941     0.1846    12.2344 </r>
       <r>    16.2888     0.2101    12.2543 </r>
       <r>    16.3835     0.3166    12.2843 </r>
       <r>    16.4783     0.5219    12.3337 </r>
       <r>    16.5730     0.4258    12.3741 </r>
       <r>    16.6678     0.7391    12.4441 </r>
       <r>    16.7625     1.0243    12.5411 </r>
       <r>    16.8572     0.8326    12.6200 </r>
       <r>    16.9520     0.3691    12.6550 </r>
       <r>    17.0467     0.2561    12.6792 </r>
       <r>    17.1415     0.2069    12.6988 </r>
       <r>    17.2362     0.1096    12.7092 </r>
       <r>    17.3309     0.2272    12.7307 </r>
       <r>    17.4257     0.6841    12.7956 </r>
       <r>    17.5204     0.3205    12.8259 </r>
       <r>    17.6152     0.2190    12.8467 </r>
       <r>    17.7099     0.3223    12.8772 </r>
       <r>    17.8046     0.2342    12.8994 </r>
       <r>    17.8994     0.4454    12.9416 </r>
       <r>    17.9941     0.5570    12.9944 </r>
       <r>    18.0889     0.2980    13.0226 </r>
       <r>    18.1836     0.0987    13.0319 </r>
       <r>    18.2783     0.1869    13.0496 </r>
       <r>    18.3731     0.1487    13.0637 </r>
       <r>    18.4678     0.2771    13.0900 </r>
       <r>    18.5625     0.3126    13.1196 </r>
       <r>    18.6573     0.0709    13.1263 </r>
       <r>    18.7520     0.2317    13.1483 </r>
       <r>    18.8468     0.1428    13.1618 </r>
       <r>    18.9415     0.2235    13.1830 </r>
       <r>    19.0362     0.2219    13.2040 </r>
       <r>    19.1310     0.4872    13.2501 </r>
       <r>    19.2257     0.2453    13.2734 </r>
       <r>    19.3205     0.3020    13.3020 </r>
       <r>    19.4152     0.1662    13.3177 </r>
       <r>    19.5099     0.0761    13.3250 </r>
       <r>    19.6047     0.0941    13.3339 </r>
       <r>    19.6994     0.3491    13.3669 </r>
       <r>    19.7942     0.0906    13.3755 </r>
       <r>    19.8889     0.0698    13.3821 </r>
       <r>    19.9836     0.4206    13.4220 </r>
       <r>    20.0784     0.2151    13.4424 </r>
       <r>    20.1731     0.1003    13.4519 </r>
       <r>    20.2679     0.1920    13.4701 </r>
       <r>    20.3626     0.2450    13.4933 </r>
       <r>    20.4573     0.3011    13.5218 </r>
       <r>    20.5521     0.0810    13.5295 </r>
       <r>    20.6468     0.0427    13.5335 </r>
       <r>    20.7416     0.4250    13.5738 </r>
       <r>    20.8363     0.2037    13.5931 </r>
       <r>    20.9310     0.2709    13.6187 </r>
       <r>    21.0258     0.0958    13.6278 </r>
       <r>    21.1205     0.0349    13.6311 </r>
       <r>    21.2153     0.0725    13.6380 </r>
       <r>    21.3100     0.4209    13.6779 </r>
       <r>    21.4047     0.1908    13.6960 </r>
       <r>    21.4995     0.1254    13.7078 </r>
       <r>    21.5942     0.1006    13.7174 </r>
       <r>    21.6890     0.0963    13.7265 </r>
       <r>    21.7837     0.1543    13.7411 </r>
       <r>    21.8784     0.1187    13.7523 </r>
       <r>    21.9732     0.0849    13.7604 </r>
       <r>    22.0679     0.1060    13.7704 </r>
       <r>    22.1627     0.0676    13.7768 </r>
       <r>    22.2574     0.1972    13.7955 </r>
       <r>    22.3521     0.1430    13.8091 </r>
       <r>    22.4469     0.1726    13.8254 </r>
       <r>    22.5416     0.1521    13.8398 </r>
       <r>    22.6363     0.1348    13.8526 </r>
       <r>    22.7311     0.2739    13.8785 </r>
       <r>    22.8258     0.3491    13.9116 </r>
       <r>    22.9206     0.2125    13.9317 </r>
       <r>    23.0153     0.1317    13.9442 </r>
       <r>    23.1100     0.0347    13.9475 </r>
       <r>    23.2048     0.1808    13.9646 </r>
       <r>    23.2995     0.1614    13.9799 </r>
       <r>    23.3943     0.0958    13.9890 </r>
       <r>    23.4890     0.0237    13.9912 </r>
       <r>    23.5837     0.0006    13.9913 </r>
       <r>    23.6785     0.0260    13.9938 </r>
       <r>    23.7732     0.0625    13.9997 </r>
       <r>    23.8680     0.0033    14.0000 </r>
       <r>    23.9627     0.0000    14.0000 </r>
       <r>    24.0574     0.0000    14.0000 </r>
       <r>    24.1522     0.0000    14.0000 </r>
       <r>    24.2469     0.0000    14.0000 </r>
       <r>    24.3417     0.0000    14.0000 </r>
       <r>    24.4364     0.0000    14.0000 </r>
       <r>    24.5311     0.0000    14.0000 </r>
       <r>    24.6259     0.0000    14.0000 </r>
       <r>    24.7206     0.0000    14.0000 </r>
       <r>    24.8154     0.0000    14.0000 </r>
       <r>    24.9101     0.0000    14.0000 </r>
       <r>    25.0048     0.0000    14.0000 </r>
      </set>
     </set>
    </array>
   </total>
  </dos>
 </calculation>
 <structure name="finalpos" >
  <crystal>
   <varray name="basis" >
    <v>       2.64032242       0.00000000      -0.93349604 </v>
    <v>      -1.32016120       2.28658640      -0.93349604 </v>
    <v>      -0.00000000      -0.00000001       2.80048608 </v>
   </varray>
   <i name="volume">     16.90744551 </i>
   <varray name="rec_basis" >
    <v>       0.37874162       0.21866657       0.00000000 </v>
    <v>       0.00000000       0.43733314       0.00000000 </v>
    <v>       0.12624730       0.21866673       0.35708087 </v>
   </varray>
  </crystal>
  <varray name="positions" >
   <v>       0.00000000       0.00000000       0.00000000 </v>
  </varray>
 </structure>
</modeling>
