   2   2   0   0
  0.4222003E+02  0.4924414E-09  0.4924413E-09  0.4924413E-09  0.5000000E-15
   1.0000000000000000E-004
  CAR 
 Diamond Sn - EOS static calculation     
      9.13253427     -8.23564451  301      1.88381313      1.00000000
     -8.236  0.0000E+00  0.0000E+00
     -8.178  0.0000E+00  0.0000E+00
     -8.120  0.0000E+00  0.0000E+00
     -8.062  0.0000E+00  0.0000E+00
     -8.004  0.0000E+00  0.0000E+00
     -7.946  0.0000E+00  0.0000E+00
     -7.888  0.0000E+00  0.0000E+00
     -7.830  0.0000E+00  0.0000E+00
     -7.772  0.0000E+00  0.0000E+00
     -7.715  0.1330E-15  0.7698E-17
     -7.657  0.1137E-10  0.6583E-12
     -7.599  0.7586E-07  0.4392E-08
     -7.541  0.4839E-04  0.2806E-05
     -7.483  0.3960E-02  0.2321E-03
     -7.425  0.5002E-01  0.3128E-02
     -7.367  0.1564E+00  0.1219E-01
     -7.309  0.2499E+00  0.2665E-01
     -7.251  0.3094E+00  0.4456E-01
     -7.194  0.3910E+00  0.6720E-01
     -7.136  0.3702E+00  0.8863E-01
     -7.078  0.5229E+00  0.1189E+00
     -7.020  0.5085E+00  0.1483E+00
     -6.962  0.4657E+00  0.1753E+00
     -6.904  0.6852E+00  0.2150E+00
     -6.846  0.6696E+00  0.2537E+00
     -6.788  0.5483E+00  0.2855E+00
     -6.730  0.7640E+00  0.3297E+00
     -6.673  0.8316E+00  0.3779E+00
     -6.615  0.8343E+00  0.4262E+00
     -6.557  0.7021E+00  0.4668E+00
     -6.499  0.9413E+00  0.5213E+00
     -6.441  0.1074E+01  0.5835E+00
     -6.383  0.1121E+01  0.6484E+00
     -6.325  0.8639E+00  0.6984E+00
     -6.267  0.1177E+01  0.7665E+00
     -6.209  0.1694E+01  0.8646E+00
     -6.151  0.1572E+01  0.9556E+00
     -6.094  0.1163E+01  0.1023E+01
     -6.036  0.1554E+01  0.1113E+01
     -5.978  0.1593E+01  0.1205E+01
     -5.920  0.1336E+01  0.1282E+01
     -5.862  0.1189E+01  0.1351E+01
     -5.804  0.1087E+01  0.1414E+01
     -5.746  0.1271E+01  0.1488E+01
     -5.688  0.1367E+01  0.1567E+01
     -5.630  0.8655E+00  0.1617E+01
     -5.573  0.7042E+00  0.1658E+01
     -5.515  0.1092E+01  0.1721E+01
     -5.457  0.1187E+01  0.1790E+01
     -5.399  0.5720E+00  0.1823E+01
     -5.341  0.4662E+00  0.1850E+01
     -5.283  0.6357E+00  0.1887E+01
     -5.225  0.9567E+00  0.1942E+01
     -5.167  0.4203E+00  0.1966E+01
     -5.109  0.1203E+00  0.1973E+01
     -5.051  0.9678E-01  0.1979E+01
     -4.994  0.3202E+00  0.1998E+01
     -4.936  0.3830E+00  0.2020E+01
     -4.878  0.1174E+00  0.2027E+01
     -4.820  0.7968E-01  0.2031E+01
     -4.762  0.2170E+00  0.2044E+01
     -4.704  0.8090E+00  0.2091E+01
     -4.646  0.8112E+00  0.2137E+01
     -4.588  0.3814E+00  0.2160E+01
     -4.530  0.4257E+00  0.2184E+01
     -4.473  0.5631E+00  0.2217E+01
     -4.415  0.1280E+01  0.2291E+01
     -4.357  0.9114E+00  0.2344E+01
     -4.299  0.5942E+00  0.2378E+01
     -4.241  0.6294E+00  0.2415E+01
     -4.183  0.1102E+01  0.2478E+01
     -4.125  0.1257E+01  0.2551E+01
     -4.067  0.1058E+01  0.2612E+01
     -4.009  0.1128E+01  0.2678E+01
     -3.951  0.7865E+00  0.2723E+01
     -3.894  0.1207E+01  0.2793E+01
     -3.836  0.1633E+01  0.2888E+01
     -3.778  0.1536E+01  0.2977E+01
     -3.720  0.1047E+01  0.3037E+01
     -3.662  0.9288E+00  0.3091E+01
     -3.604  0.6714E+00  0.3130E+01
     -3.546  0.9822E+00  0.3187E+01
     -3.488  0.1025E+01  0.3246E+01
     -3.430  0.7866E+00  0.3292E+01
     -3.373  0.4898E+00  0.3320E+01
     -3.315  0.6396E+00  0.3357E+01
     -3.257  0.5778E+00  0.3390E+01
     -3.199  0.3614E+00  0.3411E+01
     -3.141  0.6948E+00  0.3452E+01
     -3.083  0.7084E+00  0.3493E+01
     -3.025  0.5717E+00  0.3526E+01
     -2.967  0.3089E+00  0.3544E+01
     -2.909  0.3176E+00  0.3562E+01
     -2.852  0.3369E+00  0.3581E+01
     -2.794  0.5125E+00  0.3611E+01
     -2.736  0.4246E+00  0.3636E+01
     -2.678  0.3293E+00  0.3655E+01
     -2.620  0.3726E+00  0.3676E+01
     -2.562  0.3929E+00  0.3699E+01
     -2.504  0.3390E+00  0.3719E+01
     -2.446  0.2511E+00  0.3733E+01
     -2.388  0.1371E+00  0.3741E+01
     -2.330  0.1923E+00  0.3752E+01
     -2.273  0.3707E+00  0.3774E+01
     -2.215  0.3786E+00  0.3796E+01
     -2.157  0.1380E+00  0.3804E+01
     -2.099  0.3138E+00  0.3822E+01
     -2.041  0.2415E+00  0.3836E+01
     -1.983  0.8202E-01  0.3841E+01
     -1.925  0.2040E+00  0.3852E+01
     -1.867  0.1518E+00  0.3861E+01
     -1.809  0.7305E-01  0.3865E+01
     -1.752  0.1857E+00  0.3876E+01
     -1.694  0.2525E+00  0.3891E+01
     -1.636  0.2910E+00  0.3908E+01
     -1.578  0.1215E+00  0.3915E+01
     -1.520  0.4729E-01  0.3917E+01
     -1.462  0.3224E-01  0.3919E+01
     -1.404  0.9053E-01  0.3924E+01
     -1.346  0.1627E+00  0.3934E+01
     -1.288  0.1475E+00  0.3942E+01
     -1.230  0.4167E-01  0.3945E+01
     -1.173  0.5332E-01  0.3948E+01
     -1.115  0.2205E+00  0.3961E+01
     -1.057  0.1227E+00  0.3968E+01
     -0.999  0.1426E-01  0.3969E+01
     -0.941  0.2827E-01  0.3970E+01
     -0.883  0.1741E-01  0.3971E+01
     -0.825  0.2844E-01  0.3973E+01
     -0.767  0.9040E-01  0.3978E+01
     -0.709  0.1651E+00  0.3988E+01
     -0.652  0.4249E+00  0.4012E+01
     -0.594  0.1189E+01  0.4081E+01
     -0.536  0.1962E+01  0.4195E+01
     -0.478  0.2220E+01  0.4323E+01
     -0.420  0.2055E+01  0.4442E+01
     -0.362  0.2082E+01  0.4563E+01
     -0.304  0.1902E+01  0.4673E+01
     -0.246  0.1534E+01  0.4762E+01
     -0.188  0.1885E+01  0.4871E+01
     -0.130  0.1662E+01  0.4967E+01
     -0.073  0.1780E+01  0.5070E+01
     -0.015  0.2119E+01  0.5193E+01
      0.043  0.2195E+01  0.5320E+01
      0.101  0.2258E+01  0.5451E+01
      0.159  0.2270E+01  0.5582E+01
      0.217  0.2140E+01  0.5706E+01
      0.275  0.2165E+01  0.5831E+01
      0.333  0.2791E+01  0.5993E+01
      0.391  0.2770E+01  0.6153E+01
      0.448  0.1714E+01  0.6252E+01
      0.506  0.1485E+01  0.6338E+01
      0.564  0.2295E+01  0.6471E+01
      0.622  0.2330E+01  0.6606E+01
      0.680  0.1965E+01  0.6720E+01
      0.738  0.2026E+01  0.6837E+01
      0.796  0.2084E+01  0.6958E+01
      0.854  0.1741E+01  0.7059E+01
      0.912  0.1699E+01  0.7157E+01
      0.969  0.1998E+01  0.7273E+01
      1.027  0.1695E+01  0.7371E+01
      1.085  0.1862E+01  0.7479E+01
      1.143  0.1315E+01  0.7555E+01
      1.201  0.1013E+01  0.7613E+01
      1.259  0.1006E+01  0.7672E+01
      1.317  0.1074E+01  0.7734E+01
      1.375  0.7300E+00  0.7776E+01
      1.433  0.6120E+00  0.7811E+01
      1.491  0.7461E+00  0.7855E+01
      1.548  0.4914E+00  0.7883E+01
      1.606  0.3746E+00  0.7905E+01
      1.664  0.5963E+00  0.7939E+01
      1.722  0.4218E+00  0.7964E+01
      1.780  0.2077E+00  0.7976E+01
      1.838  0.2744E+00  0.7992E+01
      1.896  0.1749E+00  0.8002E+01
      1.954  0.2082E+00  0.8014E+01
      2.012  0.3824E+00  0.8036E+01
      2.069  0.5192E+00  0.8066E+01
      2.127  0.3740E+00  0.8088E+01
      2.185  0.2689E+00  0.8103E+01
      2.243  0.2993E+00  0.8121E+01
      2.301  0.3508E+00  0.8141E+01
      2.359  0.2950E+00  0.8158E+01
      2.417  0.3750E+00  0.8180E+01
      2.475  0.6844E+00  0.8219E+01
      2.533  0.6420E+00  0.8256E+01
      2.591  0.8369E+00  0.8305E+01
      2.648  0.8744E+00  0.8356E+01
      2.706  0.7229E+00  0.8397E+01
      2.764  0.4829E+00  0.8425E+01
      2.822  0.2910E+00  0.8442E+01
      2.880  0.8042E+00  0.8489E+01
      2.938  0.2062E+01  0.8608E+01
      2.996  0.2358E+01  0.8745E+01
      3.054  0.1736E+01  0.8845E+01
      3.112  0.2049E+01  0.8964E+01
      3.169  0.2538E+01  0.9111E+01
      3.227  0.2917E+01  0.9280E+01
      3.285  0.2980E+01  0.9452E+01
      3.343  0.2113E+01  0.9574E+01
      3.401  0.1162E+01  0.9642E+01
      3.459  0.6174E+00  0.9677E+01
      3.517  0.5958E+00  0.9712E+01
      3.575  0.1419E+01  0.9794E+01
      3.633  0.2479E+01  0.9938E+01
      3.691  0.2675E+01  0.1009E+02
      3.748  0.1968E+01  0.1021E+02
      3.806  0.1014E+01  0.1027E+02
      3.864  0.4471E+00  0.1029E+02
      3.922  0.3199E+00  0.1031E+02
      3.980  0.2384E+00  0.1032E+02
      4.038  0.6408E+00  0.1036E+02
      4.096  0.8849E+00  0.1041E+02
      4.154  0.1412E+01  0.1049E+02
      4.212  0.2390E+01  0.1063E+02
      4.269  0.2150E+01  0.1076E+02
      4.327  0.1034E+01  0.1082E+02
      4.385  0.6150E+00  0.1085E+02
      4.443  0.6882E+00  0.1089E+02
      4.501  0.9879E+00  0.1095E+02
      4.559  0.9209E+00  0.1100E+02
      4.617  0.1186E+01  0.1107E+02
      4.675  0.1359E+01  0.1115E+02
      4.733  0.1654E+01  0.1125E+02
      4.790  0.2069E+01  0.1136E+02
      4.848  0.2811E+01  0.1153E+02
      4.906  0.3428E+01  0.1173E+02
      4.964  0.2790E+01  0.1189E+02
      5.022  0.1974E+01  0.1200E+02
      5.080  0.1604E+01  0.1209E+02
      5.138  0.1406E+01  0.1218E+02
      5.196  0.1290E+01  0.1225E+02
      5.254  0.9215E+00  0.1230E+02
      5.312  0.1543E+01  0.1239E+02
      5.369  0.1785E+01  0.1250E+02
      5.427  0.9319E+00  0.1255E+02
      5.485  0.1088E+01  0.1261E+02
      5.543  0.1547E+01  0.1270E+02
      5.601  0.1432E+01  0.1279E+02
      5.659  0.1581E+01  0.1288E+02
      5.717  0.2712E+01  0.1303E+02
      5.775  0.3221E+01  0.1322E+02
      5.833  0.2044E+01  0.1334E+02
      5.890  0.1945E+01  0.1345E+02
      5.948  0.2400E+01  0.1359E+02
      6.006  0.1654E+01  0.1369E+02
      6.064  0.1474E+01  0.1377E+02
      6.122  0.2545E+01  0.1392E+02
      6.180  0.2603E+01  0.1407E+02
      6.238  0.1964E+01  0.1418E+02
      6.296  0.1483E+01  0.1427E+02
      6.354  0.1492E+01  0.1436E+02
      6.412  0.1585E+01  0.1445E+02
      6.469  0.1594E+01  0.1454E+02
      6.527  0.1913E+01  0.1465E+02
      6.585  0.2150E+01  0.1478E+02
      6.643  0.2300E+01  0.1491E+02
      6.701  0.1503E+01  0.1500E+02
      6.759  0.1370E+01  0.1507E+02
      6.817  0.1330E+01  0.1515E+02
      6.875  0.9448E+00  0.1521E+02
      6.933  0.1418E+01  0.1529E+02
      6.990  0.1143E+01  0.1535E+02
      7.048  0.9099E+00  0.1541E+02
      7.106  0.1173E+01  0.1548E+02
      7.164  0.1207E+01  0.1555E+02
      7.222  0.6662E+00  0.1558E+02
      7.280  0.6399E+00  0.1562E+02
      7.338  0.7389E+00  0.1566E+02
      7.396  0.8500E+00  0.1571E+02
      7.454  0.6549E+00  0.1575E+02
      7.512  0.6612E+00  0.1579E+02
      7.569  0.8359E+00  0.1584E+02
      7.627  0.6267E+00  0.1587E+02
      7.685  0.2697E+00  0.1589E+02
      7.743  0.3247E+00  0.1591E+02
      7.801  0.3212E+00  0.1593E+02
      7.859  0.1824E+00  0.1594E+02
      7.917  0.3846E-01  0.1594E+02
      7.975  0.1403E+00  0.1595E+02
      8.033  0.3089E+00  0.1597E+02
      8.090  0.2583E+00  0.1598E+02
      8.148  0.1331E+00  0.1599E+02
      8.206  0.1217E+00  0.1600E+02
      8.264  0.2902E-01  0.1600E+02
      8.322  0.1400E-01  0.1600E+02
      8.380  0.2913E-01  0.1600E+02
      8.438  0.7338E-02  0.1600E+02
      8.496  0.1861E-03  0.1600E+02
      8.554  0.4001E-06  0.1600E+02
      8.611  0.6600E-10  0.1600E+02
      8.669  0.7978E-15  0.1600E+02
      8.727  0.0000E+00  0.1600E+02
      8.785  0.0000E+00  0.1600E+02
      8.843  0.0000E+00  0.1600E+02
      8.901  0.0000E+00  0.1600E+02
      8.959  0.0000E+00  0.1600E+02
      9.017  0.0000E+00  0.1600E+02
      9.075  0.0000E+00  0.1600E+02
      9.133  0.0000E+00  0.1600E+02
