<?xml version="1.0" encoding="ISO-8859-1"?>
<modeling>
 <generator>
  <i name="program" type="string">vasp </i>
  <i name="version" type="string">6.4.2  </i>
  <i name="subversion" type="string">20Jul23 (build Mar  2 2025 11:04:54) complex                          parallel </i>
  <i name="platform" type="string">LinuxNV </i>
  <i name="date" type="string">2026 04 18 </i>
  <i name="time" type="string">11:27:15 </i>
 </generator>
 <incar>
  <i type="string" name="SYSTEM">Diamond Sn - EOS static calculation</i>
  <i type="string" name="PREC">Accurate</i>
  <i type="int" name="NELM">   100</i>
  <i type="int" name="IBRION">    -1</i>
  <i name="EDIFF">      0.00000100</i>
  <i type="int" name="NSW">     0</i>
  <i type="int" name="ISIF">     2</i>
  <i name="ENCUT">    500.00000000</i>
  <i type="int" name="ISMEAR">     0</i>
  <i name="SIGMA">      0.05000000</i>
  <i name="KSPACING">      0.10000000</i>
  <i type="logical" name="KGAMMA"> T  </i>
  <i type="logical" name="LWAVE"> F  </i>
  <i type="logical" name="LCHARG"> F  </i>
 </incar>
 <primitive_cell>
  <structure name="primitive_cell" >
   <crystal>
    <varray name="basis" >
     <v>       4.26466777      -0.00000000       2.46220654 </v>
     <v>       1.42155557       4.02076672       2.46220654 </v>
     <v>       0.00000000      -0.00000000       4.92441307 </v>
    </varray>
    <i name="volume">     84.44006441 </i>
    <varray name="rec_basis" >
     <v>       0.23448485      -0.08290291      -0.00000000 </v>
     <v>       0.00000000       0.24870878       0.00000000 </v>
     <v>      -0.11724243      -0.08290294       0.20306989 </v>
    </varray>
   </crystal>
   <varray name="positions" >
    <v>       0.87500000       0.87500000       0.87500000 </v>
    <v>       0.12500000       0.12500000       0.12500000 </v>
   </varray>
  </structure>
  <varray name="primitive_index" >
   <v type="int" >        1 </v>
   <v type="int" >        2 </v>
  </varray>
 </primitive_cell>
 <kpoints>
  <generation param="Gamma">
   <v type="int" name="divisions">      16       16       16 </v>
   <v name="usershift">      0.00000000       0.00000000       0.00000000 </v>
   <v name="genvec1">      0.06250000       0.00000000       0.00000000 </v>
   <v name="genvec2">      0.00000000       0.06250000       0.00000000 </v>
   <v name="genvec3">     -0.00000000       0.00000000       0.06250000 </v>
   <v name="shift">      0.00000000       0.00000000       0.00000000 </v>
  </generation>
  <varray name="kpointlist" >
   <v>       0.00000000       0.00000000       0.00000000 </v>
   <v>       0.06250000       0.00000000       0.00000000 </v>
   <v>       0.12500000       0.00000000       0.00000000 </v>
   <v>       0.18750000       0.00000000       0.00000000 </v>
   <v>       0.25000000       0.00000000       0.00000000 </v>
   <v>       0.31250000       0.00000000       0.00000000 </v>
   <v>       0.37500000       0.00000000       0.00000000 </v>
   <v>       0.43750000       0.00000000       0.00000000 </v>
   <v>       0.50000000       0.00000000       0.00000000 </v>
   <v>       0.06250000       0.06250000       0.00000000 </v>
   <v>       0.12500000       0.06250000       0.00000000 </v>
   <v>       0.18750000       0.06250000       0.00000000 </v>
   <v>       0.25000000       0.06250000       0.00000000 </v>
   <v>       0.31250000       0.06250000       0.00000000 </v>
   <v>       0.37500000       0.06250000       0.00000000 </v>
   <v>       0.43750000       0.06250000       0.00000000 </v>
   <v>       0.50000000       0.06250000       0.00000000 </v>
   <v>      -0.43750000       0.06250000       0.00000000 </v>
   <v>      -0.37500000       0.06250000       0.00000000 </v>
   <v>      -0.31250000       0.06250000       0.00000000 </v>
   <v>      -0.25000000       0.06250000       0.00000000 </v>
   <v>      -0.18750000       0.06250000       0.00000000 </v>
   <v>      -0.12500000       0.06250000       0.00000000 </v>
   <v>      -0.06250000       0.06250000       0.00000000 </v>
   <v>       0.12500000       0.12500000       0.00000000 </v>
   <v>       0.18750000       0.12500000       0.00000000 </v>
   <v>       0.25000000       0.12500000       0.00000000 </v>
   <v>       0.31250000       0.12500000       0.00000000 </v>
   <v>       0.37500000       0.12500000       0.00000000 </v>
   <v>       0.43750000       0.12500000       0.00000000 </v>
   <v>       0.50000000       0.12500000       0.00000000 </v>
   <v>      -0.43750000       0.12500000       0.00000000 </v>
   <v>      -0.37500000       0.12500000       0.00000000 </v>
   <v>      -0.31250000       0.12500000       0.00000000 </v>
   <v>      -0.25000000       0.12500000       0.00000000 </v>
   <v>      -0.18750000       0.12500000       0.00000000 </v>
   <v>      -0.12500000       0.12500000       0.00000000 </v>
   <v>       0.18750000       0.18750000       0.00000000 </v>
   <v>       0.25000000       0.18750000       0.00000000 </v>
   <v>       0.31250000       0.18750000       0.00000000 </v>
   <v>       0.37500000       0.18750000       0.00000000 </v>
   <v>       0.43750000       0.18750000       0.00000000 </v>
   <v>       0.50000000       0.18750000       0.00000000 </v>
   <v>      -0.43750000       0.18750000       0.00000000 </v>
   <v>      -0.37500000       0.18750000       0.00000000 </v>
   <v>      -0.31250000       0.18750000       0.00000000 </v>
   <v>      -0.25000000       0.18750000       0.00000000 </v>
   <v>      -0.18750000       0.18750000       0.00000000 </v>
   <v>       0.25000000       0.25000000       0.00000000 </v>
   <v>       0.31250000       0.25000000       0.00000000 </v>
   <v>       0.37500000       0.25000000       0.00000000 </v>
   <v>       0.43750000       0.25000000       0.00000000 </v>
   <v>       0.50000000       0.25000000       0.00000000 </v>
   <v>      -0.43750000       0.25000000       0.00000000 </v>
   <v>      -0.37500000       0.25000000       0.00000000 </v>
   <v>      -0.31250000       0.25000000       0.00000000 </v>
   <v>      -0.25000000       0.25000000       0.00000000 </v>
   <v>       0.31250000       0.31250000       0.00000000 </v>
   <v>       0.37500000       0.31250000       0.00000000 </v>
   <v>       0.43750000       0.31250000       0.00000000 </v>
   <v>       0.50000000       0.31250000       0.00000000 </v>
   <v>      -0.43750000       0.31250000       0.00000000 </v>
   <v>      -0.37500000       0.31250000       0.00000000 </v>
   <v>      -0.31250000       0.31250000       0.00000000 </v>
   <v>       0.37500000       0.37500000       0.00000000 </v>
   <v>       0.43750000       0.37500000       0.00000000 </v>
   <v>       0.50000000       0.37500000       0.00000000 </v>
   <v>      -0.43750000       0.37500000       0.00000000 </v>
   <v>      -0.37500000       0.37500000       0.00000000 </v>
   <v>       0.43750000       0.43750000       0.00000000 </v>
   <v>       0.50000000       0.43750000       0.00000000 </v>
   <v>      -0.43750000       0.43750000       0.00000000 </v>
   <v>       0.50000000       0.50000000       0.00000000 </v>
   <v>       0.18750000       0.12500000       0.06250000 </v>
   <v>       0.25000000       0.12500000       0.06250000 </v>
   <v>       0.31250000       0.12500000       0.06250000 </v>
   <v>       0.37500000       0.12500000       0.06250000 </v>
   <v>       0.43750000       0.12500000       0.06250000 </v>
   <v>       0.50000000       0.12500000       0.06250000 </v>
   <v>      -0.43750000       0.12500000       0.06250000 </v>
   <v>       0.25000000       0.18750000       0.06250000 </v>
   <v>       0.31250000       0.18750000       0.06250000 </v>
   <v>       0.37500000       0.18750000       0.06250000 </v>
   <v>       0.43750000       0.18750000       0.06250000 </v>
   <v>       0.50000000       0.18750000       0.06250000 </v>
   <v>      -0.43750000       0.18750000       0.06250000 </v>
   <v>      -0.37500000       0.18750000       0.06250000 </v>
   <v>      -0.31250000       0.18750000       0.06250000 </v>
   <v>      -0.25000000       0.18750000       0.06250000 </v>
   <v>      -0.18750000       0.18750000       0.06250000 </v>
   <v>      -0.12500000       0.18750000       0.06250000 </v>
   <v>       0.31250000       0.25000000       0.06250000 </v>
   <v>       0.37500000       0.25000000       0.06250000 </v>
   <v>       0.43750000       0.25000000       0.06250000 </v>
   <v>       0.50000000       0.25000000       0.06250000 </v>
   <v>      -0.43750000       0.25000000       0.06250000 </v>
   <v>      -0.37500000       0.25000000       0.06250000 </v>
   <v>      -0.31250000       0.25000000       0.06250000 </v>
   <v>      -0.25000000       0.25000000       0.06250000 </v>
   <v>      -0.18750000       0.25000000       0.06250000 </v>
   <v>       0.37500000       0.31250000       0.06250000 </v>
   <v>       0.43750000       0.31250000       0.06250000 </v>
   <v>       0.50000000       0.31250000       0.06250000 </v>
   <v>      -0.43750000       0.31250000       0.06250000 </v>
   <v>      -0.37500000       0.31250000       0.06250000 </v>
   <v>      -0.31250000       0.31250000       0.06250000 </v>
   <v>      -0.25000000       0.31250000       0.06250000 </v>
   <v>       0.43750000       0.37500000       0.06250000 </v>
   <v>       0.50000000       0.37500000       0.06250000 </v>
   <v>      -0.43750000       0.37500000       0.06250000 </v>
   <v>      -0.37500000       0.37500000       0.06250000 </v>
   <v>      -0.31250000       0.37500000       0.06250000 </v>
   <v>       0.50000000       0.43750000       0.06250000 </v>
   <v>      -0.43750000       0.43750000       0.06250000 </v>
   <v>      -0.37500000       0.43750000       0.06250000 </v>
   <v>      -0.43750000       0.50000000       0.06250000 </v>
   <v>       0.37500000       0.25000000       0.12500000 </v>
   <v>       0.43750000       0.25000000       0.12500000 </v>
   <v>       0.50000000       0.25000000       0.12500000 </v>
   <v>      -0.43750000       0.25000000       0.12500000 </v>
   <v>      -0.37500000       0.25000000       0.12500000 </v>
   <v>       0.43750000       0.31250000       0.12500000 </v>
   <v>       0.50000000       0.31250000       0.12500000 </v>
   <v>      -0.43750000       0.31250000       0.12500000 </v>
   <v>      -0.37500000       0.31250000       0.12500000 </v>
   <v>      -0.31250000       0.31250000       0.12500000 </v>
   <v>      -0.25000000       0.31250000       0.12500000 </v>
   <v>      -0.18750000       0.31250000       0.12500000 </v>
   <v>       0.50000000       0.37500000       0.12500000 </v>
   <v>      -0.43750000       0.37500000       0.12500000 </v>
   <v>      -0.37500000       0.37500000       0.12500000 </v>
   <v>      -0.31250000       0.37500000       0.12500000 </v>
   <v>      -0.25000000       0.37500000       0.12500000 </v>
   <v>      -0.43750000       0.43750000       0.12500000 </v>
   <v>      -0.37500000       0.43750000       0.12500000 </v>
   <v>      -0.31250000       0.43750000       0.12500000 </v>
   <v>      -0.37500000       0.50000000       0.12500000 </v>
   <v>      -0.43750000       0.37500000       0.18750000 </v>
   <v>      -0.37500000       0.37500000       0.18750000 </v>
   <v>      -0.31250000       0.37500000       0.18750000 </v>
   <v>      -0.37500000       0.43750000       0.18750000 </v>
   <v>      -0.31250000       0.43750000       0.18750000 </v>
   <v>      -0.25000000       0.43750000       0.18750000 </v>
   <v>      -0.31250000       0.50000000       0.18750000 </v>
   <v>      -0.25000000       0.50000000       0.25000000 </v>
  </varray>
  <varray name="weights" >
   <v>       0.00024414 </v>
   <v>       0.00195313 </v>
   <v>       0.00195313 </v>
   <v>       0.00195313 </v>
   <v>       0.00195313 </v>
   <v>       0.00195313 </v>
   <v>       0.00195313 </v>
   <v>       0.00195313 </v>
   <v>       0.00097656 </v>
   <v>       0.00146484 </v>
   <v>       0.00585938 </v>
   <v>       0.00585938 </v>
   <v>       0.00585938 </v>
   <v>       0.00585938 </v>
   <v>       0.00585938 </v>
   <v>       0.00585938 </v>
   <v>       0.00585938 </v>
   <v>       0.00585938 </v>
   <v>       0.00585938 </v>
   <v>       0.00585938 </v>
   <v>       0.00585938 </v>
   <v>       0.00585938 </v>
   <v>       0.00585938 </v>
   <v>       0.00292969 </v>
   <v>       0.00146484 </v>
   <v>       0.00585938 </v>
   <v>       0.00585938 </v>
   <v>       0.00585938 </v>
   <v>       0.00585938 </v>
   <v>       0.00585938 </v>
   <v>       0.00585938 </v>
   <v>       0.00585938 </v>
   <v>       0.00585938 </v>
   <v>       0.00585938 </v>
   <v>       0.00585938 </v>
   <v>       0.00585938 </v>
   <v>       0.00292969 </v>
   <v>       0.00146484 </v>
   <v>       0.00585938 </v>
   <v>       0.00585938 </v>
   <v>       0.00585938 </v>
   <v>       0.00585938 </v>
   <v>       0.00585938 </v>
   <v>       0.00585938 </v>
   <v>       0.00585938 </v>
   <v>       0.00585938 </v>
   <v>       0.00585938 </v>
   <v>       0.00292969 </v>
   <v>       0.00146484 </v>
   <v>       0.00585938 </v>
   <v>       0.00585938 </v>
   <v>       0.00585938 </v>
   <v>       0.00585938 </v>
   <v>       0.00585938 </v>
   <v>       0.00585938 </v>
   <v>       0.00585938 </v>
   <v>       0.00292969 </v>
   <v>       0.00146484 </v>
   <v>       0.00585938 </v>
   <v>       0.00585938 </v>
   <v>       0.00585938 </v>
   <v>       0.00585938 </v>
   <v>       0.00585938 </v>
   <v>       0.00292969 </v>
   <v>       0.00146484 </v>
   <v>       0.00585938 </v>
   <v>       0.00585938 </v>
   <v>       0.00585938 </v>
   <v>       0.00292969 </v>
   <v>       0.00146484 </v>
   <v>       0.00585938 </v>
   <v>       0.00292969 </v>
   <v>       0.00073242 </v>
   <v>       0.00585938 </v>
   <v>       0.01171875 </v>
   <v>       0.01171875 </v>
   <v>       0.01171875 </v>
   <v>       0.01171875 </v>
   <v>       0.01171875 </v>
   <v>       0.00585938 </v>
   <v>       0.00585938 </v>
   <v>       0.01171875 </v>
   <v>       0.01171875 </v>
   <v>       0.01171875 </v>
   <v>       0.01171875 </v>
   <v>       0.01171875 </v>
   <v>       0.01171875 </v>
   <v>       0.01171875 </v>
   <v>       0.01171875 </v>
   <v>       0.01171875 </v>
   <v>       0.00585938 </v>
   <v>       0.00585938 </v>
   <v>       0.01171875 </v>
   <v>       0.01171875 </v>
   <v>       0.01171875 </v>
   <v>       0.01171875 </v>
   <v>       0.01171875 </v>
   <v>       0.01171875 </v>
   <v>       0.01171875 </v>
   <v>       0.00585938 </v>
   <v>       0.00585938 </v>
   <v>       0.01171875 </v>
   <v>       0.01171875 </v>
   <v>       0.01171875 </v>
   <v>       0.01171875 </v>
   <v>       0.01171875 </v>
   <v>       0.00585938 </v>
   <v>       0.00585938 </v>
   <v>       0.01171875 </v>
   <v>       0.01171875 </v>
   <v>       0.01171875 </v>
   <v>       0.00585938 </v>
   <v>       0.00585938 </v>
   <v>       0.01171875 </v>
   <v>       0.00585938 </v>
   <v>       0.00292969 </v>
   <v>       0.00585938 </v>
   <v>       0.01171875 </v>
   <v>       0.01171875 </v>
   <v>       0.01171875 </v>
   <v>       0.00585938 </v>
   <v>       0.00585938 </v>
   <v>       0.01171875 </v>
   <v>       0.01171875 </v>
   <v>       0.01171875 </v>
   <v>       0.01171875 </v>
   <v>       0.01171875 </v>
   <v>       0.00585938 </v>
   <v>       0.00585938 </v>
   <v>       0.01171875 </v>
   <v>       0.01171875 </v>
   <v>       0.01171875 </v>
   <v>       0.00585938 </v>
   <v>       0.00585938 </v>
   <v>       0.01171875 </v>
   <v>       0.00585938 </v>
   <v>       0.00292969 </v>
   <v>       0.00585938 </v>
   <v>       0.01171875 </v>
   <v>       0.00585938 </v>
   <v>       0.00585938 </v>
   <v>       0.01171875 </v>
   <v>       0.00585938 </v>
   <v>       0.00292969 </v>
   <v>       0.00146484 </v>
  </varray>
 </kpoints>
 <parameters>
  <separator name="general" >
   <i type="string" name="SYSTEM">Diamond Sn - EOS static calculation</i>
   <i type="logical" name="LCOMPAT"> F  </i>
  </separator>
  <separator name="electronic" >
   <i type="string" name="PREC">accura</i>
   <i name="ENMAX">    500.00000000</i>
   <i name="ENAUG">    263.58500000</i>
   <i name="EDIFF">      0.00000100</i>
   <i type="int" name="IALGO">    38</i>
   <i type="int" name="IWAVPR">    10</i>
   <i type="int" name="NBANDS">     8</i>
   <i type="int" name="NBANDSLOW">    -1</i>
   <i type="int" name="NBANDSHIGH">    -1</i>
   <i name="NELECT">      8.00000000</i>
   <i type="int" name="TURBO">     0</i>
   <i type="int" name="IRESTART">     0</i>
   <i type="int" name="NREBOOT">     0</i>
   <i type="int" name="NMIN">     0</i>
   <i name="EREF">      0.00000000</i>
   <separator name="electronic smearing" >
    <i type="int" name="ISMEAR">     0</i>
    <i name="SIGMA">      0.05000000</i>
    <i name="KSPACING">      0.10000000</i>
    <i type="logical" name="KGAMMA"> T  </i>
    <i type="logical" name="KBLOWUP"> T  </i>
   </separator>
   <separator name="electronic projectors" >
    <i type="logical" name="LREAL"> F  </i>
    <v name="ROPT">      0.00000000</v>
    <i type="int" name="LMAXPAW">  -100</i>
    <i type="int" name="LMAXMIX">     2</i>
    <i type="logical" name="NLSPLINE"> F  </i>
   </separator>
   <separator name="electronic startup" >
    <i type="int" name="ISTART">     0</i>
    <i type="int" name="ICHARG">     2</i>
    <i type="int" name="INIWAV">     1</i>
   </separator>
   <separator name="electronic spin" >
    <i type="int" name="ISPIN">     1</i>
    <i type="logical" name="LNONCOLLINEAR"> F  </i>
    <v name="MAGMOM">      1.00000000      1.00000000</v>
    <i name="NUPDOWN">     -1.00000000</i>
    <i type="logical" name="LSORBIT"> F  </i>
    <v name="SAXIS">      0.00000000      0.00000000      1.00000000</v>
    <i type="logical" name="LSPIRAL"> F  </i>
    <v name="QSPIRAL">      0.00000000      0.00000000      0.00000000</v>
    <i type="logical" name="LZEROZ"> F  </i>
   </separator>
   <separator name="electronic exchange-correlation" >
    <i type="logical" name="LASPH"> F  </i>
    <i type="logical" name="LMETAGGA"> F  </i>
   </separator>
   <separator name="electronic convergence" >
    <i type="int" name="NELM">   100</i>
    <i type="int" name="NELMDL">    -5</i>
    <i type="int" name="NELMIN">     2</i>
    <i name="ENINI">    500.00000000</i>
    <separator name="electronic convergence detail" >
     <i type="logical" name="LDIAG"> T  </i>
     <i type="logical" name="LSUBROT"> F  </i>
     <i name="WEIMIN">      0.00000000</i>
     <i name="EBREAK">      0.00000003</i>
     <i name="DEPER">      0.30000000</i>
     <i type="int" name="NRMM">     4</i>
     <i name="TIME">      0.40000000</i>
    </separator>
   </separator>
   <separator name="electronic mixer" >
    <i name="AMIX">      0.40000000</i>
    <i name="BMIX">      1.00000000</i>
    <i name="AMIN">      0.10000000</i>
    <i name="AMIX_MAG">      1.60000000</i>
    <i name="BMIX_MAG">      1.00000000</i>
    <separator name="electronic mixer details" >
     <i type="int" name="IMIX">     4</i>
     <i type="logical" name="MIXFIRST"> F  </i>
     <i type="int" name="MAXMIX">   -45</i>
     <i name="WC">    100.00000000</i>
     <i type="int" name="INIMIX">     1</i>
     <i type="int" name="MIXPRE">     1</i>
     <i type="int" name="MREMOVE">     5</i>
    </separator>
   </separator>
   <separator name="electronic dipolcorrection" >
    <i type="logical" name="LDIPOL"> F  </i>
    <i type="logical" name="LMONO"> F  </i>
    <i type="int" name="IDIPOL">     0</i>
    <i name="EPSILON">      1.00000000</i>
    <v name="DIPOL">   -100.00000000   -100.00000000   -100.00000000</v>
    <i name="EFIELD">      0.00000000</i>
   </separator>
  </separator>
  <separator name="grids" >
   <i type="int" name="NGX">    36</i>
   <i type="int" name="NGY">    36</i>
   <i type="int" name="NGZ">    36</i>
   <i type="int" name="NGXF">    72</i>
   <i type="int" name="NGYF">    72</i>
   <i type="int" name="NGZF">    72</i>
   <i type="logical" name="ADDGRID"> F  </i>
  </separator>
  <separator name="ionic" >
   <i type="int" name="NSW">     0</i>
   <i type="int" name="IBRION">    -1</i>
   <i type="int" name="MDALGO">     0</i>
   <i type="int" name="ISIF">     2</i>
   <i name="PSTRESS">      0.00000000</i>
   <i name="EDIFFG">      0.00001000</i>
   <i type="int" name="NFREE">     0</i>
   <i name="POTIM">      0.50000000</i>
   <i name="SMASS">     -3.00000000</i>
   <i name="SCALEE">      1.00000000</i>
  </separator>
  <separator name="ionic md" >
   <i name="TEBEG">      0.00010000</i>
   <i name="TEEND">      0.00010000</i>
   <i type="int" name="NBLOCK">     1</i>
   <i type="int" name="KBLOCK">     1</i>
   <i type="int" name="NPACO">   256</i>
   <i name="APACO">     10.00000000</i>
  </separator>
  <separator name="symmetry" >
   <i type="int" name="ISYM">     2</i>
   <i name="SYMPREC">      0.00001000</i>
  </separator>
  <separator name="dos" >
   <i type="int" name="LORBIT">     0</i>
   <v name="RWIGS">     -1.00000000</v>
   <i type="int" name="NEDOS">   301</i>
   <i name="EMIN">     10.00000000</i>
   <i name="EMAX">    -10.00000000</i>
   <i name="EFERMI">      0.00000000</i>
  </separator>
  <separator name="writing" >
   <i type="int" name="NWRITE">     2</i>
   <i type="logical" name="LWAVE"> F  </i>
   <i type="logical" name="LDOWNSAMPLE"> F  </i>
   <i type="logical" name="LCHARG"> F  </i>
   <i type="logical" name="LPARD"> F  </i>
   <i type="logical" name="LVTOT"> F  </i>
   <i type="logical" name="LVHAR"> F  </i>
   <i type="logical" name="LELF"> F  </i>
   <i type="logical" name="LOPTICS"> F  </i>
   <v name="STM">      0.00000000      0.00000000      0.00000000      0.00000000      0.00000000      0.00000000      0.00000000</v>
  </separator>
  <separator name="performance" >
   <i type="int" name="NPAR">     1</i>
   <i type="int" name="NSIM">     4</i>
   <i type="int" name="NBLK">    -1</i>
   <i type="logical" name="LPLANE"> T  </i>
   <i type="logical" name="LSCALAPACK"> T  </i>
   <i type="logical" name="LSCAAWARE"> F  </i>
   <i type="logical" name="LSCALU"> F  </i>
   <i type="logical" name="LASYNC"> F  </i>
   <i type="logical" name="LORBITALREAL"> F  </i>
  </separator>
  <separator name="miscellaneous" >
   <i type="int" name="IDIOT">     3</i>
   <i type="int" name="PHON_NSTRUCT">    -1</i>
   <i type="logical" name="LMUSIC"> F  </i>
   <v name="POMASS">    118.71000000</v>
   <v name="DARWINR">      0.00000000</v>
   <v name="DARWINV">      1.00000000</v>
   <i type="logical" name="LCORR"> T  </i>
  </separator>
  <i type="logical" name="GGA_COMPAT"> T  </i>
  <i type="logical" name="LBERRY"> F  </i>
  <i type="int" name="ICORELEVEL">     0</i>
  <i type="logical" name="LDAU"> F  </i>
  <i type="int" name="I_CONSTRAINED_M">     0</i>
  <separator name="electronic exchange-correlation" >
   <i type="string" name="GGA">--</i>
   <i type="int" name="VOSKOWN">     0</i>
   <i type="logical" name="LHFCALC"> F  </i>
   <i type="string" name="PRECFOCK"></i>
   <i type="logical" name="LSYMGRAD"> F  </i>
   <i type="logical" name="LHFONE"> F  </i>
   <i type="logical" name="LRHFCALC"> F  </i>
   <i type="logical" name="LTHOMAS"> F  </i>
   <i type="logical" name="LMODELHF"> F  </i>
   <i type="logical" name="LFOCKACE"> F  </i>
   <i name="ENCUT4O">     -1.00000000</i>
   <i type="int" name="EXXOEP">     0</i>
   <i type="int" name="FOURORBIT">     0</i>
   <i name="AEXX">      0.00000000</i>
   <i name="HFALPHA">      0.00000000</i>
   <i name="MCALPHA">      0.00000000</i>
   <i name="ALDAX">      1.00000000</i>
   <i name="AGGAX">      1.00000000</i>
   <i name="ALDAC">      1.00000000</i>
   <i name="AGGAC">      1.00000000</i>
   <i type="int" name="NKREDX">     1</i>
   <i type="int" name="NKREDY">     1</i>
   <i type="int" name="NKREDZ">     1</i>
   <i type="logical" name="SHIFTRED"> F  </i>
   <i type="logical" name="ODDONLY"> F  </i>
   <i type="logical" name="EVENONLY"> F  </i>
   <i type="int" name="LMAXFOCK">     0</i>
   <i type="int" name="NMAXFOCKAE">     0</i>
   <i type="logical" name="LFOCKAEDFT"> F  </i>
   <i name="HFSCREEN">      0.00000000</i>
   <i name="HFSCREENC">      0.00000000</i>
   <i type="int" name="NBANDSGWLOW">     0</i>
  </separator>
  <separator name="vdW DFT" >
   <i type="logical" name="LUSE_VDW"> F  </i>
   <i type="int" name="IVDW_NL">     1</i>
   <i type="logical" name="LSPIN_VDW"> F  </i>
   <i name="Zab_VDW">     -0.84910000</i>
   <i name="PARAM1">      0.12340000</i>
   <i name="PARAM2">      1.00000000</i>
   <i name="PARAM3">      0.00000000</i>
  </separator>
  <separator name="model GW" >
   <i type="int" name="MODEL_GW">     0</i>
   <i name="MODEL_EPS0">     25.33201932</i>
   <i name="MODEL_ALPHA">      1.00000000</i>
  </separator>
  <separator name="linear response parameters" >
   <i type="logical" name="LEPSILON"> F  </i>
   <i type="logical" name="LRPA"> F  </i>
   <i type="logical" name="LNABLA"> F  </i>
   <i type="logical" name="LVEL"> F  </i>
   <i name="CSHIFT">      0.10000000</i>
   <i name="OMEGAMAX">     -1.00000000</i>
   <i name="DEG_THRESHOLD">      0.00200000</i>
   <i name="RTIME">     -0.10000000</i>
   <i name="WPLASMAI">      0.00000000</i>
   <v name="DFIELD">      0.00000000      0.00000000      0.00000000</v>
   <v name="WPLASMA">      0.00000000      0.00000000      0.00000000      0.00000000      0.00000000      0.00000000      0.00000000      0.00000000      0.00000000</v>
  </separator>
  <separator name="orbital magnetization" >
   <i type="logical" name="NUCIND"> F  </i>
   <v name="MAGPOS">      0.00000000      0.00000000      0.00000000</v>
   <i type="logical" name="LNICSALL"> T  </i>
   <i type="logical" name="ORBITALMAG"> F  </i>
   <i type="logical" name="LMAGBLOCH"> F  </i>
   <i type="logical" name="LCHIMAG"> F  </i>
   <i type="logical" name="LGAUGE"> T  </i>
   <i type="int" name="MAGATOM">     0</i>
   <v name="MAGDIPOL">      0.00000000      0.00000000      0.00000000</v>
   <v name="AVECCONST">      0.00000000      0.00000000      0.00000000</v>
  </separator>
  <separator name="response functions" >
   <i type="logical" name="LALL_IN_ONE"> F  </i>
   <i type="int" name="IALL_IN_ONE">    -1</i>
   <i type="int" name="NBANDS_WAVE">    -1</i>
   <i type="logical" name="LFINITE_TEMPERATURE"> F  </i>
   <i type="logical" name="LADDER"> F  </i>
   <i type="logical" name="LRPAFORCE"> F  </i>
   <i type="logical" name="LFXC"> F  </i>
   <i type="logical" name="LHARTREE"> T  </i>
   <i type="int" name="IBSE">     0</i>
   <v type="int" name="KPOINT">    -1     0     0     0</v>
   <i type="logical" name="LTCTC"> F  </i>
   <i type="logical" name="LTCTE"> F  </i>
   <i type="logical" name="LTETE"> F  </i>
   <i type="logical" name="LTRIPLET"> F  </i>
   <i type="logical" name="LFXCEPS"> F  </i>
   <i type="logical" name="LFXHEG"> F  </i>
   <i type="int" name="NATURALO">     2</i>
   <i type="logical" name="LHOLEGF"> F  </i>
   <i type="logical" name="L2ORDER"> F  </i>
   <i type="logical" name="LDMP1"> F  </i>
   <i type="logical" name="LMP2LT"> F  </i>
   <i type="logical" name="LSMP2LT"> F  </i>
   <i type="logical" name="LGWLF"> F  </i>
   <i name="ENCUTGW">     -1.60000002</i>
   <i name="ENCUTGWSOFT">     -1.60000002</i>
   <i name="ENCUTLF">     -1.00000000</i>
   <i type="logical" name="LESF_SPLINES"> F  </i>
   <i type="int" name="LMAXMP2">    -1</i>
   <i name="SCISSOR">      0.00000000</i>
   <i type="int" name="NOMEGA">     0</i>
   <i type="int" name="NOMEGAR">     0</i>
   <i type="int" name="NBANDSGW">    -1</i>
   <i type="int" name="NBANDSO">    -1</i>
   <i type="int" name="NBANDSV">    -1</i>
   <i type="int" name="NELMGW">     1</i>
   <i type="int" name="NELMHF">     1</i>
   <i type="int" name="DIM">     3</i>
   <i type="int" name="IESPILON">     4</i>
   <i type="int" name="ANTIRES">     0</i>
   <i name="OMEGAMAX">    -30.00000000</i>
   <i name="OMEGAMIN">    -30.00000000</i>
   <i name="OMEGATL">   -200.00000000</i>
   <i type="int" name="OMEGAGRID">     0</i>
   <i name="CSHIFT">     -0.10000000</i>
   <i type="logical" name="LSELFENERGY"> F  </i>
   <i type="logical" name="LSPECTRAL"> F  </i>
   <i type="logical" name="LSPECTRALGW"> F  </i>
   <i type="logical" name="LSINGLES"> F  </i>
   <i type="logical" name="LFERMIGW"> F  </i>
   <i type="logical" name="ODDONLYGW"> F  </i>
   <i type="logical" name="EVENONLYGW"> F  </i>
   <i type="int" name="NKREDLFX">     1</i>
   <i type="int" name="NKREDLFY">     1</i>
   <i type="int" name="NKREDLFZ">     1</i>
   <i type="int" name="MAXMEM">  2800</i>
   <i type="int" name="TELESCOPE">     0</i>
   <i type="int" name="NTAUPAR">    -1</i>
   <i type="int" name="NOMEGAPAR">    -1</i>
   <i name="DAMP_NEWTON">      0.80000001</i>
   <i name="LAMBDA">      1.00000000</i>
  </separator>
  <separator name="External order field" >
   <i name="OFIELD_KAPPA">      0.00000000</i>
   <v name="OFIELD_K">      0.00000000      0.00000000      0.00000000</v>
   <i name="OFIELD_Q6_NEAR">      0.00000000</i>
   <i name="OFIELD_Q6_FAR">      0.00000000</i>
   <i name="OFIELD_A">      0.00000000</i>
  </separator>
  <separator name="optional k-points parameters" >
   <i type="int" name="KPOINTS_OPT_MODE">     1</i>
   <i type="logical" name="LKPOINTS_OPT"> F  </i>
  </separator>
 </parameters>
 <atominfo>
  <atoms>       2 </atoms>
  <types>       1 </types>
  <array name="atoms" >
   <dimension dim="1">ion</dimension>
   <field type="string">element</field>
   <field type="int">atomtype</field>
   <set>
    <rc><c>Sn</c><c>   1</c></rc>
    <rc><c>Sn</c><c>   1</c></rc>
   </set>
  </array>
  <array name="atomtypes" >
   <dimension dim="1">type</dimension>
   <field type="int">atomspertype</field>
   <field type="string">element</field>
   <field>mass</field>
   <field>valence</field>
   <field type="string">pseudopotential</field>
   <set>
    <rc><c>   2</c><c>Sn</c><c>    118.71000000</c><c>      4.00000000</c><c>  PAW_PBE Sn 08Apr2002                  </c></rc>
   </set>
  </array>
 </atominfo>
 <structure name="initialpos" >
  <crystal>
   <varray name="basis" >
    <v>       4.26466777      -0.00000000       2.46220654 </v>
    <v>       1.42155557       4.02076672       2.46220654 </v>
    <v>       0.00000000      -0.00000000       4.92441307 </v>
   </varray>
   <i name="volume">     84.44006441 </i>
   <varray name="rec_basis" >
    <v>       0.23448485      -0.08290291      -0.00000000 </v>
    <v>       0.00000000       0.24870878       0.00000000 </v>
    <v>      -0.11724243      -0.08290294       0.20306989 </v>
   </varray>
  </crystal>
  <varray name="positions" >
   <v>       0.87500000       0.87500000       0.87500000 </v>
   <v>       0.12500000       0.12500000       0.12500000 </v>
  </varray>
 </structure>
 <calculation>
  <scstep>
   <time name="dav">    2.46    9.85</time>
   <time name="total">    2.52   10.02</time>
   <energy>
    <i name="alphaZ">      5.92572130 </i>
    <i name="ewald">   -178.21212099 </i>
    <i name="hartreedc">    -14.48187774 </i>
    <i name="XCdc">   -237.15594101 </i>
    <i name="pawpsdc">    378.83065848 </i>
    <i name="pawaedc">   -131.12307901 </i>
    <i name="eentropy">     -0.00082322 </i>
    <i name="bandstr">      6.31230416 </i>
    <i name="atom">    188.17191907 </i>
    <i name="e_fr_energy">     18.26676104 </i>
    <i name="e_wo_entrp">     18.26758426 </i>
    <i name="e_0_energy">     18.26717265 </i>
   </energy>
  </scstep>
  <scstep>
   <time name="dav">    2.64   10.57</time>
   <time name="total">    2.65   10.57</time>
   <energy>
    <i name="e_fr_energy">     -6.98316493 </i>
    <i name="e_wo_entrp">     -6.98299503 </i>
    <i name="e_0_energy">     -6.98307998 </i>
   </energy>
  </scstep>
  <scstep>
   <time name="dav">    2.80   11.19</time>
   <time name="total">    2.80   11.20</time>
   <energy>
    <i name="e_fr_energy">     -7.56191635 </i>
    <i name="e_wo_entrp">     -7.56174766 </i>
    <i name="e_0_energy">     -7.56183200 </i>
   </energy>
  </scstep>
  <scstep>
   <time name="dav">    3.01   12.00</time>
   <time name="total">    3.01   12.00</time>
   <energy>
    <i name="e_fr_energy">     -7.56391507 </i>
    <i name="e_wo_entrp">     -7.56374607 </i>
    <i name="e_0_energy">     -7.56383057 </i>
   </energy>
  </scstep>
  <scstep>
   <time name="dav">    2.45    9.87</time>
   <time name="total">    2.73   10.87</time>
   <energy>
    <i name="e_fr_energy">     -7.56391728 </i>
    <i name="e_wo_entrp">     -7.56374828 </i>
    <i name="e_0_energy">     -7.56383278 </i>
   </energy>
  </scstep>
  <scstep>
   <time name="dav">    2.22    8.91</time>
   <time name="total">    2.55   10.07</time>
   <energy>
    <i name="e_fr_energy">     -7.54175310 </i>
    <i name="e_wo_entrp">     -7.54157909 </i>
    <i name="e_0_energy">     -7.54166610 </i>
   </energy>
  </scstep>
  <scstep>
   <time name="dav">    1.98    8.09</time>
   <time name="total">    2.50   10.02</time>
   <energy>
    <i name="e_fr_energy">     -7.52884003 </i>
    <i name="e_wo_entrp">     -7.52865407 </i>
    <i name="e_0_energy">     -7.52874705 </i>
   </energy>
  </scstep>
  <scstep>
   <time name="dav">    1.96    7.91</time>
   <time name="total">    2.32    9.20</time>
   <energy>
    <i name="e_fr_energy">     -7.53018198 </i>
    <i name="e_wo_entrp">     -7.53000007 </i>
    <i name="e_0_energy">     -7.53009103 </i>
   </energy>
  </scstep>
  <scstep>
   <time name="dav">    2.67   10.87</time>
   <time name="total">    3.02   12.14</time>
   <energy>
    <i name="e_fr_energy">     -7.53034657 </i>
    <i name="e_wo_entrp">     -7.53016556 </i>
    <i name="e_0_energy">     -7.53025606 </i>
   </energy>
  </scstep>
  <scstep>
   <time name="dav">    1.98    8.04</time>
   <time name="total">    2.32    9.22</time>
   <energy>
    <i name="e_fr_energy">     -7.53036356 </i>
    <i name="e_wo_entrp">     -7.53018313 </i>
    <i name="e_0_energy">     -7.53027335 </i>
   </energy>
  </scstep>
  <scstep>
   <time name="dav">    2.83   11.33</time>
   <time name="total">    2.86   11.44</time>
   <energy>
    <i name="alphaZ">      5.92572130 </i>
    <i name="ewald">   -178.21212099 </i>
    <i name="hartreedc">    -16.27328305 </i>
    <i name="XCdc">   -236.56743191 </i>
    <i name="pawpsdc">    515.47254366 </i>
    <i name="pawaedc">   -268.19548497 </i>
    <i name="eentropy">     -0.00018042 </i>
    <i name="bandstr">    -17.85204604 </i>
    <i name="atom">    188.17191907 </i>
    <i name="e_fr_energy">     -7.53036336 </i>
    <i name="e_wo_entrp">     -7.53018294 </i>
    <i name="e_0_energy">     -7.53027315 </i>
   </energy>
  </scstep>
  <structure>
   <crystal>
    <varray name="basis" >
     <v>       4.26466777      -0.00000000       2.46220654 </v>
     <v>       1.42155557       4.02076672       2.46220654 </v>
     <v>       0.00000000      -0.00000000       4.92441307 </v>
    </varray>
    <i name="volume">     84.44006441 </i>
    <varray name="rec_basis" >
     <v>       0.23448485      -0.08290291      -0.00000000 </v>
     <v>       0.00000000       0.24870878       0.00000000 </v>
     <v>      -0.11724243      -0.08290294       0.20306989 </v>
    </varray>
   </crystal>
   <varray name="positions" >
    <v>       0.87500000       0.87500000       0.87500000 </v>
    <v>       0.12500000       0.12500000       0.12500000 </v>
   </varray>
  </structure>
  <varray name="forces" >
   <v>      -0.00000000      -0.00000000      -0.00000000 </v>
   <v>       0.00000000       0.00000000       0.00000000 </v>
  </varray>
  <varray name="stress" >
   <v>     -35.64970282       0.00000313      -0.00000004 </v>
   <v>       0.00000313     -35.64969195      -0.00000003 </v>
   <v>      -0.00000004      -0.00000003     -35.64968695 </v>
  </varray>
  <energy>
   <i name="e_fr_energy">     -7.53036336 </i>
   <i name="e_wo_entrp">     -7.53018294 </i>
   <i name="e_0_energy">     -7.53027315 </i>
  </energy>
  <time name="totalsc">   40.97  162.15</time>
  <eigenvalues>
   <array>
    <dimension dim="1">band</dimension>
    <dimension dim="2">kpoint</dimension>
    <dimension dim="3">spin</dimension>
    <field>eigene</field>
    <field>occ</field>
    <set>
     <set comment="spin 1">
      <set comment="kpoint 1">
       <r>   -7.4462    1.0000 </r>
       <r>   -0.0722    1.0000 </r>
       <r>    1.9991    0.0006 </r>
       <r>    1.9991    0.0006 </r>
       <r>    1.9991    0.0006 </r>
       <r>    4.0102    0.0000 </r>
       <r>    4.0102    0.0000 </r>
       <r>    4.0102    0.0000 </r>
      </set>
      <set comment="kpoint 2">
       <r>   -7.4161    1.0000 </r>
       <r>   -0.2935    1.0000 </r>
       <r>    1.9403    0.0550 </r>
       <r>    1.9403    0.0550 </r>
       <r>    2.0577    0.0000 </r>
       <r>    4.0894    0.0000 </r>
       <r>    4.0894    0.0000 </r>
       <r>    4.1028    0.0000 </r>
      </set>
      <set comment="kpoint 3">
       <r>   -7.3265    1.0000 </r>
       <r>   -0.8159    1.0000 </r>
       <r>    1.7937    0.9946 </r>
       <r>    1.7937    0.9946 </r>
       <r>    2.1001    0.0000 </r>
       <r>    4.2893    0.0000 </r>
       <r>    4.2893    0.0000 </r>
       <r>    4.4192    0.0000 </r>
      </set>
      <set comment="kpoint 4">
       <r>   -7.1806    1.0000 </r>
       <r>   -1.4535    1.0000 </r>
       <r>    1.6126    1.0000 </r>
       <r>    1.6126    1.0000 </r>
       <r>    2.0323    0.0000 </r>
       <r>    4.5328    0.0000 </r>
       <r>    4.5328    0.0000 </r>
       <r>    4.9567    0.0000 </r>
      </set>
      <set comment="kpoint 5">
       <r>   -6.9844    1.0000 </r>
       <r>   -2.1080    1.0000 </r>
       <r>    1.4359    1.0000 </r>
       <r>    1.4359    1.0000 </r>
       <r>    1.9044    0.2805 </r>
       <r>    4.7493    0.0000 </r>
       <r>    4.7493    0.0000 </r>
       <r>    5.6413    0.0000 </r>
      </set>
      <set comment="kpoint 6">
       <r>   -6.7506    1.0000 </r>
       <r>   -2.7243    1.0000 </r>
       <r>    1.2852    1.0000 </r>
       <r>    1.2852    1.0000 </r>
       <r>    1.7724    0.9992 </r>
       <r>    4.8965    0.0000 </r>
       <r>    4.8965    0.0000 </r>
       <r>    6.4093    0.0000 </r>
      </set>
      <set comment="kpoint 7">
       <r>   -6.5048    1.0000 </r>
       <r>   -3.2546    1.0000 </r>
       <r>    1.1720    1.0000 </r>
       <r>    1.1720    1.0000 </r>
       <r>    1.6658    1.0000 </r>
       <r>    4.9721    0.0000 </r>
       <r>    4.9721    0.0000 </r>
       <r>    7.1744    0.0000 </r>
      </set>
      <set comment="kpoint 8">
       <r>   -6.2984    1.0000 </r>
       <r>   -3.6357    1.0000 </r>
       <r>    1.1021    1.0000 </r>
       <r>    1.1021    1.0000 </r>
       <r>    1.5982    1.0000 </r>
       <r>    5.0006    0.0000 </r>
       <r>    5.0006    0.0000 </r>
       <r>    7.5378    0.0000 </r>
      </set>
      <set comment="kpoint 9">
       <r>   -6.2129    1.0000 </r>
       <r>   -3.7801    1.0000 </r>
       <r>    1.0786    1.0000 </r>
       <r>    1.0786    1.0000 </r>
       <r>    1.5751    1.0000 </r>
       <r>    5.0069    0.0000 </r>
       <r>    5.0069    0.0000 </r>
       <r>    7.5596    0.0000 </r>
      </set>
      <set comment="kpoint 10">
       <r>   -7.4059    1.0000 </r>
       <r>   -0.3531    1.0000 </r>
       <r>    1.8347    0.9177 </r>
       <r>    1.8347    0.9177 </r>
       <r>    2.2652    0.0000 </r>
       <r>    3.8852    0.0000 </r>
       <r>    4.2276    0.0000 </r>
       <r>    4.2276    0.0000 </r>
      </set>
      <set comment="kpoint 11">
       <r>   -7.3360    1.0000 </r>
       <r>   -0.7471    1.0000 </r>
       <r>    1.6627    1.0000 </r>
       <r>    1.6756    1.0000 </r>
       <r>    2.4382    0.0000 </r>
       <r>    3.8771    0.0000 </r>
       <r>    4.4676    0.0000 </r>
       <r>    4.5100    0.0000 </r>
      </set>
      <set comment="kpoint 12">
       <r>   -7.2084    1.0000 </r>
       <r>   -1.3179    1.0000 </r>
       <r>    1.4744    1.0000 </r>
       <r>    1.4758    1.0000 </r>
       <r>    2.4613    0.0000 </r>
       <r>    4.0641    0.0000 </r>
       <r>    4.7362    0.0000 </r>
       <r>    4.9455    0.0000 </r>
      </set>
      <set comment="kpoint 13">
       <r>   -7.0280    1.0000 </r>
       <r>   -1.9459    1.0000 </r>
       <r>    1.2576    1.0000 </r>
       <r>    1.3022    1.0000 </r>
       <r>    2.3762    0.0000 </r>
       <r>    4.3444    0.0000 </r>
       <r>    4.9664    0.0000 </r>
       <r>    5.4897    0.0000 </r>
      </set>
      <set comment="kpoint 14">
       <r>   -6.8047    1.0000 </r>
       <r>   -2.5624    1.0000 </r>
       <r>    1.0545    1.0000 </r>
       <r>    1.1639    1.0000 </r>
       <r>    2.2552    0.0000 </r>
       <r>    4.5987    0.0000 </r>
       <r>    5.1129    0.0000 </r>
       <r>    6.1076    0.0000 </r>
      </set>
      <set comment="kpoint 15">
       <r>   -6.5585    1.0000 </r>
       <r>   -3.1164    1.0000 </r>
       <r>    0.8862    1.0000 </r>
       <r>    1.0686    1.0000 </r>
       <r>    2.1415    0.0000 </r>
       <r>    4.7712    0.0000 </r>
       <r>    5.1694    0.0000 </r>
       <r>    6.7670    0.0000 </r>
      </set>
      <set comment="kpoint 16">
       <r>   -6.3303    1.0000 </r>
       <r>   -3.5504    1.0000 </r>
       <r>    0.7627    1.0000 </r>
       <r>    1.0209    1.0000 </r>
       <r>    2.0561    0.0000 </r>
       <r>    4.8735    0.0000 </r>
       <r>    5.1622    0.0000 </r>
       <r>    7.3403    0.0000 </r>
      </set>
      <set comment="kpoint 17">
       <r>   -6.1945    1.0000 </r>
       <r>   -3.7812    1.0000 </r>
       <r>    0.6892    1.0000 </r>
       <r>    1.0222    1.0000 </r>
       <r>    2.0085    0.0002 </r>
       <r>    4.9398    0.0000 </r>
       <r>    5.1221    0.0000 </r>
       <r>    7.5711    0.0000 </r>
      </set>
      <set comment="kpoint 18">
       <r>   -6.2242    1.0000 </r>
       <r>   -3.7323    1.0000 </r>
       <r>    0.6685    1.0000 </r>
       <r>    1.0717    1.0000 </r>
       <r>    2.0027    0.0004 </r>
       <r>    4.9909    0.0000 </r>
       <r>    5.0656    0.0000 </r>
       <r>    7.5625    0.0000 </r>
      </set>
      <set comment="kpoint 19">
       <r>   -6.4010    1.0000 </r>
       <r>   -3.4227    1.0000 </r>
       <r>    0.7024    1.0000 </r>
       <r>    1.1668    1.0000 </r>
       <r>    2.0381    0.0000 </r>
       <r>    4.9903    0.0000 </r>
       <r>    5.0236    0.0000 </r>
       <r>    7.2346    0.0000 </r>
      </set>
      <set comment="kpoint 20">
       <r>   -6.6417    1.0000 </r>
       <r>   -2.9409    1.0000 </r>
       <r>    0.7919    1.0000 </r>
       <r>    1.3024    1.0000 </r>
       <r>    2.1099    0.0000 </r>
       <r>    4.8778    0.0000 </r>
       <r>    5.0077    0.0000 </r>
       <r>    6.5717    0.0000 </r>
      </set>
      <set comment="kpoint 21">
       <r>   -6.8835    1.0000 </r>
       <r>   -2.3612    1.0000 </r>
       <r>    0.9368    1.0000 </r>
       <r>    1.4693    1.0000 </r>
       <r>    2.2050    0.0000 </r>
       <r>    4.7087    0.0000 </r>
       <r>    4.8887    0.0000 </r>
       <r>    5.9016    0.0000 </r>
      </set>
      <set comment="kpoint 22">
       <r>   -7.0940    1.0000 </r>
       <r>   -1.7367    1.0000 </r>
       <r>    1.1355    1.0000 </r>
       <r>    1.6520    1.0000 </r>
       <r>    2.2945    0.0000 </r>
       <r>    4.4883    0.0000 </r>
       <r>    4.6285    0.0000 </r>
       <r>    5.3363    0.0000 </r>
      </set>
      <set comment="kpoint 23">
       <r>   -7.2574    1.0000 </r>
       <r>   -1.1217    1.0000 </r>
       <r>    1.3835    1.0000 </r>
       <r>    1.8222    0.9593 </r>
       <r>    2.3213    0.0000 </r>
       <r>    4.2623    0.0000 </r>
       <r>    4.3123    0.0000 </r>
       <r>    4.8659    0.0000 </r>
      </set>
      <set comment="kpoint 24">
       <r>   -7.3661    1.0000 </r>
       <r>   -0.5963    1.0000 </r>
       <r>    1.6695    1.0000 </r>
       <r>    1.9344    0.0764 </r>
       <r>    2.2208    0.0000 </r>
       <r>    4.1056    0.0000 </r>
       <r>    4.1143    0.0000 </r>
       <r>    4.4445    0.0000 </r>
      </set>
      <set comment="kpoint 25">
       <r>   -7.2856    1.0000 </r>
       <r>   -0.9571    1.0000 </r>
       <r>    1.4778    1.0000 </r>
       <r>    1.4778    1.0000 </r>
       <r>    2.8025    0.0000 </r>
       <r>    3.6042    0.0000 </r>
       <r>    4.7420    0.0000 </r>
       <r>    4.7420    0.0000 </r>
      </set>
      <set comment="kpoint 26">
       <r>   -7.1767    1.0000 </r>
       <r>   -1.3837    1.0000 </r>
       <r>    1.2628    1.0000 </r>
       <r>    1.2849    1.0000 </r>
       <r>    2.9819    0.0000 </r>
       <r>    3.5798    0.0000 </r>
       <r>    5.0437    0.0000 </r>
       <r>    5.1015    0.0000 </r>
      </set>
      <set comment="kpoint 27">
       <r>   -7.0130    1.0000 </r>
       <r>   -1.9226    1.0000 </r>
       <r>    1.0077    1.0000 </r>
       <r>    1.1134    1.0000 </r>
       <r>    2.9751    0.0000 </r>
       <r>    3.8009    0.0000 </r>
       <r>    5.3066    0.0000 </r>
       <r>    5.5046    0.0000 </r>
      </set>
      <set comment="kpoint 28">
       <r>   -6.8022    1.0000 </r>
       <r>   -2.4930    1.0000 </r>
       <r>    0.7494    1.0000 </r>
       <r>    0.9800    1.0000 </r>
       <r>    2.8741    0.0000 </r>
       <r>    4.1437    0.0000 </r>
       <r>    5.4781    0.0000 </r>
       <r>    5.8605    0.0000 </r>
      </set>
      <set comment="kpoint 29">
       <r>   -6.5596    1.0000 </r>
       <r>   -3.0364    1.0000 </r>
       <r>    0.5216    1.0000 </r>
       <r>    0.8934    1.0000 </r>
       <r>    2.7556    0.0000 </r>
       <r>    4.4651    0.0000 </r>
       <r>    5.5408    0.0000 </r>
       <r>    6.2243    0.0000 </r>
      </set>
      <set comment="kpoint 30">
       <r>   -6.3173    1.0000 </r>
       <r>   -3.4960    1.0000 </r>
       <r>    0.3416    1.0000 </r>
       <r>    0.8578    1.0000 </r>
       <r>    2.6534    0.0000 </r>
       <r>    4.6875    0.0000 </r>
       <r>    5.5176    0.0000 </r>
       <r>    6.6905    0.0000 </r>
      </set>
      <set comment="kpoint 31">
       <r>   -6.1389    1.0000 </r>
       <r>   -3.7944    1.0000 </r>
       <r>    0.2180    1.0000 </r>
       <r>    0.8744    1.0000 </r>
       <r>    2.5826    0.0000 </r>
       <r>    4.8267    0.0000 </r>
       <r>    5.4444    0.0000 </r>
       <r>    7.1988    0.0000 </r>
      </set>
      <set comment="kpoint 32">
       <r>   -6.1106    1.0000 </r>
       <r>   -3.8389    1.0000 </r>
       <r>    0.1559    1.0000 </r>
       <r>    0.9416    1.0000 </r>
       <r>    2.5488    0.0000 </r>
       <r>    4.9286    0.0000 </r>
       <r>    5.3443    0.0000 </r>
       <r>    7.4571    0.0000 </r>
      </set>
      <set comment="kpoint 33">
       <r>   -6.2505    1.0000 </r>
       <r>   -3.6112    1.0000 </r>
       <r>    0.1598    1.0000 </r>
       <r>    1.0555    1.0000 </r>
       <r>    2.5516    0.0000 </r>
       <r>    5.0121    0.0000 </r>
       <r>    5.2209    0.0000 </r>
       <r>    7.1360    0.0000 </r>
      </set>
      <set comment="kpoint 34">
       <r>   -6.4814    1.0000 </r>
       <r>   -3.1942    1.0000 </r>
       <r>    0.2349    1.0000 </r>
       <r>    1.2090    1.0000 </r>
       <r>    2.5836    0.0000 </r>
       <r>    5.0525    0.0000 </r>
       <r>    5.0618    0.0000 </r>
       <r>    6.5295    0.0000 </r>
      </set>
      <set comment="kpoint 35">
       <r>   -6.7284    1.0000 </r>
       <r>   -2.6757    1.0000 </r>
       <r>    0.3877    1.0000 </r>
       <r>    1.3898    1.0000 </r>
       <r>    2.6256    0.0000 </r>
       <r>    4.8545    0.0000 </r>
       <r>    4.9651    0.0000 </r>
       <r>    6.0010    0.0000 </r>
      </set>
      <set comment="kpoint 36">
       <r>   -6.9513    1.0000 </r>
       <r>   -2.1192    1.0000 </r>
       <r>    0.6269    1.0000 </r>
       <r>    1.5774    1.0000 </r>
       <r>    2.6367    0.0000 </r>
       <r>    4.6127    0.0000 </r>
       <r>    4.6953    0.0000 </r>
       <r>    5.6524    0.0000 </r>
      </set>
      <set comment="kpoint 37">
       <r>   -7.1308    1.0000 </r>
       <r>   -1.5807    1.0000 </r>
       <r>    0.9604    1.0000 </r>
       <r>    1.7375    1.0000 </r>
       <r>    2.5480    0.0000 </r>
       <r>    4.3897    0.0000 </r>
       <r>    4.4218    0.0000 </r>
       <r>    5.3157    0.0000 </r>
      </set>
      <set comment="kpoint 38">
       <r>   -7.0862    1.0000 </r>
       <r>   -1.6554    1.0000 </r>
       <r>    1.0883    1.0000 </r>
       <r>    1.0883    1.0000 </r>
       <r>    3.3006    0.0000 </r>
       <r>    3.3040    0.0000 </r>
       <r>    5.3889    0.0000 </r>
       <r>    5.3889    0.0000 </r>
      </set>
      <set comment="kpoint 39">
       <r>   -6.9397    1.0000 </r>
       <r>   -2.0714    1.0000 </r>
       <r>    0.8623    1.0000 </r>
       <r>    0.9140    1.0000 </r>
       <r>    3.2645    0.0000 </r>
       <r>    3.4511    0.0000 </r>
       <r>    5.7048    0.0000 </r>
       <r>    5.7137    0.0000 </r>
      </set>
      <set comment="kpoint 40">
       <r>   -6.7428    1.0000 </r>
       <r>   -2.5578    1.0000 </r>
       <r>    0.5800    1.0000 </r>
       <r>    0.7788    1.0000 </r>
       <r>    3.2403    0.0000 </r>
       <r>    3.7075    0.0000 </r>
       <r>    5.8788    0.0000 </r>
       <r>    5.9290    0.0000 </r>
      </set>
      <set comment="kpoint 41">
       <r>   -6.5072    1.0000 </r>
       <r>   -3.0546    1.0000 </r>
       <r>    0.2968    1.0000 </r>
       <r>    0.6923    1.0000 </r>
       <r>    3.1510    0.0000 </r>
       <r>    4.1176    0.0000 </r>
       <r>    5.9498    0.0000 </r>
       <r>    6.0271    0.0000 </r>
      </set>
      <set comment="kpoint 42">
       <r>   -6.2572    1.0000 </r>
       <r>   -3.5073    1.0000 </r>
       <r>    0.0537    1.0000 </r>
       <r>    0.6590    1.0000 </r>
       <r>    3.0585    0.0000 </r>
       <r>    4.5302    0.0000 </r>
       <r>    6.0121    0.0000 </r>
       <r>    6.1179    0.0000 </r>
      </set>
      <set comment="kpoint 43">
       <r>   -6.0450    1.0000 </r>
       <r>   -3.8455    1.0000 </r>
       <r>   -0.1287    1.0000 </r>
       <r>    0.6801    1.0000 </r>
       <r>    2.9893    0.0000 </r>
       <r>    4.8234    0.0000 </r>
       <r>    5.9222    0.0000 </r>
       <r>    6.4950    0.0000 </r>
      </set>
      <set comment="kpoint 44">
       <r>   -5.9603    1.0000 </r>
       <r>   -3.9704    1.0000 </r>
       <r>   -0.2395    1.0000 </r>
       <r>    0.7542    1.0000 </r>
       <r>    2.9517    0.0000 </r>
       <r>    4.9976    0.0000 </r>
       <r>    5.7878    0.0000 </r>
       <r>    6.9664    0.0000 </r>
      </set>
      <set comment="kpoint 45">
       <r>   -6.0582    1.0000 </r>
       <r>   -3.8254    1.0000 </r>
       <r>   -0.2701    1.0000 </r>
       <r>    0.8768    1.0000 </r>
       <r>    2.9434    0.0000 </r>
       <r>    5.1202    0.0000 </r>
       <r>    5.6173    0.0000 </r>
       <r>    6.9593    0.0000 </r>
      </set>
      <set comment="kpoint 46">
       <r>   -6.2756    1.0000 </r>
       <r>   -3.4799    1.0000 </r>
       <r>   -0.2109    1.0000 </r>
       <r>    1.0397    1.0000 </r>
       <r>    2.9506    0.0000 </r>
       <r>    5.2097    0.0000 </r>
       <r>    5.4028    0.0000 </r>
       <r>    6.4036    0.0000 </r>
      </set>
      <set comment="kpoint 47">
       <r>   -6.5252    1.0000 </r>
       <r>   -3.0359    1.0000 </r>
       <r>   -0.0497    1.0000 </r>
       <r>    1.2288    1.0000 </r>
       <r>    2.9421    0.0000 </r>
       <r>    5.1400    0.0000 </r>
       <r>    5.1762    0.0000 </r>
       <r>    5.9293    0.0000 </r>
      </set>
      <set comment="kpoint 48">
       <r>   -6.7580    1.0000 </r>
       <r>   -2.5653    1.0000 </r>
       <r>    0.2268    1.0000 </r>
       <r>    1.4204    1.0000 </r>
       <r>    2.8589    0.0000 </r>
       <r>    4.8555    0.0000 </r>
       <r>    4.9171    0.0000 </r>
       <r>    5.7717    0.0000 </r>
      </set>
      <set comment="kpoint 49">
       <r>   -6.8097    1.0000 </r>
       <r>   -2.3715    1.0000 </r>
       <r>    0.7345    1.0000 </r>
       <r>    0.7345    1.0000 </r>
       <r>    3.0448    0.0000 </r>
       <r>    3.5677    0.0000 </r>
       <r>    6.0929    0.0000 </r>
       <r>    6.0929    0.0000 </r>
      </set>
      <set comment="kpoint 50">
       <r>   -6.6273    1.0000 </r>
       <r>   -2.7650    1.0000 </r>
       <r>    0.5190    1.0000 </r>
       <r>    0.5934    1.0000 </r>
       <r>    3.0579    0.0000 </r>
       <r>    3.5979    0.0000 </r>
       <r>    6.2829    0.0000 </r>
       <r>    6.3995    0.0000 </r>
      </set>
      <set comment="kpoint 51">
       <r>   -6.4012    1.0000 </r>
       <r>   -3.1957    1.0000 </r>
       <r>    0.2292    1.0000 </r>
       <r>    0.5011    1.0000 </r>
       <r>    3.1491    0.0000 </r>
       <r>    3.7685    0.0000 </r>
       <r>    6.2239    0.0000 </r>
       <r>    6.5675    0.0000 </r>
      </set>
      <set comment="kpoint 52">
       <r>   -6.1491    1.0000 </r>
       <r>   -3.6149    1.0000 </r>
       <r>   -0.0630    1.0000 </r>
       <r>    0.4629    1.0000 </r>
       <r>    3.1417    0.0000 </r>
       <r>    4.2073    0.0000 </r>
       <r>    6.1477    0.0000 </r>
       <r>    6.5892    0.0000 </r>
      </set>
      <set comment="kpoint 53">
       <r>   -5.9118    1.0000 </r>
       <r>   -3.9638    1.0000 </r>
       <r>   -0.3067    1.0000 </r>
       <r>    0.4807    1.0000 </r>
       <r>    3.1106    0.0000 </r>
       <r>    4.7487    0.0000 </r>
       <r>    6.1661    0.0000 </r>
       <r>    6.5004    0.0000 </r>
      </set>
      <set comment="kpoint 54">
       <r>   -5.7757    1.0000 </r>
       <r>   -4.1471    1.0000 </r>
       <r>   -0.4740    1.0000 </r>
       <r>    0.5532    1.0000 </r>
       <r>    3.0992    0.0000 </r>
       <r>    5.1976    0.0000 </r>
       <r>    6.3380    0.0000 </r>
       <r>    6.3774    0.0000 </r>
      </set>
      <set comment="kpoint 55">
       <r>   -5.8312    1.0000 </r>
       <r>   -4.0733    1.0000 </r>
       <r>   -0.5472    1.0000 </r>
       <r>    0.6761    1.0000 </r>
       <r>    3.1099    0.0000 </r>
       <r>    5.4461    0.0000 </r>
       <r>    6.1156    0.0000 </r>
       <r>    6.6183    0.0000 </r>
      </set>
      <set comment="kpoint 56">
       <r>   -6.0352    1.0000 </r>
       <r>   -3.7926    1.0000 </r>
       <r>   -0.5109    1.0000 </r>
       <r>    0.8410    1.0000 </r>
       <r>    3.1230    0.0000 </r>
       <r>    5.5863    0.0000 </r>
       <r>    5.8300    0.0000 </r>
       <r>    6.2582    0.0000 </r>
      </set>
      <set comment="kpoint 57">
       <r>   -6.2857    1.0000 </r>
       <r>   -3.4216    1.0000 </r>
       <r>   -0.3493    1.0000 </r>
       <r>    1.0333    1.0000 </r>
       <r>    3.0921    0.0000 </r>
       <r>    5.4897    0.0000 </r>
       <r>    5.5503    0.0000 </r>
       <r>    5.8563    0.0000 </r>
      </set>
      <set comment="kpoint 58">
       <r>   -6.4588    1.0000 </r>
       <r>   -3.0773    1.0000 </r>
       <r>    0.4441    1.0000 </r>
       <r>    0.4441    1.0000 </r>
       <r>    2.8670    0.0000 </r>
       <r>    3.5294    0.0000 </r>
       <r>    6.8140    0.0000 </r>
       <r>    6.8140    0.0000 </r>
      </set>
      <set comment="kpoint 59">
       <r>   -6.2432    1.0000 </r>
       <r>   -3.4441    1.0000 </r>
       <r>    0.2515    1.0000 </r>
       <r>    0.3426    1.0000 </r>
       <r>    2.9183    0.0000 </r>
       <r>    3.4937    0.0000 </r>
       <r>    6.8859    0.0000 </r>
       <r>    7.0921    0.0000 </r>
      </set>
      <set comment="kpoint 60">
       <r>   -5.9932    1.0000 </r>
       <r>   -3.8208    1.0000 </r>
       <r>   -0.0291    1.0000 </r>
       <r>    0.2952    1.0000 </r>
       <r>    3.0303    0.0000 </r>
       <r>    3.6972    0.0000 </r>
       <r>    6.7501    0.0000 </r>
       <r>    7.1886    0.0000 </r>
      </set>
      <set comment="kpoint 61">
       <r>   -5.7388    1.0000 </r>
       <r>   -4.1607    1.0000 </r>
       <r>   -0.3115    1.0000 </r>
       <r>    0.3045    1.0000 </r>
       <r>    3.0551    0.0000 </r>
       <r>    4.2105    0.0000 </r>
       <r>    6.6168    0.0000 </r>
       <r>    7.1224    0.0000 </r>
      </set>
      <set comment="kpoint 62">
       <r>   -5.5591    1.0000 </r>
       <r>   -4.3788    1.0000 </r>
       <r>   -0.5335    1.0000 </r>
       <r>    0.3699    1.0000 </r>
       <r>    3.0721    0.0000 </r>
       <r>    4.8701    0.0000 </r>
       <r>    6.5185    0.0000 </r>
       <r>    6.9349    0.0000 </r>
      </set>
      <set comment="kpoint 63">
       <r>   -5.5828    1.0000 </r>
       <r>   -4.3488    1.0000 </r>
       <r>   -0.6574    1.0000 </r>
       <r>    0.4873    1.0000 </r>
       <r>    3.1083    0.0000 </r>
       <r>    5.5306    0.0000 </r>
       <r>    6.4251    0.0000 </r>
       <r>    6.6466    0.0000 </r>
      </set>
      <set comment="kpoint 64">
       <r>   -5.7838    1.0000 </r>
       <r>   -4.1065    1.0000 </r>
       <r>   -0.6566    1.0000 </r>
       <r>    0.6491    1.0000 </r>
       <r>    3.1444    0.0000 </r>
       <r>    5.9565    0.0000 </r>
       <r>    6.1627    0.0000 </r>
       <r>    6.2668    0.0000 </r>
      </set>
      <set comment="kpoint 65">
       <r>   -6.0374    1.0000 </r>
       <r>   -3.7580    1.0000 </r>
       <r>    0.2301    1.0000 </r>
       <r>    0.2301    1.0000 </r>
       <r>    2.7807    0.0000 </r>
       <r>    3.3187    0.0000 </r>
       <r>    7.5099    0.0000 </r>
       <r>    7.5099    0.0000 </r>
      </set>
      <set comment="kpoint 66">
       <r>   -5.7919    1.0000 </r>
       <r>   -4.0959    1.0000 </r>
       <r>    0.0694    1.0000 </r>
       <r>    0.1712    1.0000 </r>
       <r>    2.8667    0.0000 </r>
       <r>    3.2855    0.0000 </r>
       <r>    7.5321    0.0000 </r>
       <r>    7.7281    0.0000 </r>
      </set>
      <set comment="kpoint 67">
       <r>   -5.5270    1.0000 </r>
       <r>   -4.4196    1.0000 </r>
       <r>   -0.1866    1.0000 </r>
       <r>    0.1691    1.0000 </r>
       <r>    2.9609    0.0000 </r>
       <r>    3.5839    0.0000 </r>
       <r>    7.3625    0.0000 </r>
       <r>    7.7156    0.0000 </r>
      </set>
      <set comment="kpoint 68">
       <r>   -5.3148    1.0000 </r>
       <r>   -4.6529    1.0000 </r>
       <r>   -0.4380    1.0000 </r>
       <r>    0.2238    1.0000 </r>
       <r>    2.9980    0.0000 </r>
       <r>    4.1773    0.0000 </r>
       <r>    7.1508    0.0000 </r>
       <r>    7.5048    0.0000 </r>
      </set>
      <set comment="kpoint 69">
       <r>   -5.3551    1.0000 </r>
       <r>   -4.6028    1.0000 </r>
       <r>   -0.6109    1.0000 </r>
       <r>    0.3323    1.0000 </r>
       <r>    3.0504    0.0000 </r>
       <r>    4.8915    0.0000 </r>
       <r>    6.8321    0.0000 </r>
       <r>    7.1334    0.0000 </r>
      </set>
      <set comment="kpoint 70">
       <r>   -5.5501    1.0000 </r>
       <r>   -4.4029    1.0000 </r>
       <r>    0.0995    1.0000 </r>
       <r>    0.0995    1.0000 </r>
       <r>    2.7907    0.0000 </r>
       <r>    3.0817    0.0000 </r>
       <r>    8.0902    0.0000 </r>
       <r>    8.0902    0.0000 </r>
      </set>
      <set comment="kpoint 71">
       <r>   -5.2794    1.0000 </r>
       <r>   -4.7097    1.0000 </r>
       <r>   -0.0228    1.0000 </r>
       <r>    0.0843    1.0000 </r>
       <r>    2.8923    0.0000 </r>
       <r>    3.1057    0.0000 </r>
       <r>    8.0527    0.0000 </r>
       <r>    8.1686    0.0000 </r>
      </set>
      <set comment="kpoint 72">
       <r>   -5.0884    1.0000 </r>
       <r>   -4.9027    1.0000 </r>
       <r>   -0.2395    1.0000 </r>
       <r>    0.1266    1.0000 </r>
       <r>    2.9397    0.0000 </r>
       <r>    3.5343    0.0000 </r>
       <r>    7.7214    0.0000 </r>
       <r>    7.9503    0.0000 </r>
      </set>
      <set comment="kpoint 73">
       <r>   -5.0029    1.0000 </r>
       <r>   -5.0029    1.0000 </r>
       <r>    0.0556    1.0000 </r>
       <r>    0.0556    1.0000 </r>
       <r>    2.8950    0.0000 </r>
       <r>    2.8950    0.0000 </r>
       <r>    8.3431    0.0000 </r>
       <r>    8.3431    0.0000 </r>
      </set>
      <set comment="kpoint 74">
       <r>   -7.2467    1.0000 </r>
       <r>   -1.1414    1.0000 </r>
       <r>    1.3131    1.0000 </r>
       <r>    1.6212    1.0000 </r>
       <r>    2.6519    0.0000 </r>
       <r>    3.8406    0.0000 </r>
       <r>    4.6429    0.0000 </r>
       <r>    4.9300    0.0000 </r>
      </set>
      <set comment="kpoint 75">
       <r>   -7.1011    1.0000 </r>
       <r>   -1.6723    1.0000 </r>
       <r>    0.9969    1.0000 </r>
       <r>    1.4970    1.0000 </r>
       <r>    2.7239    0.0000 </r>
       <r>    4.0089    0.0000 </r>
       <r>    4.8989    0.0000 </r>
       <r>    5.3472    0.0000 </r>
      </set>
      <set comment="kpoint 76">
       <r>   -6.9052    1.0000 </r>
       <r>   -2.2537    1.0000 </r>
       <r>    0.7400    1.0000 </r>
       <r>    1.3342    1.0000 </r>
       <r>    2.6781    0.0000 </r>
       <r>    4.3014    0.0000 </r>
       <r>    5.1506    0.0000 </r>
       <r>    5.7357    0.0000 </r>
      </set>
      <set comment="kpoint 77">
       <r>   -6.6712    1.0000 </r>
       <r>   -2.8233    1.0000 </r>
       <r>    0.5448    1.0000 </r>
       <r>    1.1762    1.0000 </r>
       <r>    2.5888    0.0000 </r>
       <r>    4.5814    0.0000 </r>
       <r>    5.2887    0.0000 </r>
       <r>    6.1854    0.0000 </r>
      </set>
      <set comment="kpoint 78">
       <r>   -6.4240    1.0000 </r>
       <r>   -3.3263    1.0000 </r>
       <r>    0.4088    1.0000 </r>
       <r>    1.0495    1.0000 </r>
       <r>    2.5043    0.0000 </r>
       <r>    4.7667    0.0000 </r>
       <r>    5.3217    0.0000 </r>
       <r>    6.7331    0.0000 </r>
      </set>
      <set comment="kpoint 79">
       <r>   -6.2150    1.0000 </r>
       <r>   -3.6945    1.0000 </r>
       <r>    0.3289    1.0000 </r>
       <r>    0.9686    1.0000 </r>
       <r>    2.4471    0.0000 </r>
       <r>    4.8576    0.0000 </r>
       <r>    5.3140    0.0000 </r>
       <r>    7.2713    0.0000 </r>
      </set>
      <set comment="kpoint 80">
       <r>   -6.1278    1.0000 </r>
       <r>   -3.8357    1.0000 </r>
       <r>    0.3026    1.0000 </r>
       <r>    0.9409    1.0000 </r>
       <r>    2.4271    0.0000 </r>
       <r>    4.8835    0.0000 </r>
       <r>    5.3070    0.0000 </r>
       <r>    7.5126    0.0000 </r>
      </set>
      <set comment="kpoint 81">
       <r>   -7.0493    1.0000 </r>
       <r>   -1.7891    1.0000 </r>
       <r>    0.9281    1.0000 </r>
       <r>    1.1982    1.0000 </r>
       <r>    3.1731    0.0000 </r>
       <r>    3.5433    0.0000 </r>
       <r>    5.3137    0.0000 </r>
       <r>    5.4615    0.0000 </r>
      </set>
      <set comment="kpoint 82">
       <r>   -6.8691    1.0000 </r>
       <r>   -2.2829    1.0000 </r>
       <r>    0.6195    1.0000 </r>
       <r>    1.0673    1.0000 </r>
       <r>    3.1967    0.0000 </r>
       <r>    3.7616    0.0000 </r>
       <r>    5.5852    0.0000 </r>
       <r>    5.7036    0.0000 </r>
      </set>
      <set comment="kpoint 83">
       <r>   -6.6454    1.0000 </r>
       <r>   -2.8024    1.0000 </r>
       <r>    0.3603    1.0000 </r>
       <r>    0.9277    1.0000 </r>
       <r>    3.1172    0.0000 </r>
       <r>    4.1336    0.0000 </r>
       <r>    5.7149    0.0000 </r>
       <r>    5.9181    0.0000 </r>
      </set>
      <set comment="kpoint 84">
       <r>   -6.3971    1.0000 </r>
       <r>   -3.2929    1.0000 </r>
       <r>    0.1554    1.0000 </r>
       <r>    0.8198    1.0000 </r>
       <r>    3.0235    0.0000 </r>
       <r>    4.4863    0.0000 </r>
       <r>    5.7457    0.0000 </r>
       <r>    6.1949    0.0000 </r>
      </set>
      <set comment="kpoint 85">
       <r>   -6.1647    1.0000 </r>
       <r>   -3.6914    1.0000 </r>
       <r>    0.0070    1.0000 </r>
       <r>    0.7636    1.0000 </r>
       <r>    2.9484    0.0000 </r>
       <r>    4.7132    0.0000 </r>
       <r>    5.7383    0.0000 </r>
       <r>    6.6066    0.0000 </r>
      </set>
      <set comment="kpoint 86">
       <r>   -6.0253    1.0000 </r>
       <r>   -3.9079    1.0000 </r>
       <r>   -0.0821    1.0000 </r>
       <r>    0.7658    1.0000 </r>
       <r>    2.9047    0.0000 </r>
       <r>    4.8254    0.0000 </r>
       <r>    5.6962    0.0000 </r>
       <r>    7.0756    0.0000 </r>
      </set>
      <set comment="kpoint 87">
       <r>   -6.0587    1.0000 </r>
       <r>   -3.8573    1.0000 </r>
       <r>   -0.1074    1.0000 </r>
       <r>    0.8254    1.0000 </r>
       <r>    2.8959    0.0000 </r>
       <r>    4.8724    0.0000 </r>
       <r>    5.6337    0.0000 </r>
       <r>    7.1205    0.0000 </r>
      </set>
      <set comment="kpoint 88">
       <r>   -6.2427    1.0000 </r>
       <r>   -3.5640    1.0000 </r>
       <r>   -0.0625    1.0000 </r>
       <r>    0.9361    1.0000 </r>
       <r>    2.9176    0.0000 </r>
       <r>    4.8481    0.0000 </r>
       <r>    5.5673    0.0000 </r>
       <r>    6.6339    0.0000 </r>
      </set>
      <set comment="kpoint 89">
       <r>   -6.4873    1.0000 </r>
       <r>   -3.1273    1.0000 </r>
       <r>    0.0611    1.0000 </r>
       <r>    1.0863    1.0000 </r>
       <r>    2.9554    0.0000 </r>
       <r>    4.6908    0.0000 </r>
       <r>    5.5109    0.0000 </r>
       <r>    6.1255    0.0000 </r>
      </set>
      <set comment="kpoint 90">
       <r>   -6.7297    1.0000 </r>
       <r>   -2.6286    1.0000 </r>
       <r>    0.2739    1.0000 </r>
       <r>    1.2558    1.0000 </r>
       <r>    2.9755    0.0000 </r>
       <r>    4.4035    0.0000 </r>
       <r>    5.3855    0.0000 </r>
       <r>    5.7986    0.0000 </r>
      </set>
      <set comment="kpoint 91">
       <r>   -6.9391    1.0000 </r>
       <r>   -2.1264    1.0000 </r>
       <r>    0.5857    1.0000 </r>
       <r>    1.4102    1.0000 </r>
       <r>    2.9142    0.0000 </r>
       <r>    4.1298    0.0000 </r>
       <r>    5.1238    0.0000 </r>
       <r>    5.6294    0.0000 </r>
      </set>
      <set comment="kpoint 92">
       <r>   -6.7757    1.0000 </r>
       <r>   -2.4638    1.0000 </r>
       <r>    0.5833    1.0000 </r>
       <r>    0.8041    1.0000 </r>
       <r>    3.2866    0.0000 </r>
       <r>    3.5275    0.0000 </r>
       <r>    5.9066    0.0000 </r>
       <r>    6.0421    0.0000 </r>
      </set>
      <set comment="kpoint 93">
       <r>   -6.5642    1.0000 </r>
       <r>   -2.9091    1.0000 </r>
       <r>    0.2958    1.0000 </r>
       <r>    0.6807    1.0000 </r>
       <r>    3.3515    0.0000 </r>
       <r>    3.7205    0.0000 </r>
       <r>    5.9009    0.0000 </r>
       <r>    6.3097    0.0000 </r>
      </set>
      <set comment="kpoint 94">
       <r>   -6.3194    1.0000 </r>
       <r>   -3.3576    1.0000 </r>
       <r>    0.0319    1.0000 </r>
       <r>    0.5816    1.0000 </r>
       <r>    3.2988    0.0000 </r>
       <r>    4.1532    0.0000 </r>
       <r>    5.8589    0.0000 </r>
       <r>    6.4403    0.0000 </r>
      </set>
      <set comment="kpoint 95">
       <r>   -6.0717    1.0000 </r>
       <r>   -3.7554    1.0000 </r>
       <r>   -0.1872    1.0000 </r>
       <r>    0.5364    1.0000 </r>
       <r>    3.2398    0.0000 </r>
       <r>    4.6103    0.0000 </r>
       <r>    5.9177    0.0000 </r>
       <r>    6.4646    0.0000 </r>
      </set>
      <set comment="kpoint 96">
       <r>   -5.8876    1.0000 </r>
       <r>   -4.0215    1.0000 </r>
       <r>   -0.3433    1.0000 </r>
       <r>    0.5523    1.0000 </r>
       <r>    3.2049    0.0000 </r>
       <r>    4.9146    0.0000 </r>
       <r>    6.0979    0.0000 </r>
       <r>    6.5203    0.0000 </r>
      </set>
      <set comment="kpoint 97">
       <r>   -5.8658    1.0000 </r>
       <r>   -4.0514    1.0000 </r>
       <r>   -0.4228    1.0000 </r>
       <r>    0.6270    1.0000 </r>
       <r>    3.1980    0.0000 </r>
       <r>    5.0455    0.0000 </r>
       <r>    6.0841    0.0000 </r>
       <r>    6.7514    0.0000 </r>
      </set>
      <set comment="kpoint 98">
       <r>   -6.0215    1.0000 </r>
       <r>   -3.8312    1.0000 </r>
       <r>   -0.4135    1.0000 </r>
       <r>    0.7531    1.0000 </r>
       <r>    3.2099    0.0000 </r>
       <r>    5.0754    0.0000 </r>
       <r>    5.9139    0.0000 </r>
       <r>    6.5486    0.0000 </r>
      </set>
      <set comment="kpoint 99">
       <r>   -6.2614    1.0000 </r>
       <r>   -3.4643    1.0000 </r>
       <r>   -0.3025    1.0000 </r>
       <r>    0.9175    1.0000 </r>
       <r>    3.2146    0.0000 </r>
       <r>    4.9523    0.0000 </r>
       <r>    5.7542    0.0000 </r>
       <r>    6.1205    0.0000 </r>
      </set>
      <set comment="kpoint 100">
       <r>   -6.5096    1.0000 </r>
       <r>   -3.0443    1.0000 </r>
       <r>   -0.0763    1.0000 </r>
       <r>    1.0978    1.0000 </r>
       <r>    3.1589    0.0000 </r>
       <r>    4.6565    0.0000 </r>
       <r>    5.7191    0.0000 </r>
       <r>    5.7525    0.0000 </r>
      </set>
      <set comment="kpoint 101">
       <r>   -6.4291    1.0000 </r>
       <r>   -3.1360    1.0000 </r>
       <r>    0.3064    1.0000 </r>
       <r>    0.4735    1.0000 </r>
       <r>    3.1023    0.0000 </r>
       <r>    3.5902    0.0000 </r>
       <r>    6.3535    0.0000 </r>
       <r>    6.7819    0.0000 </r>
      </set>
      <set comment="kpoint 102">
       <r>   -6.1909    1.0000 </r>
       <r>   -3.5312    1.0000 </r>
       <r>    0.0445    1.0000 </r>
       <r>    0.3723    1.0000 </r>
       <r>    3.2413    0.0000 </r>
       <r>    3.7437    0.0000 </r>
       <r>    6.2486    0.0000 </r>
       <r>    7.0077    0.0000 </r>
      </set>
      <set comment="kpoint 103">
       <r>   -5.9349    1.0000 </r>
       <r>   -3.9066    1.0000 </r>
       <r>   -0.2218    1.0000 </r>
       <r>    0.3270    1.0000 </r>
       <r>    3.2597    0.0000 </r>
       <r>    4.2150    0.0000 </r>
       <r>    6.1358    0.0000 </r>
       <r>    7.0311    0.0000 </r>
      </set>
      <set comment="kpoint 104">
       <r>   -5.7150    1.0000 </r>
       <r>   -4.1966    1.0000 </r>
       <r>   -0.4416    1.0000 </r>
       <r>    0.3457    1.0000 </r>
       <r>    3.2572    0.0000 </r>
       <r>    4.8101    0.0000 </r>
       <r>    6.0898    0.0000 </r>
       <r>    6.8982    0.0000 </r>
      </set>
      <set comment="kpoint 105">
       <r>   -5.6414    1.0000 </r>
       <r>   -4.2870    1.0000 </r>
       <r>   -0.5805    1.0000 </r>
       <r>    0.4248    1.0000 </r>
       <r>    3.2750    0.0000 </r>
       <r>    5.3066    0.0000 </r>
       <r>    6.2120    0.0000 </r>
       <r>    6.6124    0.0000 </r>
      </set>
      <set comment="kpoint 106">
       <r>   -5.7734    1.0000 </r>
       <r>   -4.1222    1.0000 </r>
       <r>   -0.6152    1.0000 </r>
       <r>    0.5566    1.0000 </r>
       <r>    3.3049    0.0000 </r>
       <r>    5.4930    0.0000 </r>
       <r>    6.1719    0.0000 </r>
       <r>    6.4513    0.0000 </r>
      </set>
      <set comment="kpoint 107">
       <r>   -6.0104    1.0000 </r>
       <r>   -3.8129    1.0000 </r>
       <r>   -0.5271    1.0000 </r>
       <r>    0.7282    1.0000 </r>
       <r>    3.3094    0.0000 </r>
       <r>    5.3384    0.0000 </r>
       <r>    5.8540    0.0000 </r>
       <r>    6.3469    0.0000 </r>
      </set>
      <set comment="kpoint 108">
       <r>   -6.0136    1.0000 </r>
       <r>   -3.7901    1.0000 </r>
       <r>    0.1102    1.0000 </r>
       <r>    0.2219    1.0000 </r>
       <r>    3.0045    0.0000 </r>
       <r>    3.4429    0.0000 </r>
       <r>    6.9237    0.0000 </r>
       <r>    7.4781    0.0000 </r>
      </set>
      <set comment="kpoint 109">
       <r>   -5.7551    1.0000 </r>
       <r>   -4.1363    1.0000 </r>
       <r>   -0.1258    1.0000 </r>
       <r>    0.1587    1.0000 </r>
       <r>    3.1553    0.0000 </r>
       <r>    3.6484    0.0000 </r>
       <r>    6.7923    0.0000 </r>
       <r>    7.5985    0.0000 </r>
      </set>
      <set comment="kpoint 110">
       <r>   -5.5078    1.0000 </r>
       <r>   -4.4327    1.0000 </r>
       <r>   -0.3821    1.0000 </r>
       <r>    0.1731    1.0000 </r>
       <r>    3.1932    0.0000 </r>
       <r>    4.1990    0.0000 </r>
       <r>    6.6475    0.0000 </r>
       <r>    7.4175    0.0000 </r>
      </set>
      <set comment="kpoint 111">
       <r>   -5.3949    1.0000 </r>
       <r>   -4.5567    1.0000 </r>
       <r>   -0.5768    1.0000 </r>
       <r>    0.2504    1.0000 </r>
       <r>    3.2309    0.0000 </r>
       <r>    4.8874    0.0000 </r>
       <r>    6.5171    0.0000 </r>
       <r>    6.9776    0.0000 </r>
      </set>
      <set comment="kpoint 112">
       <r>   -5.5302    1.0000 </r>
       <r>   -4.4021    1.0000 </r>
       <r>   -0.6643    1.0000 </r>
       <r>    0.3822    1.0000 </r>
       <r>    3.2816    0.0000 </r>
       <r>    5.5311    0.0000 </r>
       <r>    6.3238    0.0000 </r>
       <r>    6.5088    0.0000 </r>
      </set>
      <set comment="kpoint 113">
       <r>   -5.5347    1.0000 </r>
       <r>   -4.4144    1.0000 </r>
       <r>    0.0013    1.0000 </r>
       <r>    0.0572    1.0000 </r>
       <r>    2.9987    0.0000 </r>
       <r>    3.2435    0.0000 </r>
       <r>    7.5443    0.0000 </r>
       <r>    7.9933    0.0000 </r>
      </set>
      <set comment="kpoint 114">
       <r>   -5.2677    1.0000 </r>
       <r>   -4.7092    1.0000 </r>
       <r>   -0.2114    1.0000 </r>
       <r>    0.0496    1.0000 </r>
       <r>    3.1198    0.0000 </r>
       <r>    3.5589    0.0000 </r>
       <r>    7.3876    0.0000 </r>
       <r>    7.7990    0.0000 </r>
      </set>
      <set comment="kpoint 115">
       <r>   -5.1742    1.0000 </r>
       <r>   -4.7993    1.0000 </r>
       <r>   -0.4369    1.0000 </r>
       <r>    0.1217    1.0000 </r>
       <r>    3.1667    0.0000 </r>
       <r>    4.1812    0.0000 </r>
       <r>    7.1246    0.0000 </r>
       <r>    7.2948    0.0000 </r>
      </set>
      <set comment="kpoint 116">
       <r>   -4.9990    1.0000 </r>
       <r>   -4.9990    1.0000 </r>
       <r>   -0.0167    1.0000 </r>
       <r>   -0.0167    1.0000 </r>
       <r>    3.0828    0.0000 </r>
       <r>    3.0828    0.0000 </r>
       <r>    8.0190    0.0000 </r>
       <r>    8.0190    0.0000 </r>
      </set>
      <set comment="kpoint 117">
       <r>   -6.6746    1.0000 </r>
       <r>   -2.7087    1.0000 </r>
       <r>    0.2594    1.0000 </r>
       <r>    0.9661    1.0000 </r>
       <r>    3.3771    0.0000 </r>
       <r>    3.8805    0.0000 </r>
       <r>    5.7211    0.0000 </r>
       <r>    5.9052    0.0000 </r>
      </set>
      <set comment="kpoint 118">
       <r>   -6.4405    1.0000 </r>
       <r>   -3.1581    1.0000 </r>
       <r>   -0.0163    1.0000 </r>
       <r>    0.8220    1.0000 </r>
       <r>    3.4047    0.0000 </r>
       <r>    4.2180    0.0000 </r>
       <r>    5.6961    0.0000 </r>
       <r>    6.1930    0.0000 </r>
      </set>
      <set comment="kpoint 119">
       <r>   -6.1894    1.0000 </r>
       <r>   -3.5827    1.0000 </r>
       <r>   -0.2055    1.0000 </r>
       <r>    0.6876    1.0000 </r>
       <r>    3.3670    0.0000 </r>
       <r>    4.5724    0.0000 </r>
       <r>    5.7774    0.0000 </r>
       <r>    6.4059    0.0000 </r>
      </set>
      <set comment="kpoint 120">
       <r>   -5.9711    1.0000 </r>
       <r>   -3.9130    1.0000 </r>
       <r>   -0.3146    1.0000 </r>
       <r>    0.5959    1.0000 </r>
       <r>    3.3312    0.0000 </r>
       <r>    4.7579    0.0000 </r>
       <r>    5.9929    0.0000 </r>
       <r>    6.6103    0.0000 </r>
      </set>
      <set comment="kpoint 121">
       <r>   -5.8773    1.0000 </r>
       <r>   -4.0456    1.0000 </r>
       <r>   -0.3502    1.0000 </r>
       <r>    0.5636    1.0000 </r>
       <r>    3.3176    0.0000 </r>
       <r>    4.8011    0.0000 </r>
       <r>    6.1004    0.0000 </r>
       <r>    6.7835    0.0000 </r>
      </set>
      <set comment="kpoint 122">
       <r>   -6.3412    1.0000 </r>
       <r>   -3.2990    1.0000 </r>
       <r>    0.0097    1.0000 </r>
       <r>    0.5549    1.0000 </r>
       <r>    3.6887    0.0000 </r>
       <r>    3.6900    0.0000 </r>
       <r>    5.7965    0.0000 </r>
       <r>    6.6882    0.0000 </r>
      </set>
      <set comment="kpoint 123">
       <r>   -6.0898    1.0000 </r>
       <r>   -3.6900    1.0000 </r>
       <r>   -0.2241    1.0000 </r>
       <r>    0.4246    1.0000 </r>
       <r>    3.6471    0.0000 </r>
       <r>    4.1762    0.0000 </r>
       <r>    5.7044    0.0000 </r>
       <r>    6.9029    0.0000 </r>
      </set>
      <set comment="kpoint 124">
       <r>   -5.8470    1.0000 </r>
       <r>   -4.0295    1.0000 </r>
       <r>   -0.3968    1.0000 </r>
       <r>    0.3409    1.0000 </r>
       <r>    3.6197    0.0000 </r>
       <r>    4.6550    0.0000 </r>
       <r>    5.7561    0.0000 </r>
       <r>    6.8869    0.0000 </r>
      </set>
      <set comment="kpoint 125">
       <r>   -5.6974    1.0000 </r>
       <r>   -4.2230    1.0000 </r>
       <r>   -0.5011    1.0000 </r>
       <r>    0.3267    1.0000 </r>
       <r>    3.6151    0.0000 </r>
       <r>    4.9077    0.0000 </r>
       <r>    6.1055    0.0000 </r>
       <r>    6.6122    0.0000 </r>
      </set>
      <set comment="kpoint 126">
       <r>   -5.7433    1.0000 </r>
       <r>   -4.1646    1.0000 </r>
       <r>   -0.5267    1.0000 </r>
       <r>    0.3842    1.0000 </r>
       <r>    3.6285    0.0000 </r>
       <r>    4.9424    0.0000 </r>
       <r>    6.1265    0.0000 </r>
       <r>    6.5679    0.0000 </r>
      </set>
      <set comment="kpoint 127">
       <r>   -5.9470    1.0000 </r>
       <r>   -3.8955    1.0000 </r>
       <r>   -0.4615    1.0000 </r>
       <r>    0.5030    1.0000 </r>
       <r>    3.6403    0.0000 </r>
       <r>    4.8011    0.0000 </r>
       <r>    5.7192    0.0000 </r>
       <r>    6.7270    0.0000 </r>
      </set>
      <set comment="kpoint 128">
       <r>   -6.1993    1.0000 </r>
       <r>   -3.5355    1.0000 </r>
       <r>   -0.2934    1.0000 </r>
       <r>    0.6615    1.0000 </r>
       <r>    3.5971    0.0000 </r>
       <r>    4.4697    0.0000 </r>
       <r>    5.6209    0.0000 </r>
       <r>    6.5407    0.0000 </r>
      </set>
      <set comment="kpoint 129">
       <r>   -5.9442    1.0000 </r>
       <r>   -3.8830    1.0000 </r>
       <r>   -0.1498    1.0000 </r>
       <r>    0.2178    1.0000 </r>
       <r>    3.5740    0.0000 </r>
       <r>    3.7518    0.0000 </r>
       <r>    6.1201    0.0000 </r>
       <r>    7.3668    0.0000 </r>
      </set>
      <set comment="kpoint 130">
       <r>   -5.6863    1.0000 </r>
       <r>   -4.2136    1.0000 </r>
       <r>   -0.3429    1.0000 </r>
       <r>    0.1167    1.0000 </r>
       <r>    3.6580    0.0000 </r>
       <r>    4.2137    0.0000 </r>
       <r>    5.9896    0.0000 </r>
       <r>    7.3318    0.0000 </r>
      </set>
      <set comment="kpoint 131">
       <r>   -5.4878    1.0000 </r>
       <r>   -4.4470    1.0000 </r>
       <r>   -0.5084    1.0000 </r>
       <r>    0.1084    1.0000 </r>
       <r>    3.6773    0.0000 </r>
       <r>    4.8315    0.0000 </r>
       <r>    5.9324    0.0000 </r>
       <r>    6.8835    0.0000 </r>
      </set>
      <set comment="kpoint 132">
       <r>   -5.4929    1.0000 </r>
       <r>   -4.4396    1.0000 </r>
       <r>   -0.6021    1.0000 </r>
       <r>    0.1830    1.0000 </r>
       <r>    3.7112    0.0000 </r>
       <r>    5.2563    0.0000 </r>
       <r>    6.0449    0.0000 </r>
       <r>    6.3484    0.0000 </r>
      </set>
      <set comment="kpoint 133">
       <r>   -5.6932    1.0000 </r>
       <r>   -4.2055    1.0000 </r>
       <r>   -0.5925    1.0000 </r>
       <r>    0.3224    1.0000 </r>
       <r>    3.7275    0.0000 </r>
       <r>    5.1795    0.0000 </r>
       <r>    5.7673    0.0000 </r>
       <r>    6.6550    0.0000 </r>
      </set>
      <set comment="kpoint 134">
       <r>   -5.4908    1.0000 </r>
       <r>   -4.4500    1.0000 </r>
       <r>   -0.2113    1.0000 </r>
       <r>   -0.0269    1.0000 </r>
       <r>    3.5382    0.0000 </r>
       <r>    3.6703    0.0000 </r>
       <r>    6.6580    0.0000 </r>
       <r>    7.6271    0.0000 </r>
      </set>
      <set comment="kpoint 135">
       <r>   -5.2508    1.0000 </r>
       <r>   -4.7089    1.0000 </r>
       <r>   -0.3835    1.0000 </r>
       <r>   -0.0622    1.0000 </r>
       <r>    3.6299    0.0000 </r>
       <r>    4.2098    0.0000 </r>
       <r>    6.5121    0.0000 </r>
       <r>    7.0844    0.0000 </r>
      </set>
      <set comment="kpoint 136">
       <r>   -5.2597    1.0000 </r>
       <r>   -4.6936    1.0000 </r>
       <r>   -0.5443    1.0000 </r>
       <r>    0.0263    1.0000 </r>
       <r>    3.6784    0.0000 </r>
       <r>    4.8912    0.0000 </r>
       <r>    6.3612    0.0000 </r>
       <r>    6.4252    0.0000 </r>
      </set>
      <set comment="kpoint 137">
       <r>   -4.9894    1.0000 </r>
       <r>   -4.9894    1.0000 </r>
       <r>   -0.1708    1.0000 </r>
       <r>   -0.1708    1.0000 </r>
       <r>    3.5778    0.0000 </r>
       <r>    3.5778    0.0000 </r>
       <r>    7.2514    0.0000 </r>
       <r>    7.2514    0.0000 </r>
      </set>
      <set comment="kpoint 138">
       <r>   -5.8346    1.0000 </r>
       <r>   -4.0267    1.0000 </r>
       <r>   -0.4092    1.0000 </r>
       <r>    0.2507    1.0000 </r>
       <r>    3.9860    0.0000 </r>
       <r>    4.3400    0.0000 </r>
       <r>    5.5937    0.0000 </r>
       <r>    7.1169    0.0000 </r>
      </set>
      <set comment="kpoint 139">
       <r>   -5.5947    1.0000 </r>
       <r>   -4.3194    1.0000 </r>
       <r>   -0.5162    1.0000 </r>
       <r>    0.1210    1.0000 </r>
       <r>    4.0461    0.0000 </r>
       <r>    4.7537    0.0000 </r>
       <r>    5.6598    0.0000 </r>
       <r>    6.7841    0.0000 </r>
      </set>
      <set comment="kpoint 140">
       <r>   -5.4793    1.0000 </r>
       <r>   -4.4532    1.0000 </r>
       <r>   -0.5506    1.0000 </r>
       <r>    0.0735    1.0000 </r>
       <r>    4.0507    0.0000 </r>
       <r>    4.9206    0.0000 </r>
       <r>    5.9743    0.0000 </r>
       <r>    6.3037    0.0000 </r>
      </set>
      <set comment="kpoint 141">
       <r>   -5.4246    1.0000 </r>
       <r>   -4.5106    1.0000 </r>
       <r>   -0.4145    1.0000 </r>
       <r>   -0.0794    1.0000 </r>
       <r>    4.1882    0.0000 </r>
       <r>    4.2696    0.0000 </r>
       <r>    5.8562    0.0000 </r>
       <r>    6.9442    0.0000 </r>
      </set>
      <set comment="kpoint 142">
       <r>   -5.2384    1.0000 </r>
       <r>   -4.7090    1.0000 </r>
       <r>   -0.4803    1.0000 </r>
       <r>   -0.1473    1.0000 </r>
       <r>    4.2421    0.0000 </r>
       <r>    4.8293    0.0000 </r>
       <r>    5.8163    0.0000 </r>
       <r>    6.2772    0.0000 </r>
      </set>
      <set comment="kpoint 143">
       <r>   -5.3448    1.0000 </r>
       <r>   -4.5942    1.0000 </r>
       <r>   -0.5358    1.0000 </r>
       <r>   -0.0597    1.0000 </r>
       <r>    4.2356    0.0000 </r>
       <r>    5.0077    0.0000 </r>
       <r>    5.7150    0.0000 </r>
       <r>    6.2204    0.0000 </r>
      </set>
      <set comment="kpoint 144">
       <r>   -4.9797    1.0000 </r>
       <r>   -4.9797    1.0000 </r>
       <r>   -0.3043    1.0000 </r>
       <r>   -0.3043    1.0000 </r>
       <r>    4.2403    0.0000 </r>
       <r>    4.2403    0.0000 </r>
       <r>    6.3747    0.0000 </r>
       <r>    6.3747    0.0000 </r>
      </set>
      <set comment="kpoint 145">
       <r>   -4.9757    1.0000 </r>
       <r>   -4.9757    1.0000 </r>
       <r>   -0.3551    1.0000 </r>
       <r>   -0.3551    1.0000 </r>
       <r>    4.7097    0.0000 </r>
       <r>    4.7097    0.0000 </r>
       <r>    5.8284    0.0000 </r>
       <r>    5.8284    0.0000 </r>
      </set>
     </set>
    </set>
   </array>
  </eigenvalues>
  <separator name="orbital magnetization" >
   <v name="MAGDIPOLOUT">      0.00000000      0.00000000      0.00000000</v>
  </separator>
  <dos>
   <i name="efermi">      1.88381313 </i>
   <total>
    <array>
     <dimension dim="1">gridpoints</dimension>
     <dimension dim="2">spin</dimension>
     <field>energy</field>
     <field>total</field>
     <field>integrated</field>
     <set>
      <set comment="spin 1">
       <r>    -8.2356     0.0000     0.0000 </r>
       <r>    -8.1778     0.0000     0.0000 </r>
       <r>    -8.1199     0.0000     0.0000 </r>
       <r>    -8.0620     0.0000     0.0000 </r>
       <r>    -8.0041     0.0000     0.0000 </r>
       <r>    -7.9462     0.0000     0.0000 </r>
       <r>    -7.8883     0.0000     0.0000 </r>
       <r>    -7.8304     0.0000     0.0000 </r>
       <r>    -7.7725     0.0000     0.0000 </r>
       <r>    -7.7146     0.0000     0.0000 </r>
       <r>    -7.6567     0.0000     0.0000 </r>
       <r>    -7.5988     0.0000     0.0000 </r>
       <r>    -7.5409     0.0000     0.0000 </r>
       <r>    -7.4830     0.0040     0.0002 </r>
       <r>    -7.4251     0.0500     0.0031 </r>
       <r>    -7.3672     0.1564     0.0122 </r>
       <r>    -7.3093     0.2499     0.0267 </r>
       <r>    -7.2514     0.3094     0.0446 </r>
       <r>    -7.1936     0.3910     0.0672 </r>
       <r>    -7.1357     0.3702     0.0886 </r>
       <r>    -7.0778     0.5229     0.1189 </r>
       <r>    -7.0199     0.5085     0.1483 </r>
       <r>    -6.9620     0.4657     0.1753 </r>
       <r>    -6.9041     0.6852     0.2150 </r>
       <r>    -6.8462     0.6696     0.2537 </r>
       <r>    -6.7883     0.5483     0.2855 </r>
       <r>    -6.7304     0.7640     0.3297 </r>
       <r>    -6.6725     0.8316     0.3779 </r>
       <r>    -6.6146     0.8343     0.4262 </r>
       <r>    -6.5567     0.7021     0.4668 </r>
       <r>    -6.4988     0.9413     0.5213 </r>
       <r>    -6.4409     1.0741     0.5835 </r>
       <r>    -6.3830     1.1211     0.6484 </r>
       <r>    -6.3251     0.8639     0.6984 </r>
       <r>    -6.2673     1.1770     0.7665 </r>
       <r>    -6.2094     1.6941     0.8646 </r>
       <r>    -6.1515     1.5717     0.9556 </r>
       <r>    -6.0936     1.1626     1.0229 </r>
       <r>    -6.0357     1.5537     1.1129 </r>
       <r>    -5.9778     1.5928     1.2051 </r>
       <r>    -5.9199     1.3365     1.2825 </r>
       <r>    -5.8620     1.1892     1.3513 </r>
       <r>    -5.8041     1.0869     1.4142 </r>
       <r>    -5.7462     1.2709     1.4878 </r>
       <r>    -5.6883     1.3671     1.5670 </r>
       <r>    -5.6304     0.8655     1.6171 </r>
       <r>    -5.5725     0.7042     1.6578 </r>
       <r>    -5.5146     1.0925     1.7211 </r>
       <r>    -5.4567     1.1872     1.7898 </r>
       <r>    -5.3988     0.5720     1.8229 </r>
       <r>    -5.3409     0.4662     1.8499 </r>
       <r>    -5.2831     0.6357     1.8867 </r>
       <r>    -5.2252     0.9567     1.9421 </r>
       <r>    -5.1673     0.4203     1.9665 </r>
       <r>    -5.1094     0.1203     1.9734 </r>
       <r>    -5.0515     0.0968     1.9790 </r>
       <r>    -4.9936     0.3202     1.9976 </r>
       <r>    -4.9357     0.3830     2.0197 </r>
       <r>    -4.8778     0.1174     2.0265 </r>
       <r>    -4.8199     0.0797     2.0311 </r>
       <r>    -4.7620     0.2170     2.0437 </r>
       <r>    -4.7041     0.8090     2.0905 </r>
       <r>    -4.6462     0.8112     2.1375 </r>
       <r>    -4.5883     0.3814     2.1596 </r>
       <r>    -4.5304     0.4257     2.1842 </r>
       <r>    -4.4725     0.5631     2.2168 </r>
       <r>    -4.4146     1.2801     2.2909 </r>
       <r>    -4.3568     0.9114     2.3437 </r>
       <r>    -4.2989     0.5942     2.3781 </r>
       <r>    -4.2410     0.6294     2.4145 </r>
       <r>    -4.1831     1.1018     2.4783 </r>
       <r>    -4.1252     1.2573     2.5511 </r>
       <r>    -4.0673     1.0585     2.6124 </r>
       <r>    -4.0094     1.1277     2.6777 </r>
       <r>    -3.9515     0.7865     2.7232 </r>
       <r>    -3.8936     1.2068     2.7931 </r>
       <r>    -3.8357     1.6331     2.8876 </r>
       <r>    -3.7778     1.5359     2.9765 </r>
       <r>    -3.7199     1.0467     3.0371 </r>
       <r>    -3.6620     0.9288     3.0909 </r>
       <r>    -3.6041     0.6714     3.1298 </r>
       <r>    -3.5462     0.9822     3.1866 </r>
       <r>    -3.4883     1.0249     3.2460 </r>
       <r>    -3.4304     0.7866     3.2915 </r>
       <r>    -3.3726     0.4898     3.3199 </r>
       <r>    -3.3147     0.6396     3.3569 </r>
       <r>    -3.2568     0.5778     3.3904 </r>
       <r>    -3.1989     0.3614     3.4113 </r>
       <r>    -3.1410     0.6948     3.4515 </r>
       <r>    -3.0831     0.7084     3.4925 </r>
       <r>    -3.0252     0.5717     3.5256 </r>
       <r>    -2.9673     0.3089     3.5435 </r>
       <r>    -2.9094     0.3176     3.5619 </r>
       <r>    -2.8515     0.3369     3.5814 </r>
       <r>    -2.7936     0.5125     3.6111 </r>
       <r>    -2.7357     0.4246     3.6356 </r>
       <r>    -2.6778     0.3293     3.6547 </r>
       <r>    -2.6199     0.3726     3.6763 </r>
       <r>    -2.5620     0.3929     3.6990 </r>
       <r>    -2.5041     0.3390     3.7187 </r>
       <r>    -2.4463     0.2511     3.7332 </r>
       <r>    -2.3884     0.1371     3.7411 </r>
       <r>    -2.3305     0.1923     3.7523 </r>
       <r>    -2.2726     0.3707     3.7737 </r>
       <r>    -2.2147     0.3786     3.7956 </r>
       <r>    -2.1568     0.1380     3.8036 </r>
       <r>    -2.0989     0.3138     3.8218 </r>
       <r>    -2.0410     0.2415     3.8358 </r>
       <r>    -1.9831     0.0820     3.8405 </r>
       <r>    -1.9252     0.2040     3.8523 </r>
       <r>    -1.8673     0.1518     3.8611 </r>
       <r>    -1.8094     0.0731     3.8654 </r>
       <r>    -1.7515     0.1857     3.8761 </r>
       <r>    -1.6936     0.2525     3.8907 </r>
       <r>    -1.6357     0.2910     3.9076 </r>
       <r>    -1.5778     0.1215     3.9146 </r>
       <r>    -1.5199     0.0473     3.9173 </r>
       <r>    -1.4621     0.0322     3.9192 </r>
       <r>    -1.4042     0.0905     3.9245 </r>
       <r>    -1.3463     0.1627     3.9339 </r>
       <r>    -1.2884     0.1475     3.9424 </r>
       <r>    -1.2305     0.0417     3.9448 </r>
       <r>    -1.1726     0.0533     3.9479 </r>
       <r>    -1.1147     0.2205     3.9607 </r>
       <r>    -1.0568     0.1227     3.9678 </r>
       <r>    -0.9989     0.0143     3.9686 </r>
       <r>    -0.9410     0.0283     3.9702 </r>
       <r>    -0.8831     0.0174     3.9713 </r>
       <r>    -0.8252     0.0284     3.9729 </r>
       <r>    -0.7673     0.0904     3.9781 </r>
       <r>    -0.7094     0.1651     3.9877 </r>
       <r>    -0.6515     0.4249     4.0123 </r>
       <r>    -0.5936     1.1886     4.0811 </r>
       <r>    -0.5358     1.9620     4.1947 </r>
       <r>    -0.4779     2.2201     4.3232 </r>
       <r>    -0.4200     2.0548     4.4422 </r>
       <r>    -0.3621     2.0816     4.5627 </r>
       <r>    -0.3042     1.9017     4.6728 </r>
       <r>    -0.2463     1.5344     4.7616 </r>
       <r>    -0.1884     1.8849     4.8708 </r>
       <r>    -0.1305     1.6620     4.9670 </r>
       <r>    -0.0726     1.7804     5.0700 </r>
       <r>    -0.0147     2.1192     5.1927 </r>
       <r>     0.0432     2.1953     5.3198 </r>
       <r>     0.1011     2.2583     5.4506 </r>
       <r>     0.1590     2.2704     5.5820 </r>
       <r>     0.2169     2.1397     5.7059 </r>
       <r>     0.2748     2.1648     5.8312 </r>
       <r>     0.3327     2.7910     5.9928 </r>
       <r>     0.3906     2.7701     6.1532 </r>
       <r>     0.4484     1.7144     6.2524 </r>
       <r>     0.5063     1.4850     6.3384 </r>
       <r>     0.5642     2.2946     6.4712 </r>
       <r>     0.6221     2.3298     6.6061 </r>
       <r>     0.6800     1.9649     6.7199 </r>
       <r>     0.7379     2.0256     6.8371 </r>
       <r>     0.7958     2.0842     6.9578 </r>
       <r>     0.8537     1.7408     7.0586 </r>
       <r>     0.9116     1.6986     7.1569 </r>
       <r>     0.9695     1.9984     7.2726 </r>
       <r>     1.0274     1.6949     7.3708 </r>
       <r>     1.0853     1.8616     7.4785 </r>
       <r>     1.1432     1.3150     7.5547 </r>
       <r>     1.2011     1.0134     7.6133 </r>
       <r>     1.2590     1.0065     7.6716 </r>
       <r>     1.3169     1.0737     7.7338 </r>
       <r>     1.3747     0.7300     7.7760 </r>
       <r>     1.4326     0.6120     7.8115 </r>
       <r>     1.4905     0.7461     7.8546 </r>
       <r>     1.5484     0.4914     7.8831 </r>
       <r>     1.6063     0.3746     7.9048 </r>
       <r>     1.6642     0.5963     7.9393 </r>
       <r>     1.7221     0.4218     7.9637 </r>
       <r>     1.7800     0.2077     7.9758 </r>
       <r>     1.8379     0.2744     7.9916 </r>
       <r>     1.8958     0.1749     8.0018 </r>
       <r>     1.9537     0.2082     8.0138 </r>
       <r>     2.0116     0.3824     8.0360 </r>
       <r>     2.0695     0.5192     8.0660 </r>
       <r>     2.1274     0.3740     8.0877 </r>
       <r>     2.1853     0.2689     8.1032 </r>
       <r>     2.2432     0.2993     8.1206 </r>
       <r>     2.3011     0.3508     8.1409 </r>
       <r>     2.3589     0.2950     8.1579 </r>
       <r>     2.4168     0.3750     8.1797 </r>
       <r>     2.4747     0.6844     8.2193 </r>
       <r>     2.5326     0.6420     8.2564 </r>
       <r>     2.5905     0.8369     8.3049 </r>
       <r>     2.6484     0.8744     8.3555 </r>
       <r>     2.7063     0.7229     8.3974 </r>
       <r>     2.7642     0.4829     8.4253 </r>
       <r>     2.8221     0.2910     8.4422 </r>
       <r>     2.8800     0.8042     8.4887 </r>
       <r>     2.9379     2.0615     8.6081 </r>
       <r>     2.9958     2.3580     8.7446 </r>
       <r>     3.0537     1.7359     8.8451 </r>
       <r>     3.1116     2.0491     8.9637 </r>
       <r>     3.1695     2.5383     9.1107 </r>
       <r>     3.2274     2.9171     9.2796 </r>
       <r>     3.2852     2.9796     9.4521 </r>
       <r>     3.3431     2.1126     9.5744 </r>
       <r>     3.4010     1.1622     9.6417 </r>
       <r>     3.4589     0.6174     9.6774 </r>
       <r>     3.5168     0.5958     9.7119 </r>
       <r>     3.5747     1.4192     9.7941 </r>
       <r>     3.6326     2.4794     9.9376 </r>
       <r>     3.6905     2.6748    10.0925 </r>
       <r>     3.7484     1.9676    10.2064 </r>
       <r>     3.8063     1.0136    10.2650 </r>
       <r>     3.8642     0.4471    10.2909 </r>
       <r>     3.9221     0.3199    10.3094 </r>
       <r>     3.9800     0.2384    10.3232 </r>
       <r>     4.0379     0.6408    10.3603 </r>
       <r>     4.0958     0.8849    10.4116 </r>
       <r>     4.1537     1.4123    10.4933 </r>
       <r>     4.2116     2.3899    10.6317 </r>
       <r>     4.2694     2.1500    10.7562 </r>
       <r>     4.3273     1.0339    10.8160 </r>
       <r>     4.3852     0.6150    10.8516 </r>
       <r>     4.4431     0.6882    10.8915 </r>
       <r>     4.5010     0.9879    10.9487 </r>
       <r>     4.5589     0.9209    11.0020 </r>
       <r>     4.6168     1.1860    11.0706 </r>
       <r>     4.6747     1.3589    11.1493 </r>
       <r>     4.7326     1.6544    11.2451 </r>
       <r>     4.7905     2.0692    11.3649 </r>
       <r>     4.8484     2.8106    11.5276 </r>
       <r>     4.9063     3.4284    11.7261 </r>
       <r>     4.9642     2.7898    11.8876 </r>
       <r>     5.0221     1.9739    12.0019 </r>
       <r>     5.0800     1.6044    12.0948 </r>
       <r>     5.1379     1.4063    12.1762 </r>
       <r>     5.1957     1.2898    12.2509 </r>
       <r>     5.2536     0.9215    12.3042 </r>
       <r>     5.3115     1.5425    12.3935 </r>
       <r>     5.3694     1.7850    12.4968 </r>
       <r>     5.4273     0.9319    12.5508 </r>
       <r>     5.4852     1.0878    12.6138 </r>
       <r>     5.5431     1.5468    12.7033 </r>
       <r>     5.6010     1.4315    12.7862 </r>
       <r>     5.6589     1.5813    12.8778 </r>
       <r>     5.7168     2.7124    13.0348 </r>
       <r>     5.7747     3.2212    13.2213 </r>
       <r>     5.8326     2.0436    13.3396 </r>
       <r>     5.8905     1.9453    13.4522 </r>
       <r>     5.9484     2.4004    13.5912 </r>
       <r>     6.0063     1.6542    13.6869 </r>
       <r>     6.0642     1.4745    13.7723 </r>
       <r>     6.1220     2.5447    13.9196 </r>
       <r>     6.1799     2.6027    14.0703 </r>
       <r>     6.2378     1.9641    14.1840 </r>
       <r>     6.2957     1.4828    14.2699 </r>
       <r>     6.3536     1.4920    14.3562 </r>
       <r>     6.4115     1.5849    14.4480 </r>
       <r>     6.4694     1.5944    14.5403 </r>
       <r>     6.5273     1.9131    14.6511 </r>
       <r>     6.5852     2.1499    14.7755 </r>
       <r>     6.6431     2.2996    14.9087 </r>
       <r>     6.7010     1.5030    14.9957 </r>
       <r>     6.7589     1.3697    15.0750 </r>
       <r>     6.8168     1.3302    15.1520 </r>
       <r>     6.8747     0.9448    15.2067 </r>
       <r>     6.9326     1.4176    15.2888 </r>
       <r>     6.9905     1.1428    15.3549 </r>
       <r>     7.0484     0.9099    15.4076 </r>
       <r>     7.1062     1.1729    15.4755 </r>
       <r>     7.1641     1.2074    15.5454 </r>
       <r>     7.2220     0.6662    15.5840 </r>
       <r>     7.2799     0.6399    15.6210 </r>
       <r>     7.3378     0.7389    15.6638 </r>
       <r>     7.3957     0.8500    15.7130 </r>
       <r>     7.4536     0.6549    15.7509 </r>
       <r>     7.5115     0.6612    15.7892 </r>
       <r>     7.5694     0.8359    15.8376 </r>
       <r>     7.6273     0.6267    15.8739 </r>
       <r>     7.6852     0.2697    15.8895 </r>
       <r>     7.7431     0.3247    15.9083 </r>
       <r>     7.8010     0.3212    15.9269 </r>
       <r>     7.8589     0.1824    15.9374 </r>
       <r>     7.9168     0.0385    15.9397 </r>
       <r>     7.9747     0.1403    15.9478 </r>
       <r>     8.0325     0.3089    15.9657 </r>
       <r>     8.0904     0.2583    15.9806 </r>
       <r>     8.1483     0.1331    15.9883 </r>
       <r>     8.2062     0.1217    15.9954 </r>
       <r>     8.2641     0.0290    15.9971 </r>
       <r>     8.3220     0.0140    15.9979 </r>
       <r>     8.3799     0.0291    15.9996 </r>
       <r>     8.4378     0.0073    16.0000 </r>
       <r>     8.4957     0.0002    16.0000 </r>
       <r>     8.5536     0.0000    16.0000 </r>
       <r>     8.6115     0.0000    16.0000 </r>
       <r>     8.6694     0.0000    16.0000 </r>
       <r>     8.7273     0.0000    16.0000 </r>
       <r>     8.7852     0.0000    16.0000 </r>
       <r>     8.8431     0.0000    16.0000 </r>
       <r>     8.9010     0.0000    16.0000 </r>
       <r>     8.9589     0.0000    16.0000 </r>
       <r>     9.0167     0.0000    16.0000 </r>
       <r>     9.0746     0.0000    16.0000 </r>
       <r>     9.1325     0.0000    16.0000 </r>
      </set>
     </set>
    </array>
   </total>
  </dos>
 </calculation>
 <structure name="finalpos" >
  <crystal>
   <varray name="basis" >
    <v>       4.26466777      -0.00000000       2.46220654 </v>
    <v>       1.42155557       4.02076672       2.46220654 </v>
    <v>       0.00000000      -0.00000000       4.92441307 </v>
   </varray>
   <i name="volume">     84.44006441 </i>
   <varray name="rec_basis" >
    <v>       0.23448485      -0.08290291      -0.00000000 </v>
    <v>       0.00000000       0.24870878       0.00000000 </v>
    <v>      -0.11724243      -0.08290294       0.20306989 </v>
   </varray>
  </crystal>
  <varray name="positions" >
   <v>       0.87500000       0.87500000       0.87500000 </v>
   <v>       0.12500000       0.12500000       0.12500000 </v>
  </varray>
 </structure>
</modeling>
