    1    1    1    1
  0.1507073E+02  0.2772573E-09  0.2772574E-09  0.2772573E-09  0.5000000E-15
   1.0000000000000000E-004
  CAR 
 static single-point for EOS (converged p
     11    220      9
 
  0.1262379E-14  0.1262379E-14  0.1262379E-14  0.1457938E-03
      1          0.437293   1.000000
      2          6.252440   1.000000
      3          6.252443   1.000000
      4          6.252444   1.000000
      5          8.133134   1.000000
      6          8.133135   1.000000
      7         25.939337   0.000000
      8         30.655338   0.000000
      9         30.655341   0.000000
 
  0.5263158E-01  0.1262337E-14  0.1262379E-14  0.1166351E-02
      1          0.546096   1.000000
      2          6.210859   1.000000
      3          6.293196   1.000000
      4          6.293199   1.000000
      5          8.112365   1.000000
      6          8.112366   1.000000
      7         26.091937   0.000000
      8         30.011199   0.000000
      9         30.808185   0.000000
 
  0.1052632E+00  0.1257268E-14  0.1262379E-14  0.1166351E-02
      1          0.863897   1.000000
      2          6.103211   1.000000
      3          6.401485   1.000000
      4          6.401488   1.000000
      5          8.066937   1.000000
      6          8.066937   1.000000
      7         26.500561   0.000000
      8         28.626880   0.000000
      9         31.251717   0.000000
 
  0.1578947E+00  0.1252091E-14  0.1262379E-14  0.1166351E-02
      1          1.360328   1.000000
      2          5.981699   1.000000
      3          6.530279   1.000000
      4          6.530283   1.000000
      5          8.050369   1.000000
      6          8.050369   1.000000
      7         26.740178   0.000000
      8         27.271512   0.000000
      9         31.934106   0.000000
 
  0.2105263E+00  0.1249901E-14  0.1262379E-14  0.1166351E-02
      1          1.966668   1.000000
      2          5.940439   1.000000
      3          6.602540   1.000000
      4          6.602545   1.000000
      5          8.144392   1.000000
      6          8.144393   1.000000
      7         25.099159   0.000000
      8         27.446949   0.000000
      9         32.718832   0.000000
 
  0.2631579E+00  0.1238026E-14  0.1262379E-14  0.1166351E-02
      1          2.549442   1.000000
      2          6.132192   1.000000
      3          6.571624   1.000000
      4          6.571630   1.000000
      5          8.392521   1.000000
      6          8.392523   1.000000
      7         23.140156   0.000000
      8         27.262648   0.000000
      9         33.068466   0.000000
 
  0.3157895E+00  0.1271446E-14  0.1262379E-14  0.1166351E-02
      1          2.942400   1.000000
      2          6.469595   1.000000
      3          6.469600   1.000000
      4          6.726341   1.000000
      5          8.746101   1.000000
      6          8.746102   1.000000
      7         21.049876   0.000000
      8         26.700709   0.000000
      9         32.230466   0.000000
 
  0.3684211E+00  0.1261401E-14  0.1262379E-14  0.1166351E-02
      1          3.106302   1.000000
      2          6.351697   1.000000
      3          6.351703   1.000000
      4          7.734422   1.000000
      5          9.117593   1.000000
      6          9.117594   1.000000
      7         18.948072   0.000000
      8         26.111570   0.000000
      9         31.101435   0.000000
 
  0.4210526E+00  0.1290004E-14  0.1262379E-14  0.1166351E-02
      1          3.140818   1.000000
      2          6.256016   1.000000
      3          6.256022   1.000000
      4          8.953769   1.000000
      5          9.423926   1.000000
      6          9.423928   1.000000
      7         17.025868   0.000000
      8         25.676259   0.000000
      9         30.225611   0.000000
 
  0.4736842E+00  0.1283620E-14  0.1262379E-14  0.1166351E-02
      1          3.137613   1.000000
      2          6.203549   1.000000
      3          6.203554   1.000000
      4          9.597054   1.000000
      5          9.597055   1.000000
      6          9.953423   1.000000
      7         15.681413   0.000000
      8         25.451347   0.000000
      9         29.757261   0.000000
 
  0.5263158E-01  0.5263158E-01  0.1262379E-14  0.8747631E-03
      1          0.582501   1.000000
      2          6.167255   1.000000
      3          6.322750   1.000000
      4          6.322751   1.000000
      5          8.040433   1.000000
      6          8.168334   1.000000
      7         26.145448   0.000000
      8         30.185726   0.000000
      9         30.646405   0.000000
 
  0.1052632E+00  0.5263158E-01  0.1262379E-14  0.3499052E-02
      1          0.831315   1.000000
      2          6.062052   1.000000
      3          6.418000   1.000000
      4          6.425071   1.000000
      5          7.938332   1.000000
      6          8.189539   1.000000
      7         26.479278   0.000000
      8         29.133231   0.000000
      9         30.760602   0.000000
 
  0.1578947E+00  0.5263158E-01  0.1262379E-14  0.3499052E-02
      1          1.271070   1.000000
      2          5.931066   1.000000
      3          6.547470   1.000000
      4          6.559494   1.000000
      5          7.853134   1.000000
      6          8.214953   1.000000
      7         26.927528   0.000000
      8         27.660344   0.000000
      9         31.089572   0.000000
 
  0.2105263E+00  0.5263158E-01  0.1262379E-14  0.3499052E-02
      1          1.849944   1.000000
      2          5.838725   1.000000
      3          6.635027   1.000000
      4          6.658101   1.000000
      5          7.884326   1.000000
      6          8.312165   1.000000
      7         25.781600   0.000000
      8         27.507868   0.000000
      9         31.486301   0.000000
 
  0.2631579E+00  0.5263158E-01  0.1262379E-14  0.3499052E-02
      1          2.459683   1.000000
      2          5.906637   1.000000
      3          6.602205   1.000000
      4          6.664613   1.000000
      5          8.123085   1.000000
      6          8.532506   1.000000
      7         23.876689   0.000000
      8         27.491161   0.000000
      9         31.633821   0.000000
 
  0.3157895E+00  0.5263158E-01  0.1262379E-14  0.3499052E-02
      1          2.930140   1.000000
      2          6.287245   1.000000
      3          6.495342   1.000000
      4          6.587025   1.000000
      5          8.542378   1.000000
      6          8.852059   1.000000
      7         21.804714   0.000000
      8         27.010299   0.000000
      9         31.214188   0.000000
 
  0.3684211E+00  0.5263158E-01  0.1262379E-14  0.3499052E-02
      1          3.159950   1.000000
      2          6.326822   1.000000
      3          6.472872   1.000000
      4          7.092219   1.000000
      5          9.081696   1.000000
      6          9.193204   1.000000
      7         19.675884   0.000000
      8         26.407816   0.000000
      9         30.469274   0.000000
 
  0.4210526E+00  0.5263158E-01  0.1262379E-14  0.3499052E-02
      1          3.221598   1.000000
      2          6.215088   1.000000
      3          6.364496   1.000000
      4          8.016341   1.000000
      5          9.471475   1.000000
      6          9.750472   1.000000
      7         17.650967   0.000000
      8         25.920671   0.000000
      9         29.823593   0.000000
 
  0.4736842E+00  0.5263158E-01  0.1262379E-14  0.3499052E-02
      1          3.222604   1.000000
      2          6.148642   1.000000
      3          6.289121   1.000000
      4          8.691455   1.000000
      5          9.616814   1.000000
      6         10.549684   1.000000
      7         16.018387   0.000000
      8         25.629064   0.000000
      9         29.510059   0.000000
 
 -0.4736842E+00  0.5263158E-01  0.1262379E-14  0.3499052E-02
      1          3.219985   1.000000
      2          6.138431   1.000000
      3          6.261828   1.000000
      4          8.907124   1.000000
      5          9.588465   1.000000
      6         10.908192   1.000000
      7         15.478766   0.000000
      8         25.554256   0.000000
      9         29.277445   0.000000
 
 -0.4210526E+00  0.5263158E-01  0.1262379E-14  0.3499052E-02
      1          3.226268   1.000000
      2          6.184494   1.000000
      3          6.288269   1.000000
      4          8.608906   1.000000
      5          9.386277   1.000000
      6         10.384413   1.000000
      7         16.496412   0.000000
      8         25.698884   0.000000
      9         29.309182   0.000000
 
 -0.3684211E+00  0.5263158E-01  0.1262379E-14  0.3499052E-02
      1          3.215302   1.000000
      2          6.277357   1.000000
      3          6.365308   1.000000
      4          7.790698   1.000000
      5          9.049246   1.000000
      6          9.769430   1.000000
      7         18.310056   0.000000
      8         26.054132   0.000000
      9         29.741685   0.000000
 
 -0.3157895E+00  0.5263158E-01  0.1262379E-14  0.3499052E-02
      1          3.111629   1.000000
      2          6.388591   1.000000
      3          6.479174   1.000000
      4          6.854956   1.000000
      5          8.642431   1.000000
      6          9.283153   1.000000
      7         20.388361   0.000000
      8         26.584325   0.000000
      9         30.456990   0.000000
 
 -0.2631579E+00  0.5263158E-01  0.1262379E-14  0.3499052E-02
      1          2.801504   1.000000
      2          6.137227   1.000000
      3          6.557363   1.000000
      4          6.598961   1.000000
      5          8.245256   1.000000
      6          8.852967   1.000000
      7         22.507105   0.000000
      8         27.169178   0.000000
      9         31.237652   0.000000
 
 -0.2105263E+00  0.5263158E-01  0.1262379E-14  0.3499052E-02
      1          2.263740   1.000000
      2          5.874841   1.000000
      3          6.625811   1.000000
      4          6.664724   1.000000
      5          7.953171   1.000000
      6          8.500879   1.000000
      7         24.522958   0.000000
      8         27.514861   0.000000
      9         31.576771   0.000000
 
 -0.1578947E+00  0.5263158E-01  0.1262379E-14  0.3499052E-02
      1          1.646276   1.000000
      2          5.880206   1.000000
      3          6.611604   1.000000
      4          6.612484   1.000000
      5          7.849973   1.000000
      6          8.276827   1.000000
      7         26.330729   0.000000
      8         27.374716   0.000000
      9         31.189323   0.000000
 
 -0.1052632E+00  0.5263158E-01  0.1262379E-14  0.3499052E-02
      1          1.104732   1.000000
      2          5.999647   1.000000
      3          6.473801   1.000000
      4          6.511466   1.000000
      5          7.905596   1.000000
      6          8.181137   1.000000
      7         26.782351   0.000000
      8         28.059062   0.000000
      9         30.781341   0.000000
 
 -0.5263158E-01  0.5263158E-01  0.1262379E-14  0.1749526E-02
      1          0.724914   1.000000
      2          6.130551   1.000000
      3          6.348760   1.000000
      4          6.383018   1.000000
      5          8.015914   1.000000
      6          8.148682   1.000000
      7         26.334102   0.000000
      8         29.347883   0.000000
      9         30.630450   0.000000
 
  0.1052632E+00  0.1052632E+00  0.1262379E-14  0.8747631E-03
      1          1.008425   1.000000
      2          5.928319   1.000000
      3          6.531854   1.000000
      4          6.531855   1.000000
      5          7.783080   1.000000
      6          8.271197   1.000000
      7         26.738357   0.000000
      8         29.362909   0.000000
      9         30.507657   0.000000
 
  0.1578947E+00  0.1052632E+00  0.1262379E-14  0.3499052E-02
      1          1.381010   1.000000
      2          5.770092   1.000000
      3          6.677901   1.000000
      4          6.684991   1.000000
      5          7.642569   1.000000
      6          8.337713   1.000000
      7         27.191155   0.000000
      8         28.312160   0.000000
      9         30.433420   0.000000
 
  0.2105263E+00  0.1052632E+00  0.1262379E-14  0.3499052E-02
      1          1.911959   1.000000
      2          5.628197   1.000000
      3          6.750306   1.000000
      4          6.820764   1.000000
      5          7.657711   1.000000
      6          8.444936   1.000000
      7         26.595843   0.000000
      8         27.776179   0.000000
      9         30.418115   0.000000
 
  0.2631579E+00  0.1052632E+00  0.1262379E-14  0.3499052E-02
      1          2.520416   1.000000
      2          5.582048   1.000000
      3          6.641388   1.000000
      4          6.872845   1.000000
      5          7.970703   1.000000
      6          8.649023   1.000000
      7         24.737422   0.000000
      8         27.891963   0.000000
      9         30.290049   0.000000
 
  0.3157895E+00  0.1052632E+00  0.1262379E-14  0.3499052E-02
      1          3.052795   1.000000
      2          5.769735   1.000000
      3          6.444267   1.000000
      4          6.828000   1.000000
      5          8.517904   1.000000
      6          8.945449   1.000000
      7         22.659440   0.000000
      8         27.493629   0.000000
      9         29.935023   0.000000
 
  0.3684211E+00  0.1052632E+00  0.1262379E-14  0.3499052E-02
      1          3.353470   1.000000
      2          6.248300   1.000000
      3          6.296700   1.000000
      4          6.725311   1.000000
      5          9.242281   1.000000
      6          9.265079   1.000000
      7         20.488264   0.000000
      8         26.887751   0.000000
      9         29.441236   0.000000
 
  0.4210526E+00  0.1052632E+00  0.1262379E-14  0.3499052E-02
      1          3.447937   1.000000
      2          6.092983   1.000000
      3          6.610189   1.000000
      4          7.031030   1.000000
      5          9.522388   1.000000
      6         10.143720   1.000000
      7         18.370033   0.000000
      8         26.356800   0.000000
      9         29.028195   0.000000
 
  0.4736842E+00  0.1052632E+00  0.1262379E-14  0.3499052E-02
      1          3.457609   1.000000
      2          5.996787   1.000000
      3          6.515290   1.000000
      4          7.695039   1.000000
      5          9.645348   1.000000
      6         11.187697   1.000000
      7         16.503862   0.000000
      8         25.998377   0.000000
      9         28.890232   0.000000
 
 -0.4736842E+00  0.1052632E+00  0.1262379E-14  0.3499052E-02
      1          3.456610   1.000000
      2          5.967748   1.000000
      3          6.460913   1.000000
      4          8.064506   1.000000
      5          9.592606   1.000000
      6         11.965729   0.003004
      7         15.422174   0.000000
      8         25.837148   0.000000
      9         28.477505   0.000000
 
 -0.4210526E+00  0.1052632E+00  0.1262379E-14  0.3499052E-02
      1          3.468729   1.000000
      2          6.005238   1.000000
      3          6.458120   1.000000
      4          8.005012   1.000000
      5          9.364339   1.000000
      6         11.608159   1.000000
      7         16.067198   0.000000
      8         25.875008   0.000000
      9         28.166559   0.000000
 
 -0.3684211E+00  0.1052632E+00  0.1262379E-14  0.3499052E-02
      1          3.480804   1.000000
      2          6.098885   1.000000
      3          6.509875   1.000000
      4          7.491848   1.000000
      5          8.998875   1.000000
      6         10.788067   1.000000
      7         17.780025   0.000000
      8         26.100724   0.000000
      9         28.252435   0.000000
 
 -0.3157895E+00  0.1052632E+00  0.1262379E-14  0.3499052E-02
      1          3.433993   1.000000
      2          6.211035   1.000000
      3          6.610371   1.000000
      4          6.751693   1.000000
      5          8.557506   1.000000
      6         10.090337   1.000000
      7         19.821987   0.000000
      8         26.482940   0.000000
      9         28.702736   0.000000
 
 -0.2631579E+00  0.1052632E+00  0.1262379E-14  0.3499052E-02
      1          3.209685   1.000000
      2          5.989815   1.000000
      3          6.476468   1.000000
      4          6.739969   1.000000
      5          8.112300   1.000000
      6          9.505201   1.000000
      7         21.948097   0.000000
      8         26.947477   0.000000
      9         29.452438   0.000000
 
 -0.2105263E+00  0.1052632E+00  0.1262379E-14  0.3499052E-02
      1          2.728046   1.000000
      2          5.713640   1.000000
      3          6.589883   1.000000
      4          6.843421   1.000000
      5          7.757495   1.000000
      6          9.000536   1.000000
      7         23.992659   0.000000
      8         27.342624   0.000000
      9         30.339448   0.000000
 
 -0.1578947E+00  0.1052632E+00  0.1262379E-14  0.3499052E-02
      1          2.110707   1.000000
      2          5.711930   1.000000
      3          6.658516   1.000000
      4          6.802791   1.000000
      5          7.633102   1.000000
      6          8.600852   1.000000
      7         25.787455   0.000000
      8         27.454989   0.000000
      9         30.454032   0.000000
 
 -0.1052632E+00  0.1052632E+00  0.1262379E-14  0.1749526E-02
      1          1.535683   1.000000
      2          5.842885   1.000000
      3          6.626217   1.000000
      4          6.629446   1.000000
      5          7.734516   1.000000
      6          8.335731   1.000000
      7         27.171886   0.000000
      8         27.193803   0.000000
      9         30.367731   0.000000
 
  0.1578947E+00  0.1578947E+00  0.1262379E-14  0.8747631E-03
      1          1.679395   1.000000
      2          5.578301   1.000000
      3          6.873528   1.000000
      4          6.873529   1.000000
      5          7.428719   1.000000
      6          8.433137   1.000000
      7         27.647682   0.000000
      8         28.725051   0.000000
      9         29.926190   0.000000
 
  0.2105263E+00  0.1578947E+00  0.1262379E-14  0.3499052E-02
      1          2.139117   1.000000
      2          5.393613   1.000000
      3          6.942594   1.000000
      4          7.064270   1.000000
      5          7.432113   1.000000
      6          8.544877   1.000000
      7         27.536477   0.000000
      8         28.213757   0.000000
      9         29.498714   0.000000
 
  0.2631579E+00  0.1578947E+00  0.1262379E-14  0.3499052E-02
      1          2.703217   1.000000
      2          5.263453   1.000000
      3          6.717801   1.000000
      4          7.178934   1.000000
      5          7.866614   1.000000
      6          8.733674   1.000000
      7         25.717433   0.000000
      8         28.406829   0.000000
      9         29.077054   0.000000
 
  0.3157895E+00  0.1578947E+00  0.1262379E-14  0.3499052E-02
      1          3.254421   1.000000
      2          5.281786   1.000000
      3          6.451569   1.000000
      4          7.179901   1.000000
      5          8.525988   1.000000
      6          9.014040   1.000000
      7         23.605902   0.000000
      8         28.006425   0.000000
      9         28.631450   0.000000
 
  0.3684211E+00  0.1578947E+00  0.1262379E-14  0.3499052E-02
      1          3.616311   1.000000
      2          5.567025   1.000000
      3          6.228630   1.000000
      4          7.097839   1.000000
      5          9.322798   1.000000
      6          9.381380   1.000000
      7         21.374675   0.000000
      8         27.329045   0.000000
      9         28.213827   0.000000
 
  0.4210526E+00  0.1578947E+00  0.1262379E-14  0.3499052E-02
      1          3.748428   1.000000
      2          5.858932   1.000000
      3          6.308026   1.000000
      4          6.982447   1.000000
      5          9.569829   1.000000
      6         10.435929   1.000000
      7         19.174180   0.000000
      8         26.684782   0.000000
      9         27.941582   0.000000
 
  0.4736842E+00  0.1578947E+00  0.1262379E-14  0.3499052E-02
      1          3.777584   1.000000
      2          5.790881   1.000000
      3          6.849730   1.000000
      4          6.871756   1.000000
      5          9.679574   1.000000
      6         11.668927   1.000000
      7         17.145662   0.000000
      8         26.155948   0.000000
      9         27.943358   0.000000
 
 -0.4736842E+00  0.1578947E+00  0.1262379E-14  0.3499052E-02
      1          3.792942   1.000000
      2          5.740909   1.000000
      3          6.790923   1.000000
      4          7.277524   1.000000
      5          9.610160   1.000000
      6         12.877343   0.000000
      7         15.581606   0.000000
      8         25.751045   0.000000
      9         28.029312   0.000000
 
 -0.4210526E+00  0.1578947E+00  0.1262379E-14  0.3499052E-02
      1          3.824350   1.000000
      2          5.761376   1.000000
      3          6.755497   1.000000
      4          7.386129   1.000000
      5          9.362839   1.000000
      6         12.859834   0.000000
      7         15.750708   0.000000
      8         25.483515   0.000000
      9         27.665957   0.000000
 
 -0.3684211E+00  0.1578947E+00  0.1262379E-14  0.3499052E-02
      1          3.867317   1.000000
      2          5.849408   1.000000
      3          6.773654   1.000000
      4          7.097376   1.000000
      5          8.976498   1.000000
      6         11.885329   0.318023
      7         17.404712   0.000000
      8         25.395244   0.000000
      9         27.649571   0.000000
 
 -0.3157895E+00  0.1578947E+00  0.1262379E-14  0.3499052E-02
      1          3.879010   1.000000
      2          5.966580   1.000000
      3          6.537421   1.000000
      4          6.847190   1.000000
      5          8.509678   1.000000
      6         11.014511   1.000000
      7         19.385684   0.000000
      8         25.513437   0.000000
      9         27.972172   0.000000
 
 -0.2631579E+00  0.1578947E+00  0.1262379E-14  0.3499052E-02
      1          3.743384   1.000000
      2          5.794914   1.000000
      3          6.300432   1.000000
      4          6.970486   1.000000
      5          8.024282   1.000000
      6         10.282010   1.000000
      7         21.449016   0.000000
      8         25.817157   0.000000
      9         28.624039   0.000000
 
 -0.2105263E+00  0.1578947E+00  0.1262379E-14  0.3499052E-02
      1          3.320117   1.000000
      2          5.542663   1.000000
      3          6.454179   1.000000
      4          7.118062   1.000000
      5          7.587972   1.000000
      6          9.630509   1.000000
      7         23.400888   0.000000
      8         26.285806   0.000000
      9         29.610848   0.000000
 
 -0.1578947E+00  0.1578947E+00  0.1262379E-14  0.1749526E-02
      1          2.706254   1.000000
      2          5.562986   1.000000
      3          6.598690   1.000000
      4          7.069653   1.000000
      5          7.446698   1.000000
      6          9.058848   1.000000
      7         24.911905   0.000000
      8         26.944364   0.000000
      9         30.618390   0.000000
 
  0.2105263E+00  0.2105263E+00  0.1262379E-14  0.8747631E-03
      1          2.505114   1.000000
      2          5.170922   1.000000
      3          7.114101   1.000000
      4          7.335686   1.000000
      5          7.335686   1.000000
      6          8.640169   1.000000
      7         28.376061   0.000000
      8         28.700752   0.000000
      9         28.765089   0.000000
 
  0.2631579E+00  0.2105263E+00  0.1262379E-14  0.3499052E-02
      1          2.966708   1.000000
      2          4.986180   1.000000
      3          6.891851   1.000000
      4          7.545993   1.000000
      5          7.797729   1.000000
      6          8.793749   1.000000
      7         26.739029   0.000000
      8         28.001760   0.000000
      9         28.662105   0.000000
 
  0.3157895E+00  0.2105263E+00  0.1262379E-14  0.3499052E-02
      1          3.447397   1.000000
      2          4.889305   1.000000
      3          6.641501   1.000000
      4          7.618495   1.000000
      5          8.507127   1.000000
      6          9.051350   1.000000
      7         24.591554   0.000000
      8         27.403709   0.000000
      9         28.066573   0.000000
 
  0.3684211E+00  0.2105263E+00  0.1262379E-14  0.3499052E-02
      1          3.811091   1.000000
      2          4.975688   1.000000
      3          6.429125   1.000000
      4          7.570096   1.000000
      5          9.357401   1.000000
      6          9.447343   1.000000
      7         22.298111   0.000000
      8         26.947870   0.000000
      9         27.183019   0.000000
 
  0.4210526E+00  0.2105263E+00  0.1262379E-14  0.3499052E-02
      1          3.969248   1.000000
      2          5.249399   1.000000
      3          6.326338   1.000000
      4          7.461855   1.000000
      5          9.607172   1.000000
      6         10.612356   1.000000
      7         20.034324   0.000000
      8         26.308312   0.000000
      9         26.710553   0.000000
 
  0.4736842E+00  0.2105263E+00  0.1262379E-14  0.3499052E-02
      1          4.029371   1.000000
      2          5.455073   1.000000
      3          6.445087   1.000000
      4          7.339984   1.000000
      5          9.716091   1.000000
      6         11.979733   0.000835
      7         17.917883   0.000000
      8         25.490026   0.000000
      9         26.778050   0.000000
 
 -0.4736842E+00  0.2105263E+00  0.1262379E-14  0.3499052E-02
      1          4.088588   1.000000
      2          5.504373   1.000000
      3          6.706567   1.000000
      4          7.233734   1.000000
      5          9.640914   1.000000
      6         13.485956   0.000000
      7         16.068149   0.000000
      8         24.746012   0.000000
      9         27.212516   0.000000
 
 -0.4210526E+00  0.2105263E+00  0.1262379E-14  0.3499052E-02
      1          4.173920   1.000000
      2          5.532371   1.000000
      3          6.844293   1.000000
      4          7.161793   1.000000
      5          9.385549   1.000000
      6         14.090209   0.000000
      7         15.565092   0.000000
      8         24.132369   0.000000
      9         28.028139   0.000000
 
 -0.3684211E+00  0.2105263E+00  0.1262379E-14  0.3499052E-02
      1          4.278467   1.000000
      2          5.607174   1.000000
      3          6.695393   1.000000
      4          7.135216   1.000000
      5          8.992342   1.000000
      6         12.945958   0.000000
      7         17.258828   0.000000
      8         23.740930   0.000000
      9         28.123751   0.000000
 
 -0.3157895E+00  0.2105263E+00  0.1262379E-14  0.3499052E-02
      1          4.365862   1.000000
      2          5.721823   1.000000
      3          6.285506   1.000000
      4          7.158540   1.000000
      5          8.522272   1.000000
      6         11.951674   0.009393
      7         19.156608   0.000000
      8         23.660775   0.000000
      9         28.230574   0.000000
 
 -0.2631579E+00  0.2105263E+00  0.1262379E-14  0.3499052E-02
      1          4.320407   1.000000
      2          5.625271   1.000000
      3          6.076542   1.000000
      4          7.228054   1.000000
      5          8.039256   1.000000
      6         11.112462   1.000000
      7         21.016175   0.000000
      8         23.974978   0.000000
      9         28.546964   0.000000
 
 -0.2105263E+00  0.2105263E+00  0.1262379E-14  0.1749526E-02
      1          3.934084   1.000000
      2          5.458857   1.000000
      3          6.255504   1.000000
      4          7.304736   1.000000
      5          7.628007   1.000000
      6         10.345054   1.000000
      7         22.509358   0.000000
      8         24.863174   0.000000
      9         29.042625   0.000000
 
  0.2631579E+00  0.2631579E+00  0.1262379E-14  0.8747631E-03
      1          3.267164   1.000000
      2          4.757926   1.000000
      3          7.106148   1.000000
      4          7.896737   1.000000
      5          7.896737   1.000000
      6          8.872929   1.000000
      7         27.070753   0.000000
      8         27.070759   0.000000
      9         28.043131   0.000000
 
  0.3157895E+00  0.2631579E+00  0.1262379E-14  0.3499052E-02
      1          3.568221   1.000000
      2          4.594607   1.000000
      3          7.117402   1.000000
      4          8.099353   1.000000
      5          8.458750   1.000000
      6          9.063787   1.000000
      7         25.408205   0.000000
      8         26.305267   0.000000
      9         27.326751   0.000000
 
  0.3684211E+00  0.2631579E+00  0.1262379E-14  0.3499052E-02
      1          3.823722   1.000000
      2          4.543635   1.000000
      3          6.997282   1.000000
      4          8.109823   1.000000
      5          9.362661   1.000000
      6          9.426099   1.000000
      7         23.157448   0.000000
      8         25.749195   0.000000
      9         26.284257   0.000000
 
  0.4210526E+00  0.2631579E+00  0.1262379E-14  0.3499052E-02
      1          3.971161   1.000000
      2          4.667877   1.000000
      3          6.865942   1.000000
      4          8.017721   1.000000
      5          9.628555   1.000000
      6         10.671740   1.000000
      7         20.880635   0.000000
      8         25.286832   0.000000
      9         25.467353   0.000000
 
  0.4736842E+00  0.2631579E+00  0.1262379E-14  0.3499052E-02
      1          4.050266   1.000000
      2          4.908538   1.000000
      3          6.768436   1.000000
      4          7.890081   1.000000
      5          9.751515   1.000000
      6         12.133662   0.000000
      7         18.748414   0.000000
      8         24.327455   0.000000
      9         25.527220   0.000000
 
 -0.4736842E+00  0.2631579E+00  0.1262379E-14  0.3499052E-02
      1          4.147917   1.000000
      2          5.146109   1.000000
      3          6.707536   1.000000
      4          7.760456   1.000000
      5          9.684248   1.000000
      6         13.768620   0.000000
      7         16.842195   0.000000
      8         23.409054   0.000000
      9         25.970088   0.000000
 
 -0.4210526E+00  0.2631579E+00  0.1262379E-14  0.3499052E-02
      1          4.294294   1.000000
      2          5.333193   1.000000
      3          6.626609   1.000000
      4          7.647530   1.000000
      5          9.435708   1.000000
      6         15.214529   0.000000
      7         15.542217   0.000000
      8         22.576920   0.000000
      9         26.789746   0.000000
 
 -0.3684211E+00  0.2631579E+00  0.1262379E-14  0.3499052E-02
      1          4.482473   1.000000
      2          5.485761   1.000000
      3          6.425314   1.000000
      4          7.559504   1.000000
      5          9.058108   1.000000
      6         13.903117   0.000000
      7         17.395471   0.000000
      8         21.928094   0.000000
      9         27.932157   0.000000
 
 -0.3157895E+00  0.2631579E+00  0.1262379E-14  0.3499052E-02
      1          4.669554   1.000000
      2          5.636836   1.000000
      3          6.063770   1.000000
      4          7.490801   1.000000
      5          8.628559   1.000000
      6         12.855039   0.000000
      7         19.226116   0.000000
      8         21.641673   0.000000
      9         28.687556   0.000000
 
 -0.2631579E+00  0.2631579E+00  0.1262379E-14  0.1749526E-02
      1          4.701809   1.000000
      2          5.646300   1.000000
      3          5.870975   1.000000
      4          7.405485   1.000000
      5          8.247437   1.000000
      6         11.959979   0.004874
      7         20.518113   0.000000
      8         22.260711   0.000000
      9         28.595447   0.000000
 
  0.3157895E+00  0.3157895E+00  0.1262379E-14  0.8747631E-03
      1          3.639385   1.000000
      2          4.381838   1.000000
      3          7.765816   1.000000
      4          8.519515   1.000000
      5          8.519516   1.000000
      6          9.107461   1.000000
      7         25.384162   0.000000
      8         25.384168   0.000000
      9         26.075321   0.000000
 
  0.3684211E+00  0.3157895E+00  0.1262379E-14  0.3499052E-02
      1          3.714225   1.000000
      2          4.255472   1.000000
      3          7.919766   1.000000
      4          8.667642   1.000000
      5          9.317357   1.000000
      6          9.336885   1.000000
      7         23.701913   0.000000
      8         24.699352   0.000000
      9         25.033020   0.000000
 
  0.4210526E+00  0.3157895E+00  0.1262379E-14  0.3499052E-02
      1          3.801100   1.000000
      2          4.251897   1.000000
      3          7.764257   1.000000
      4          8.603153   1.000000
      5          9.629783   1.000000
      6         10.623006   1.000000
      7         21.545897   0.000000
      8         24.107172   0.000000
      9         24.321521   0.000000
 
  0.4736842E+00  0.3157895E+00  0.1262379E-14  0.3499052E-02
      1          3.883590   1.000000
      2          4.401134   1.000000
      3          7.545868   1.000000
      4          8.475588   1.000000
      5          9.784039   1.000000
      6         12.152373   0.000000
      7         19.493243   0.000000
      8         23.146173   0.000000
      9         24.316936   0.000000
 
 -0.4736842E+00  0.3157895E+00  0.1262379E-14  0.3499052E-02
      1          3.990481   1.000000
      2          4.661797   1.000000
      3          7.288399   1.000000
      4          8.326375   1.000000
      5          9.740215   1.000000
      6         13.838403   0.000000
      7         17.664282   0.000000
      8         22.169689   0.000000
      9         24.718314   0.000000
 
 -0.4210526E+00  0.3157895E+00  0.1262379E-14  0.3499052E-02
      1          4.151098   1.000000
      2          4.973168   1.000000
      3          6.978613   1.000000
      4          8.167371   1.000000
      5          9.517438   1.000000
      6         15.536803   0.000000
      7         16.225560   0.000000
      8         21.210465   0.000000
      9         25.504543   0.000000
 
 -0.3684211E+00  0.3157895E+00  0.1262379E-14  0.3499052E-02
      1          4.363568   1.000000
      2          5.290668   1.000000
      3          6.598289   1.000000
      4          7.993315   1.000000
      5          9.189013   1.000000
      6         14.777433   0.000000
      7         17.634924   0.000000
      8         20.332651   0.000000
      9         26.604935   0.000000
 
 -0.3157895E+00  0.3157895E+00  0.1262379E-14  0.1749526E-02
      1          4.587632   1.000000
      2          5.567470   1.000000
      3          6.186722   1.000000
      4          7.777404   1.000000
      5          8.859910   1.000000
      6         13.760157   0.000000
      7         19.601642   0.000000
      8         19.647898   0.000000
      9         27.915455   0.000000
 
  0.3684211E+00  0.3684211E+00  0.1262379E-14  0.8747631E-03
      1          3.616600   1.000000
      2          4.074598   1.000000
      3          9.096807   1.000000
      4          9.141966   1.000000
      5          9.141966   1.000000
      6          9.316892   1.000000
      7         23.250801   0.000000
      8         23.879160   0.000000
      9         23.879166   0.000000
 
  0.4210526E+00  0.3684211E+00  0.1262379E-14  0.3499052E-02
      1          3.596581   1.000000
      2          3.995358   1.000000
      3          8.860664   1.000000
      4          9.148056   1.000000
      5          9.612534   1.000000
      6         10.508842   1.000000
      7         21.582102   0.000000
      8         23.188969   0.000000
      9         23.375290   0.000000
 
  0.4736842E+00  0.3684211E+00  0.1262379E-14  0.3499052E-02
      1          3.652695   1.000000
      2          4.041462   1.000000
      3          8.523817   1.000000
      4          9.024707   1.000000
      5          9.817553   1.000000
      6         12.062729   0.000000
      7         19.830279   0.000000
      8         22.330775   0.000000
      9         23.265342   0.000000
 
 -0.4736842E+00  0.3684211E+00  0.1262379E-14  0.3499052E-02
      1          3.762981   1.000000
      2          4.231052   1.000000
      3          8.114110   1.000000
      4          8.863679   1.000000
      5          9.812177   1.000000
      6         13.730015   0.000000
      7         18.222538   0.000000
      8         21.401963   0.000000
      9         23.586048   0.000000
 
 -0.4210526E+00  0.3684211E+00  0.1262379E-14  0.3499052E-02
      1          3.925004   1.000000
      2          4.540969   1.000000
      3          7.631071   1.000000
      4          8.655249   1.000000
      5          9.636610   1.000000
      6         15.434777   0.000000
      7         16.859150   0.000000
      8         20.498013   0.000000
      9         24.309881   0.000000
 
 -0.3684211E+00  0.3684211E+00  0.1262379E-14  0.1749526E-02
      1          4.136590   1.000000
      2          4.920941   1.000000
      3          7.094876   1.000000
      4          8.370885   1.000000
      5          9.394400   1.000000
      6         15.693655   0.000000
      7         17.037798   0.000000
      8         19.855574   0.000000
      9         25.353976   0.000000
 
  0.4210526E+00  0.4210526E+00  0.1262379E-14  0.8747631E-03
      1          3.468843   1.000000
      2          3.858391   1.000000
      3          9.474957   1.000000
      4          9.669369   1.000000
      5          9.669370   1.000000
      6         10.735510   1.000000
      7         20.659340   0.000000
      8         22.733159   0.000000
      9         22.733165   0.000000
 
  0.4736842E+00  0.4210526E+00  0.1262379E-14  0.3499052E-02
      1          3.456077   1.000000
      2          3.832485   1.000000
      3          9.423347   1.000000
      4          9.480837   1.000000
      5          9.877791   1.000000
      6         11.945767   0.014530
      7         19.451909   0.000000
      8         22.153927   0.000000
      9         22.490744   0.000000
 
 -0.4736842E+00  0.4210526E+00  0.1262379E-14  0.3499052E-02
      1          3.547679   1.000000
      2          3.932779   1.000000
      3          8.974252   1.000000
      4          9.279263   1.000000
      5          9.907048   1.000000
      6         13.374321   0.000000
      7         18.334497   0.000000
      8         21.402308   0.000000
      9         22.699212   0.000000
 
 -0.4210526E+00  0.4210526E+00  0.1262379E-14  0.1749526E-02
      1          3.712674   1.000000
      2          4.174141   1.000000
      3          8.334386   1.000000
      4          9.035506   1.000000
      5          9.788124   1.000000
      6         14.671351   0.000000
      7         17.455835   0.000000
      8         20.709889   0.000000
      9         23.335059   0.000000
 
  0.4736842E+00  0.4736842E+00  0.1262379E-14  0.8747631E-03
      1          3.364316   1.000000
      2          3.747043   1.000000
      3          9.560323   1.000000
      4          9.981193   1.000000
      5          9.981195   1.000000
      6         12.108655   0.000000
      7         18.826522   0.000000
      8         22.104676   0.000000
      9         22.104683   0.000000
 
 -0.4736842E+00  0.4736842E+00  0.1262379E-14  0.1749526E-02
      1          3.399930   1.000000
      2          3.777130   1.000000
      3          9.503631   1.000000
      4          9.692819   1.000000
      5          9.996424   1.000000
      6         12.743749   0.000000
      7         18.421348   0.000000
      8         21.804781   0.000000
      9         22.177269   0.000000
 
  0.1578947E+00  0.1052632E+00  0.5263158E-01  0.3499052E-02
      1          1.142610   1.000000
      2          5.925189   1.000000
      3          6.535375   1.000000
      4          6.556398   1.000000
      5          7.802581   1.000000
      6          8.251767   1.000000
      7         26.867612   0.000000
      8         28.370487   0.000000
      9         30.483132   0.000000
 
  0.2105263E+00  0.1052632E+00  0.5263158E-01  0.6998105E-02
      1          1.631210   1.000000
      2          5.778417   1.000000
      3          6.662230   1.000000
      4          6.693379   1.000000
      5          7.705139   1.000000
      6          8.359773   1.000000
      7         26.940120   0.000000
      8         27.430978   0.000000
      9         30.496888   0.000000
 
  0.2631579E+00  0.1052632E+00  0.5263158E-01  0.6998105E-02
      1          2.233600   1.000000
      2          5.694807   1.000000
      3          6.659893   1.000000
      4          6.797523   1.000000
      5          7.775787   1.000000
      6          8.580862   1.000000
      7         25.269492   0.000000
      8         27.654204   0.000000
      9         30.689980   0.000000
 
  0.3157895E+00  0.1052632E+00  0.5263158E-01  0.6998105E-02
      1          2.819759   1.000000
      2          5.802149   1.000000
      3          6.543118   1.000000
      4          6.775686   1.000000
      5          8.083128   1.000000
      6          8.935958   1.000000
      7         23.303955   0.000000
      8         27.445826   0.000000
      9         30.385900   0.000000
 
  0.3684211E+00  0.1052632E+00  0.5263158E-01  0.6998105E-02
      1          3.212462   1.000000
      2          6.215371   1.000000
      3          6.409751   1.000000
      4          6.679863   1.000000
      5          8.537732   1.000000
      6          9.395964   1.000000
      7         21.185209   0.000000
      8         26.926014   0.000000
      9         29.688088   0.000000
 
  0.4210526E+00  0.1052632E+00  0.5263158E-01  0.6998105E-02
      1          3.365730   1.000000
      2          6.201732   1.000000
      3          6.545711   1.000000
      4          7.033232   1.000000
      5          9.017220   1.000000
      6          9.966756   1.000000
      7         19.055347   0.000000
      8         26.392520   0.000000
      9         29.070219   0.000000
 
  0.4736842E+00  0.1052632E+00  0.5263158E-01  0.6998105E-02
      1          3.390468   1.000000
      2          6.088524   1.000000
      3          6.454255   1.000000
      4          7.782113   1.000000
      5          9.382739   1.000000
      6         10.729310   1.000000
      7         17.090224   0.000000
      8         25.997968   0.000000
      9         28.689567   0.000000
 
 -0.4736842E+00  0.1052632E+00  0.5263158E-01  0.6998105E-02
      1          3.382741   1.000000
      2          6.027393   1.000000
      3          6.401995   1.000000
      4          8.236711   1.000000
      5          9.557573   1.000000
      6         11.539913   1.000000
      7         15.653301   0.000000
      8         25.793480   0.000000
      9         28.593437   0.000000
 
  0.2105263E+00  0.1578947E+00  0.5263158E-01  0.3499052E-02
      1          1.800797   1.000000
      2          5.595783   1.000000
      3          6.789869   1.000000
      4          6.871820   1.000000
      5          7.531058   1.000000
      6          8.449166   1.000000
      7         27.563801   0.000000
      8         27.620877   0.000000
      9         29.979873   0.000000
 
  0.2631579E+00  0.1578947E+00  0.5263158E-01  0.6998105E-02
      1          2.357851   1.000000
      2          5.451035   1.000000
      3          6.724048   1.000000
      4          7.040600   1.000000
      5          7.645010   1.000000
      6          8.653263   1.000000
      7         26.102122   0.000000
      8         27.840921   0.000000
      9         29.900551   0.000000
 
  0.3157895E+00  0.1578947E+00  0.5263158E-01  0.6998105E-02
      1          2.956186   1.000000
      2          5.422371   1.000000
      3          6.519562   1.000000
      4          7.074762   1.000000
      5          8.035688   1.000000
      6          8.996830   1.000000
      7         24.194633   0.000000
      8         27.665067   0.000000
      9         29.498920   0.000000
 
  0.3684211E+00  0.1578947E+00  0.5263158E-01  0.6998105E-02
      1          3.421584   1.000000
      2          5.652352   1.000000
      3          6.287996   1.000000
      4          7.004053   1.000000
      5          8.576058   1.000000
      6          9.477703   1.000000
      7         22.060799   0.000000
      8         27.241019   0.000000
      9         28.725377   0.000000
 
  0.4210526E+00  0.1578947E+00  0.5263158E-01  0.6998105E-02
      1          3.632307   1.000000
      2          6.061506   1.000000
      3          6.214017   1.000000
      4          6.898295   1.000000
      5          9.102858   1.000000
      6         10.142339   1.000000
      7         19.877629   0.000000
      8         26.759435   0.000000
      9         28.104288   0.000000
 
  0.4736842E+00  0.1578947E+00  0.5263158E-01  0.6998105E-02
      1          3.678041   1.000000
      2          5.918939   1.000000
      3          6.715062   1.000000
      4          6.942549   1.000000
      5          9.447311   1.000000
      6         11.078575   1.000000
      7         17.798059   0.000000
      8         26.347490   0.000000
      9         27.734432   0.000000
 
 -0.4736842E+00  0.1578947E+00  0.5263158E-01  0.6998105E-02
      1          3.677090   1.000000
      2          5.831012   1.000000
      3          6.681252   1.000000
      4          7.423758   1.000000
      5          9.570213   1.000000
      6         12.185677   0.000000
      7         16.037188   0.000000
      8         26.063711   0.000000
      9         27.583435   0.000000
 
 -0.4210526E+00  0.1578947E+00  0.5263158E-01  0.6998105E-02
      1          3.682085   1.000000
      2          5.815891   1.000000
      3          6.651389   1.000000
      4          7.616422   1.000000
      5          9.504874   1.000000
      6         12.696385   0.000000
      7         15.408021   0.000000
      8         25.926111   0.000000
      9         27.484396   0.000000
 
 -0.3684211E+00  0.1578947E+00  0.5263158E-01  0.6998105E-02
      1          3.702634   1.000000
      2          5.872887   1.000000
      3          6.667079   1.000000
      4          7.394912   1.000000
      5          9.283234   1.000000
      6         11.892215   0.252062
      7         16.655208   0.000000
      8         25.939510   0.000000
      9         27.468312   0.000000
 
 -0.3157895E+00  0.1578947E+00  0.5263158E-01  0.6998105E-02
      1          3.713505   1.000000
      2          5.990682   1.000000
      3          6.670176   1.000000
      4          6.894997   1.000000
      5          8.912861   1.000000
      6         10.959895   1.000000
      7         18.557807   0.000000
      8         26.105455   0.000000
      9         27.724369   0.000000
 
 -0.2631579E+00  0.1578947E+00  0.5263158E-01  0.6998105E-02
      1          3.634310   1.000000
      2          6.033090   1.000000
      3          6.250175   1.000000
      4          6.883026   1.000000
      5          8.440364   1.000000
      6         10.205282   1.000000
      7         20.651334   0.000000
      8         26.404406   0.000000
      9         28.303486   0.000000
 
 -0.2105263E+00  0.1578947E+00  0.5263158E-01  0.6998105E-02
      1          3.324909   1.000000
      2          5.636598   1.000000
      3          6.392276   1.000000
      4          7.000112   1.000000
      5          7.965397   1.000000
      6          9.575461   1.000000
      7         22.761461   0.000000
      8         26.783558   0.000000
      9         29.188329   0.000000
 
 -0.1578947E+00  0.1578947E+00  0.5263158E-01  0.6998105E-02
      1          2.769712   1.000000
      2          5.523933   1.000000
      3          6.572632   1.000000
      4          7.056930   1.000000
      5          7.619284   1.000000
      6          9.041102   1.000000
      7         24.690094   0.000000
      8         27.171816   0.000000
      9         30.211419   0.000000
 
 -0.1052632E+00  0.1578947E+00  0.5263158E-01  0.3499052E-02
      1          2.154542   1.000000
      2          5.615895   1.000000
      3          6.680812   1.000000
      4          6.906215   1.000000
      5          7.575136   1.000000
      6          8.627148   1.000000
      7         26.153816   0.000000
      8         27.448751   0.000000
      9         30.184933   0.000000
 
  0.2631579E+00  0.2105263E+00  0.5263158E-01  0.3499052E-02
      1          2.613421   1.000000
      2          5.206903   1.000000
      3          6.826218   1.000000
      4          7.332366   1.000000
      5          7.592663   1.000000
      6          8.709990   1.000000
      7         26.831614   0.000000
      8         27.930847   0.000000
      9         29.525037   0.000000
 
  0.3157895E+00  0.2105263E+00  0.5263158E-01  0.6998105E-02
      1          3.159753   1.000000
      2          5.084705   1.000000
      3          6.577029   1.000000
      4          7.473865   1.000000
      5          8.022522   1.000000
      6          9.023914   1.000000
      7         25.131577   0.000000
      8         27.356586   0.000000
      9         28.971391   0.000000
 
  0.3684211E+00  0.2105263E+00  0.5263158E-01  0.6998105E-02
      1          3.646347   1.000000
      2          5.126824   1.000000
      3          6.322991   1.000000
      4          7.445028   1.000000
      5          8.625073   1.000000
      6          9.515427   1.000000
      7         22.987757   0.000000
      8         26.924509   0.000000
      9         28.017413   0.000000
 
  0.4210526E+00  0.2105263E+00  0.5263158E-01  0.6998105E-02
      1          3.907244   1.000000
      2          5.421098   1.000000
      3          6.138085   1.000000
      4          7.344603   1.000000
      5          9.178005   1.000000
      6         10.262692   1.000000
      7         20.755581   0.000000
      8         26.603894   0.000000
      9         27.149494   0.000000
 
  0.4736842E+00  0.2105263E+00  0.5263158E-01  0.6998105E-02
      1          3.982764   1.000000
      2          5.646253   1.000000
      3          6.262294   1.000000
      4          7.227699   1.000000
      5          9.505380   1.000000
      6         11.339069   1.000000
      7         18.601204   0.000000
      8         26.314069   0.000000
      9         26.552609   0.000000
 
 -0.4736842E+00  0.2105263E+00  0.5263158E-01  0.6998105E-02
      1          4.009322   1.000000
      2          5.605689   1.000000
      3          6.681998   1.000000
      4          7.125979   1.000000
      5          9.600915   1.000000
      6         12.657577   0.000000
      7         16.651374   0.000000
      8         25.692872   0.000000
      9         26.620891   0.000000
 
 -0.4210526E+00  0.2105263E+00  0.5263158E-01  0.6998105E-02
      1          4.044953   1.000000
      2          5.574445   1.000000
      3          6.965555   1.000000
      4          7.051215   1.000000
      5          9.497856   1.000000
      6         13.805772   0.000000
      7         15.335617   0.000000
      8         25.141729   0.000000
      9         26.909249   0.000000
 
 -0.3684211E+00  0.2105263E+00  0.5263158E-01  0.6998105E-02
      1          4.099868   1.000000
      2          5.613855   1.000000
      3          6.912849   1.000000
      4          7.036129   1.000000
      5          9.238140   1.000000
      6         13.063334   0.000000
      7         16.395175   0.000000
      8         24.757437   0.000000
      9         27.229302   0.000000
 
 -0.3157895E+00  0.2105263E+00  0.5263158E-01  0.6998105E-02
      1          4.157361   1.000000
      2          5.724934   1.000000
      3          6.516820   1.000000
      4          7.080403   1.000000
      5          8.852649   1.000000
      6         11.983146   0.000598
      7         18.250704   0.000000
      8         24.617239   0.000000
      9         27.561113   0.000000
 
 -0.2631579E+00  0.2105263E+00  0.5263158E-01  0.6998105E-02
      1          4.154172   1.000000
      2          5.805426   1.000000
      3          6.046941   1.000000
      4          7.167983   1.000000
      5          8.377965   1.000000
      6         11.092172   1.000000
      7         20.242881   0.000000
      8         24.755252   0.000000
      9         28.023006   0.000000
 
 -0.2105263E+00  0.2105263E+00  0.5263158E-01  0.6998105E-02
      1          3.924707   1.000000
      2          5.476653   1.000000
      3          6.171562   1.000000
      4          7.296052   1.000000
      5          7.881355   1.000000
      6         10.326781   1.000000
      7         22.193273   0.000000
      8         25.186966   0.000000
      9         28.692229   0.000000
 
 -0.1578947E+00  0.2105263E+00  0.5263158E-01  0.3499052E-02
      1          3.389828   1.000000
      2          5.404570   1.000000
      3          6.390888   1.000000
      4          7.415199   1.000000
      5          7.464002   1.000000
      6          9.639012   1.000000
      7         23.767080   0.000000
      8         26.030895   0.000000
      9         29.576622   0.000000
 
  0.3157895E+00  0.2631579E+00  0.5263158E-01  0.3499052E-02
      1          3.373077   1.000000
      2          4.810195   1.000000
      3          6.798169   1.000000
      4          7.893023   1.000000
      5          8.077090   1.000000
      6          9.024112   1.000000
      7         25.823179   0.000000
      8         26.722090   0.000000
      9         28.240748   0.000000
 
  0.3684211E+00  0.2631579E+00  0.5263158E-01  0.6998105E-02
      1          3.763339   1.000000
      2          4.727685   1.000000
      3          6.626822   1.000000
      4          7.978979   1.000000
      5          8.644117   1.000000
      6          9.502949   1.000000
      7         23.869770   0.000000
      8         25.980021   0.000000
      9         27.302776   0.000000
 
  0.4210526E+00  0.2631579E+00  0.5263158E-01  0.6998105E-02
      1          4.019025   1.000000
      2          4.830390   1.000000
      3          6.466207   1.000000
      4          7.895734   1.000000
      5          9.218983   1.000000
      6         10.311706   1.000000
      7         21.632397   0.000000
      8         25.563471   0.000000
      9         26.365029   0.000000
 
  0.4736842E+00  0.2631579E+00  0.5263158E-01  0.6998105E-02
      1          4.117421   1.000000
      2          5.084525   1.000000
      3          6.386816   1.000000
      4          7.766096   1.000000
      5          9.550130   1.000000
      6         11.492326   1.000000
      7         19.451513   0.000000
      8         25.228605   0.000000
      9         25.666887   0.000000
 
 -0.4736842E+00  0.2631579E+00  0.5263158E-01  0.6998105E-02
      1          4.184695   1.000000
      2          5.283038   1.000000
      3          6.445442   1.000000
      4          7.626626   1.000000
      5          9.642814   1.000000
      6         12.936035   0.000000
      7         17.441907   0.000000
      8         24.481447   0.000000
      9         25.742966   0.000000
 
 -0.4210526E+00  0.2631579E+00  0.5263158E-01  0.6998105E-02
      1          4.283258   1.000000
      2          5.366377   1.000000
      3          6.570937   1.000000
      4          7.497759   1.000000
      5          9.529203   1.000000
      6         14.542297   0.000000
      7         15.696301   0.000000
      8         23.704743   0.000000
      9         26.230667   0.000000
 
 -0.3684211E+00  0.2631579E+00  0.5263158E-01  0.6998105E-02
      1          4.418652   1.000000
      2          5.418835   1.000000
      3          6.556002   1.000000
      4          7.415524   1.000000
      5          9.254859   1.000000
      6         14.145251   0.000000
      7         16.378535   0.000000
      8         23.069782   0.000000
      9         26.916617   0.000000
 
 -0.3157895E+00  0.2631579E+00  0.5263158E-01  0.6998105E-02
      1          4.567094   1.000000
      2          5.507831   1.000000
      3          6.267046   1.000000
      4          7.413780   1.000000
      5          8.867783   1.000000
      6         12.959833   0.000000
      7         18.221784   0.000000
      8         22.702083   0.000000
      9         27.545074   0.000000
 
 -0.2631579E+00  0.2631579E+00  0.5263158E-01  0.6998105E-02
      1          4.659900   1.000000
      2          5.611717   1.000000
      3          5.849613   1.000000
      4          7.457339   1.000000
      5          8.419669   1.000000
      6         11.989536   0.000312
      7         20.027843   0.000000
      8         22.762808   0.000000
      9         27.983509   0.000000
 
 -0.2105263E+00  0.2631579E+00  0.5263158E-01  0.3499052E-02
      1          4.473630   1.000000
      2          5.431333   1.000000
      3          5.933636   1.000000
      4          7.477074   1.000000
      5          8.014664   1.000000
      6         11.133242   1.000000
      7         21.419219   0.000000
      8         23.576438   0.000000
      9         28.341238   0.000000
 
  0.3684211E+00  0.3157895E+00  0.5263158E-01  0.3499052E-02
      1          3.751805   1.000000
      2          4.447537   1.000000
      3          7.238293   1.000000
      4          8.516078   1.000000
      5          8.703481   1.000000
      6          9.440171   1.000000
      7         24.328891   0.000000
      8         25.140223   0.000000
      9         26.275584   0.000000
 
  0.4210526E+00  0.3157895E+00  0.5263158E-01  0.6998105E-02
      1          3.914131   1.000000
      2          4.412896   1.000000
      3          7.158977   1.000000
      4          8.518044   1.000000
      5          9.218284   1.000000
      6         10.291041   1.000000
      7         22.354205   0.000000
      8         24.452948   0.000000
      9         25.329221   0.000000
 
  0.4736842E+00  0.3157895E+00  0.5263158E-01  0.6998105E-02
      1          4.016233   1.000000
      2          4.544788   1.000000
      3          7.021715   1.000000
      4          8.373969   1.000000
      5          9.578575   1.000000
      6         11.545276   1.000000
      7         20.241490   0.000000
      8         23.959307   0.000000
      9         24.661126   0.000000
 
 -0.4736842E+00  0.3157895E+00  0.5263158E-01  0.6998105E-02
      1          4.100859   1.000000
      2          4.787623   1.000000
      3          6.877134   1.000000
      4          8.199688   1.000000
      5          9.694455   1.000000
      6         13.062125   0.000000
      7         18.275944   0.000000
      8         23.163856   0.000000
      9         24.682254   0.000000
 
 -0.4210526E+00  0.3157895E+00  0.5263158E-01  0.6998105E-02
      1          4.229115   1.000000
      2          5.048355   1.000000
      3          6.722689   1.000000
      4          8.018588   1.000000
      5          9.597164   1.000000
      6         14.745165   0.000000
      7         16.554968   0.000000
      8         22.265065   0.000000
      9         25.195407   0.000000
 
 -0.3684211E+00  0.3157895E+00  0.5263158E-01  0.6998105E-02
      1          4.415012   1.000000
      2          5.279395   1.000000
      3          6.506906   1.000000
      4          7.859246   1.000000
      5          9.340099   1.000000
      6         15.044371   0.000000
      7         16.622204   0.000000
      8         21.424337   0.000000
      9         26.017059   0.000000
 
 -0.3157895E+00  0.3157895E+00  0.5263158E-01  0.6998105E-02
      1          4.640879   1.000000
      2          5.472656   1.000000
      3          6.168708   1.000000
      4          7.746621   1.000000
      5          8.991416   1.000000
      6         13.876175   0.000000
      7         18.495404   0.000000
      8         20.778247   0.000000
      9         26.952450   0.000000
 
 -0.2631579E+00  0.3157895E+00  0.5263158E-01  0.3499052E-02
      1          4.824160   1.000000
      2          5.628870   1.000000
      3          5.781442   1.000000
      4          7.645334   1.000000
      5          8.641302   1.000000
      6         12.892665   0.000000
      7         19.911733   0.000000
      8         20.938740   0.000000
      9         27.684096   0.000000
 
  0.4210526E+00  0.3684211E+00  0.5263158E-01  0.3499052E-02
      1          3.726427   1.000000
      2          4.150541   1.000000
      3          8.067943   1.000000
      4          9.139527   1.000000
      5          9.200046   1.000000
      6         10.244976   1.000000
      7         22.453530   0.000000
      8         23.681790   0.000000
      9         24.223454   0.000000
 
  0.4736842E+00  0.3684211E+00  0.5263158E-01  0.6998105E-02
      1          3.791380   1.000000
      2          4.165647   1.000000
      3          7.906398   1.000000
      4          8.988867   1.000000
      5          9.592527   1.000000
      6         11.530361   1.000000
      7         20.689977   0.000000
      8         22.961229   0.000000
      9         23.635422   0.000000
 
 -0.4736842E+00  0.3684211E+00  0.5263158E-01  0.6998105E-02
      1          3.884309   1.000000
      2          4.329218   1.000000
      3          7.656634   1.000000
      4          8.769407   1.000000
      5          9.760829   1.000000
      6         13.071723   0.000000
      7         18.915117   0.000000
      8         22.123768   0.000000
      9         23.608919   0.000000
 
 -0.4210526E+00  0.3684211E+00  0.5263158E-01  0.6998105E-02
      1          4.017062   1.000000
      2          4.608794   1.000000
      3          7.337741   1.000000
      4          8.528746   1.000000
      5          9.704681   1.000000
      6         14.758248   0.000000
      7         17.341409   0.000000
      8         21.183330   0.000000
      9         24.085986   0.000000
 
 -0.3684211E+00  0.3684211E+00  0.5263158E-01  0.6998105E-02
      1          4.205546   1.000000
      2          4.946297   1.000000
      3          6.940048   1.000000
      4          8.282439   1.000000
      5          9.494783   1.000000
      6         15.807194   0.000000
      7         16.752854   0.000000
      8         20.261382   0.000000
      9         24.916945   0.000000
 
 -0.3157895E+00  0.3684211E+00  0.5263158E-01  0.3499052E-02
      1          4.437182   1.000000
      2          5.278262   1.000000
      3          6.488238   1.000000
      4          8.031246   1.000000
      5          9.223425   1.000000
      6         14.810349   0.000000
      7         18.348816   0.000000
      8         19.617523   0.000000
      9         25.948455   0.000000
 
  0.4736842E+00  0.4210526E+00  0.5263158E-01  0.3499052E-02
      1          3.573474   1.000000
      2          3.941192   1.000000
      3          8.819452   1.000000
      4          9.434806   1.000000
      5          9.668403   1.000000
      6         11.559861   1.000000
      7         20.320862   0.000000
      8         22.558774   0.000000
      9         22.812461   0.000000
 
 -0.4736842E+00  0.4210526E+00  0.5263158E-01  0.6998105E-02
      1          3.646568   1.000000
      2          4.009565   1.000000
      3          8.528980   1.000000
      4          9.228163   1.000000
      5          9.860785   1.000000
      6         12.982184   0.000000
      7         18.977911   0.000000
      8         21.777966   0.000000
      9         22.689741   0.000000
 
 -0.4210526E+00  0.4210526E+00  0.5263158E-01  0.6998105E-02
      1          3.785827   1.000000
      2          4.219440   1.000000
      3          8.091960   1.000000
      4          8.951062   1.000000
      5          9.848711   1.000000
      6         14.518046   0.000000
      7         17.735712   0.000000
      8         20.902786   0.000000
      9         23.096261   0.000000
 
 -0.3684211E+00  0.4210526E+00  0.5263158E-01  0.3499052E-02
      1          3.976524   1.000000
      2          4.551498   1.000000
      3          7.533984   1.000000
      4          8.644835   1.000000
      5          9.690885   1.000000
      6         15.922851   0.000000
      7         16.707497   0.000000
      8         20.208281   0.000000
      9         23.885458   0.000000
 
 -0.4736842E+00  0.4736842E+00  0.5263158E-01  0.3499052E-02
      1          3.466057   1.000000
      2          3.833183   1.000000
      3          9.286535   1.000000
      4          9.477179   1.000000
      5          9.981270   1.000000
      6         12.830833   0.000000
      7         18.613155   0.000000
      8         21.939727   0.000000
      9         22.115787   0.000000
 
 -0.4210526E+00  0.4736842E+00  0.5263158E-01  0.3499052E-02
      1          3.588876   1.000000
      2          3.956559   1.000000
      3          8.804740   1.000000
      4          9.245164   1.000000
      5          9.978140   1.000000
      6         13.827272   0.000000
      7         18.026109   0.000000
      8         21.357868   0.000000
      9         22.380342   0.000000
 
  0.3157895E+00  0.2105263E+00  0.1052632E+00  0.3499052E-02
      1          2.923759   1.000000
      2          5.299888   1.000000
      3          6.547867   1.000000
      4          7.340690   1.000000
      5          7.659288   1.000000
      6          9.046450   1.000000
      7         25.206654   0.000000
      8         27.046996   0.000000
      9         29.994192   0.000000
 
  0.3684211E+00  0.2105263E+00  0.1052632E+00  0.6998105E-02
      1          3.506328   1.000000
      2          5.264359   1.000000
      3          6.306418   1.000000
      4          7.412932   1.000000
      5          7.957471   1.000000
      6          9.599993   1.000000
      7         23.570218   0.000000
      8         26.325148   0.000000
      9         28.888052   0.000000
 
  0.4210526E+00  0.2105263E+00  0.1052632E+00  0.6998105E-02
      1          3.905598   1.000000
      2          5.503613   1.000000
      3          6.059951   1.000000
      4          7.309359   1.000000
      5          8.465833   1.000000
      6         10.280229   1.000000
      7         21.517285   0.000000
      8         25.883425   0.000000
      9         27.954985   0.000000
 
  0.4736842E+00  0.2105263E+00  0.1052632E+00  0.6998105E-02
      1          4.032236   1.000000
      2          5.827450   1.000000
      3          6.050447   1.000000
      4          7.193980   1.000000
      5          8.954811   1.000000
      6         11.116258   1.000000
      7         19.402569   0.000000
      8         25.633629   0.000000
      9         27.221296   0.000000
 
 -0.4736842E+00  0.2105263E+00  0.1052632E+00  0.6998105E-02
      1          4.036482   1.000000
      2          5.674822   1.000000
      3          6.601678   1.000000
      4          7.105222   1.000000
      5          9.297655   1.000000
      6         12.171106   0.000000
      7         17.397008   0.000000
      8         25.597591   0.000000
      9         26.643187   0.000000
 
 -0.4210526E+00  0.2105263E+00  0.1052632E+00  0.6998105E-02
      1          4.022696   1.000000
      2          5.590232   1.000000
      3          6.935334   1.000000
      4          7.072561   1.000000
      5          9.453583   1.000000
      6         13.363264   0.000000
      7         15.708597   0.000000
      8         25.781108   0.000000
      9         26.177231   0.000000
 
  0.3684211E+00  0.2631579E+00  0.1052632E+00  0.3499052E-02
      1          3.670625   1.000000
      2          4.959566   1.000000
      3          6.357165   1.000000
      4          7.890126   1.000000
      5          8.045406   1.000000
      6          9.575756   1.000000
      7         24.118792   0.000000
      8         25.890077   0.000000
      9         28.213374   0.000000
 
  0.4210526E+00  0.2631579E+00  0.1052632E+00  0.6998105E-02
      1          4.103234   1.000000
      2          4.992737   1.000000
      3          6.123187   1.000000
      4          7.866740   1.000000
      5          8.508168   1.000000
      6         10.307208   1.000000
      7         22.339697   0.000000
      8         25.080621   0.000000
      9         27.328900   0.000000
 
  0.4736842E+00  0.2631579E+00  0.1052632E+00  0.6998105E-02
      1          4.283452   1.000000
      2          5.278101   1.000000
      3          5.958185   1.000000
      4          7.729697   1.000000
      5          9.011648   1.000000
      6         11.225955   1.000000
      7         20.270703   0.000000
      8         24.725007   0.000000
      9         26.516611   0.000000
 
 -0.4736842E+00  0.2631579E+00  0.1052632E+00  0.6998105E-02
      1          4.325753   1.000000
      2          5.433674   1.000000
      3          6.103089   1.000000
      4          7.582768   1.000000
      5          9.344430   1.000000
      6         12.381956   0.000000
      7         18.243545   0.000000
      8         24.642930   0.000000
      9         25.794189   0.000000
 
 -0.4210526E+00  0.2631579E+00  0.1052632E+00  0.6998105E-02
      1          4.361261   1.000000
      2          5.370291   1.000000
      3          6.452244   1.000000
      4          7.439929   1.000000
      5          9.463899   1.000000
      6         13.771238   0.000000
      7         16.383626   0.000000
      8         24.594850   0.000000
      9         25.381562   0.000000
 
 -0.3684211E+00  0.2631579E+00  0.1052632E+00  0.6998105E-02
      1          4.413593   1.000000
      2          5.337504   1.000000
      3          6.600671   1.000000
      4          7.354875   1.000000
      5          9.407851   1.000000
      6         14.574347   0.000000
      7         15.539131   0.000000
      8         24.176336   0.000000
      9         25.677839   0.000000
 
 -0.3157895E+00  0.2631579E+00  0.1052632E+00  0.6998105E-02
      1          4.472530   1.000000
      2          5.397579   1.000000
      3          6.365373   1.000000
      4          7.412521   1.000000
      5          9.208466   1.000000
      6         13.247216   0.000000
      7         17.249137   0.000000
      8         23.796712   0.000000
      9         26.257148   0.000000
 
 -0.2631579E+00  0.2631579E+00  0.1052632E+00  0.6998105E-02
      1          4.516924   1.000000
      2          5.553862   1.000000
      3          5.876969   1.000000
      4          7.534329   1.000000
      5          8.859688   1.000000
      6         12.102786   0.000000
      7         19.146427   0.000000
      8         23.688174   0.000000
      9         26.883544   0.000000
 
 -0.2105263E+00  0.2631579E+00  0.1052632E+00  0.6998105E-02
      1          4.463378   1.000000
      2          5.369753   1.000000
      3          5.784233   1.000000
      4          7.669138   1.000000
      5          8.388634   1.000000
      6         11.155494   1.000000
      7         21.046525   0.000000
      8         23.957049   0.000000
      9         27.519696   0.000000
 
 -0.1578947E+00  0.2631579E+00  0.1052632E+00  0.3499052E-02
      1          4.086879   1.000000
      2          5.181867   1.000000
      3          6.047287   1.000000
      4          7.776759   1.000000
      5          7.914884   1.000000
      6         10.332355   1.000000
      7         22.624658   0.000000
      8         24.808376   0.000000
      9         28.194203   0.000000
 
  0.4210526E+00  0.3157895E+00  0.1052632E+00  0.3499052E-02
      1          4.073817   1.000000
      2          4.640814   1.000000
      3          6.514871   1.000000
      4          8.509187   1.000000
      5          8.541205   1.000000
      6         10.292552   1.000000
      7         22.793345   0.000000
      8         24.461851   0.000000
      9         26.396219   0.000000
 
  0.4736842E+00  0.3157895E+00  0.1052632E+00  0.6998105E-02
      1          4.274431   1.000000
      2          4.729649   1.000000
      3          6.377019   1.000000
      4          8.357291   1.000000
      5          9.051531   1.000000
      6         11.290174   1.000000
      7         21.040890   0.000000
      8         23.727579   0.000000
      9         25.544031   0.000000
 
 -0.4736842E+00  0.3157895E+00  0.1052632E+00  0.6998105E-02
      1          4.349916   1.000000
      2          4.968922   1.000000
      3          6.286700   1.000000
      4          8.156121   1.000000
      5          9.405458   1.000000
      6         12.525521   0.000000
      7         19.102010   0.000000
      8         23.447859   0.000000
      9         24.824930   0.000000
 
 -0.4210526E+00  0.3157895E+00  0.1052632E+00  0.6998105E-02
      1          4.438269   1.000000
      2          5.148876   1.000000
      3          6.292889   1.000000
      4          7.941431   1.000000
      5          9.532177   1.000000
      6         13.985585   0.000000
      7         17.272500   0.000000
      8         23.112954   0.000000
      9         24.565780   0.000000
 
 -0.3684211E+00  0.3157895E+00  0.1052632E+00  0.6998105E-02
      1          4.581850   1.000000
      2          5.214151   1.000000
      3          6.315883   1.000000
      4          7.761959   1.000000
      5          9.464928   1.000000
      6         15.477597   0.000000
      7         15.793835   0.000000
      8         22.501738   0.000000
      9         24.945819   0.000000
 
 -0.3157895E+00  0.3157895E+00  0.1052632E+00  0.6998105E-02
      1          4.774814   1.000000
      2          5.238986   1.000000
      3          6.148640   1.000000
      4          7.711866   1.000000
      5          9.248557   1.000000
      6         14.229928   0.000000
      7         17.419498   0.000000
      8         21.924968   0.000000
      9         25.628388   0.000000
 
 -0.2631579E+00  0.3157895E+00  0.1052632E+00  0.6998105E-02
      1          4.968656   1.000000
      2          5.311835   1.000000
      3          5.742527   1.000000
      4          7.785381   1.000000
      5          8.912841   1.000000
      6         13.070664   0.000000
      7         19.197415   0.000000
      8         21.662433   0.000000
      9         26.361773   0.000000
 
 -0.2105263E+00  0.3157895E+00  0.1052632E+00  0.3499052E-02
      1          4.959303   1.000000
      2          5.344709   1.000000
      3          5.508697   1.000000
      4          7.846309   1.000000
      5          8.541631   1.000000
      6         12.073319   0.000000
      7         20.504996   0.000000
      8         22.256489   0.000000
      9         27.004902   0.000000
 
  0.4736842E+00  0.3684211E+00  0.1052632E+00  0.3499052E-02
      1          4.041686   1.000000
      2          4.376223   1.000000
      3          7.094018   1.000000
      4          8.935871   1.000000
      5          9.133258   1.000000
      6         11.348202   1.000000
      7         21.297725   0.000000
      8         23.102874   0.000000
      9         24.491376   0.000000
 
 -0.4736842E+00  0.3684211E+00  0.1052632E+00  0.6998105E-02
      1          4.148776   1.000000
      2          4.500564   1.000000
      3          6.944556   1.000000
      4          8.719911   1.000000
      5          9.492718   1.000000
      6         12.629883   0.000000
      7         19.747104   0.000000
      8         22.416809   0.000000
      9         23.808694   0.000000
 
 -0.4210526E+00  0.3684211E+00  0.1052632E+00  0.6998105E-02
      1          4.250869   1.000000
      2          4.748232   1.000000
      3          6.763988   1.000000
      4          8.427966   1.000000
      5          9.660245   1.000000
      6         14.119223   0.000000
      7         18.099207   0.000000
      8         21.847146   0.000000
      9         23.615995   0.000000
 
 -0.3684211E+00  0.3684211E+00  0.1052632E+00  0.6998105E-02
      1          4.404079   1.000000
      2          5.018847   1.000000
      3          6.541815   1.000000
      4          8.145810   1.000000
      5          9.621217   1.000000
      6         15.641222   0.000000
      7         16.739604   0.000000
      8         21.069675   0.000000
      9         24.030597   0.000000
 
 -0.3157895E+00  0.3684211E+00  0.1052632E+00  0.6998105E-02
      1          4.618005   1.000000
      2          5.250205   1.000000
      3          6.225912   1.000000
      4          7.956419   1.000000
      5          9.428753   1.000000
      6         15.128735   0.000000
      7         17.766859   0.000000
      8         20.261691   0.000000
      9         24.778449   0.000000
 
 -0.2631579E+00  0.3684211E+00  0.1052632E+00  0.3499052E-02
      1          4.873491   1.000000
      2          5.383779   1.000000
      3          5.839348   1.000000
      4          7.878758   1.000000
      5          9.150276   1.000000
      6         14.054306   0.000000
      7         19.543134   0.000000
      8         19.714339   0.000000
      9         25.619168   0.000000
 
 -0.4736842E+00  0.4210526E+00  0.1052632E+00  0.3499052E-02
      1          3.871146   1.000000
      2          4.188195   1.000000
      3          7.755215   1.000000
      4          9.102520   1.000000
      5          9.665396   1.000000
      6         12.752008   0.000000
      7         19.665831   0.000000
      8         22.034949   0.000000
      9         22.936621   0.000000
 
 -0.4210526E+00  0.4210526E+00  0.1052632E+00  0.6998105E-02
      1          3.995977   1.000000
      2          4.356216   1.000000
      3          7.490744   1.000000
      4          8.815043   1.000000
      5          9.836785   1.000000
      6         14.192227   0.000000
      7         18.433363   0.000000
      8         21.254963   0.000000
      9         22.709472   0.000000
 
 -0.3684211E+00  0.4210526E+00  0.1052632E+00  0.6998105E-02
      1          4.157718   1.000000
      2          4.647014   1.000000
      3          7.124854   1.000000
      4          8.478019   1.000000
      5          9.825051   1.000000
      6         15.746595   0.000000
      7         17.221924   0.000000
      8         20.395754   0.000000
      9         23.107829   0.000000
 
 -0.3157895E+00  0.4210526E+00  0.1052632E+00  0.3499052E-02
      1          4.369835   1.000000
      2          4.986621   1.000000
      3          6.663391   1.000000
      4          8.190645   1.000000
      5          9.660042   1.000000
      6         16.045826   0.000000
      7         17.319465   0.000000
      8         19.725699   0.000000
      9         23.873600   0.000000
 
 -0.4210526E+00  0.4736842E+00  0.1052632E+00  0.3499052E-02
      1          3.754259   1.000000
      2          4.090828   1.000000
      3          8.233293   1.000000
      4          9.073543   1.000000
      5          9.981520   1.000000
      6         14.127747   0.000000
      7         18.164135   0.000000
      8         21.439538   0.000000
      9         22.120674   0.000000
 
 -0.3684211E+00  0.4736842E+00  0.1052632E+00  0.3499052E-02
      1          3.934711   1.000000
      2          4.308148   1.000000
      3          7.742174   1.000000
      4          8.779618   1.000000
      5          9.977441   1.000000
      6         15.231416   0.000000
      7         17.512751   0.000000
      8         20.768670   0.000000
      9         22.369430   0.000000
 
  0.4736842E+00  0.3157895E+00  0.1578947E+00  0.3499052E-02
      1          4.546791   1.000000
      2          4.948674   1.000000
      3          5.891792   1.000000
      4          8.211228   1.000000
      5          8.510252   1.000000
      6         11.206524   1.000000
      7         21.472944   0.000000
      8         23.463051   0.000000
      9         26.595905   0.000000
 
 -0.4736842E+00  0.3157895E+00  0.1578947E+00  0.6998105E-02
      1          4.714322   1.000000
      2          5.176936   1.000000
      3          5.724196   1.000000
      4          8.076903   1.000000
      5          8.935090   1.000000
      6         12.227020   0.000000
      7         19.985565   0.000000
      8         22.733064   0.000000
      9         25.854442   0.000000
 
 -0.4210526E+00  0.3157895E+00  0.1578947E+00  0.6998105E-02
      1          4.749870   1.000000
      2          5.225136   1.000000
      3          5.904344   1.000000
      4          7.876837   1.000000
      5          9.274038   1.000000
      6         13.422227   0.000000
      7         18.194273   0.000000
      8         22.673091   0.000000
      9         25.135875   0.000000
 
 -0.3684211E+00  0.3157895E+00  0.1578947E+00  0.6998105E-02
      1          4.799657   1.000000
      2          5.105352   1.000000
      3          6.182557   1.000000
      4          7.716187   1.000000
      5          9.437652   1.000000
      6         14.819956   0.000000
      7         16.449324   0.000000
      8         22.858850   0.000000
      9         24.591793   0.000000
 
 -0.4736842E+00  0.3684211E+00  0.1578947E+00  0.3499052E-02
      1          4.511832   1.000000
      2          4.744504   1.000000
      3          6.234239   1.000000
      4          8.537037   1.000000
      5          9.126720   1.000000
      6         12.379702   0.000000
      7         20.342541   0.000000
      8         22.190493   0.000000
      9         24.746980   0.000000
 
 -0.4210526E+00  0.3684211E+00  0.1578947E+00  0.6998105E-02
      1          4.606721   1.000000
      2          4.953098   1.000000
      3          6.115672   1.000000
      4          8.310660   1.000000
      5          9.433707   1.000000
      6         13.619492   0.000000
      7         19.035366   0.000000
      8         21.597067   0.000000
      9         24.024644   0.000000
 
 -0.3684211E+00  0.3684211E+00  0.1578947E+00  0.6998105E-02
      1          4.698801   1.000000
      2          5.127512   1.000000
      3          6.064049   1.000000
      4          8.040753   1.000000
      5          9.601075   1.000000
      6         15.002861   0.000000
      7         17.485185   0.000000
      8         21.468537   0.000000
      9         23.591675   0.000000
 
 -0.3157895E+00  0.3684211E+00  0.1578947E+00  0.6998105E-02
      1          4.831965   1.000000
      2          5.193647   1.000000
      3          5.982816   1.000000
      4          7.895345   1.000000
      5          9.588457   1.000000
      6         15.624616   0.000000
      7         16.949170   0.000000
      8         21.150200   0.000000
      9         23.756527   0.000000
 
 -0.2631579E+00  0.3684211E+00  0.1578947E+00  0.6998105E-02
      1          4.962992   1.000000
      2          5.253245   1.000000
      3          5.722774   1.000000
      4          7.959793   1.000000
      5          9.413625   1.000000
      6         14.435595   0.000000
      7         18.494866   0.000000
      8         20.742793   0.000000
      9         24.370020   0.000000
 
 -0.2105263E+00  0.3684211E+00  0.1578947E+00  0.3499052E-02
      1          5.008627   1.000000
      2          5.241152   1.000000
      3          5.519770   1.000000
      4          8.110344   1.000000
      5          9.127498   1.000000
      6         13.280338   0.000000
      7         19.753844   0.000000
      8         21.028108   0.000000
      9         25.121267   0.000000
 
 -0.4210526E+00  0.4210526E+00  0.1578947E+00  0.3499052E-02
      1          4.302475   1.000000
      2          4.595363   1.000000
      3          6.770509   1.000000
      4          8.622834   1.000000
      5          9.660893   1.000000
      6         13.871985   0.000000
      7         19.160590   0.000000
      8         21.178600   0.000000
      9         23.070686   0.000000
 
 -0.3684211E+00  0.4210526E+00  0.1578947E+00  0.6998105E-02
      1          4.428670   1.000000
      2          4.842410   1.000000
      3          6.542043   1.000000
      4          8.306309   1.000000
      5          9.824306   1.000000
      6         15.256879   0.000000
      7         18.133088   0.000000
      8         20.513729   0.000000
      9         22.688090   0.000000
 
 -0.3157895E+00  0.4210526E+00  0.1578947E+00  0.6998105E-02
      1          4.578481   1.000000
      2          5.131432   1.000000
      3          6.238362   1.000000
      4          8.041002   1.000000
      5          9.817921   1.000000
      6         16.288605   0.000000
      7         17.440067   0.000000
      8         19.885078   0.000000
      9         22.918378   0.000000
 
 -0.2631579E+00  0.4210526E+00  0.1578947E+00  0.3499052E-02
      1          4.765660   1.000000
      2          5.368781   1.000000
      3          5.852572   1.000000
      4          7.944520   1.000000
      5          9.653652   1.000000
      6         15.461644   0.000000
      7         18.727873   0.000000
      8         19.278265   0.000000
      9         23.575394   0.000000
 
 -0.3684211E+00  0.4736842E+00  0.1578947E+00  0.3499052E-02
      1          4.166267   1.000000
      2          4.517068   1.000000
      3          7.178905   1.000000
      4          8.542400   1.000000
      5          9.981603   1.000000
      6         15.461012   0.000000
      7         17.821845   0.000000
      8         20.608002   0.000000
      9         22.107822   0.000000
 
 -0.3157895E+00  0.4736842E+00  0.1578947E+00  0.3499052E-02
      1          4.357176   1.000000
      2          4.808151   1.000000
      3          6.737968   1.000000
      4          8.247689   1.000000
      5          9.978700   1.000000
      6         16.709576   0.000000
      7         17.099532   0.000000
      8         19.937510   0.000000
      9         22.254740   0.000000
 
 -0.3684211E+00  0.4210526E+00  0.2105263E+00  0.3499052E-02
      1          4.716362   1.000000
      2          5.154774   1.000000
      3          5.937270   1.000000
      4          8.144376   1.000000
      5          9.656038   1.000000
      6         14.784440   0.000000
      7         19.030617   0.000000
      8         20.046754   0.000000
      9         23.274933   0.000000
 
 -0.3157895E+00  0.4210526E+00  0.2105263E+00  0.6998105E-02
      1          4.731173   1.000000
      2          5.411368   1.000000
      3          5.787505   1.000000
      4          7.954303   1.000000
      5          9.818586   1.000000
      6         15.960980   0.000000
      7         18.024304   0.000000
      8         19.823004   0.000000
      9         22.748775   0.000000
 
 -0.3157895E+00  0.4736842E+00  0.2105263E+00  0.3499052E-02
      1          4.552576   1.000000
      2          5.106660   1.000000
      3          6.236814   1.000000
      4          8.056145   1.000000
      5          9.981226   1.000000
      6         16.451916   0.000000
      7         17.992031   0.000000
      8         19.487739   0.000000
      9         22.107878   0.000000
 
 -0.2631579E+00  0.4736842E+00  0.2105263E+00  0.3499052E-02
      1          4.649481   1.000000
      2          5.443576   1.000000
      3          5.851388   1.000000
      4          7.919023   1.000000
      5          9.980169   1.000000
      6         16.824550   0.000000
      7         18.157985   0.000000
      8         18.901746   0.000000
      9         22.153723   0.000000
