InSe PBE SCF                            
            1
     4.041734    0.000000   -0.000000
    -2.020867    3.500245    0.000000
    -0.000000    0.000000   17.428443
   In   Se
     4     4
Direct configuration=     1
   0.33333300  0.66666700  0.33030396
   0.66666700  0.33333300  0.83030396
   0.66666700  0.33333300  0.66969604
   0.33333300  0.66666700  0.16969604
   0.33333300  0.66666700  0.59732476
   0.66666700  0.33333300  0.09732476
   0.66666700  0.33333300  0.40267524
   0.33333300  0.66666700  0.90267524
