    1    1    1    1
  0.5925252E+02  0.4375967E-09  0.4375965E-09  0.4375967E-09  0.5000000E-15
   1.0000000000000000E-004
  CAR 
 static single-point for EOS             
     10    195      9
 
  0.1262379E-14  0.1262379E-14  0.1262379E-14  0.1714678E-03
      1        -35.433381   1.000000
      2        -17.330178   1.000000
      3        -17.330172   1.000000
      4        -17.330170   1.000000
      5         -2.195407   1.000000
      6          3.596442   0.000000
      7          3.596442   0.000000
      8          3.596446   0.000000
      9          4.947454   0.000000
 
  0.5555556E-01  0.1257682E-14  0.1262379E-14  0.1371742E-02
      1        -35.433090   1.000000
      2        -17.334751   1.000000
      3        -17.330813   1.000000
      4        -17.330807   1.000000
      5         -2.148909   1.000000
      6          3.521460   0.000000
      7          3.619083   0.000000
      8          3.619086   0.000000
      9          4.917037   0.000000
 
  0.1111111E+00  0.1248339E-14  0.1262379E-14  0.1371742E-02
      1        -35.432247   1.000000
      2        -17.347866   1.000000
      3        -17.332609   1.000000
      4        -17.332602   1.000000
      5         -2.011158   1.000000
      6          3.320205   0.000000
      7          3.677739   0.000000
      8          3.677743   0.000000
      9          4.846457   0.000000
 
  0.1666667E+00  0.1254519E-14  0.1262379E-14  0.1371742E-02
      1        -35.430969   1.000000
      2        -17.367919   1.000000
      3        -17.335366   1.000000
      4        -17.335360   1.000000
      5         -1.787376   1.000000
      6          3.041716   0.000000
      7          3.740488   0.000000
      8          3.740493   0.000000
      9          4.793601   0.000000
 
  0.2222222E+00  0.1255214E-14  0.1262379E-14  0.1371742E-02
      1        -35.429396   1.000000
      2        -17.392359   1.000000
      3        -17.338774   1.000000
      4        -17.338767   1.000000
      5         -1.486621   1.000000
      6          2.728096   0.000000
      7          3.756261   0.000000
      8          3.756268   0.000000
      9          4.834691   0.000000
 
  0.2777778E+00  0.1263589E-14  0.1262379E-14  0.1371742E-02
      1        -35.427724   1.000000
      2        -17.418124   1.000000
      3        -17.342373   1.000000
      4        -17.342367   1.000000
      5         -1.122559   1.000000
      6          2.403678   0.000000
      7          3.703479   0.000000
      8          3.703486   0.000000
      9          5.005314   0.000000
 
  0.3333333E+00  0.1256604E-14  0.1262379E-14  0.1371742E-02
      1        -35.426147   1.000000
      2        -17.442131   1.000000
      3        -17.345745   1.000000
      4        -17.345739   1.000000
      5         -0.715222   1.000000
      6          2.078317   0.000000
      7          3.615267   0.000000
      8          3.615275   0.000000
      9          5.269653   0.000000
 
  0.3888889E+00  0.1242709E-14  0.1262379E-14  0.1371742E-02
      1        -35.424864   1.000000
      2        -17.461587   1.000000
      3        -17.348489   1.000000
      4        -17.348483   1.000000
      5         -0.295821   1.000000
      6          1.756977   0.000000
      7          3.530882   0.000000
      8          3.530890   0.000000
      9          5.562770   0.000000
 
  0.4444444E+00  0.1235724E-14  0.1262379E-14  0.1371742E-02
      1        -35.424026   1.000000
      2        -17.474221   1.000000
      3        -17.350305   1.000000
      4        -17.350299   1.000000
      5          0.075772   1.000000
      6          1.464939   0.000119
      7          3.473209   0.000000
      8          3.473217   0.000000
      9          5.804260   0.000000
 
  0.5000000E+00  0.1256495E-14  0.1262379E-14  0.6858711E-03
      1        -35.423736   1.000000
      2        -17.478590   1.000000
      3        -17.350931   1.000000
      4        -17.350924   1.000000
      5          0.250980   1.000000
      6          1.320349   0.661227
      7          3.452952   0.000000
      8          3.452960   0.000000
      9          5.901055   0.000000
 
  0.5555556E-01  0.5555556E-01  0.1262379E-14  0.1028807E-02
      1        -35.432994   1.000000
      2        -17.334634   1.000000
      3        -17.331838   1.000000
      4        -17.331832   1.000000
      5         -2.133428   1.000000
      6          3.502140   0.000000
      7          3.625264   0.000000
      8          3.625267   0.000000
      9          4.880018   0.000000
 
  0.1111111E+00  0.5555556E-01  0.1262379E-14  0.4115226E-02
      1        -35.432335   1.000000
      2        -17.344391   1.000000
      3        -17.333999   1.000000
      4        -17.332958   1.000000
      5         -2.026124   1.000000
      6          3.349301   0.000000
      7          3.671585   0.000000
      8          3.674644   0.000000
      9          4.756526   0.000000
 
  0.1666667E+00  0.5555556E-01  0.1262379E-14  0.4115226E-02
      1        -35.431202   1.000000
      2        -17.362013   1.000000
      3        -17.337068   1.000000
      4        -17.334890   1.000000
      5         -1.830982   1.000000
      6          3.105326   0.000000
      7          3.732542   0.000000
      8          3.739337   0.000000
      9          4.602600   0.000000
 
  0.2222222E+00  0.5555556E-01  0.1262379E-14  0.4115226E-02
      1        -35.429726   1.000000
      2        -17.384790   1.000000
      3        -17.340658   1.000000
      4        -17.337842   1.000000
      5         -1.555604   1.000000
      6          2.813618   0.000000
      7          3.756236   0.000000
      8          3.766349   0.000000
      9          4.590295   0.000000
 
  0.2777778E+00  0.5555556E-01  0.1262379E-14  0.4115226E-02
      1        -35.428087   1.000000
      2        -17.409853   1.000000
      3        -17.344330   1.000000
      4        -17.341459   1.000000
      5         -1.211794   1.000000
      6          2.502200   0.000000
      7          3.686790   0.000000
      8          3.742106   0.000000
      9          4.737491   0.000000
 
  0.3333333E+00  0.5555556E-01  0.1262379E-14  0.4115226E-02
      1        -35.426480   1.000000
      2        -17.434195   1.000000
      3        -17.347655   1.000000
      4        -17.345320   1.000000
      5         -0.816849   1.000000
      6          2.184198   0.000000
      7          3.577553   0.000000
      8          3.671873   0.000000
      9          5.002968   0.000000
 
  0.3888889E+00  0.5555556E-01  0.1262379E-14  0.4115226E-02
      1        -35.425097   1.000000
      2        -17.454921   1.000000
      3        -17.350205   1.000000
      4        -17.348917   1.000000
      5         -0.396793   1.000000
      6          1.864565   0.000000
      7          3.478110   0.000000
      8          3.590054   0.000000
      9          5.323285   0.000000
 
  0.4444444E+00  0.5555556E-01  0.1262379E-14  0.4115226E-02
      1        -35.424115   1.000000
      2        -17.469632   1.000000
      3        -17.351819   1.000000
      4        -17.351694   1.000000
      5          0.002976   1.000000
      6          1.556711   0.000000
      7          3.410020   0.000000
      8          3.524136   0.000000
      9          5.640709   0.000000
 
  0.5000000E+00  0.5555556E-01  0.1262379E-14  0.4115226E-02
      1        -35.423641   1.000000
      2        -17.476658   1.000000
      3        -17.353692   1.000000
      4        -17.351946   1.000000
      5          0.272858   1.000000
      6          1.337572   0.471575
      7          3.379064   0.000000
      8          3.490026   0.000000
      9          5.878153   0.000000
 
 -0.4444444E+00  0.5555556E-01  0.1262379E-14  0.4115226E-02
      1        -35.423738   1.000000
      2        -17.475204   1.000000
      3        -17.354304   1.000000
      4        -17.350925   1.000000
      5          0.209866   1.000000
      6          1.390821   0.057350
      7          3.384925   0.000000
      8          3.495285   0.000000
      9          5.779173   0.000000
 
 -0.3888889E+00  0.5555556E-01  0.1262379E-14  0.4115226E-02
      1        -35.424393   1.000000
      2        -17.465441   1.000000
      3        -17.353575   1.000000
      4        -17.348749   1.000000
      5         -0.123421   1.000000
      6          1.657850   0.000000
      7          3.425946   0.000000
      8          3.541280   0.000000
      9          5.508196   0.000000
 
 -0.3333333E+00  0.5555556E-01  0.1262379E-14  0.4115226E-02
      1        -35.425526   1.000000
      2        -17.448460   1.000000
      3        -17.351572   1.000000
      4        -17.345683   1.000000
      5         -0.537266   1.000000
      6          1.973970   0.000000
      7          3.497543   0.000000
      8          3.622936   0.000000
      9          5.186814   0.000000
 
 -0.2777778E+00  0.5555556E-01  0.1262379E-14  0.4115226E-02
      1        -35.427003   1.000000
      2        -17.426268   1.000000
      3        -17.348524   1.000000
      4        -17.342096   1.000000
      5         -0.952724   1.000000
      6          2.294005   0.000000
      7          3.586285   0.000000
      8          3.724587   0.000000
      9          4.881756   0.000000
 
 -0.2222222E+00  0.5555556E-01  0.1262379E-14  0.4115226E-02
      1        -35.428645   1.000000
      2        -17.401439   1.000000
      3        -17.344804   1.000000
      4        -17.338426   1.000000
      5         -1.333082   1.000000
      6          2.610438   0.000000
      7          3.665254   0.000000
      8          3.808184   0.000000
      9          4.663860   0.000000
 
 -0.1666667E+00  0.5555556E-01  0.1262379E-14  0.4115226E-02
      1        -35.430249   1.000000
      2        -17.376967   1.000000
      3        -17.340818   1.000000
      4        -17.335115   1.000000
      5         -1.655763   1.000000
      6          2.916570   0.000000
      7          3.700922   0.000000
      8          3.812719   0.000000
      9          4.598942   0.000000
 
 -0.1111111E+00  0.5555556E-01  0.1262379E-14  0.4115226E-02
      1        -35.431627   1.000000
      2        -17.355931   1.000000
      3        -17.336989   1.000000
      4        -17.332545   1.000000
      5         -1.905503   1.000000
      6          3.194513   0.000000
      7          3.683540   0.000000
      8          3.739677   0.000000
      9          4.677789   0.000000
 
 -0.5555556E-01  0.5555556E-01  0.1262379E-14  0.2057613E-02
      1        -35.432617   1.000000
      2        -17.341235   1.000000
      3        -17.333508   1.000000
      4        -17.331043   1.000000
      5         -2.072001   1.000000
      6          3.410428   0.000000
      7          3.643801   0.000000
      8          3.660814   0.000000
      9          4.807539   0.000000
 
  0.1111111E+00  0.1111111E+00  0.1262379E-14  0.1028807E-02
      1        -35.431872   1.000000
      2        -17.347384   1.000000
      3        -17.336592   1.000000
      4        -17.336587   1.000000
      5         -1.949979   1.000000
      6          3.258231   0.000000
      7          3.712826   0.000000
      8          3.712829   0.000000
      9          4.537064   0.000000
 
  0.1666667E+00  0.1111111E+00  0.1262379E-14  0.4115226E-02
      1        -35.430924   1.000000
      2        -17.360529   1.000000
      3        -17.340027   1.000000
      4        -17.338919   1.000000
      5         -1.785486   1.000000
      6          3.071379   0.000000
      7          3.771358   0.000000
      8          3.779451   0.000000
      9          4.364728   0.000000
 
  0.2222222E+00  0.1111111E+00  0.1262379E-14  0.4115226E-02
      1        -35.429595   1.000000
      2        -17.380337   1.000000
      3        -17.343928   1.000000
      4        -17.341535   1.000000
      5         -1.538733   1.000000
      6          2.829445   0.000000
      7          3.744023   0.000000
      8          3.834517   0.000000
      9          4.332563   0.000000
 
  0.2777778E+00  0.1111111E+00  0.1262379E-14  0.4115226E-02
      1        -35.428058   1.000000
      2        -17.403284   1.000000
      3        -17.347801   1.000000
      4        -17.345165   1.000000
      5         -1.219554   1.000000
      6          2.558166   0.000000
      7          3.596213   0.000000
      8          3.841002   0.000000
      9          4.501284   0.000000
 
  0.3333333E+00  0.1111111E+00  0.1262379E-14  0.4115226E-02
      1        -35.426484   1.000000
      2        -17.426398   1.000000
      3        -17.351175   1.000000
      4        -17.349496   1.000000
      5         -0.842405   1.000000
      6          2.269515   0.000000
      7          3.433117   0.000000
      8          3.793739   0.000000
      9          4.780043   0.000000
 
  0.3888889E+00  0.1111111E+00  0.1262379E-14  0.4115226E-02
      1        -35.425070   1.000000
      2        -17.446904   1.000000
      3        -17.354039   1.000000
      4        -17.353664   1.000000
      5         -0.428472   1.000000
      6          1.967911   0.000000
      7          3.306326   0.000000
      8          3.719385   0.000000
      9          5.112453   0.000000
 
  0.4444444E+00  0.1111111E+00  0.1262379E-14  0.4115226E-02
      1        -35.423990   1.000000
      2        -17.462452   1.000000
      3        -17.358220   1.000000
      4        -17.354966   1.000000
      5         -0.011628   1.000000
      6          1.660248   0.000000
      7          3.226204   0.000000
      8          3.648094   0.000000
      9          5.456977   0.000000
 
  0.5000000E+00  0.1111111E+00  0.1262379E-14  0.4115226E-02
      1        -35.423363   1.000000
      2        -17.471250   1.000000
      3        -17.361518   1.000000
      4        -17.354912   1.000000
      5          0.333747   1.000000
      6          1.389789   0.060781
      7          3.185621   0.000000
      8          3.600611   0.000000
      9          5.821382   0.000000
 
 -0.4444444E+00  0.1111111E+00  0.1262379E-14  0.4115226E-02
      1        -35.423281   1.000000
      2        -17.472336   1.000000
      3        -17.363489   1.000000
      4        -17.353521   1.000000
      5          0.401559   1.000000
      6          1.338629   0.459686
      7          3.173872   0.000000
      8          3.588868   0.000000
      9          5.809581   0.000000
 
 -0.3888889E+00  0.1111111E+00  0.1262379E-14  0.4115226E-02
      1        -35.423742   1.000000
      2        -17.465637   1.000000
      3        -17.363865   1.000000
      4        -17.350945   1.000000
      5          0.118718   1.000000
      6          1.575018   0.000000
      7          3.189784   0.000000
      8          3.618479   0.000000
      9          5.472999   0.000000
 
 -0.3333333E+00  0.1111111E+00  0.1262379E-14  0.4115226E-02
      1        -35.424693   1.000000
      2        -17.451963   1.000000
      3        -17.362535   1.000000
      4        -17.347510   1.000000
      5         -0.286079   1.000000
      6          1.886835   0.000000
      7          3.241677   0.000000
      8          3.689852   0.000000
      9          5.125595   0.000000
 
 -0.2777778E+00  0.1111111E+00  0.1262379E-14  0.4115226E-02
      1        -35.426022   1.000000
      2        -17.432962   1.000000
      3        -17.359577   1.000000
      4        -17.343610   1.000000
      5         -0.706231   1.000000
      6          2.195820   0.000000
      7          3.333743   0.000000
      8          3.796643   0.000000
      9          4.786941   0.000000
 
 -0.2222222E+00  0.1111111E+00  0.1262379E-14  0.4115226E-02
      1        -35.427561   1.000000
      2        -17.411001   1.000000
      3        -17.355212   1.000000
      4        -17.339725   1.000000
      5         -1.099264   1.000000
      6          2.487728   0.000000
      7          3.454458   0.000000
      8          3.914579   0.000000
      9          4.509919   0.000000
 
 -0.1666667E+00  0.1111111E+00  0.1262379E-14  0.4115226E-02
      1        -35.429135   1.000000
      2        -17.388903   1.000000
      3        -17.349731   1.000000
      4        -17.336342   1.000000
      5         -1.440336   1.000000
      6          2.758332   0.000000
      7          3.573911   0.000000
      8          3.952501   0.000000
      9          4.395543   0.000000
 
 -0.1111111E+00  0.1111111E+00  0.1262379E-14  0.2057613E-02
      1        -35.430549   1.000000
      2        -17.369719   1.000000
      3        -17.343430   1.000000
      4        -17.333858   1.000000
      5         -1.712841   1.000000
      6          2.999532   0.000000
      7          3.655289   0.000000
      8          3.850073   0.000000
      9          4.500526   0.000000
 
  0.1666667E+00  0.1666667E+00  0.1262379E-14  0.1028807E-02
      1        -35.430167   1.000000
      2        -17.366725   1.000000
      3        -17.343885   1.000000
      4        -17.343880   1.000000
      5         -1.652691   1.000000
      6          2.941307   0.000000
      7          3.862106   0.000000
      8          3.862109   0.000000
      9          4.104474   0.000000
 
  0.2222222E+00  0.1666667E+00  0.1262379E-14  0.4115226E-02
      1        -35.429021   1.000000
      2        -17.381394   1.000000
      3        -17.348131   1.000000
      4        -17.347499   1.000000
      5         -1.437335   1.000000
      6          2.754535   0.000000
      7          3.756769   0.000000
      8          3.947281   0.000000
      9          4.095784   0.000000
 
  0.2777778E+00  0.1666667E+00  0.1262379E-14  0.4115226E-02
      1        -35.427633   1.000000
      2        -17.400723   1.000000
      3        -17.352326   1.000000
      4        -17.351418   1.000000
      5         -1.147374   1.000000
      6          2.540061   0.000000
      7          3.488870   0.000000
      8          3.993039   0.000000
      9          4.325270   0.000000
 
  0.3333333E+00  0.1666667E+00  0.1262379E-14  0.4115226E-02
      1        -35.426156   1.000000
      2        -17.421115   1.000000
      3        -17.356318   1.000000
      4        -17.355916   1.000000
      5         -0.794548   1.000000
      6          2.305664   0.000000
      7          3.255717   0.000000
      8          3.977553   0.000000
      9          4.617599   0.000000
 
  0.3888889E+00  0.1666667E+00  0.1262379E-14  0.4115226E-02
      1        -35.424779   1.000000
      2        -17.439762   1.000000
      3        -17.361961   1.000000
      4        -17.358460   1.000000
      5         -0.395644   1.000000
      6          2.047680   0.000000
      7          3.086908   0.000000
      8          3.917187   0.000000
      9          4.951143   0.000000
 
  0.4444444E+00  0.1666667E+00  0.1262379E-14  0.4115226E-02
      1        -35.423661   1.000000
      2        -17.454483   1.000000
      3        -17.367705   1.000000
      4        -17.359698   1.000000
      5          0.024587   1.000000
      6          1.765062   0.000000
      7          2.985527   0.000000
      8          3.843706   0.000000
      9          5.294630   0.000000
 
  0.5000000E+00  0.1666667E+00  0.1262379E-14  0.4115226E-02
      1        -35.422945   1.000000
      2        -17.463574   1.000000
      3        -17.372801   1.000000
      4        -17.359454   1.000000
      5          0.420608   1.000000
      6          1.476574   0.000031
      7          2.932355   0.000000
      8          3.782846   0.000000
      9          5.575607   0.000000
 
 -0.4444444E+00  0.1666667E+00  0.1262379E-14  0.4115226E-02
      1        -35.422711   1.000000
      2        -17.466117   1.000000
      3        -17.376527   1.000000
      4        -17.357756   1.000000
      5          0.634848   1.000000
      6          1.315011   0.714574
      7          2.901262   0.000000
      8          3.750926   0.000000
      9          5.748116   0.000000
 
 -0.3888889E+00  0.1666667E+00  0.1262379E-14  0.4115226E-02
      1        -35.422986   1.000000
      2        -17.461971   1.000000
      3        -17.378275   1.000000
      4        -17.354801   1.000000
      5          0.423100   1.000000
      6          1.512017   0.000000
      7          2.885132   0.000000
      8          3.757248   0.000000
      9          5.514902   0.000000
 
 -0.3333333E+00  0.1666667E+00  0.1262379E-14  0.4115226E-02
      1        -35.423744   1.000000
      2        -17.451870   1.000000
      3        -17.377592   1.000000
      4        -17.350969   1.000000
      5          0.030181   1.000000
      6          1.828132   0.000000
      7          2.905571   0.000000
      8          3.806244   0.000000
      9          5.107346   0.000000
 
 -0.2777778E+00  0.1666667E+00  0.1262379E-14  0.4115226E-02
      1        -35.424890   1.000000
      2        -17.437316   1.000000
      3        -17.374226   1.000000
      4        -17.346712   1.000000
      5         -0.391167   1.000000
      6          2.125312   0.000000
      7          2.992905   0.000000
      8          3.898622   0.000000
      9          4.751894   0.000000
 
 -0.2222222E+00  0.1666667E+00  0.1262379E-14  0.4115226E-02
      1        -35.426284   1.000000
      2        -17.420440   1.000000
      3        -17.368108   1.000000
      4        -17.342519   1.000000
      5         -0.793108   1.000000
      6          2.374100   0.000000
      7          3.158926   0.000000
      8          4.031554   0.000000
      9          4.431055   0.000000
 
 -0.1666667E+00  0.1666667E+00  0.1262379E-14  0.2057613E-02
      1        -35.427756   1.000000
      2        -17.403647   1.000000
      3        -17.359544   1.000000
      4        -17.338908   1.000000
      5         -1.148783   1.000000
      6          2.579238   0.000000
      7          3.373644   0.000000
      8          4.151968   0.000000
      9          4.209819   0.000000
 
  0.2222222E+00  0.2222222E+00  0.1262379E-14  0.1028807E-02
      1        -35.428076   1.000000
      2        -17.390013   1.000000
      3        -17.352804   1.000000
      4        -17.352798   1.000000
      5         -1.255242   1.000000
      6          2.614294   0.000000
      7          3.622799   0.000000
      8          4.077133   0.000000
      9          4.077135   0.000000
 
  0.2777778E+00  0.2222222E+00  0.1262379E-14  0.4115226E-02
      1        -35.426865   1.000000
      2        -17.404480   1.000000
      3        -17.357464   1.000000
      4        -17.357364   1.000000
      5         -0.998885   1.000000
      6          2.447435   0.000000
      7          3.354220   0.000000
      8          4.179659   0.000000
      9          4.268347   0.000000
 
  0.3333333E+00  0.2222222E+00  0.1262379E-14  0.4115226E-02
      1        -35.425546   1.000000
      2        -17.420993   1.000000
      3        -17.362916   1.000000
      4        -17.361270   1.000000
      5         -0.677695   1.000000
      6          2.271352   0.000000
      7          3.091247   0.000000
      8          4.213666   0.000000
      9          4.540212   0.000000
 
  0.3888889E+00  0.2222222E+00  0.1262379E-14  0.4115226E-02
      1        -35.424258   1.000000
      2        -17.436390   1.000000
      3        -17.369621   1.000000
      4        -17.364012   1.000000
      5         -0.304796   1.000000
      6          2.078741   0.000000
      7          2.881692   0.000000
      8          4.178926   0.000000
      9          4.858060   0.000000
 
  0.4444444E+00  0.2222222E+00  0.1262379E-14  0.4115226E-02
      1        -35.423181   1.000000
      2        -17.448554   1.000000
      3        -17.377179   1.000000
      4        -17.365311   1.000000
      5          0.101841   1.000000
      6          1.852522   0.000000
      7          2.747831   0.000000
      8          4.108116   0.000000
      9          5.180052   0.000000
 
  0.5000000E+00  0.2222222E+00  0.1262379E-14  0.4115226E-02
      1        -35.422428   1.000000
      2        -17.455979   1.000000
      3        -17.384700   1.000000
      4        -17.365000   1.000000
      5          0.516106   1.000000
      6          1.589695   0.000000
      7          2.675362   0.000000
      8          4.033600   0.000000
      9          5.389497   0.000000
 
 -0.4444444E+00  0.2222222E+00  0.1262379E-14  0.4115226E-02
      1        -35.422095   1.000000
      2        -17.458032   1.000000
      3        -17.391038   1.000000
      4        -17.363120   1.000000
      5          0.865071   1.000000
      6          1.341169   0.431305
      7          2.623885   0.000000
      8          3.976683   0.000000
      9          5.417824   0.000000
 
 -0.3888889E+00  0.2222222E+00  0.1262379E-14  0.4115226E-02
      1        -35.422221   1.000000
      2        -17.454977   1.000000
      3        -17.394944   1.000000
      4        -17.359859   1.000000
      5          0.772586   1.000000
      6          1.466718   0.000098
      7          2.570712   0.000000
      8          3.949414   0.000000
      9          5.523826   0.000000
 
 -0.3333333E+00  0.2222222E+00  0.1262379E-14  0.4115226E-02
      1        -35.422797   1.000000
      2        -17.447990   1.000000
      3        -17.395124   1.000000
      4        -17.355634   1.000000
      5          0.395147   1.000000
      6          1.804613   0.000000
      7          2.543284   0.000000
      8          3.956879   0.000000
      9          5.146606   0.000000
 
 -0.2777778E+00  0.2222222E+00  0.1262379E-14  0.4115226E-02
      1        -35.423748   1.000000
      2        -17.439012   1.000000
      3        -17.390439   1.000000
      4        -17.350983   1.000000
      5         -0.021651   1.000000
      6          2.093400   0.000000
      7          2.613636   0.000000
      8          3.996625   0.000000
      9          4.813145   0.000000
 
 -0.2222222E+00  0.2222222E+00  0.1262379E-14  0.2057613E-02
      1        -35.424956   1.000000
      2        -17.429672   1.000000
      3        -17.380820   1.000000
      4        -17.346416   1.000000
      5         -0.427405   1.000000
      6          2.262675   0.000000
      7          2.845072   0.000000
      8          4.048145   0.000000
      9          4.543770   0.000000
 
  0.2777778E+00  0.2777778E+00  0.1262379E-14  0.1028807E-02
      1        -35.425854   1.000000
      2        -17.414353   1.000000
      3        -17.362316   1.000000
      4        -17.362311   1.000000
      5         -0.779723   1.000000
      6          2.316182   0.000000
      7          3.161608   0.000000
      8          4.361946   0.000000
      9          4.361948   0.000000
 
  0.3333333E+00  0.2777778E+00  0.1262379E-14  0.4115226E-02
      1        -35.424709   1.000000
      2        -17.427008   1.000000
      3        -17.367474   1.000000
      4        -17.366574   1.000000
      5         -0.497735   1.000000
      6          2.179605   0.000000
      7          2.935775   0.000000
      8          4.479176   0.000000
      9          4.573012   0.000000
 
  0.3888889E+00  0.2777778E+00  0.1262379E-14  0.4115226E-02
      1        -35.423579   1.000000
      2        -17.439036   1.000000
      3        -17.374302   1.000000
      4        -17.369641   1.000000
      5         -0.163408   1.000000
      6          2.045631   0.000000
      7          2.721405   0.000000
      8          4.495073   0.000000
      9          4.854812   0.000000
 
  0.4444444E+00  0.2777778E+00  0.1262379E-14  0.4115226E-02
      1        -35.422593   1.000000
      2        -17.447939   1.000000
      3        -17.382962   1.000000
      4        -17.371135   1.000000
      5          0.209632   1.000000
      6          1.895534   0.000000
      7          2.557919   0.000000
      8          4.436752   0.000000
      9          5.145665   0.000000
 
  0.5000000E+00  0.2777778E+00  0.1262379E-14  0.4115226E-02
      1        -35.421875   1.000000
      2        -17.452244   1.000000
      3        -17.392868   1.000000
      4        -17.370895   1.000000
      5          0.604822   1.000000
      6          1.703333   0.000000
      7          2.458173   0.000000
      8          4.348443   0.000000
      9          5.277002   0.000000
 
 -0.4444444E+00  0.2777778E+00  0.1262379E-14  0.4115226E-02
      1        -35.421513   1.000000
      2        -17.451474   1.000000
      3        -17.402831   1.000000
      4        -17.368946   1.000000
      5          1.002761   1.000000
      6          1.461874   0.000167
      7          2.385629   0.000000
      8          4.259181   0.000000
      9          5.163719   0.000000
 
 -0.3888889E+00  0.2777778E+00  0.1262379E-14  0.4115226E-02
      1        -35.421541   1.000000
      2        -17.446421   1.000000
      3        -17.410890   1.000000
      4        -17.365500   1.000000
      5          1.131784   1.000000
      6          1.426711   0.004763
      7          2.296902   0.000000
      8          4.183095   0.000000
      9          5.163145   0.000000
 
 -0.3333333E+00  0.2777778E+00  0.1262379E-14  0.4115226E-02
      1        -35.421967   1.000000
      2        -17.440595   1.000000
      3        -17.413201   1.000000
      4        -17.360992   1.000000
      5          0.778714   1.000000
      6          1.805904   0.000000
      7          2.204053   0.000000
      8          4.122539   0.000000
      9          5.382106   0.000000
 
 -0.2777778E+00  0.2777778E+00  0.1262379E-14  0.2057613E-02
      1        -35.422729   1.000000
      2        -17.438925   1.000000
      3        -17.405204   1.000000
      4        -17.355947   1.000000
      5          0.379465   1.000000
      6          2.087274   0.000000
      7          2.246453   0.000000
      8          4.067500   0.000000
      9          4.989311   0.000000
 
  0.3333333E+00  0.3333333E+00  0.1262379E-14  0.1028807E-02
      1        -35.423765   1.000000
      2        -17.436756   1.000000
      3        -17.371250   1.000000
      4        -17.371245   1.000000
      5         -0.261992   1.000000
      6          2.069275   0.000000
      7          2.768986   0.000000
      8          4.719738   0.000000
      9          4.719740   0.000000
 
  0.3888889E+00  0.3333333E+00  0.1262379E-14  0.4115226E-02
      1        -35.422814   1.000000
      2        -17.446405   1.000000
      3        -17.376330   1.000000
      4        -17.374667   1.000000
      5          0.020420   1.000000
      6          1.968163   0.000000
      7          2.594408   0.000000
      8          4.843147   0.000000
      9          4.955299   0.000000
 
  0.4444444E+00  0.3333333E+00  0.1262379E-14  0.4115226E-02
      1        -35.421978   1.000000
      2        -17.453140   1.000000
      3        -17.383877   1.000000
      4        -17.376460   1.000000
      5          0.338094   1.000000
      6          1.877369   0.000000
      7          2.435602   0.000000
      8          4.822450   0.000000
      9          5.217335   0.000000
 
  0.5000000E+00  0.3333333E+00  0.1262379E-14  0.4115226E-02
      1        -35.421361   1.000000
      2        -17.455233   1.000000
      3        -17.393927   1.000000
      4        -17.376429   1.000000
      5          0.677340   1.000000
      6          1.773438   0.000000
      7          2.315860   0.000000
      8          4.721412   0.000000
      9          5.300341   0.000000
 
 -0.4444444E+00  0.3333333E+00  0.1262379E-14  0.4115226E-02
      1        -35.421023   1.000000
      2        -17.451884   1.000000
      3        -17.405770   1.000000
      4        -17.374534   1.000000
      5          1.023243   1.000000
      6          1.630267   0.000000
      7          2.225419   0.000000
      8          4.588169   0.000000
      9          5.066700   0.000000
 
 -0.3888889E+00  0.3333333E+00  0.1262379E-14  0.4115226E-02
      1        -35.421020   1.000000
      2        -17.443144   1.000000
      3        -17.418343   1.000000
      4        -17.371021   1.000000
      5          1.334884   0.501881
      6          1.459068   0.000226
      7          2.125079   0.000000
      8          4.441837   0.000000
      9          4.929094   0.000000
 
 -0.3333333E+00  0.3333333E+00  0.1262379E-14  0.2057613E-02
      1        -35.421349   1.000000
      2        -17.430459   1.000000
      3        -17.429711   1.000000
      4        -17.366329   1.000000
      5          1.132214   1.000000
      6          1.689834   0.000000
      7          2.047499   0.000000
      8          4.286546   0.000000
      9          5.078015   0.000000
 
  0.3888889E+00  0.3888889E+00  0.1262379E-14  0.1028807E-02
      1        -35.422059   1.000000
      2        -17.454668   1.000000
      3        -17.378488   1.000000
      4        -17.378483   1.000000
      5          0.237799   1.000000
      6          1.886203   0.000000
      7          2.475227   0.000000
      8          5.152142   0.000000
      9          5.152144   0.000000
 
  0.4444444E+00  0.3888889E+00  0.1262379E-14  0.4115226E-02
      1        -35.421406   1.000000
      2        -17.460539   1.000000
      3        -17.382909   1.000000
      4        -17.380652   1.000000
      5          0.478388   1.000000
      6          1.822956   0.000000
      7          2.359169   0.000000
      8          5.251475   0.000000
      9          5.399438   0.000000
 
  0.5000000E+00  0.3888889E+00  0.1262379E-14  0.4115226E-02
      1        -35.420933   1.000000
      2        -17.462084   1.000000
      3        -17.390257   1.000000
      4        -17.380915   1.000000
      5          0.729590   1.000000
      6          1.776060   0.000000
      7          2.256975   0.000000
      8          5.143894   0.000000
      9          5.493721   0.000000
 
 -0.4444444E+00  0.3888889E+00  0.1262379E-14  0.4115226E-02
      1        -35.420697   1.000000
      2        -17.458594   1.000000
      3        -17.400191   1.000000
      4        -17.379230   1.000000
      5          0.975397   1.000000
      6          1.725522   0.000000
      7          2.172866   0.000000
      8          4.946964   0.000000
      9          5.186681   0.000000
 
 -0.3888889E+00  0.3888889E+00  0.1262379E-14  0.2057613E-02
      1        -35.420730   1.000000
      2        -17.450812   1.000000
      3        -17.411163   1.000000
      4        -17.375788   1.000000
      5          1.191546   0.999975
      6          1.639606   0.000000
      7          2.105955   0.000000
      8          4.704468   0.000000
      9          4.931516   0.000000
 
  0.4444444E+00  0.4444444E+00  0.1262379E-14  0.1028807E-02
      1        -35.420946   1.000000
      2        -17.466229   1.000000
      3        -17.383207   1.000000
      4        -17.383202   1.000000
      5          0.622180   1.000000
      6          1.774000   0.000000
      7          2.297473   0.000000
      8          5.658144   0.000000
      9          5.658596   0.000000
 
  0.5000000E+00  0.4444444E+00  0.1262379E-14  0.4115226E-02
      1        -35.420658   1.000000
      2        -17.467983   1.000000
      3        -17.386401   1.000000
      4        -17.383840   1.000000
      5          0.760547   1.000000
      6          1.749323   0.000000
      7          2.242180   0.000000
      8          5.596520   0.000000
      9          5.851744   0.000000
 
 -0.4444444E+00  0.4444444E+00  0.1262379E-14  0.2057613E-02
      1        -35.420570   1.000000
      2        -17.465125   1.000000
      3        -17.392499   1.000000
      4        -17.382458   1.000000
      5          0.882773   1.000000
      6          1.743620   0.000000
      7          2.196182   0.000000
      8          5.303803   0.000000
      9          5.523445   0.000000
 
  0.5000000E+00  0.5000000E+00  0.1262379E-14  0.5144033E-03
      1        -35.420557   1.000000
      2        -17.470183   1.000000
      3        -17.384868   1.000000
      4        -17.384863   1.000000
      5          0.770706   1.000000
      6          1.736232   0.000000
      7          2.239322   0.000000
      8          5.905705   0.000000
      9          6.179750   0.000000
 
  0.1666667E+00  0.1111111E+00  0.5555556E-01  0.4115226E-02
      1        -35.431531   1.000000
      2        -17.354876   1.000000
      3        -17.338348   1.000000
      4        -17.334154   1.000000
      5         -1.890126   1.000000
      6          3.184572   0.000000
      7          3.696445   0.000000
      8          3.751228   0.000000
      9          4.558764   0.000000
 
  0.2222222E+00  0.1111111E+00  0.5555556E-01  0.8230453E-02
      1        -35.430300   1.000000
      2        -17.372542   1.000000
      3        -17.343183   1.000000
      4        -17.336107   1.000000
      5         -1.668970   1.000000
      6          2.951126   0.000000
      7          3.691024   0.000000
      8          3.846048   0.000000
      9          4.438597   0.000000
 
  0.2777778E+00  0.1111111E+00  0.5555556E-01  0.8230453E-02
      1        -35.428796   1.000000
      2        -17.394774   1.000000
      3        -17.347861   1.000000
      4        -17.339096   1.000000
      5         -1.371273   1.000000
      6          2.679086   0.000000
      7          3.620678   0.000000
      8          3.877145   0.000000
      9          4.468376   0.000000
 
  0.3333333E+00  0.1111111E+00  0.5555556E-01  0.8230453E-02
      1        -35.427188   1.000000
      2        -17.418445   1.000000
      3        -17.352126   1.000000
      4        -17.342750   1.000000
      5         -1.010054   1.000000
      6          2.386509   0.000000
      7          3.503416   0.000000
      8          3.814028   0.000000
      9          4.675175   0.000000
 
  0.3888889E+00  0.1111111E+00  0.5555556E-01  0.8230453E-02
      1        -35.425680   1.000000
      2        -17.440579   1.000000
      3        -17.355651   1.000000
      4        -17.346593   1.000000
      5         -0.604371   1.000000
      6          2.081089   0.000000
      7          3.387252   0.000000
      8          3.718610   0.000000
      9          4.978917   0.000000
 
  0.4444444E+00  0.1111111E+00  0.5555556E-01  0.8230453E-02
      1        -35.424446   1.000000
      2        -17.458541   1.000000
      3        -17.358167   1.000000
      4        -17.350040   1.000000
      5         -0.183510   1.000000
      6          1.767826   0.000000
      7          3.301722   0.000000
      8          3.632047   0.000000
      9          5.322258   0.000000
 
  0.5000000E+00  0.1111111E+00  0.5555556E-01  0.8230453E-02
      1        -35.423643   1.000000
      2        -17.470214   1.000000
      3        -17.359584   1.000000
      4        -17.352510   1.000000
      5          0.196623   1.000000
      6          1.471290   0.000058
      7          3.253975   0.000000
      8          3.573952   0.000000
      9          5.640686   0.000000
 
 -0.4444444E+00  0.1111111E+00  0.5555556E-01  0.4115226E-02
      1        -35.423365   1.000000
      2        -17.474260   1.000000
      3        -17.360019   1.000000
      4        -17.353415   1.000000
      5          0.383070   1.000000
      6          1.316527   0.699838
      7          3.239337   0.000000
      8          3.553657   0.000000
      9          5.851062   0.000000
 
  0.2222222E+00  0.1666667E+00  0.5555556E-01  0.4115226E-02
      1        -35.429876   1.000000
      2        -17.373513   1.000000
      3        -17.345763   1.000000
      4        -17.340957   1.000000
      5         -1.595251   1.000000
      6          2.890348   0.000000
      7          3.741936   0.000000
      8          3.899415   0.000000
      9          4.216652   0.000000
 
  0.2777778E+00  0.1666667E+00  0.5555556E-01  0.8230453E-02
      1        -35.428519   1.000000
      2        -17.391974   1.000000
      3        -17.351630   1.000000
      4        -17.343506   1.000000
      5         -1.326370   1.000000
      6          2.672155   0.000000
      7          3.583765   0.000000
      8          3.979947   0.000000
      9          4.261553   0.000000
 
  0.3333333E+00  0.1666667E+00  0.5555556E-01  0.8230453E-02
      1        -35.427010   1.000000
      2        -17.412869   1.000000
      3        -17.356900   1.000000
      4        -17.346985   1.000000
      5         -0.989547   1.000000
      6          2.429707   0.000000
      7          3.379702   0.000000
      8          3.952509   0.000000
      9          4.491622   0.000000
 
  0.3888889E+00  0.1666667E+00  0.5555556E-01  0.8230453E-02
      1        -35.425536   1.000000
      2        -17.433265   1.000000
      3        -17.361454   1.000000
      4        -17.350875   1.000000
      5         -0.600401   1.000000
      6          2.163966   0.000000
      7          3.208039   0.000000
      8          3.876615   0.000000
      9          4.800828   0.000000
 
  0.4444444E+00  0.1666667E+00  0.5555556E-01  0.8230453E-02
      1        -35.424268   1.000000
      2        -17.450600   1.000000
      3        -17.365221   1.000000
      4        -17.354359   1.000000
      5         -0.181829   1.000000
      6          1.874658   0.000000
      7          3.094640   0.000000
      8          3.791590   0.000000
      9          5.145014   0.000000
 
  0.5000000E+00  0.1666667E+00  0.5555556E-01  0.8230453E-02
      1        -35.423370   1.000000
      2        -17.462792   1.000000
      3        -17.368275   1.000000
      4        -17.356547   1.000000
      5          0.227800   1.000000
      6          1.573422   0.000000
      7          3.035171   0.000000
      8          3.722427   0.000000
      9          5.475239   0.000000
 
 -0.4444444E+00  0.1666667E+00  0.5555556E-01  0.8230453E-02
      1        -35.422942   1.000000
      2        -17.468443   1.000000
      3        -17.370543   1.000000
      4        -17.356908   1.000000
      5          0.526142   1.000000
      6          1.335842   0.491076
      7          3.009814   0.000000
      8          3.684547   0.000000
      9          5.687943   0.000000
 
 -0.3888889E+00  0.1666667E+00  0.5555556E-01  0.8230453E-02
      1        -35.423038   1.000000
      2        -17.466948   1.000000
      3        -17.371635   1.000000
      4        -17.355466   1.000000
      5          0.453187   1.000000
      6          1.404812   0.024240
      7          3.003359   0.000000
      8          3.686232   0.000000
      9          5.603749   0.000000
 
 -0.3333333E+00  0.1666667E+00  0.5555556E-01  0.8230453E-02
      1        -35.423649   1.000000
      2        -17.458540   1.000000
      3        -17.371140   1.000000
      4        -17.352601   1.000000
      5          0.097738   1.000000
      6          1.693678   0.000000
      7          3.022541   0.000000
      8          3.729753   0.000000
      9          5.295353   0.000000
 
 -0.2777778E+00  0.1666667E+00  0.5555556E-01  0.8230453E-02
      1        -35.424693   1.000000
      2        -17.444309   1.000000
      3        -17.368807   1.000000
      4        -17.348843   1.000000
      5         -0.320913   1.000000
      6          2.001848   0.000000
      7          3.088348   0.000000
      8          3.812245   0.000000
      9          4.941653   0.000000
 
 -0.2222222E+00  0.1666667E+00  0.5555556E-01  0.8230453E-02
      1        -35.426056   1.000000
      2        -17.426077   1.000000
      3        -17.364587   1.000000
      4        -17.344790   1.000000
      5         -0.733798   1.000000
      6          2.284805   0.000000
      7          3.213913   0.000000
      8          3.924993   0.000000
      9          4.607116   0.000000
 
 -0.1666667E+00  0.1666667E+00  0.5555556E-01  0.8230453E-02
      1        -35.427566   1.000000
      2        -17.406286   1.000000
      3        -17.358624   1.000000
      4        -17.340998   1.000000
      5         -1.108714   1.000000
      6          2.535487   0.000000
      7          3.387704   0.000000
      8          4.040792   0.000000
      9          4.336401   0.000000
 
 -0.1111111E+00  0.1666667E+00  0.5555556E-01  0.4115226E-02
      1        -35.429038   1.000000
      2        -17.387653   1.000000
      3        -17.351211   1.000000
      4        -17.337981   1.000000
      5         -1.425101   1.000000
      6          2.757381   0.000000
      7          3.566575   0.000000
      8          4.000412   0.000000
      9          4.293053   0.000000
 
  0.2777778E+00  0.2222222E+00  0.5555556E-01  0.4115226E-02
      1        -35.427848   1.000000
      2        -17.395174   1.000000
      3        -17.354858   1.000000
      4        -17.350134   1.000000
      5         -1.200710   1.000000
      6          2.583257   0.000000
      7          3.523127   0.000000
      8          4.111668   0.000000
      9          4.142828   0.000000
 
  0.3333333E+00  0.2222222E+00  0.5555556E-01  0.8230453E-02
      1        -35.426490   1.000000
      2        -17.412077   1.000000
      3        -17.361398   1.000000
      4        -17.353316   1.000000
      5         -0.893990   1.000000
      6          2.397478   0.000000
      7          3.252480   0.000000
      8          4.140921   0.000000
      9          4.378148   0.000000
 
  0.3888889E+00  0.2222222E+00  0.5555556E-01  0.8230453E-02
      1        -35.425112   1.000000
      2        -17.429207   1.000000
      3        -17.367412   1.000000
      4        -17.357037   1.000000
      5         -0.529654   1.000000
      6          2.194289   0.000000
      7          3.023705   0.000000
      8          4.094648   0.000000
      9          4.683204   0.000000
 
  0.4444444E+00  0.2222222E+00  0.5555556E-01  0.8230453E-02
      1        -35.423880   1.000000
      2        -17.444141   1.000000
      3        -17.373112   1.000000
      4        -17.360306   1.000000
      5         -0.125296   1.000000
      6          1.958632   0.000000
      7          2.869263   0.000000
      8          4.015994   0.000000
      9          5.017008   0.000000
 
  0.5000000E+00  0.2222222E+00  0.5555556E-01  0.8230453E-02
      1        -35.422947   1.000000
      2        -17.455001   1.000000
      3        -17.378574   1.000000
      4        -17.362092   1.000000
      5          0.293301   1.000000
      6          1.686235   0.000000
      7          2.788124   0.000000
      8          3.935372   0.000000
      9          5.321417   0.000000
 
 -0.4444444E+00  0.2222222E+00  0.5555556E-01  0.8230453E-02
      1        -35.422424   1.000000
      2        -17.460558   1.000000
      3        -17.383337   1.000000
      4        -17.361980   1.000000
      5          0.672750   1.000000
      6          1.407566   0.020132
      7          2.748165   0.000000
      8          3.875393   0.000000
      9          5.468250   0.000000
 
 -0.3888889E+00  0.2222222E+00  0.5555556E-01  0.8230453E-02
      1        -35.422373   1.000000
      2        -17.460344   1.000000
      3        -17.386522   1.000000
      4        -17.360073   1.000000
      5          0.759683   1.000000
      6          1.357283   0.264733
      7          2.716985   0.000000
      8          3.851436   0.000000
      9          5.493197   0.000000
 
 -0.3333333E+00  0.2222222E+00  0.5555556E-01  0.8230453E-02
      1        -35.422797   1.000000
      2        -17.454700   1.000000
      3        -17.387256   1.000000
      4        -17.356796   1.000000
      5          0.435151   1.000000
      6          1.647697   0.000000
      7          2.698333   0.000000
      8          3.869581   0.000000
      9          5.293927   0.000000
 
 -0.2777778E+00  0.2222222E+00  0.5555556E-01  0.8230453E-02
      1        -35.423649   1.000000
      2        -17.444742   1.000000
      3        -17.384879   1.000000
      4        -17.352645   1.000000
      5          0.022386   1.000000
      6          1.959395   0.000000
      7          2.733926   0.000000
      8          3.927795   0.000000
      9          4.953893   0.000000
 
 -0.2222222E+00  0.2222222E+00  0.5555556E-01  0.8230453E-02
      1        -35.424828   1.000000
      2        -17.432207   1.000000
      3        -17.378975   1.000000
      4        -17.348238   1.000000
      5         -0.393346   1.000000
      6          2.208328   0.000000
      7          2.872575   0.000000
      8          4.019563   0.000000
      9          4.622499   0.000000
 
 -0.1666667E+00  0.2222222E+00  0.5555556E-01  0.4115226E-02
      1        -35.426188   1.000000
      2        -17.418955   1.000000
      3        -17.369790   1.000000
      4        -17.344173   1.000000
      5         -0.777759   1.000000
      6          2.386755   0.000000
      7          3.113356   0.000000
      8          4.119205   0.000000
      9          4.353695   0.000000
 
  0.3333333E+00  0.2777778E+00  0.5555556E-01  0.4115226E-02
      1        -35.425689   1.000000
      2        -17.417378   1.000000
      3        -17.364528   1.000000
      4        -17.360277   1.000000
      5         -0.727944   1.000000
      6          2.300636   0.000000
      7          3.112282   0.000000
      8          4.340787   0.000000
      9          4.392847   0.000000
 
  0.3888889E+00  0.2777778E+00  0.5555556E-01  0.8230453E-02
      1        -35.424463   1.000000
      2        -17.430800   1.000000
      3        -17.371498   1.000000
      4        -17.363734   1.000000
      5         -0.397837   1.000000
      6          2.154405   0.000000
      7          2.869930   0.000000
      8          4.359366   0.000000
      9          4.653871   0.000000
 
  0.4444444E+00  0.2777778E+00  0.5555556E-01  0.8230453E-02
      1        -35.423329   1.000000
      2        -17.442292   1.000000
      3        -17.378891   1.000000
      4        -17.366800   1.000000
      5         -0.022158   1.000000
      6          1.992479   0.000000
      7          2.677785   0.000000
      8          4.297658   0.000000
      9          4.963841   0.000000
 
  0.5000000E+00  0.2777778E+00  0.5555556E-01  0.8230453E-02
      1        -35.422428   1.000000
      2        -17.450125   1.000000
      3        -17.386984   1.000000
      4        -17.368323   1.000000
      5          0.381178   1.000000
      6          1.787273   0.000000
      7          2.563130   0.000000
      8          4.203958   0.000000
      9          5.230748   0.000000
 
 -0.4444444E+00  0.2777778E+00  0.5555556E-01  0.8230453E-02
      1        -35.421872   1.000000
      2        -17.453365   1.000000
      3        -17.395052   1.000000
      4        -17.367909   1.000000
      5          0.788063   1.000000
      6          1.533338   0.000000
      7          2.502626   0.000000
      8          4.110814   0.000000
      9          5.287024   0.000000
 
 -0.3888889E+00  0.2777778E+00  0.5555556E-01  0.8230453E-02
      1        -35.421719   1.000000
      2        -17.452026   1.000000
      3        -17.401621   1.000000
      4        -17.365674   1.000000
      5          1.082658   1.000000
      6          1.330181   0.554774
      7          2.445375   0.000000
      8          4.047187   0.000000
      9          5.260955   0.000000
 
 -0.3333333E+00  0.2777778E+00  0.5555556E-01  0.8230453E-02
      1        -35.421999   1.000000
      2        -17.447397   1.000000
      3        -17.404700   1.000000
      4        -17.362019   1.000000
      5          0.804125   1.000000
      6          1.628286   0.000000
      7          2.378925   0.000000
      8          4.026560   0.000000
      9          5.324634   0.000000
 
 -0.2777778E+00  0.2777778E+00  0.5555556E-01  0.8230453E-02
      1        -35.422668   1.000000
      2        -17.441849   1.000000
      3        -17.401937   1.000000
      4        -17.357471   1.000000
      5          0.405803   1.000000
      6          1.963305   0.000000
      7          2.360740   0.000000
      8          4.035294   0.000000
      9          5.050018   0.000000
 
 -0.2222222E+00  0.2777778E+00  0.5555556E-01  0.4115226E-02
      1        -35.423653   1.000000
      2        -17.437061   1.000000
      3        -17.392550   1.000000
      4        -17.352666   1.000000
      5         -0.005181   1.000000
      6          2.142971   0.000000
      7          2.538731   0.000000
      8          4.047532   0.000000
      9          4.781839   0.000000
 
  0.3888889E+00  0.3333333E+00  0.5555556E-01  0.4115226E-02
      1        -35.423665   1.000000
      2        -17.437644   1.000000
      3        -17.373608   1.000000
      4        -17.369976   1.000000
      5         -0.211785   1.000000
      6          2.064996   0.000000
      7          2.735068   0.000000
      8          4.629885   0.000000
      9          4.746463   0.000000
 
  0.4444444E+00  0.3333333E+00  0.5555556E-01  0.8230453E-02
      1        -35.422683   1.000000
      2        -17.446379   1.000000
      3        -17.380804   1.000000
      4        -17.372982   1.000000
      5          0.118855   1.000000
      6          1.960553   0.000000
      7          2.544197   0.000000
      8          4.621930   0.000000
      9          5.012295   0.000000
 
  0.5000000E+00  0.3333333E+00  0.5555556E-01  0.8230453E-02
      1        -35.421879   1.000000
      2        -17.451327   1.000000
      3        -17.389917   1.000000
      4        -17.374473   1.000000
      5          0.480154   1.000000
      6          1.841071   0.000000
      7          2.400492   0.000000
      8          4.515266   0.000000
      9          5.255051   0.000000
 
 -0.4444444E+00  0.3333333E+00  0.5555556E-01  0.8230453E-02
      1        -35.421355   1.000000
      2        -17.451411   1.000000
      3        -17.400632   1.000000
      4        -17.373943   1.000000
      5          0.856291   1.000000
      6          1.673954   0.000000
      7          2.312665   0.000000
      8          4.365822   0.000000
      9          5.252841   0.000000
 
 -0.3888889E+00  0.3333333E+00  0.5555556E-01  0.8230453E-02
      1        -35.421169   1.000000
      2        -17.446464   1.000000
      3        -17.411741   1.000000
      4        -17.371518   1.000000
      5          1.233337   0.997992
      6          1.448439   0.000670
      7          2.233156   0.000000
      8          4.231554   0.000000
      9          5.134222   0.000000
 
 -0.3333333E+00  0.3333333E+00  0.5555556E-01  0.8230453E-02
      1        -35.421348   1.000000
      2        -17.438235   1.000000
      3        -17.420672   1.000000
      4        -17.367583   1.000000
      5          1.154455   1.000000
      6          1.608056   0.000000
      7          2.127270   0.000000
      8          4.159128   0.000000
      9          5.260399   0.000000
 
 -0.2777778E+00  0.3333333E+00  0.5555556E-01  0.4115226E-02
      1        -35.421869   1.000000
      2        -17.436879   1.000000
      3        -17.417048   1.000000
      4        -17.362676   1.000000
      5          0.797231   1.000000
      6          1.966190   0.000000
      7          2.040208   0.000000
      8          4.110492   0.000000
      9          5.256232   0.000000
 
  0.4444444E+00  0.3888889E+00  0.5555556E-01  0.4115226E-02
      1        -35.422013   1.000000
      2        -17.453756   1.000000
      3        -17.380982   1.000000
      4        -17.377957   1.000000
      5          0.288853   1.000000
      6          1.889506   0.000000
      7          2.447949   0.000000
      8          4.959896   0.000000
      9          5.174191   0.000000
 
  0.5000000E+00  0.3888889E+00  0.5555556E-01  0.8230453E-02
      1        -35.421360   1.000000
      2        -17.457463   1.000000
      3        -17.388088   1.000000
      4        -17.379748   1.000000
      5          0.581010   1.000000
      6          1.827312   0.000000
      7          2.315216   0.000000
      8          4.859920   0.000000
      9          5.419854   0.000000
 
 -0.4444444E+00  0.3888889E+00  0.5555556E-01  0.8230453E-02
      1        -35.420932   1.000000
      2        -17.456329   1.000000
      3        -17.398068   1.000000
      4        -17.379308   1.000000
      5          0.881412   1.000000
      6          1.756857   0.000000
      7          2.213597   0.000000
      8          4.633217   0.000000
      9          5.432547   0.000000
 
 -0.3888889E+00  0.3888889E+00  0.5555556E-01  0.8230453E-02
      1        -35.420777   1.000000
      2        -17.450107   1.000000
      3        -17.409908   1.000000
      4        -17.376835   1.000000
      5          1.168728   0.999999
      6          1.654295   0.000000
      7          2.128528   0.000000
      8          4.394275   0.000000
      9          5.241524   0.000000
 
 -0.3333333E+00  0.3888889E+00  0.5555556E-01  0.4115226E-02
      1        -35.420924   1.000000
      2        -17.439998   1.000000
      3        -17.421630   1.000000
      4        -17.372739   1.000000
      5          1.355187   0.284495
      6          1.548269   0.000000
      7          2.056937   0.000000
      8          4.251063   0.000000
      9          5.120149   0.000000
 
  0.5000000E+00  0.4444444E+00  0.5555556E-01  0.4115226E-02
      1        -35.420937   1.000000
      2        -17.464094   1.000000
      3        -17.385791   1.000000
      4        -17.383191   1.000000
      5          0.676512   1.000000
      6          1.781662   0.000000
      7          2.273392   0.000000
      8          5.244645   0.000000
      9          5.676446   0.000000
 
 -0.4444444E+00  0.4444444E+00  0.5555556E-01  0.8230453E-02
      1        -35.420655   1.000000
      2        -17.463181   1.000000
      3        -17.392098   1.000000
      4        -17.383286   1.000000
      5          0.869771   1.000000
      6          1.761066   0.000000
      7          2.199315   0.000000
      8          4.957963   0.000000
      9          5.794423   0.000000
 
 -0.3888889E+00  0.4444444E+00  0.5555556E-01  0.4115226E-02
      1        -35.420604   1.000000
      2        -17.457860   1.000000
      3        -17.401088   1.000000
      4        -17.380951   1.000000
      5          1.040929   1.000000
      6          1.738033   0.000000
      7          2.141079   0.000000
      8          4.629147   0.000000
      9          5.519517   0.000000
 
 -0.4444444E+00  0.5000000E+00  0.5555556E-01  0.2057613E-02
      1        -35.420563   1.000000
      2        -17.467656   1.000000
      3        -17.387481   1.000000
      4        -17.385014   1.000000
      5          0.827182   1.000000
      6          1.745317   0.000000
      7          2.216361   0.000000
      8          5.348892   0.000000
      9          6.218467   0.000000
 
  0.3333333E+00  0.2222222E+00  0.1111111E+00  0.4115226E-02
      1        -35.427191   1.000000
      2        -17.406510   1.000000
      3        -17.360767   1.000000
      4        -17.345890   1.000000
      5         -1.039321   1.000000
      6          2.500282   0.000000
      7          3.333981   0.000000
      8          4.184773   0.000000
      9          4.207991   0.000000
 
  0.3888889E+00  0.2222222E+00  0.1111111E+00  0.8230453E-02
      1        -35.425781   1.000000
      2        -17.422520   1.000000
      3        -17.368882   1.000000
      4        -17.349336   1.000000
      5         -0.688961   1.000000
      6          2.312309   0.000000
      7          3.087719   0.000000
      8          4.093073   0.000000
      9          4.482295   0.000000
 
  0.4444444E+00  0.2222222E+00  0.1111111E+00  0.8230453E-02
      1        -35.424455   1.000000
      2        -17.438014   1.000000
      3        -17.375235   1.000000
      4        -17.353325   1.000000
      5         -0.291872   1.000000
      6          2.087866   0.000000
      7          2.904173   0.000000
      8          3.988142   0.000000
      9          4.805121   0.000000
 
  0.5000000E+00  0.2222222E+00  0.1111111E+00  0.8230453E-02
      1        -35.423375   1.000000
      2        -17.450857   1.000000
      3        -17.379613   1.000000
      4        -17.357085   1.000000
      5          0.127651   1.000000
      6          1.814106   0.000000
      7          2.807674   0.000000
      8          3.895632   0.000000
      9          5.143427   0.000000
 
 -0.4444444E+00  0.2222222E+00  0.1111111E+00  0.8230453E-02
      1        -35.422666   1.000000
      2        -17.459312   1.000000
      3        -17.382110   1.000000
      4        -17.359804   1.000000
      5          0.527810   1.000000
      6          1.512144   0.000000
      7          2.777390   0.000000
      8          3.831487   0.000000
      9          5.412111   0.000000
 
 -0.3888889E+00  0.2222222E+00  0.1111111E+00  0.4115226E-02
      1        -35.422421   1.000000
      2        -17.462255   1.000000
      3        -17.382901   1.000000
      4        -17.360805   1.000000
      5          0.757056   1.000000
      6          1.318155   0.683634
      7          2.773996   0.000000
      8          3.808142   0.000000
      9          5.506246   0.000000
 
  0.3888889E+00  0.2777778E+00  0.1111111E+00  0.4115226E-02
      1        -35.425231   1.000000
      2        -17.424358   1.000000
      3        -17.370906   1.000000
      4        -17.356117   1.000000
      5         -0.575283   1.000000
      6          2.259055   0.000000
      7          2.982208   0.000000
      8          4.255642   0.000000
      9          4.480043   0.000000
 
  0.4444444E+00  0.2777778E+00  0.1111111E+00  0.8230453E-02
      1        -35.423997   1.000000
      2        -17.436012   1.000000
      3        -17.379424   1.000000
      4        -17.359797   1.000000
      5         -0.204388   1.000000
      6          2.110398   0.000000
      7          2.746229   0.000000
      8          4.200661   0.000000
      9          4.751202   0.000000
 
  0.5000000E+00  0.2777778E+00  0.1111111E+00  0.8230453E-02
      1        -35.422954   1.000000
      2        -17.445582   1.000000
      3        -17.386585   1.000000
      4        -17.363418   1.000000
      5          0.200221   1.000000
      6          1.911456   0.000000
      7          2.599347   0.000000
      8          4.100443   0.000000
      9          5.060546   0.000000
 
 -0.4444444E+00  0.2777778E+00  0.1111111E+00  0.8230453E-02
      1        -35.422214   1.000000
      2        -17.451838   1.000000
      3        -17.392220   1.000000
      4        -17.365836   1.000000
      5          0.612811   1.000000
      6          1.647199   0.000000
      7          2.544413   0.000000
      8          4.001267   0.000000
      9          5.278456   0.000000
 
 -0.3888889E+00  0.2777778E+00  0.1111111E+00  0.8230453E-02
      1        -35.421869   1.000000
      2        -17.454120   1.000000
      3        -17.396106   1.000000
      4        -17.366319   1.000000
      5          0.974689   1.000000
      6          1.366748   0.184984
      7          2.525933   0.000000
      8          3.936427   0.000000
      9          5.300426   0.000000
 
 -0.3333333E+00  0.2777778E+00  0.1111111E+00  0.8230453E-02
      1        -35.421968   1.000000
      2        -17.452425   1.000000
      3        -17.397586   1.000000
      4        -17.364715   1.000000
      5          0.871970   1.000000
      6          1.476646   0.000031
      7          2.500823   0.000000
      8          3.934382   0.000000
      9          5.309741   0.000000
 
 -0.2777778E+00  0.2777778E+00  0.1111111E+00  0.8230453E-02
      1        -35.422485   1.000000
      2        -17.447424   1.000000
      3        -17.395783   1.000000
      4        -17.361446   1.000000
      5          0.484207   1.000000
      6          1.795074   0.000000
      7          2.489633   0.000000
      8          3.987040   0.000000
      9          5.177175   0.000000
 
 -0.2222222E+00  0.2777778E+00  0.1111111E+00  0.8230453E-02
      1        -35.423376   1.000000
      2        -17.440206   1.000000
      3        -17.390057   1.000000
      4        -17.357257   1.000000
      5          0.069835   1.000000
      6          2.051511   0.000000
      7          2.568336   0.000000
      8          4.063818   0.000000
      9          4.882635   0.000000
 
 -0.1666667E+00  0.2777778E+00  0.1111111E+00  0.4115226E-02
      1        -35.424518   1.000000
      2        -17.431742   1.000000
      3        -17.380634   1.000000
      4        -17.352956   1.000000
      5         -0.329839   1.000000
      6          2.202787   0.000000
      7          2.790765   0.000000
      8          4.127629   0.000000
      9          4.612237   0.000000
 
  0.4444444E+00  0.3333333E+00  0.1111111E+00  0.4115226E-02
      1        -35.423384   1.000000
      2        -17.439579   1.000000
      3        -17.380409   1.000000
      4        -17.366939   1.000000
      5         -0.064977   1.000000
      6          2.054706   0.000000
      7          2.637298   0.000000
      8          4.417128   0.000000
      9          4.821712   0.000000
 
  0.5000000E+00  0.3333333E+00  0.1111111E+00  0.8230453E-02
      1        -35.422433   1.000000
      2        -17.445772   1.000000
      3        -17.389161   1.000000
      4        -17.370351   1.000000
      5          0.306254   1.000000
      6          1.946062   0.000000
      7          2.447334   0.000000
      8          4.325215   0.000000
      9          5.089437   0.000000
 
 -0.4444444E+00  0.3333333E+00  0.1111111E+00  0.8230453E-02
      1        -35.421728   1.000000
      2        -17.448473   1.000000
      3        -17.397977   1.000000
      4        -17.372554   1.000000
      5          0.697079   1.000000
      6          1.774629   0.000000
      7          2.348231   0.000000
      8          4.168217   0.000000
      9          5.287412   0.000000
 
 -0.3888889E+00  0.3333333E+00  0.1111111E+00  0.8230453E-02
      1        -35.421350   1.000000
      2        -17.447417   1.000000
      3        -17.406333   1.000000
      4        -17.372612   1.000000
      5          1.087359   1.000000
      6          1.528451   0.000000
      7          2.307095   0.000000
      8          4.021041   0.000000
      9          5.276426   0.000000
 
 -0.3333333E+00  0.3333333E+00  0.1111111E+00  0.8230453E-02
      1        -35.421348   1.000000
      2        -17.443672   1.000000
      3        -17.412342   1.000000
      4        -17.370484   1.000000
      5          1.219166   0.999477
      6          1.464958   0.000119
      7          2.249986   0.000000
      8          3.967065   0.000000
      9          5.271565   0.000000
 
 -0.2777778E+00  0.3333333E+00  0.1111111E+00  0.8230453E-02
      1        -35.421723   1.000000
      2        -17.440572   1.000000
      3        -17.412136   1.000000
      4        -17.366682   1.000000
      5          0.858083   1.000000
      6          1.817091   0.000000
      7          2.176999   0.000000
      8          4.008348   0.000000
      9          5.295747   0.000000
 
 -0.2222222E+00  0.3333333E+00  0.1111111E+00  0.4115226E-02
      1        -35.422429   1.000000
      2        -17.440321   1.000000
      3        -17.403529   1.000000
      4        -17.361985   1.000000
      5          0.463414   1.000000
      6          2.038642   0.000000
      7          2.247057   0.000000
      8          4.063195   0.000000
      9          5.074823   0.000000
 
  0.5000000E+00  0.3888889E+00  0.1111111E+00  0.4115226E-02
      1        -35.421877   1.000000
      2        -17.450971   1.000000
      3        -17.388137   1.000000
      4        -17.376475   1.000000
      5          0.436372   1.000000
      6          1.900777   0.000000
      7          2.368079   0.000000
      8          4.569724   0.000000
      9          5.235284   0.000000
 
 -0.4444444E+00  0.3888889E+00  0.1111111E+00  0.8230453E-02
      1        -35.421272   1.000000
      2        -17.451642   1.000000
      3        -17.396975   1.000000
      4        -17.378800   1.000000
      5          0.772311   1.000000
      6          1.833574   0.000000
      7          2.234251   0.000000
      8          4.346700   0.000000
      9          5.463369   0.000000
 
 -0.3888889E+00  0.3888889E+00  0.1111111E+00  0.8230453E-02
      1        -35.420927   1.000000
      2        -17.447787   1.000000
      3        -17.407720   1.000000
      4        -17.378669   1.000000
      5          1.105368   1.000000
      6          1.711865   0.000000
      7          2.159931   0.000000
      8          4.087277   0.000000
      9          5.470025   0.000000
 
 -0.3333333E+00  0.3888889E+00  0.1111111E+00  0.8230453E-02
      1        -35.420893   1.000000
      2        -17.439515   1.000000
      3        -17.419390   1.000000
      4        -17.376153   1.000000
      5          1.367414   0.180001
      6          1.579664   0.000000
      7          2.082905   0.000000
      8          3.941324   0.000000
      9          5.408004   0.000000
 
 -0.2777778E+00  0.3888889E+00  0.1111111E+00  0.4115226E-02
      1        -35.421167   1.000000
      2        -17.431363   1.000000
      3        -17.426684   1.000000
      4        -17.371880   1.000000
      5          1.197445   0.999950
      6          1.763271   0.000000
      7          2.004546   0.000000
      8          3.954404   0.000000
      9          5.425002   0.000000
 
 -0.4444444E+00  0.4444444E+00  0.1111111E+00  0.4115226E-02
      1        -35.420899   1.000000
      2        -17.457972   1.000000
      3        -17.393182   1.000000
      4        -17.383039   1.000000
      5          0.831772   1.000000
      6          1.805499   0.000000
      7          2.205305   0.000000
      8          4.600143   0.000000
      9          5.718422   0.000000
 
 -0.3888889E+00  0.4444444E+00  0.1111111E+00  0.8230453E-02
      1        -35.420652   1.000000
      2        -17.454189   1.000000
      3        -17.401498   1.000000
      4        -17.383427   1.000000
      5          1.069445   1.000000
      6          1.783852   0.000000
      7          2.124414   0.000000
      8          4.251662   0.000000
      9          5.830656   0.000000
 
 -0.3333333E+00  0.4444444E+00  0.1111111E+00  0.4115226E-02
      1        -35.420648   1.000000
      2        -17.446698   1.000000
      3        -17.411941   1.000000
      4        -17.380787   1.000000
      5          1.263994   0.977773
      6          1.729809   0.000000
      7          2.064548   0.000000
      8          4.005272   0.000000
      9          5.654610   0.000000
 
 -0.3888889E+00  0.5000000E+00  0.1111111E+00  0.2057613E-02
      1        -35.420556   1.000000
      2        -17.460308   1.000000
      3        -17.394947   1.000000
      4        -17.385366   1.000000
      5          0.987693   1.000000
      6          1.773278   0.000000
      7          2.153867   0.000000
      8          4.565718   0.000000
      9          6.263185   0.000000
 
  0.5000000E+00  0.3333333E+00  0.1666667E+00  0.4115226E-02
      1        -35.422951   1.000000
      2        -17.440922   1.000000
      3        -17.390794   1.000000
      4        -17.363757   1.000000
      5          0.166733   1.000000
      6          2.044174   0.000000
      7          2.476722   0.000000
      8          4.189215   0.000000
      9          4.934357   0.000000
 
 -0.4444444E+00  0.3333333E+00  0.1666667E+00  0.8230453E-02
      1        -35.422099   1.000000
      2        -17.443887   1.000000
      3        -17.400228   1.000000
      4        -17.367900   1.000000
      5          0.562788   1.000000
      6          1.915183   0.000000
      7          2.309059   0.000000
      8          4.079543   0.000000
      9          5.189997   0.000000
 
 -0.3888889E+00  0.3333333E+00  0.1666667E+00  0.8230453E-02
      1        -35.421545   1.000000
      2        -17.445241   1.000000
      3        -17.406505   1.000000
      4        -17.371031   1.000000
      5          0.957184   1.000000
      6          1.655738   0.000000
      7          2.290931   0.000000
      8          3.947627   0.000000
      9          5.311575   0.000000
 
 -0.3333333E+00  0.3333333E+00  0.1666667E+00  0.4115226E-02
      1        -35.421347   1.000000
      2        -17.445572   1.000000
      3        -17.408711   1.000000
      4        -17.372203   1.000000
      5          1.300394   0.836515
      6          1.353775   0.298190
      7          2.304459   0.000000
      8          3.885053   0.000000
      9          5.291952   0.000000
 
 -0.4444444E+00  0.3888889E+00  0.1666667E+00  0.4115226E-02
      1        -35.421676   1.000000
      2        -17.446293   1.000000
      3        -17.399076   1.000000
      4        -17.374507   1.000000
      5          0.662138   1.000000
      6          1.922964   0.000000
      7          2.233125   0.000000
      8          4.174486   0.000000
      9          5.323517   0.000000
 
 -0.3888889E+00  0.3888889E+00  0.1666667E+00  0.8230453E-02
      1        -35.421155   1.000000
      2        -17.443808   1.000000
      3        -17.408560   1.000000
      4        -17.377707   1.000000
      5          1.019590   1.000000
      6          1.821985   0.000000
      7          2.130787   0.000000
      8          3.930809   0.000000
      9          5.509253   0.000000
 
 -0.3333333E+00  0.3888889E+00  0.1666667E+00  0.8230453E-02
      1        -35.420927   1.000000
      2        -17.439026   1.000000
      3        -17.416958   1.000000
      4        -17.378533   1.000000
      5          1.335493   0.495005
      6          1.621052   0.000000
      7          2.121506   0.000000
      8          3.754601   0.000000
      9          5.502227   0.000000
 
 -0.2777778E+00  0.3888889E+00  0.1666667E+00  0.8230453E-02
      1        -35.421022   1.000000
      2        -17.436048   1.000000
      3        -17.420031   1.000000
      4        -17.376657   1.000000
      5          1.263989   0.977781
      6          1.718373   0.000000
      7          2.066884   0.000000
      8          3.771758   0.000000
      9          5.522880   0.000000
 
 -0.2222222E+00  0.3888889E+00  0.1666667E+00  0.4115226E-02
      1        -35.421431   1.000000
      2        -17.439718   1.000000
      3        -17.412480   1.000000
      4        -17.372730   1.000000
      5          0.932425   1.000000
      6          1.958007   0.000000
      7          2.028864   0.000000
      8          3.933362   0.000000
      9          5.443423   0.000000
 
 -0.3888889E+00  0.4444444E+00  0.1666667E+00  0.4115226E-02
      1        -35.420844   1.000000
      2        -17.448542   1.000000
      3        -17.404498   1.000000
      4        -17.382692   1.000000
      5          1.059833   1.000000
      6          1.847191   0.000000
      7          2.098518   0.000000
      8          4.008132   0.000000
      9          5.778920   0.000000
 
 -0.3333333E+00  0.4444444E+00  0.1666667E+00  0.8230453E-02
      1        -35.420649   1.000000
      2        -17.442097   1.000000
      3        -17.413783   1.000000
      4        -17.383723   1.000000
      5          1.303350   0.815042
      6          1.812229   0.000000
      7          2.035598   0.000000
      8          3.713906   0.000000
      9          5.865416   0.000000
 
 -0.2777778E+00  0.4444444E+00  0.1666667E+00  0.4115226E-02
      1        -35.420709   1.000000
      2        -17.432967   1.000000
      3        -17.424255   1.000000
      4        -17.381347   1.000000
      5          1.409706   0.017362
      6          1.775708   0.000000
      7          1.982253   0.000000
      8          3.635042   0.000000
      9          5.871539   0.000000
 
 -0.3333333E+00  0.5000000E+00  0.1666667E+00  0.2057613E-02
      1        -35.420559   1.000000
      2        -17.449036   1.000000
      3        -17.406377   1.000000
      4        -17.385803   1.000000
      5          1.216320   0.999608
      6          1.821438   0.000000
      7          2.067431   0.000000
      8          3.892399   0.000000
      9          6.184380   0.000000
 
 -0.3333333E+00  0.4444444E+00  0.2222222E+00  0.4115226E-02
      1        -35.420780   1.000000
      2        -17.436872   1.000000
      3        -17.418315   1.000000
      4        -17.382113   1.000000
      5          1.295748   0.866854
      6          1.907133   0.000000
      7          1.946197   0.000000
      8          3.638694   0.000000
      9          5.836148   0.000000
 
 -0.2777778E+00  0.4444444E+00  0.2222222E+00  0.4115226E-02
      1        -35.420649   1.000000
      2        -17.430476   1.000000
      3        -17.425466   1.000000
      4        -17.383866   1.000000
      5          1.427656   0.004406
      6          1.828677   0.000000
      7          1.981884   0.000000
      8          3.501306   0.000000
      9          5.922400   0.000000
 
 -0.2777778E+00  0.5000000E+00  0.2222222E+00  0.2057613E-02
      1        -35.420554   1.000000
      2        -17.435145   1.000000
      3        -17.420346   1.000000
      4        -17.386078   1.000000
      5          1.414232   0.012559
      6          1.889754   0.000000
      7          1.974659   0.000000
      8          3.466295   0.000000
      9          6.182737   0.000000
