 running    1 mpi-ranks, with    2 threads/rank, on    1 nodes
 distrk:  each k-point on    1 cores,    1 groups
 distr:  one band on    1 cores,    1 groups
 OpenACC runtime initialized ...    1 GPUs detected
 vasp.6.4.2 20Jul23 (build Mar  2 2025 11:04:54) complex                         
 POSCAR found type information on POSCAR V 
 POSCAR found :  1 types and       1 ions
 scaLAPACK will be used selectively (only on CPU)
 LDA part: xc-table for Pade appr. of Perdew
 -----------------------------------------------------------------------------
|                                                                             |
|           W    W    AA    RRRRR   N    N  II  N    N   GGGG   !!!           |
|           W    W   A  A   R    R  NN   N  II  NN   N  G    G  !!!           |
|           W    W  A    A  R    R  N N  N  II  N N  N  G       !!!           |
|           W WW W  AAAAAA  RRRRR   N  N N  II  N  N N  G  GGG   !            |
|           WW  WW  A    A  R   R   N   NN  II  N   NN  G    G                |
|           W    W  A    A  R    R  N    N  II  N    N   GGGG   !!!           |
|                                                                             |
|     The requested file  could not be found or opened for reading            |
|     k-point information. Automatic k-point generation is used as a          |
|     fallback, which may lead to unwanted results.                           |
|                                                                             |
 -----------------------------------------------------------------------------

 POSCAR, INCAR and KPOINTS ok, starting setup
 FFT: planning ... GRIDC
 FFT: planning ... GRID_SOFT
 FFT: planning ... GRID
 WAVECAR not read
 entering main loop
       N       E                     dE             d eps       ncg     rms          rms(c)
DAV:   1     0.357323327203E+01    0.35732E+01   -0.16355E+03  3090   0.580E+02
DAV:   2    -0.102596194995E+02   -0.13833E+02   -0.13261E+02  3102   0.950E+01
DAV:   3    -0.104385976805E+02   -0.17898E+00   -0.17829E+00  3216   0.139E+01
DAV:   4    -0.104408491439E+02   -0.22515E-02   -0.22514E-02  3708   0.164E+00
DAV:   5    -0.104408732358E+02   -0.24092E-04   -0.24092E-04  3252   0.124E-01    0.106E+01
DAV:   6    -0.888347379248E+01    0.15574E+01   -0.60670E+00  3144   0.461E+01    0.196E+00
DAV:   7    -0.884653881123E+01    0.36935E-01   -0.89610E-02  3468   0.454E+00    0.123E+00
DAV:   8    -0.883625257074E+01    0.10286E-01   -0.56700E-03  3072   0.141E+00    0.214E-01
DAV:   9    -0.883592534437E+01    0.32723E-03   -0.11259E-03  4170   0.380E-01    0.645E-02
DAV:  10    -0.883587749467E+01    0.47850E-04   -0.20999E-05  3954   0.633E-02    0.917E-03
DAV:  11    -0.883587357087E+01    0.39238E-05   -0.44459E-06  2838   0.307E-02    0.140E-03
DAV:  12    -0.883587398344E+01   -0.41258E-06   -0.45560E-08  1542   0.341E-03
   1 F= -.88358740E+01 E0= -.88358013E+01  d E =-.218046E-03
Warning: ieee_invalid is signaling
Warning: ieee_divide_by_zero is signaling
Warning: ieee_underflow is signaling
Warning: ieee_inexact is signaling
FORTRAN STOP
