    1    1    1    1
  0.1363237E+02  0.2681403E-09  0.2681403E-09  0.2681402E-09  0.5000000E-15
   1.0000000000000000E-004
  CAR 
 FCC Cu EOS scale=1.060                  
     11    120      9
 
  0.1262379E-14  0.1262379E-14  0.1262379E-14  0.2962963E-03
      1         -2.378106   1.000000
      2          3.302126   1.000000
      3          3.302128   1.000000
      4          3.302131   1.000000
      5          3.963462   1.000000
      6          3.963464   1.000000
      7         27.371856   0.000000
      8         28.940505   0.000000
      9         28.940517   0.000000
 
  0.6666667E-01  0.1264172E-14  0.1262379E-14  0.2370370E-02
      1         -2.231991   1.000000
      2          3.275690   1.000000
      3          3.326625   1.000000
      4          3.326626   1.000000
      5          3.954346   1.000000
      6          3.954348   1.000000
      7         26.001640   0.000000
      8         27.883299   0.000000
      9         28.482320   0.000000
 
  0.1333333E+00  0.1276930E-14  0.1262379E-14  0.2370370E-02
      1         -1.799894   1.000000
      2          3.207670   1.000000
      3          3.385448   1.000000
      4          3.385449   1.000000
      5          3.940645   1.000000
      6          3.940648   1.000000
      7         22.788547   0.000000
      8         27.658280   0.000000
      9         27.717018   0.000000
 
  0.2000000E+00  0.1270424E-14  0.1262379E-14  0.2370370E-02
      1         -1.105123   1.000000
      2          3.133104   1.000000
      3          3.432172   1.000000
      4          3.432174   1.000000
      5          3.964456   1.000000
      6          3.964460   1.000000
      7         19.550892   0.000000
      8         27.040876   0.000000
      9         27.041202   0.000000
 
  0.2666667E+00  0.1258753E-14  0.1262379E-14  0.2370370E-02
      1         -0.209216   1.000000
      2          3.124394   1.000000
      3          3.422040   1.000000
      4          3.422042   1.000000
      5          4.061820   1.000000
      6          4.061825   1.000000
      7         16.487076   0.000000
      8         26.523960   0.000000
      9         26.526789   0.000000
 
  0.3333333E+00  0.1271750E-14  0.1262379E-14  0.2370370E-02
      1          0.718683   1.000000
      2          3.346501   1.000000
      3          3.371203   1.000000
      4          3.371206   1.000000
      5          4.202957   1.000000
      6          4.202963   1.000000
      7         13.663814   0.000000
      8         26.170643   0.000000
      9         26.171630   0.000000
 
  0.4000000E+00  0.1282866E-14  0.1262379E-14  0.2370370E-02
      1          1.346828   1.000000
      2          3.317729   1.000000
      3          3.317732   1.000000
      4          4.074471   1.000000
      5          4.331688   1.000000
      6          4.331694   1.000000
      7         11.173707  -0.000000
      8         25.964564   0.000000
      9         25.970492   0.000000
 
  0.4666667E+00  0.1298491E-14  0.1262379E-14  0.2370370E-02
      1          1.573703   1.000000
      2          3.285737   1.000000
      3          3.285740   1.000000
      4          4.406896   1.000000
      5          4.406901   1.000000
      6          5.110398   1.000000
      7          9.338523  -0.000000
      8         25.875955   0.000000
      9         25.961304   0.000000
 
  0.6666667E-01  0.6666667E-01  0.1262379E-14  0.1777778E-02
      1         -2.183382   1.000000
      2          3.252073   1.000000
      3          3.343341   1.000000
      4          3.343343   1.000000
      5          3.918459   1.000000
      6          3.982174   1.000000
      7         26.604106   0.000000
      8         27.286537   0.000000
      9         27.286556   0.000000
 
  0.1333333E+00  0.6666667E-01  0.1262379E-14  0.7111111E-02
      1         -1.846790   1.000000
      2          3.187951   1.000000
      3          3.397771   1.000000
      4          3.400214   1.000000
      5          3.873357   1.000000
      6          3.997189   1.000000
      7         23.976367   0.000000
      8         26.244408   0.000000
      9         26.742191   0.000000
 
  0.2000000E+00  0.6666667E-01  0.1262379E-14  0.7111111E-02
      1         -1.238985   1.000000
      2          3.107117   1.000000
      3          3.449875   1.000000
      4          3.458224   1.000000
      5          3.864536   1.000000
      6          4.029381   1.000000
      7         20.717696   0.000000
      8         25.418966   0.000000
      9         26.298731   0.000000
 
  0.2666667E+00  0.6666667E-01  0.1262379E-14  0.7111111E-02
      1         -0.405105   1.000000
      2          3.056409   1.000000
      3          3.433800   1.000000
      4          3.470557   1.000000
      5          3.966245   1.000000
      6          4.113529   1.000000
      7         17.590010   0.000000
      8         24.830268   0.000000
      9         25.906942   0.000000
 
  0.3333333E+00  0.6666667E-01  0.1262379E-14  0.7111111E-02
      1          0.532388   1.000000
      2          3.139677   1.000000
      3          3.364934   1.000000
      4          3.433884   1.000000
      5          4.176449   1.000000
      6          4.237620   1.000000
      7         14.678371   0.000000
      8         24.493449   0.000000
      9         25.600686   0.000000
 
  0.4000000E+00  0.6666667E-01  0.1262379E-14  0.7111111E-02
      1          1.280545   1.000000
      2          3.293537   1.000000
      3          3.380116   1.000000
      4          3.524919   1.000000
      5          4.352510   1.000000
      6          4.526044   1.000000
      7         12.053639   0.000000
      8         24.425996   0.000000
      9         25.322970   0.000000
 
  0.4666667E+00  0.6666667E-01  0.1262379E-14  0.7111111E-02
      1          1.609503   1.000000
      2          3.249026   1.000000
      3          3.337225   1.000000
      4          3.971022   1.000000
      5          4.415471   1.000000
      6          5.278410   1.000001
      7          9.899999  -0.000000
      8         24.572853   0.000000
      9         24.645771   0.000000
 
 -0.4666667E+00  0.6666667E-01  0.1262379E-14  0.7111111E-02
      1          1.669419   1.000000
      2          3.241223   1.000000
      3          3.321402   1.000000
      4          4.097119   1.000000
      5          4.403364   1.000000
      6          5.765802   1.034167
      7          9.100726  -0.000000
      8         23.878426   0.000000
      9         25.161563   0.000000
 
 -0.4000000E+00  0.6666667E-01  0.1262379E-14  0.7111111E-02
      1          1.541281   1.000000
      2          3.270793   1.000000
      3          3.338754   1.000000
      4          3.902164   1.000000
      5          4.314944   1.000000
      6          5.013783   1.000000
      7         10.541247  -0.000000
      8         23.458432   0.000000
      9         25.963432   0.000000
 
 -0.3333333E+00  0.6666667E-01  0.1262379E-14  0.7111111E-02
      1          1.076770   1.000000
      2          3.324947   1.000000
      3          3.385380   1.000000
      4          3.387243   1.000000
      5          4.169763   1.000000
      6          4.503060   1.000000
      7         12.892514   0.000000
      8         23.317040   0.000000
      9         26.807278   0.000000
 
 -0.2666667E+00  0.6666667E-01  0.1262379E-14  0.7111111E-02
      1          0.223084   1.000000
      2          3.099605   1.000000
      3          3.395292   1.000000
      4          3.444489   1.000000
      5          4.005715   1.000000
      6          4.269869   1.000000
      7         15.623631   0.000000
      8         23.438486   0.000000
      9         27.592622   0.000000
 
 -0.2000000E+00  0.6666667E-01  0.1262379E-14  0.7111111E-02
      1         -0.703099   1.000000
      2          3.077053   1.000000
      3          3.437911   1.000000
      4          3.475289   1.000000
      5          3.883915   1.000000
      6          4.108694   1.000000
      7         18.613854   0.000000
      8         23.803422   0.000000
      9         28.347978   0.000000
 
 -0.1333333E+00  0.6666667E-01  0.1262379E-14  0.7111111E-02
      1         -1.469991   1.000000
      2          3.146811   1.000000
      3          3.427323   1.000000
      4          3.432450   1.000000
      5          3.864280   1.000000
      6          4.014545   1.000000
      7         21.795248   0.000000
      8         24.401513   0.000000
      9         28.755226   0.000000
 
 -0.6666667E-01  0.6666667E-01  0.1262379E-14  0.3555556E-02
      1         -1.990507   1.000000
      2          3.227043   1.000000
      3          3.362271   1.000000
      4          3.373655   1.000000
      5          3.908015   1.000000
      6          3.977321   1.000000
      7         24.819773   0.000000
      8         25.480373   0.000000
      9         28.511431   0.000000
 
  0.1333333E+00  0.1333333E+00  0.1262379E-14  0.1777778E-02
      1         -1.608938   1.000000
      2          3.111690   1.000000
      3          3.464423   1.000000
      4          3.464426   1.000000
      5          3.797493   1.000000
      6          4.035243   1.000000
      7         25.010941   0.000000
      8         25.010947   0.000000
      9         25.335983   0.000000
 
  0.2000000E+00  0.1333333E+00  0.1262379E-14  0.7111111E-02
      1         -1.098611   1.000000
      2          3.017816   1.000000
      3          3.521773   1.000000
      4          3.542790   1.000000
      5          3.767233   1.000000
      6          4.075560   1.000000
      7         22.066117   0.000000
      8         24.033019   0.000000
      9         25.407283   0.000000
 
  0.2666667E+00  0.1333333E+00  0.1262379E-14  0.7111111E-02
      1         -0.351164   1.000000
      2          2.934866   1.000000
      3          3.457414   1.000000
      4          3.584177   1.000000
      5          3.918847   1.000000
      6          4.152112   1.000000
      7         18.913196   0.000000
      8         23.325056   0.000000
      9         25.024498   0.000000
 
  0.3333333E+00  0.1333333E+00  0.1262379E-14  0.7111111E-02
      1          0.541315   1.000000
      2          2.916464   1.000000
      3          3.344897   1.000000
      4          3.568175   1.000000
      5          4.223927   1.000000
      6          4.265929   1.000000
      7         15.930385   0.000000
      8         22.904157   0.000000
      9         24.396601   0.000000
 
  0.4000000E+00  0.1333333E+00  0.1262379E-14  0.7111111E-02
      1          1.344771   1.000000
      2          3.047649   1.000000
      3          3.265862   1.000000
      4          3.520139   1.000000
      5          4.372602   1.000000
      6          4.731077   1.000000
      7         13.191232   0.000000
      8         22.789817   0.000000
      9         23.194545   0.000000
 
  0.4666667E+00  0.1333333E+00  0.1262379E-14  0.7111111E-02
      1          1.763899   1.000000
      2          3.123752   1.000000
      3          3.451168   1.000000
      4          3.470488   1.000000
      5          4.427408   1.000000
      6          5.622250   1.006998
      7         10.797888  -0.000000
      8         22.071241   0.000000
      9         23.000068   0.000000
 
 -0.4666667E+00  0.1333333E+00  0.1262379E-14  0.7111111E-02
      1          1.877370   1.000000
      2          3.114586   1.000000
      3          3.439674   1.000000
      4          3.652046   1.000000
      5          4.406028   1.000000
      6          6.604506  -0.000189
      7          9.238844  -0.000000
      8         21.201203   0.000000
      9         23.545193   0.000000
 
 -0.4000000E+00  0.1333333E+00  0.1262379E-14  0.7111111E-02
      1          1.832352   1.000000
      2          3.146622   1.000000
      3          3.438851   1.000000
      4          3.593162   1.000000
      5          4.306673   1.000000
      6          6.041539   0.452759
      7         10.137348  -0.000000
      8         20.615430   0.000000
      9         24.422688   0.000000
 
 -0.3333333E+00  0.1333333E+00  0.1262379E-14  0.7111111E-02
      1          1.547332   1.000000
      2          3.217580   1.000000
      3          3.275804   1.000000
      4          3.470890   1.000000
      5          4.147081   1.000000
      6          5.128543   1.000000
      7         12.362814   0.000000
      8         20.321207   0.000000
      9         25.616770   0.000000
 
 -0.2666667E+00  0.1333333E+00  0.1262379E-14  0.7111111E-02
      1          0.846962   1.000000
      2          3.018858   1.000000
      3          3.312533   1.000000
      4          3.529482   1.000000
      5          3.959533   1.000000
      6          4.630878   1.000000
      7         15.004499   0.000000
      8         20.313153   0.000000
      9         27.207244   0.000000
 
 -0.2000000E+00  0.1333333E+00  0.1262379E-14  0.7111111E-02
      1         -0.059718   1.000000
      2          2.986396   1.000000
      3          3.398360   1.000000
      4          3.584032   1.000000
      5          3.798459   1.000000
      6          4.337623   1.000000
      7         17.911386   0.000000
      8         20.582819   0.000000
      9         28.626901   0.000000
 
 -0.1333333E+00  0.1333333E+00  0.1262379E-14  0.3555556E-02
      1         -0.874310   1.000000
      2          3.056023   1.000000
      3          3.443293   1.000000
      4          3.529221   1.000000
      5          3.786455   1.000000
      6          4.137524   1.000000
      7         20.815680   0.000000
      8         21.326812   0.000000
      9         29.777832   0.000000
 
  0.2000000E+00  0.2000000E+00  0.1262379E-14  0.1777778E-02
      1         -0.693820   1.000000
      2          2.907468   1.000000
      3          3.652929   1.000000
      4          3.655794   1.000000
      5          3.655797   1.000000
      6          4.113861   1.000000
      7         22.907741   0.000000
      8         22.907747   0.000000
      9         24.217573   0.000000
 
  0.2666667E+00  0.2000000E+00  0.1262379E-14  0.7111111E-02
      1         -0.056890   1.000000
      2          2.801959   1.000000
      3          3.522486   1.000000
      4          3.741931   1.000000
      5          3.880073   1.000000
      6          4.176560   1.000000
      7         20.365077   0.000000
      8         22.064969   0.000000
      9         23.871904   0.000000
 
  0.3333333E+00  0.2000000E+00  0.1262379E-14  0.7111111E-02
      1          0.732945   1.000000
      2          2.731536   1.000000
      3          3.387564   1.000000
      4          3.757348   1.000000
      5          4.248243   1.000000
      6          4.282164   1.000000
      7         17.390200   0.000000
      8         21.527935   0.000000
      9         22.312045   0.000000
 
  0.4000000E+00  0.2000000E+00  0.1262379E-14  0.7111111E-02
      1          1.493827   1.000000
      2          2.739745   1.000000
      3          3.280035   1.000000
      4          3.721523   1.000000
      5          4.387455   1.000000
      6          4.866185   1.000000
      7         14.578700   0.000000
      8         20.843871   0.000000
      9         21.319819   0.000000
 
  0.4666667E+00  0.2000000E+00  0.1262379E-14  0.7111111E-02
      1          1.962414   1.000000
      2          2.835480   1.000000
      3          3.264307   1.000000
      4          3.669836   1.000000
      5          4.440506   1.000000
      6          5.887982   0.963948
      7         12.029172   0.000000
      8         19.602339   0.000000
      9         21.458487   0.000000
 
 -0.4666667E+00  0.2000000E+00  0.1262379E-14  0.7111111E-02
      1          2.131052   1.000000
      2          2.898629   1.000000
      3          3.349125   1.000000
      4          3.625793   1.000000
      5          4.415201   1.000000
      6          7.254463  -0.000000
      7          9.928160  -0.000000
      8         18.619392   0.000000
      9         21.949852   0.000000
 
 -0.4000000E+00  0.2000000E+00  0.1262379E-14  0.7111111E-02
      1          2.158324   1.000000
      2          2.951212   1.000000
      3          3.342085   1.000000
      4          3.603545   1.000000
      5          4.310514   1.000000
      6          7.295656  -0.000000
      7          9.942374  -0.000000
      8         17.914783   0.000000
      9         22.783846   0.000000
 
 -0.3333333E+00  0.2000000E+00  0.1262379E-14  0.7111111E-02
      1          2.034455   1.000000
      2          3.045150   1.000000
      3          3.146973   1.000000
      4          3.610387   1.000000
      5          4.145147   1.000000
      6          6.047889   0.426122
      7         12.063441   0.000000
      8         17.502532   0.000000
      9         23.935592   0.000000
 
 -0.2666667E+00  0.2000000E+00  0.1262379E-14  0.7111111E-02
      1          1.558919   1.000000
      2          2.942567   1.000000
      3          3.172302   1.000000
      4          3.647014   1.000000
      5          3.949528   1.000000
      6          5.184485   1.000000
      7         14.614411   0.000000
      8         17.393270   0.000000
      9         25.369694   0.000000
 
 -0.2000000E+00  0.2000000E+00  0.1262379E-14  0.3555556E-02
      1          0.754664   1.000000
      2          2.916240   1.000000
      3          3.301124   1.000000
      4          3.698856   1.000000
      5          3.766378   1.000000
      6          4.673225   1.000000
      7         17.198360   0.000000
      8         17.806717   0.000000
      9         27.041084   0.000000
 
  0.2666667E+00  0.2666667E+00  0.1262379E-14  0.1777778E-02
      1          0.439608   1.000000
      2          2.676785   1.000000
      3          3.626560   1.000000
      4          3.897790   1.000000
      5          3.897793   1.000000
      6          4.204879   1.000000
      7         21.084553   0.000000
      8         21.084560   0.000000
      9         21.994522   0.000000
 
  0.3333333E+00  0.2666667E+00  0.1262379E-14  0.7111111E-02
      1          1.051990   1.000000
      2          2.579482   1.000000
      3          3.607547   1.000000
      4          3.972010   1.000000
      5          4.223218   1.000000
      6          4.284780   1.000000
      7         18.922005   0.000000
      8         20.228654   0.000000
      9         20.416482   0.000000
 
  0.4000000E+00  0.2666667E+00  0.1262379E-14  0.7111111E-02
      1          1.631420   1.000000
      2          2.534532   1.000000
      3          3.517559   1.000000
      4          3.956927   1.000000
      5          4.393228   1.000000
      6          4.939687   1.000000
      7         16.172173   0.000000
      8         18.661597   0.000000
      9         20.091307   0.000000
 
  0.4666667E+00  0.2666667E+00  0.1262379E-14  0.7111111E-02
      1          2.036003   1.000000
      2          2.559786   1.000000
      3          3.430066   1.000000
      4          3.908207   1.000000
      5          4.452668   1.000000
      6          6.088053   0.266760
      7         13.556027   0.000000
      8         17.337092   0.000000
      9         20.131117   0.000000
 
 -0.4666667E+00  0.2666667E+00  0.1262379E-14  0.7111111E-02
      1          2.259460   1.000000
      2          2.634347   1.000000
      3          3.357503   1.000000
      4          3.854093   1.000000
      5          4.430702   1.000000
      6          7.629897  -0.000000
      7         11.211509  -0.000000
      8         16.270061   0.000000
      9         20.541438   0.000000
 
 -0.4000000E+00  0.2666667E+00  0.1262379E-14  0.7111111E-02
      1          2.383966   1.000000
      2          2.719578   1.000000
      3          3.261995   1.000000
      4          3.807706   1.000000
      5          4.329818   1.000000
      6          8.743777  -0.000000
      7          9.953619  -0.000000
      8         15.479327   0.000000
      9         21.307475   0.000000
 
 -0.3333333E+00  0.2666667E+00  0.1262379E-14  0.7111111E-02
      1          2.402010   1.000000
      2          2.838856   1.000000
      3          3.092692   1.000000
      4          3.772541   1.000000
      5          4.177273   1.000000
      6          7.280939  -0.000000
      7         11.920732   0.000000
      8         15.001346   0.000000
      9         22.397328   0.000000
 
 -0.2666667E+00  0.2666667E+00  0.1262379E-14  0.3555556E-02
      1          2.155310   1.000000
      2          2.941197   1.000000
      3          3.001860   1.000000
      4          3.733515   1.000000
      5          4.024872   1.000000
      6          6.032275   0.491876
      7         14.047140   0.000000
      8         15.144464   0.000000
      9         23.768599   0.000000
 
  0.3333333E+00  0.3333333E+00  0.1262379E-14  0.1777778E-02
      1          1.403782   1.000000
      2          2.459956   1.000000
      3          4.118684   1.000000
      4          4.155729   1.000000
      5          4.155732   1.000000
      6          4.292602   1.000000
      7         18.352103   0.000000
      8         19.612897   0.000000
      9         19.612903   0.000000
 
  0.4000000E+00  0.3333333E+00  0.1262379E-14  0.7111111E-02
      1          1.708162   1.000000
      2          2.388503   1.000000
      3          4.021928   1.000000
      4          4.188455   1.000000
      5          4.387253   1.000000
      6          5.026563   1.000000
      7         16.719587   0.000000
      8         17.801696   0.000000
      9         19.157361   0.000000
 
  0.4666667E+00  0.3333333E+00  0.1262379E-14  0.7111111E-02
      1          1.950242   1.000000
      2          2.379920   1.000000
      3          3.862263   1.000000
      4          4.146405   1.000000
      5          4.462863   1.000000
      6          6.290862  -0.034621
      7         15.276580   0.000000
      8         15.376262   0.000000
      9         19.079937   0.000000
 
 -0.4666667E+00  0.3333333E+00  0.1262379E-14  0.7111111E-02
      1          2.152258   1.000000
      2          2.434083   1.000000
      3          3.671811   1.000000
      4          4.086764   1.000000
      5          4.452686   1.000000
      6          7.867279  -0.000000
      7         12.905534   0.000000
      8         14.255986   0.000000
      9         19.390391   0.000000
 
 -0.4000000E+00  0.3333333E+00  0.1262379E-14  0.7111111E-02
      1          2.337703   1.000000
      2          2.530252   1.000000
      3          3.452447   1.000000
      4          4.013650   1.000000
      5          4.368329   1.000000
      6          9.648865  -0.000000
      7         10.763034  -0.000000
      8         13.501182   0.000000
      9         20.073050   0.000000
 
 -0.3333333E+00  0.3333333E+00  0.1262379E-14  0.3555556E-02
      1          2.480723   1.000000
      2          2.654321   1.000000
      3          3.221846   1.000000
      4          3.914230   1.000000
      5          4.257217   1.000000
      6          8.838341  -0.000000
      7         11.371183   0.000000
      8         13.422890   0.000000
      9         21.091335   0.000000
 
  0.4000000E+00  0.4000000E+00  0.1262379E-14  0.1777778E-02
      1          1.768005   1.000000
      2          2.293154   1.000000
      3          4.361711   1.000000
      4          4.379288   1.000000
      5          4.379292   1.000000
      6          5.518298   1.000881
      7         15.055295   0.000000
      8         18.567110   0.000000
      9         18.567117   0.000000
 
  0.4666667E+00  0.4000000E+00  0.1262379E-14  0.7111111E-02
      1          1.854406   1.000000
      2          2.260430   1.000000
      3          4.311325   1.000000
      4          4.331457   1.000000
      5          4.476073   1.000000
      6          6.623609  -0.000113
      7         13.708021   0.000000
      8         17.081922   0.000000
      9         18.360299   0.000000
 
 -0.4666667E+00  0.4000000E+00  0.1262379E-14  0.7111111E-02
      1          1.983397   1.000000
      2          2.296451   1.000000
      3          4.078817   1.000000
      4          4.274581   1.000000
      5          4.483450   1.000000
      6          7.981117  -0.000000
      7         12.762402   0.000000
      8         14.850346   0.000000
      9         18.554744   0.000000
 
 -0.4000000E+00  0.4000000E+00  0.1262379E-14  0.3555556E-02
      1          2.154005   1.000000
      2          2.392992   1.000000
      3          3.771540   1.000000
      4          4.176029   1.000000
      5          4.428083   1.000000
      6          9.208411  -0.000000
      7         12.489825   0.000000
      8         12.689975   0.000000
      9         19.138280   0.000000
 
  0.4666667E+00  0.4666667E+00  0.1262379E-14  0.1777778E-02
      1          1.820662   1.000000
      2          2.202730   1.000000
      3          4.399676   1.000000
      4          4.511264   1.000000
      5          4.511268   1.000000
      6          7.187535  -0.000000
      7         12.550041   0.000000
      8         18.019999   0.000000
      9         18.020005   0.000000
 
 -0.4666667E+00  0.4666667E+00  0.1262379E-14  0.3555556E-02
      1          1.864531   1.000000
      2          2.215465   1.000000
      3          4.375436   1.000000
      4          4.401541   1.000000
      5          4.517534   1.000000
      6          7.768913  -0.000000
      7         12.138495   0.000000
      8         16.832466   0.000000
      9         18.086363   0.000000
 
  0.2000000E+00  0.1333333E+00  0.6666667E-01  0.7111111E-02
      1         -1.422197   1.000000
      2          3.106636   1.000000
      3          3.454273   1.000000
      4          3.470530   1.000000
      5          3.817942   1.000000
      6          4.040113   1.000000
      7         22.863523   0.000000
      8         23.381930   0.000000
      9         27.690392   0.000000
 
  0.2666667E+00  0.1333333E+00  0.6666667E-01  0.1422222E-01
      1         -0.741277   1.000000
      2          3.020017   1.000000
      3          3.454661   1.000000
      4          3.544528   1.000000
      5          3.820411   1.000000
      6          4.134227   1.000000
      7         19.858956   0.000000
      8         22.470466   0.000000
      9         27.500334   0.000000
 
  0.3333333E+00  0.1333333E+00  0.6666667E-01  0.1422222E-01
      1          0.131532   1.000000
      2          2.979593   1.000000
      3          3.383923   1.000000
      4          3.542403   1.000000
      5          3.954731   1.000000
      6          4.306642   1.000000
      7         16.805483   0.000000
      8         22.019405   0.000000
      9         26.539923   0.000000
 
  0.4000000E+00  0.1333333E+00  0.6666667E-01  0.1422222E-01
      1          1.021778   1.000000
      2          3.087519   1.000000
      3          3.291234   1.000000
      4          3.493223   1.000000
      5          4.153392   1.000000
      6          4.590545   1.000000
      7         13.977138   0.000000
      8         21.832204   0.000000
      9         25.165636   0.000000
 
  0.4666667E+00  0.1333333E+00  0.6666667E-01  0.1422222E-01
      1          1.600072   1.000000
      2          3.204634   1.000000
      3          3.409664   1.000000
      4          3.471668   1.000000
      5          4.314380   1.000000
      6          5.173947   1.000000
      7         11.456291   0.000000
      8         21.921252   0.000000
      9         23.948182   0.000000
 
 -0.4666667E+00  0.1333333E+00  0.6666667E-01  0.1422222E-01
      1          1.795659   1.000000
      2          3.161632   1.000000
      3          3.405029   1.000000
      4          3.730960   1.000000
      5          4.390834   1.000000
      6          6.143627   0.095653
      7          9.515096  -0.000000
      8         22.295078   0.000000
      9         22.994108   0.000000
 
  0.2666667E+00  0.2000000E+00  0.6666667E-01  0.7111111E-02
      1         -0.519254   1.000000
      2          2.917117   1.000000
      3          3.495531   1.000000
      4          3.657537   1.000000
      5          3.792970   1.000000
      6          4.150754   1.000000
      7         21.093634   0.000000
      8         21.499325   0.000000
      9         26.013574   0.000000
 
  0.3333333E+00  0.2000000E+00  0.6666667E-01  0.1422222E-01
      1          0.263228   1.000000
      2          2.837661   1.000000
      3          3.382619   1.000000
      4          3.708159   1.000000
      5          3.955058   1.000000
      6          4.320457   1.000000
      7         18.196902   0.000000
      8         20.774570   0.000000
      9         24.346284   0.000000
 
  0.4000000E+00  0.2000000E+00  0.6666667E-01  0.1422222E-01
      1          1.115254   1.000000
      2          2.831395   1.000000
      3          3.260188   1.000000
      4          3.675803   1.000000
      5          4.184064   1.000000
      6          4.659446   1.000000
      7         15.300931   0.000000
      8         20.494689   0.000000
      9         22.798561   0.000000
 
  0.4666667E+00  0.2000000E+00  0.6666667E-01  0.1422222E-01
      1          1.754819   1.000000
      2          2.947309   1.000000
      3          3.201159   1.000000
      4          3.623187   1.000000
      5          4.340144   1.000000
      6          5.361157   1.000012
      7         12.652354   0.000000
      8         20.509406   0.000000
      9         21.473613   0.000000
 
 -0.4666667E+00  0.2000000E+00  0.6666667E-01  0.1422222E-01
      1          2.013250   1.000000
      2          2.992065   1.000000
      3          3.349057   1.000000
      4          3.575879   1.000000
      5          4.397800   1.000000
      6          6.521790  -0.001399
      7         10.378292  -0.000000
      8         20.391133   0.000000
      9         20.839781   0.000000
 
 -0.4000000E+00  0.2000000E+00  0.6666667E-01  0.1422222E-01
      1          2.063924   1.000000
      2          2.997018   1.000000
      3          3.440436   1.000000
      4          3.547638   1.000000
      5          4.371659   1.000000
      6          7.244475  -0.000000
      7          9.401073  -0.000000
      8         19.598209   0.000000
      9         21.458042   0.000000
 
 -0.3333333E+00  0.2000000E+00  0.6666667E-01  0.1422222E-01
      1          1.979141   1.000000
      2          3.047825   1.000000
      3          3.285096   1.000000
      4          3.568561   1.000000
      5          4.273745   1.000000
      6          6.147505   0.086483
      7         11.091096  -0.000000
      8         19.090434   0.000000
      9         22.368883   0.000000
 
 -0.2666667E+00  0.2000000E+00  0.6666667E-01  0.1422222E-01
      1          1.609460   1.000000
      2          3.000874   1.000000
      3          3.160490   1.000000
      4          3.613333   1.000000
      5          4.109141   1.000000
      6          5.197788   1.000000
      7         13.520374   0.000000
      8         18.877840   0.000000
      9         23.545617   0.000000
 
 -0.2000000E+00  0.2000000E+00  0.6666667E-01  0.1422222E-01
      1          0.849478   1.000000
      2          2.895058   1.000000
      3          3.276244   1.000000
      4          3.673400   1.000000
      5          3.906354   1.000000
      6          4.664161   1.000000
      7         16.258759   0.000000
      8         18.960548   0.000000
      9         24.962244   0.000000
 
 -0.1333333E+00  0.2000000E+00  0.6666667E-01  0.7111111E-02
      1         -0.013441   1.000000
      2          2.931373   1.000000
      3          3.388017   1.000000
      4          3.680576   1.000000
      5          3.772192   1.000000
      6          4.342591   1.000000
      7         19.023881   0.000000
      8         19.529209   0.000000
      9         26.582271   0.000000
 
  0.3333333E+00  0.2666667E+00  0.6666667E-01  0.7111111E-02
      1          0.592641   1.000000
      2          2.700270   1.000000
      3          3.454578   1.000000
      4          3.897355   1.000000
      5          3.989731   1.000000
      6          4.308135   1.000000
      7         19.545559   0.000000
      8         19.886519   0.000000
      9         22.188249   0.000000
 
  0.4000000E+00  0.2666667E+00  0.6666667E-01  0.1422222E-01
      1          1.311230   1.000000
      2          2.641919   1.000000
      3          3.345026   1.000000
      4          3.913691   1.000000
      5          4.203213   1.000000
      6          4.694933   1.000000
      7         16.826342   0.000000
      8         19.357488   0.000000
      9         20.546149   0.000000
 
  0.4666667E+00  0.2666667E+00  0.6666667E-01  0.1422222E-01
      1          1.895172   1.000000
      2          2.659313   1.000000
      3          3.253543   1.000000
      4          3.859928   1.000000
      5          4.358743   1.000000
      6          5.513701   1.000792
      7         14.112732   0.000000
      8         19.127264   0.000000
      9         19.285084   0.000000
 
 -0.4666667E+00  0.2666667E+00  0.6666667E-01  0.1422222E-01
      1          2.199946   1.000000
      2          2.731696   1.000000
      3          3.235043   1.000000
      4          3.795962   1.000000
      5          4.412686   1.000000
      6          6.806032  -0.000000
      7         11.659627   0.000000
      8         17.968598   0.000000
      9         19.525813   0.000000
 
 -0.4000000E+00  0.2666667E+00  0.6666667E-01  0.1422222E-01
      1          2.321524   1.000000
      2          2.778289   1.000000
      3          3.253294   1.000000
      4          3.742476   1.000000
      5          4.377521   1.000000
      6          8.267410  -0.000000
      7          9.773026  -0.000000
      8         17.071861   0.000000
      9         20.086339   0.000000
 
 -0.3333333E+00  0.2666667E+00  0.6666667E-01  0.1422222E-01
      1          2.336875   1.000000
      2          2.845859   1.000000
      3          3.158978   1.000000
      4          3.727017   1.000000
      5          4.269038   1.000000
      6          7.400618  -0.000000
      7         10.934013  -0.000000
      8         16.459337   0.000000
      9         20.940897   0.000000
 
 -0.2666667E+00  0.2666667E+00  0.6666667E-01  0.1422222E-01
      1          2.161162   1.000000
      2          2.933880   1.000000
      3          2.991516   1.000000
      4          3.749978   1.000000
      5          4.106202   1.000000
      6          6.090910   0.256328
      7         13.274194   0.000000
      8         16.155268   0.000000
      9         22.059097   0.000000
 
 -0.2000000E+00  0.2666667E+00  0.6666667E-01  0.7111111E-02
      1          1.613630   1.000000
      2          2.856181   1.000000
      3          3.130877   1.000000
      4          3.772105   1.000000
      5          3.935201   1.000000
      6          5.211336   1.000000
      7         15.644830   0.000000
      8         16.419944   0.000000
      9         23.410339   0.000000
 
  0.4000000E+00  0.3333333E+00  0.6666667E-01  0.7111111E-02
      1          1.526711   1.000000
      2          2.495411   1.000000
      3          3.648623   1.000000
      4          4.154579   1.000000
      5          4.230094   1.000000
      6          4.725972   1.000000
      7         18.272965   0.000000
      8         18.501222   0.000000
      9         18.596468   0.000000
 
  0.4666667E+00  0.3333333E+00  0.6666667E-01  0.1422222E-01
      1          1.908407   1.000000
      2          2.469712   1.000000
      3          3.570974   1.000000
      4          4.122263   1.000000
      5          4.366472   1.000000
      6          5.668196   1.014020
      7         15.780291   0.000000
      8         17.025915   0.000000
      9         18.273654   0.000000
 
 -0.4666667E+00  0.3333333E+00  0.6666667E-01  0.1422222E-01
      1          2.169677   1.000000
      2          2.508532   1.000000
      3          3.463056   1.000000
      4          4.038583   1.000000
      5          4.433505   1.000000
      6          7.048940  -0.000000
      7         13.272759   0.000000
      8         15.798868   0.000000
      9         18.425889   0.000000
 
 -0.4000000E+00  0.3333333E+00  0.6666667E-01  0.1422222E-01
      1          2.357127   1.000000
      2          2.580145   1.000000
      3          3.338486   1.000000
      4          3.954593   1.000000
      5          4.406617   1.000000
      6          8.757659  -0.000000
      7         11.027703  -0.000000
      8         14.843229   0.000000
      9         18.913310   0.000000
 
 -0.3333333E+00  0.3333333E+00  0.6666667E-01  0.1422222E-01
      1          2.508570   1.000000
      2          2.652507   1.000000
      3          3.174505   1.000000
      4          3.888552   1.000000
      5          4.309716   1.000000
      6          8.936655  -0.000000
      7         10.873721  -0.000000
      8         14.206307   0.000000
      9         19.706898   0.000000
 
 -0.2666667E+00  0.3333333E+00  0.6666667E-01  0.7111111E-02
      1          2.496569   1.000000
      2          2.790700   1.000000
      3          2.993402   1.000000
      4          3.837513   1.000000
      5          4.184953   1.000000
      6          7.340618  -0.000000
      7         12.744586   0.000000
      8         14.224803   0.000000
      9         20.768178   0.000000
 
  0.4666667E+00  0.4000000E+00  0.6666667E-01  0.7111111E-02
      1          1.864939   1.000000
      2          2.337274   1.000000
      3          4.014801   1.000000
      4          4.337977   1.000000
      5          4.378501   1.000000
      6          5.964325   0.763232
      7         15.199184   0.000000
      8         17.352459   0.000000
      9         17.663871   0.000000
 
 -0.4666667E+00  0.4000000E+00  0.6666667E-01  0.1422222E-01
      1          2.020443   1.000000
      2          2.353288   1.000000
      3          3.869437   1.000000
      4          4.246396   1.000000
      5          4.465425   1.000000
      6          7.316205  -0.000000
      7         13.972577   0.000000
      8         15.117945   0.000000
      9         17.585248   0.000000
 
 -0.4000000E+00  0.4000000E+00  0.6666667E-01  0.1422222E-01
      1          2.188534   1.000000
      2          2.430595   1.000000
      3          3.654419   1.000000
      4          4.138402   1.000000
      5          4.457545   1.000000
      6          8.895371  -0.000000
      7         12.829142   0.000000
      8         13.109825   0.000000
      9         17.982847   0.000000
 
 -0.3333333E+00  0.4000000E+00  0.6666667E-01  0.7111111E-02
      1          2.372911   1.000000
      2          2.540088   1.000000
      3          3.394907   1.000000
      4          4.024383   1.000000
      5          4.387146   1.000000
      6         10.342662  -0.000000
      7         10.755656  -0.000000
      8         12.930394   0.000000
      9         18.705614   0.000000
 
 -0.4666667E+00  0.4666667E+00  0.6666667E-01  0.7111111E-02
      1          1.905203   1.000000
      2          2.251498   1.000000
      3          4.232971   1.000000
      4          4.354694   1.000000
      5          4.511239   1.000000
      6          7.611974  -0.000000
      7         12.653621   0.000000
      8         16.865003   0.000000
      9         17.178757   0.000000
 
 -0.4000000E+00  0.4666667E+00  0.6666667E-01  0.7111111E-02
      1          2.020143   1.000000
      2          2.312597   1.000000
      3          3.994616   1.000000
      4          4.265190   1.000000
      5          4.509931   1.000000
      6          8.542241  -0.000000
      7         12.312742   0.000000
      8         14.886787   0.000000
      9         17.348444   0.000000
 
  0.4000000E+00  0.2666667E+00  0.1333333E+00  0.7111111E-02
      1          1.021342   1.000000
      2          2.765743   1.000000
      3          3.257604   1.000000
      4          3.902820   1.000000
      5          3.912938   1.000000
      6          4.676304   1.000000
      7         17.498582   0.000000
      8         18.043596   0.000000
      9         22.658745   0.000000
 
  0.4666667E+00  0.2666667E+00  0.1333333E+00  0.1422222E-01
      1          1.744326   1.000000
      2          2.767252   1.000000
      3          3.123697   1.000000
      4          3.842975   1.000000
      5          4.122011   1.000000
      6          5.283319   1.000001
      7         14.912338   0.000000
      8         17.649811   0.000000
      9         21.167367   0.000000
 
 -0.4666667E+00  0.2666667E+00  0.1333333E+00  0.1422222E-01
      1          2.173935   1.000000
      2          2.844834   1.000000
      3          3.076672   1.000000
      4          3.774126   1.000000
      5          4.283524   1.000000
      6          6.313161  -0.031248
      7         12.358537   0.000000
      8         17.768963   0.000000
      9         19.914504   0.000000
 
 -0.4000000E+00  0.2666667E+00  0.1333333E+00  0.1422222E-01
      1          2.310092   1.000000
      2          2.821111   1.000000
      3          3.204657   1.000000
      4          3.719615   1.000000
      5          4.361701   1.000000
      6          7.732101  -0.000000
      7         10.186988  -0.000000
      8         18.196231   0.000000
      9         18.918175   0.000000
 
  0.4666667E+00  0.3333333E+00  0.1333333E+00  0.7111111E-02
      1          1.857195   1.000000
      2          2.601061   1.000000
      3          3.250251   1.000000
      4          4.098267   1.000000
      5          4.153103   1.000000
      6          5.399968   1.000039
      7         16.269370   0.000000
      8         16.888292   0.000000
      9         18.974863   0.000000
 
 -0.4666667E+00  0.3333333E+00  0.1333333E+00  0.1422222E-01
      1          2.231338   1.000000
      2          2.631689   1.000000
      3          3.156332   1.000000
      4          4.012001   1.000000
      5          4.311742   1.000000
      6          6.519806  -0.001461
      7         13.893965   0.000000
      8         16.676940   0.000000
      9         17.648543   0.000000
 
 -0.4000000E+00  0.3333333E+00  0.1333333E+00  0.1422222E-01
      1          2.430569   1.000000
      2          2.669523   1.000000
      3          3.122115   1.000000
      4          3.914952   1.000000
      5          4.390072   1.000000
      6          8.048583  -0.000000
      7         11.540125   0.000000
      8         16.563617   0.000000
      9         17.020763   0.000000
 
 -0.3333333E+00  0.3333333E+00  0.1333333E+00  0.1422222E-01
      1          2.567369   1.000000
      2          2.642972   1.000000
      3          3.092025   1.000000
      4          3.860421   1.000000
      5          4.379708   1.000000
      6          9.178505  -0.000000
      7         10.223108  -0.000000
      8         15.764809   0.000000
      9         17.658484   0.000000
 
 -0.2666667E+00  0.3333333E+00  0.1333333E+00  0.1422222E-01
      1          2.516699   1.000000
      2          2.754882   1.000000
      3          2.953252   1.000000
      4          3.881953   1.000000
      5          4.292350   1.000000
      6          7.583856  -0.000000
      7         12.253881   0.000000
      8         15.268524   0.000000
      9         18.579359   0.000000
 
 -0.2000000E+00  0.3333333E+00  0.1333333E+00  0.7111111E-02
      1          2.262406   1.000000
      2          2.772635   1.000000
      3          2.960656   1.000000
      4          3.926783   1.000000
      5          4.158349   1.000000
      6          6.232329  -0.026122
      7         14.393472   0.000000
      8         15.380396   0.000000
      9         19.754903   0.000000
 
 -0.4666667E+00  0.4000000E+00  0.1333333E+00  0.7111111E-02
      1          2.122580   1.000000
      2          2.471137   1.000000
      3          3.494579   1.000000
      4          4.190895   1.000000
      5          4.376623   1.000000
      6          6.826154  -0.000000
      7         15.389477   0.000000
      8         15.631608   0.000000
      9         16.102234   0.000000
 
 -0.4000000E+00  0.4000000E+00  0.1333333E+00  0.1422222E-01
      1          2.287094   1.000000
      2          2.538265   1.000000
      3          3.368853   1.000000
      4          4.081072   1.000000
      5          4.451927   1.000000
      6          8.342987  -0.000000
      7         13.246833   0.000000
      8         14.532969   0.000000
      9         16.083750   0.000000
 
 -0.3333333E+00  0.4000000E+00  0.1333333E+00  0.1422222E-01
      1          2.435496   1.000000
      2          2.628785   1.000000
      3          3.206966   1.000000
      4          3.975481   1.000000
      5          4.447775   1.000000
      6         10.103542  -0.000000
      7         11.101652  -0.000000
      8         13.748980   0.000000
      9         16.632664   0.000000
 
 -0.2666667E+00  0.4000000E+00  0.1333333E+00  0.7111111E-02
      1          2.573807   1.000000
      2          2.699678   1.000000
      3          3.012340   1.000000
      4          3.920438   1.000000
      5          4.375789   1.000000
      6          9.174591  -0.000000
      7         11.796214   0.000000
      8         13.636532   0.000000
      9         17.477879   0.000000
 
 -0.4000000E+00  0.4666667E+00  0.1333333E+00  0.7111111E-02
      1          2.126668   1.000000
      2          2.399944   1.000000
      3          3.718147   1.000000
      4          4.192155   1.000000
      5          4.511117   1.000000
      6          8.602593  -0.000000
      7         12.985374   0.000000
      8         14.925017   0.000000
      9         15.682686   0.000000
 
 -0.3333333E+00  0.4666667E+00  0.1333333E+00  0.7111111E-02
      1          2.266710   1.000000
      2          2.508196   1.000000
      3          3.477667   1.000000
      4          4.081469   1.000000
      5          4.509703   1.000000
      6          9.771250  -0.000000
      7         12.695128   0.000000
      8         13.022965   0.000000
      9         15.879300   0.000000
 
 -0.4000000E+00  0.4000000E+00  0.2000000E+00  0.7111111E-02
      1          2.430104   1.000000
      2          2.697129   1.000000
      3          3.040319   1.000000
      4          4.004826   1.000000
      5          4.374721   1.000000
      6          7.887164  -0.000000
      7         13.495818   0.000000
      8         14.685228   0.000000
      9         16.410983   0.000000
 
 -0.3333333E+00  0.4000000E+00  0.2000000E+00  0.1422222E-01
      1          2.503807   1.000000
      2          2.777072   1.000000
      3          2.976985   1.000000
      4          3.937340   1.000000
      5          4.446886   1.000000
      6          9.580808  -0.000000
      7         11.597576   0.000000
      8         14.731132   0.000000
      9         15.436004   0.000000
 
 -0.3333333E+00  0.4666667E+00  0.2000000E+00  0.7111111E-02
      1          2.374678   1.000000
      2          2.653351   1.000000
      3          3.212643   1.000000
      4          4.002823   1.000000
      5          4.510773   1.000000
      6          9.879590  -0.000000
      7         13.019951   0.000000
      8         13.597905   0.000000
      9         14.353455   0.000000
 
 -0.2666667E+00  0.4666667E+00  0.2000000E+00  0.7111111E-02
      1          2.448605   1.000000
      2          2.803535   1.000000
      3          3.015217   1.000000
      4          3.942413   1.000000
      5          4.510256   1.000000
      6         11.285684  -0.000000
      7         11.354486   0.000000
      8         13.350914   0.000000
      9         14.572616   0.000000
