 vasp.6.4.2 20Jul23 (build Mar  2 2025 11:04:54) complex                         
 executed on              LinuxNV date 2026.04.07  00:05:25
 running    1 mpi-ranks, with    2 threads/rank, on    1 nodes
 distrk:  each k-point on    1 cores,    1 groups
 distr:  one band on NCORE=   1 cores,    1 groups
 OpenACC runtime initialized ...    1 GPUs detected


--------------------------------------------------------------------------------------------------------


 INCAR:
   SYSTEM = static single-point for EOS
   PREC = Accurate
   ENCUT = 430
   KSPACING = 0.25
   KGAMMA = .TRUE.
   ISMEAR = 0
   SIGMA = 0.05
   EDIFF = 1E-6
   NSW = 0
   ISIF = 2
   IBRION = -1
   LWAVE = .FALSE.
   LCHARG = .FALSE.

 POTCAR:    PAW_PBE Sr_sv 07Sep2000               
 POTCAR:    PAW_PBE Sr_sv 07Sep2000               
   SHA256 =  a8389d3481648516ee67182ee030b298d280b37e29cbbf2d8595f040d757c710 Sr_sv/POTCAR          
   COPYR  = (c) Copyright 07Sep2000 Georg Kresse                                                    
   COPYR  = This file is part of the software VASP. Any use, copying, and all other rights are regul
   COPYR  = If you do not have a valid VASP license, you may not use, copy or distribute this file. 
   VRHFIN =Sr: 4s4p5s                                                                               
   LEXCH  = PE                                                                                      
   EATOM  =   843.0319 eV,   61.9611 Ry                                                             
                                                                                                    
   TITEL  = PAW_PBE Sr_sv 07Sep2000                                                                 
   LULTRA =        F    use ultrasoft PP ?                                                          
   IUNSCR =        1    unscreen: 0-lin 1-nonlin 2-no                                               
   RPACOR =    2.200    partial core radius                                                         
   POMASS =   87.620; ZVAL   =   10.000    mass and valenz                                          
   RCORE  =    2.500    outmost cutoff radius                                                       
   RWIGS  =    4.040; RWIGS  =    2.138    wigner-seitz radius (au A)                               
   ENMAX  =  229.353; ENMIN  =  172.014 eV                                                          
   RCLOC  =    2.201    cutoff for local pot                                                        
   LCOR   =        T    correct aug charges                                                         
   LPAW   =        T    paw PP                                                                      
   EAUG   =  366.804                                                                                
   DEXC   =    0.000                                                                                
   RMAX   =    2.547    core radius for proj-oper                                                   
   RAUG   =    1.300    factor for augmentation sphere                                              
   RDEP   =    2.562    radius for radial grids                                                     
   RDEPT  =    2.128    core radius for aug-charge                                                  
                                                                                                    
   Atomic configuration                                                                             
   10 entries                                                                                       
     n  l   j            E        occ.                                                              
     1  0  0.50    -15934.8930   2.0000                                                             
     2  0  0.50     -2157.6250   2.0000                                                             
     2  1  1.50     -1917.0034   6.0000                                                             
     3  0  0.50      -333.7288   2.0000                                                             
     3  1  1.50      -256.0992   6.0000                                                             
     3  2  2.50      -127.9971  10.0000                                                             
     4  0  0.50       -40.8953   2.0000                                                             
     5  0  0.50        -3.5257   1.9990                                                             
     4  1  1.50       -22.8179   6.0000                                                             
     4  2  1.50        -1.2815   0.0010                                                             
   Description                                                                                      
     l       E           TYP  RCUT    TYP  RCUT                                                     
     0    -40.8953213     23  2.480                                                                 
     0     -3.5257161     23  2.480                                                                 
     1    -22.8178632     23  2.500                                                                 
     1    -24.1784458     23  2.500                                                                 
     2     -1.2814598     23  2.500                                                                 
     2      0.2279365     23  2.500                                                                 
  local pseudopotential read in
  partial core-charges read in
  partial kinetic energy density read in
  atomic valenz-charges read in
  non local Contribution for L=            0  read in
    real space projection operators read in
  non local Contribution for L=            0  read in
    real space projection operators read in
  non local Contribution for L=            1  read in
    real space projection operators read in
  non local Contribution for L=            1  read in
    real space projection operators read in
  non local Contribution for L=            2  read in
    real space projection operators read in
  non local Contribution for L=            2  read in
    real space projection operators read in
    PAW grid and wavefunctions read in
 
   number of l-projection  operators is LMAX  =            6
   number of lm-projection operators is LMMAX =           18
 
  PAW_PBE Sr_sv 07Sep2000               :
 energy of atom  1       EATOM= -843.0319
 kinetic energy error for atom=    0.0024 (will be added to EATOM!!)
 
 
 POSCAR: Sr1
  positions in direct lattice
  No initial velocities read in
 exchange correlation table for  LEXCH =        8
   RHO(1)=    0.500       N(1)  =     2000
   RHO(2)=  100.500       N(2)  =     4000
 


--------------------------------------------------------------------------------------------------------


 ion  position               nearest neighbor table
   1  0.000  0.000  0.000-
 
  LATTYP: Found a face centered cubic cell.
 ALAT       =     6.0672044752
  
  Lattice vectors:
  
 A1 = (   3.7153907600,   0.0000000000,   2.1450814200)
 A2 = (   1.2384639300,   3.5029013500,   2.1450814200)
 A3 = (  -0.0000000100,  -0.0000000100,   4.2901638800)


Analysis of symmetry for initial positions (statically):
=====================================================================
 Subroutine PRICEL returns:
 Original cell was already a primitive cell.
 

 Routine SETGRP: Setting up the symmetry group for a 
 face centered cubic supercell.


 Subroutine GETGRP returns: Found 48 space group operations
 (whereof 48 operations were pure point group operations)
 out of a pool of 48 trial point group operations.


The static configuration has the point symmetry O_h .


Analysis of symmetry for dynamics (positions and initial velocities):
=====================================================================
 Subroutine PRICEL returns:
 Original cell was already a primitive cell.
 

 Routine SETGRP: Setting up the symmetry group for a 
 face centered cubic supercell.


 Subroutine GETGRP returns: Found 48 space group operations
 (whereof 48 operations were pure point group operations)
 out of a pool of 48 trial point group operations.


The dynamic configuration has the point symmetry O_h .


 Subroutine INISYM returns: Found 48 space group operations
 (whereof 48 operations are pure point group operations),
 and found     1 'primitive' translations


----------------------------------------------------------------------------------------

                                     Primitive cell                                     

  volume of cell :      55.8350

  direct lattice vectors                    reciprocal lattice vectors
     3.715390760  0.000000000  2.145081420     0.269150693 -0.095159239  0.000000000
     1.238463930  3.502901350  2.145081420    -0.000000000  0.285477637  0.000000001
    -0.000000010 -0.000000010  4.290163880    -0.134575314 -0.095159176  0.233091328

  length of vectors
     4.290163493  4.290161427  4.290163880     0.285477454  0.285477637  0.285477409

  position of ions in fractional coordinates (direct lattice)
     0.000000000  0.000000000  0.000000000

  ion indices of the primitive-cell ions
   primitive index   ion index
                 1           1

----------------------------------------------------------------------------------------

 
 -----------------------------------------------------------------------------
|                                                                             |
|           W    W    AA    RRRRR   N    N  II  N    N   GGGG   !!!           |
|           W    W   A  A   R    R  NN   N  II  NN   N  G    G  !!!           |
|           W    W  A    A  R    R  N N  N  II  N N  N  G       !!!           |
|           W WW W  AAAAAA  RRRRR   N  N N  II  N  N N  G  GGG   !            |
|           WW  WW  A    A  R   R   N   NN  II  N   NN  G    G                |
|           W    W  A    A  R    R  N    N  II  N    N   GGGG   !!!           |
|                                                                             |
|     The requested file  could not be found or opened for reading            |
|     k-point information. Automatic k-point generation is used as a          |
|     fallback, which may lead to unwanted results.                           |
|                                                                             |
 -----------------------------------------------------------------------------

 

Automatic generation of k-mesh.
 Grid dimensions derived from KSPACING:
 generate k-points for:    8    8    8

 Generating k-lattice:

  Cartesian coordinates                     Fractional coordinates (reciprocal lattice)
     0.033643837 -0.011894905  0.000000000     0.125000000  0.000000000  0.000000000
    -0.000000000  0.035684705  0.000000000     0.000000000  0.125000000 -0.000000000
    -0.016821914 -0.011894897  0.029136416    -0.000000000 -0.000000000  0.125000000

  Length of vectors
     0.035684682  0.035684705  0.035684676

  Shift w.r.t. Gamma in fractional coordinates (k-lattice)
     0.000000000  0.000000000  0.000000000

 
 Subroutine IBZKPT returns following result:
 ===========================================
 
 Found     29 irreducible k-points:
 
 Following reciprocal coordinates:
            Coordinates               Weight
  0.000000  0.000000  0.000000      1.000000
  0.125000  0.000000  0.000000      8.000000
  0.250000  0.000000  0.000000      8.000000
  0.375000  0.000000  0.000000      8.000000
  0.500000  0.000000  0.000000      4.000000
  0.125000  0.125000  0.000000      6.000000
  0.250000  0.125000  0.000000     24.000000
  0.375000  0.125000  0.000000     24.000000
  0.500000  0.125000  0.000000     24.000000
 -0.375000  0.125000  0.000000     24.000000
 -0.250000  0.125000  0.000000     24.000000
 -0.125000  0.125000  0.000000     12.000000
  0.250000  0.250000  0.000000      6.000000
  0.375000  0.250000  0.000000     24.000000
  0.500000  0.250000  0.000000     24.000000
 -0.375000  0.250000  0.000000     24.000000
 -0.250000  0.250000  0.000000     12.000000
  0.375000  0.375000  0.000000      6.000000
  0.500000  0.375000  0.000000     24.000000
 -0.375000  0.375000  0.000000     12.000000
  0.500000  0.500000  0.000000      3.000000
  0.375000  0.250000  0.125000     24.000000
  0.500000  0.250000  0.125000     48.000000
 -0.375000  0.250000  0.125000     24.000000
  0.500000  0.375000  0.125000     24.000000
 -0.375000  0.375000  0.125000     48.000000
 -0.250000  0.375000  0.125000     24.000000
 -0.375000  0.500000  0.125000     12.000000
 -0.250000  0.500000  0.250000      6.000000
 
 Following cartesian coordinates:
            Coordinates               Weight
  0.000000  0.000000  0.000000      1.000000
  0.033644 -0.011895  0.000000      8.000000
  0.067288 -0.023790  0.000000      8.000000
  0.100932 -0.035685  0.000000      8.000000
  0.134575 -0.047580  0.000000      4.000000
  0.033644  0.023790  0.000000      6.000000
  0.067288  0.011895  0.000000     24.000000
  0.100932 -0.000000  0.000000     24.000000
  0.134575 -0.011895  0.000000     24.000000
 -0.100932  0.071369 -0.000000     24.000000
 -0.067288  0.059475 -0.000000     24.000000
 -0.033644  0.047580  0.000000     12.000000
  0.067288  0.047580  0.000000      6.000000
  0.100932  0.035685  0.000000     24.000000
  0.134575  0.023790  0.000000     24.000000
 -0.100932  0.107054  0.000000     24.000000
 -0.067288  0.095159  0.000000     12.000000
  0.100932  0.071369  0.000000      6.000000
  0.134575  0.059474  0.000000     24.000000
 -0.100932  0.142739  0.000000     12.000000
  0.134575  0.095159  0.000000      3.000000
  0.084110  0.023790  0.029136     24.000000
  0.117753  0.011895  0.029136     48.000000
 -0.117753  0.095159  0.029136     24.000000
  0.117753  0.047580  0.029136     24.000000
 -0.117753  0.130844  0.029136     48.000000
 -0.084110  0.118949  0.029136     24.000000
 -0.117753  0.166529  0.029136     12.000000
 -0.100932  0.142739  0.058273      6.000000
 


--------------------------------------------------------------------------------------------------------




 Dimension of arrays:
   k-points           NKPTS =     29   k-points in BZ     NKDIM =     29   number of bands    NBANDS=      9
   number of dos      NEDOS =    301   number of ions     NIONS =      1
   non local maximal  LDIM  =      6   non local SUM 2l+1 LMDIM =     18
   total plane-waves  NPLWV =  27000
   max r-space proj   IRMAX =      1   max aug-charges    IRDMAX=  28551
   dimension x,y,z NGX =    30 NGY =   30 NGZ =   30
   dimension x,y,z NGXF=    60 NGYF=   60 NGZF=   60
   support grid    NGXF=    60 NGYF=   60 NGZF=   60
   ions per type =               1
   NGX,Y,Z   is equivalent  to a cutoff of  11.63, 11.63, 11.63 a.u.
   NGXF,Y,Z  is equivalent  to a cutoff of  23.25, 23.25, 23.25 a.u.

 SYSTEM =  static single-point for EOS             
 POSCAR =  Sr1                                     

 Startparameter for this run:
   NWRITE =      2    write-flag & timer
   PREC   = accura    normal or accurate (medium, high low for compatibility)
   ISTART =      0    job   : 0-new  1-cont  2-samecut
   ICHARG =      2    charge: 1-file 2-atom 10-const
   ISPIN  =      1    spin polarized calculation?
   LNONCOLLINEAR =      F non collinear calculations
   LSORBIT =      F    spin-orbit coupling
   INIWAV =      1    electr: 0-lowe 1-rand  2-diag
   LASPH  =      F    aspherical Exc in radial PAW
 Electronic Relaxation 1
   ENCUT  =  430.0 eV  31.60 Ry    5.62 a.u.   7.25  7.25  7.25*2*pi/ulx,y,z
   ENINI  =  430.0     initial cutoff
   ENAUG  =  366.8 eV  augmentation charge cutoff
   NELM   =     60;   NELMIN=  2; NELMDL= -5     # of ELM steps 
   EDIFF  = 0.1E-05   stopping-criterion for ELM
   LREAL  =      F    real-space projection
   NLSPLINE    = F    spline interpolate recip. space projectors
   LCOMPAT=      F    compatible to vasp.4.4
   GGA_COMPAT  = T    GGA compatible to vasp.4.4-vasp.4.6
   LMAXPAW     = -100 max onsite density
   LMAXMIX     =    2 max onsite mixed and CHGCAR
   VOSKOWN=      0    Vosko Wilk Nusair interpolation
   ROPT   =    0.00000
 Ionic relaxation
   EDIFFG = 0.1E-04   stopping-criterion for IOM
   NSW    =      0    number of steps for IOM
   NBLOCK =      1;   KBLOCK =      1    inner block; outer block 
   IBRION =     -1    ionic relax: 0-MD 1-quasi-New 2-CG
   NFREE  =      0    steps in history (QN), initial steepest desc. (CG)
   ISIF   =      2    stress and relaxation
   IWAVPR =     10    prediction:  0-non 1-charg 2-wave 3-comb
   ISYM   =      2    0-nonsym 1-usesym 2-fastsym
   LCORR  =      T    Harris-Foulkes like correction to forces

   POTIM  = 0.5000    time-step for ionic-motion
   TEIN   =    0.0    initial temperature
   TEBEG  =    0.0;   TEEND  =   0.0 temperature during run
   SMASS  =  -3.00    Nose mass-parameter (am)
   estimated Nose-frequenzy (Omega)   =  0.10E-29 period in steps = 0.13E+47 mass=  -0.421E-27a.u.
   SCALEE = 1.0000    scale energy and forces
   NPACO  =    256;   APACO  = 10.0  distance and # of slots for P.C.
   PSTRESS=    0.0 pullay stress

  Mass of Ions in am
   POMASS =  87.62
  Ionic Valenz
   ZVAL   =  10.00
  Atomic Wigner-Seitz radii
   RWIGS  =  -1.00
  virtual crystal weights 
   VCA    =   1.00
   NELECT =      10.0000    total number of electrons
   NUPDOWN=      -1.0000    fix difference up-down

 DOS related values:
   EMIN   =  10.00;   EMAX   =-10.00  energy-range for DOS
   EFERMI =   0.00;   METHOD = LEGACY      
   ISMEAR =     0;   SIGMA  =   0.05  broadening in eV -4-tet -1-fermi 0-gaus

 Electronic relaxation 2 (details)
   IALGO  =     38    algorithm
   LDIAG  =      T    sub-space diagonalisation (order eigenvalues)
   LSUBROT=      F    optimize rotation matrix (better conditioning)
   TURBO    =      0    0=normal 1=particle mesh
   IRESTART =      0    0=no restart 2=restart with 2 vectors
   NREBOOT  =      0    no. of reboots
   NMIN     =      0    reboot dimension
   EREF     =   0.00    reference energy to select bands
   IMIX   =      4    mixing-type and parameters
     AMIX     =   0.40;   BMIX     =  1.00
     AMIX_MAG =   1.60;   BMIX_MAG =  1.00
     AMIN     =   0.10
     WC   =   100.;   INIMIX=   1;  MIXPRE=   1;  MAXMIX= -45

 Intra band minimization:
   WEIMIN = 0.0000     energy-eigenvalue tresh-hold
   EBREAK =  0.28E-07  absolut break condition
   DEPER  =   0.30     relativ break condition  

   TIME   =   0.40     timestep for ELM

  volume/ion in A,a.u.               =      55.83       376.79
  Fermi-wavevector in a.u.,A,eV,Ry     =   0.922797  1.743833 11.586094  0.851554
  Thomas-Fermi vector in A             =   2.048363
 
 Write flags
   LWAVE        =      F    write WAVECAR
   LDOWNSAMPLE  =      F    k-point downsampling of WAVECAR
   LCHARG       =      F    write CHGCAR
   LVTOT        =      F    write LOCPOT, total local potential
   LVHAR        =      F    write LOCPOT, Hartree potential only
   LELF         =      F    write electronic localiz. function (ELF)
   LORBIT       =      0    0 simple, 1 ext, 2 COOP (PROOUT), +10 PAW based schemes


 Dipole corrections
   LMONO  =      F    monopole corrections only (constant potential shift)
   LDIPOL =      F    correct potential (dipole corrections)
   IDIPOL =      0    1-x, 2-y, 3-z, 4-all directions 
   EPSILON=  1.0000000 bulk dielectric constant

 Exchange correlation treatment:
   GGA     =    --    GGA type
   LEXCH   =     8    internal setting for exchange type
   LIBXC   =     F    Libxc                    
   VOSKOWN =     0    Vosko Wilk Nusair interpolation
   LHFCALC =     F    Hartree Fock is set to
   LHFONE  =     F    Hartree Fock one center treatment
   AEXX    =    0.0000 exact exchange contribution

 Linear response parameters
   LEPSILON=     F    determine dielectric tensor
   LRPA    =     F    only Hartree local field effects (RPA)
   LNABLA  =     F    use nabla operator in PAW spheres
   LVEL    =     F    velocity operator in full k-point grid
   CSHIFT  =0.1000    complex shift for real part using Kramers Kronig
   OMEGAMAX=  -1.0    maximum frequency
   DEG_THRESHOLD= 0.2000000E-02 threshold for treating states as degnerate
   RTIME   =   -0.100 relaxation time in fs
  (WPLASMAI=    0.000 imaginary part of plasma frequency in eV, 0.658/RTIME)
   DFIELD  = 0.0000000 0.0000000 0.0000000 field for delta impulse in time
 
  Optional k-point grid parameters
   LKPOINTS_OPT  =     F    use optional k-point grid
   KPOINTS_OPT_MODE=     1    mode for optional k-point grid
 
 Orbital magnetization related:
   ORBITALMAG=     F  switch on orbital magnetization
   LCHIMAG   =     F  perturbation theory with respect to B field
   DQ        =  0.001000  dq finite difference perturbation B field
   LLRAUG    =     F  two centre corrections for induced B field
   LBONE     =     F  B-component reconstruction in AE one-centre
   LVGVCALC  =     T  calculate vGv susceptibility
   LVGVAPPL  =     F  apply vGv susceptibility instead of pGv for G=0

 Random number generation:
   RANDOM_GENERATOR = DEFAULT
   PCG_SEED         = not used


--------------------------------------------------------------------------------------------------------


 Static calculation
 charge density and potential will be updated during run
 non-spin polarized calculation
 Variant of blocked Davidson
 Davidson routine will perform the subspace rotation
 perform sub-space diagonalisation
    after iterative eigenvector-optimisation
 modified Broyden-mixing scheme, WC =      100.0
 initial mixing is a Kerker type mixing with AMIX =  0.4000 and BMIX =      1.0000
 Hartree-type preconditioning will be used
 using additional bands             4
 reciprocal scheme for non local part
 use partial core corrections
 calculate Harris-corrections to forces 
   (improved forces if not selfconsistent)
 use gradient corrections 
 use of overlap-Matrix (Vanderbilt PP)
 Gauss-broadening in eV      SIGMA  =   0.05


--------------------------------------------------------------------------------------------------------


  energy-cutoff  :      430.00
  volume of cell :       55.83
      direct lattice vectors                 reciprocal lattice vectors
     3.715390760  0.000000000  2.145081420     0.269150693 -0.095159239  0.000000000
     1.238463930  3.502901350  2.145081420    -0.000000000  0.285477637  0.000000001
    -0.000000010 -0.000000010  4.290163880    -0.134575314 -0.095159176  0.233091328

  length of vectors
     4.290163493  4.290161427  4.290163880     0.285477454  0.285477637  0.285477409


 
 k-points in units of 2pi/SCALE and weight: read from INCAR                         
   0.00000000  0.00000000  0.00000000       0.002
   0.03364384 -0.01189490  0.00000000       0.016
   0.06728767 -0.02378981  0.00000000       0.016
   0.10093151 -0.03568471  0.00000000       0.016
   0.13457535 -0.04757962  0.00000000       0.008
   0.03364384  0.02378980  0.00000000       0.012
   0.06728767  0.01189489  0.00000000       0.047
   0.10093151 -0.00000001  0.00000000       0.047
   0.13457535 -0.01189491  0.00000000       0.047
  -0.10093151  0.07136942 -0.00000000       0.047
  -0.06728767  0.05947451 -0.00000000       0.047
  -0.03364384  0.04757961  0.00000000       0.023
   0.06728767  0.04757960  0.00000000       0.012
   0.10093151  0.03568469  0.00000000       0.047
   0.13457535  0.02378979  0.00000000       0.047
  -0.10093151  0.10705412  0.00000000       0.047
  -0.06728767  0.09515922  0.00000000       0.023
   0.10093151  0.07136940  0.00000000       0.012
   0.13457535  0.05947449  0.00000000       0.047
  -0.10093151  0.14273883  0.00000000       0.023
   0.13457535  0.09515920  0.00000000       0.006
   0.08410960  0.02378980  0.02913642       0.047
   0.11775343  0.01189489  0.02913642       0.094
  -0.11775342  0.09515923  0.02913642       0.047
   0.11775343  0.04757960  0.02913642       0.047
  -0.11775342  0.13084393  0.02913642       0.094
  -0.08410959  0.11894903  0.02913642       0.047
  -0.11775342  0.16652864  0.02913642       0.023
  -0.10093150  0.14273883  0.05827283       0.012
 
 k-points in reciprocal lattice and weights: read from INCAR                         
   0.00000000  0.00000000  0.00000000       0.002
   0.12500000  0.00000000  0.00000000       0.016
   0.25000000  0.00000000  0.00000000       0.016
   0.37500000  0.00000000  0.00000000       0.016
   0.50000000  0.00000000  0.00000000       0.008
   0.12500000  0.12500000  0.00000000       0.012
   0.25000000  0.12500000  0.00000000       0.047
   0.37500000  0.12500000  0.00000000       0.047
   0.50000000  0.12500000  0.00000000       0.047
  -0.37500000  0.12500000  0.00000000       0.047
  -0.25000000  0.12500000  0.00000000       0.047
  -0.12500000  0.12500000  0.00000000       0.023
   0.25000000  0.25000000  0.00000000       0.012
   0.37500000  0.25000000  0.00000000       0.047
   0.50000000  0.25000000  0.00000000       0.047
  -0.37500000  0.25000000  0.00000000       0.047
  -0.25000000  0.25000000  0.00000000       0.023
   0.37500000  0.37500000  0.00000000       0.012
   0.50000000  0.37500000  0.00000000       0.047
  -0.37500000  0.37500000  0.00000000       0.023
   0.50000000  0.50000000  0.00000000       0.006
   0.37500000  0.25000000  0.12500000       0.047
   0.50000000  0.25000000  0.12500000       0.094
  -0.37500000  0.25000000  0.12500000       0.047
   0.50000000  0.37500000  0.12500000       0.047
  -0.37500000  0.37500000  0.12500000       0.094
  -0.25000000  0.37500000  0.12500000       0.047
  -0.37500000  0.50000000  0.12500000       0.023
  -0.25000000  0.50000000  0.25000000       0.012
 
 position of ions in fractional coordinates (direct lattice) 
   0.00000000  0.00000000  0.00000000
 
 position of ions in cartesian coordinates  (Angst):
   0.00000000  0.00000000  0.00000000
 


--------------------------------------------------------------------------------------------------------


 k-point   1 :   0.0000 0.0000 0.0000  plane waves:    1139
 k-point   2 :   0.1250 0.0000 0.0000  plane waves:    1137
 k-point   3 :   0.2500 0.0000 0.0000  plane waves:    1131
 k-point   4 :   0.3750 0.0000 0.0000  plane waves:    1143
 k-point   5 :   0.5000 0.0000 0.0000  plane waves:    1158
 k-point   6 :   0.1250 0.1250 0.0000  plane waves:    1151
 k-point   7 :   0.2500 0.1250 0.0000  plane waves:    1130
 k-point   8 :   0.3750 0.1250 0.0000  plane waves:    1119
 k-point   9 :   0.5000 0.1250 0.0000  plane waves:    1133
 k-point  10 :  -0.3750 0.1250 0.0000  plane waves:    1131
 k-point  11 :  -0.2500 0.1250 0.0000  plane waves:    1124
 k-point  12 :  -0.1250 0.1250 0.0000  plane waves:    1151
 k-point  13 :   0.2500 0.2500 0.0000  plane waves:    1118
 k-point  14 :   0.3750 0.2500 0.0000  plane waves:    1128
 k-point  15 :   0.5000 0.2500 0.0000  plane waves:    1128
 k-point  16 :  -0.3750 0.2500 0.0000  plane waves:    1135
 k-point  17 :  -0.2500 0.2500 0.0000  plane waves:    1125
 k-point  18 :   0.3750 0.3750 0.0000  plane waves:    1126
 k-point  19 :   0.5000 0.3750 0.0000  plane waves:    1131
 k-point  20 :  -0.3750 0.3750 0.0000  plane waves:    1136
 k-point  21 :   0.5000 0.5000 0.0000  plane waves:    1138
 k-point  22 :   0.3750 0.2500 0.1250  plane waves:    1117
 k-point  23 :   0.5000 0.2500 0.1250  plane waves:    1133
 k-point  24 :  -0.3750 0.2500 0.1250  plane waves:    1128
 k-point  25 :   0.5000 0.3750 0.1250  plane waves:    1129
 k-point  26 :  -0.3750 0.3750 0.1250  plane waves:    1133
 k-point  27 :  -0.2500 0.3750 0.1250  plane waves:    1126
 k-point  28 :  -0.3750 0.5000 0.1250  plane waves:    1134
 k-point  29 :  -0.2500 0.5000 0.2500  plane waves:    1124

 maximum and minimum number of plane-waves per node :      1158     1117

 maximum number of plane-waves:      1158
 maximum index in each direction: 
   IXMAX=    7   IYMAX=    7   IZMAX=    7
   IXMIN=   -7   IYMIN=   -7   IZMIN=   -7


 serial   3D FFT for wavefunctions
 parallel 3D FFT for charge:
    minimum data exchange during FFTs selected (reduces bandwidth)


 total amount of memory used by VASP MPI-rank0    59067. kBytes
=======================================================================

   base      :      30000. kBytes
   nonl-proj :       4854. kBytes
   fftplans  :       7596. kBytes
   grid      :      11692. kBytes
   one-center:         15. kBytes
   wavefun   :       4910. kBytes
 
     INWAV:  cpu time      0.0000: real time      0.0000
 Broyden mixing: mesh for mixing (old mesh)
   NGX = 15   NGY = 15   NGZ = 15
  (NGX  = 60   NGY  = 60   NGZ  = 60)
  gives a total of   3375 points

 initial charge density was supplied:
 charge density of overlapping atoms calculated
 number of electron      10.0000000 magnetization 
 keeping initial charge density in first step


--------------------------------------------------------------------------------------------------------


 Maximum index for augmentation-charges         27547 (set IRDMAX)


--------------------------------------------------------------------------------------------------------


 First call to EWALD:  gamma=   0.464
 Maximum number of real-space cells 3x 3x 3
 Maximum number of reciprocal cells 3x 3x 3

    FEWALD:  cpu time      0.0009: real time      0.0006


--------------------------------------- Ionic step        1  -------------------------------------------




--------------------------------------- Iteration      1(   1)  ---------------------------------------


    POTLOK:  cpu time      0.0212: real time      0.0210
    SETDIJ:  cpu time      0.0098: real time      0.0049
     EDDAV:  cpu time      0.5220: real time      0.5215
       DOS:  cpu time      0.0003: real time      0.0003
    --------------------------------------------
      LOOP:  cpu time      0.5533: real time      0.5477

 eigenvalue-minimisations  :   522
 total energy-change (2. order) : 0.3105945E+02  (-0.4609871E+03)
 number of electron      10.0000000 magnetization 
 augmentation part       10.0000000 magnetization 

 Free energy of the ion-electron system (eV)
  ---------------------------------------------------
  alpha Z        PSCENC =        33.57607253
  Ewald energy   TEWEN  =      -544.08104189
  -Hartree energ DENC   =      -210.98374295
  -exchange      EXHF   =         0.00000000
  -V(xc)+E(xc)   XCENC  =        34.47126742
  PAW double counting   =       631.17397051     -617.19253826
  entropy T*S    EENTRO =        -0.00099553
  eigenvalues    EBANDS =      -138.93307735
  atomic energy  EATOM  =       843.02953968
  Solvation  Ediel_sol  =         0.00000000
  ---------------------------------------------------
  free energy    TOTEN  =        31.05945415 eV

  energy without entropy =       31.06044969  energy(sigma->0) =       31.05995192


--------------------------------------------------------------------------------------------------------




--------------------------------------- Iteration      1(   2)  ---------------------------------------


     EDDAV:  cpu time      0.3964: real time      0.3964
       DOS:  cpu time      0.0003: real time      0.0003
    --------------------------------------------
      LOOP:  cpu time      0.3966: real time      0.3967

 eigenvalue-minimisations  :   582
 total energy-change (2. order) :-0.3108577E+02  (-0.3068739E+02)
 number of electron      10.0000000 magnetization 
 augmentation part       10.0000000 magnetization 

 Free energy of the ion-electron system (eV)
  ---------------------------------------------------
  alpha Z        PSCENC =        33.57607253
  Ewald energy   TEWEN  =      -544.08104189
  -Hartree energ DENC   =      -210.98374295
  -exchange      EXHF   =         0.00000000
  -V(xc)+E(xc)   XCENC  =        34.47126742
  PAW double counting   =       631.17397051     -617.19253826
  entropy T*S    EENTRO =        -0.00503236
  eigenvalues    EBANDS =      -170.01481422
  atomic energy  EATOM  =       843.02953968
  Solvation  Ediel_sol  =         0.00000000
  ---------------------------------------------------
  free energy    TOTEN  =        -0.02631954 eV

  energy without entropy =       -0.02128718  energy(sigma->0) =       -0.02380336


--------------------------------------------------------------------------------------------------------




--------------------------------------- Iteration      1(   3)  ---------------------------------------


     EDDAV:  cpu time      0.5030: real time      0.5031
       DOS:  cpu time      0.0003: real time      0.0003
    --------------------------------------------
      LOOP:  cpu time      0.5032: real time      0.5033

 eigenvalue-minimisations  :   785
 total energy-change (2. order) :-0.1561253E+01  (-0.1540881E+01)
 number of electron      10.0000000 magnetization 
 augmentation part       10.0000000 magnetization 

 Free energy of the ion-electron system (eV)
  ---------------------------------------------------
  alpha Z        PSCENC =        33.57607253
  Ewald energy   TEWEN  =      -544.08104189
  -Hartree energ DENC   =      -210.98374295
  -exchange      EXHF   =         0.00000000
  -V(xc)+E(xc)   XCENC  =        34.47126742
  PAW double counting   =       631.17397051     -617.19253826
  entropy T*S    EENTRO =        -0.00117341
  eigenvalues    EBANDS =      -171.57992576
  atomic energy  EATOM  =       843.02953968
  Solvation  Ediel_sol  =         0.00000000
  ---------------------------------------------------
  free energy    TOTEN  =        -1.58757213 eV

  energy without entropy =       -1.58639873  energy(sigma->0) =       -1.58698543


--------------------------------------------------------------------------------------------------------




--------------------------------------- Iteration      1(   4)  ---------------------------------------


     EDDAV:  cpu time      0.4882: real time      0.4884
       DOS:  cpu time      0.0003: real time      0.0003
    --------------------------------------------
      LOOP:  cpu time      0.4885: real time      0.4886

 eigenvalue-minimisations  :   742
 total energy-change (2. order) :-0.5151784E-01  (-0.5147534E-01)
 number of electron      10.0000000 magnetization 
 augmentation part       10.0000000 magnetization 

 Free energy of the ion-electron system (eV)
  ---------------------------------------------------
  alpha Z        PSCENC =        33.57607253
  Ewald energy   TEWEN  =      -544.08104189
  -Hartree energ DENC   =      -210.98374295
  -exchange      EXHF   =         0.00000000
  -V(xc)+E(xc)   XCENC  =        34.47126742
  PAW double counting   =       631.17397051     -617.19253826
  entropy T*S    EENTRO =        -0.00117915
  eigenvalues    EBANDS =      -171.63143785
  atomic energy  EATOM  =       843.02953968
  Solvation  Ediel_sol  =         0.00000000
  ---------------------------------------------------
  free energy    TOTEN  =        -1.63908997 eV

  energy without entropy =       -1.63791082  energy(sigma->0) =       -1.63850039


--------------------------------------------------------------------------------------------------------




--------------------------------------- Iteration      1(   5)  ---------------------------------------


     EDDAV:  cpu time      0.5401: real time      0.5403
       DOS:  cpu time      0.0003: real time      0.0003
    CHARGE:  cpu time      0.0447: real time      0.0426
    MIXING:  cpu time      0.0026: real time      0.0017
    --------------------------------------------
      LOOP:  cpu time      0.5876: real time      0.5848

 eigenvalue-minimisations  :   839
 total energy-change (2. order) :-0.1177908E-02  (-0.1177287E-02)
 number of electron      10.0000000 magnetization 
 augmentation part        0.4143056 magnetization 

 Broyden mixing:
  rms(total) = 0.10846E+01    rms(broyden)= 0.10846E+01
  rms(prec ) = 0.11151E+01
  weight for this iteration     100.00

 Free energy of the ion-electron system (eV)
  ---------------------------------------------------
  alpha Z        PSCENC =        33.57607253
  Ewald energy   TEWEN  =      -544.08104189
  -Hartree energ DENC   =      -210.98374295
  -exchange      EXHF   =         0.00000000
  -V(xc)+E(xc)   XCENC  =        34.47126742
  PAW double counting   =       631.17397051     -617.19253826
  entropy T*S    EENTRO =        -0.00117901
  eigenvalues    EBANDS =      -171.63261590
  atomic energy  EATOM  =       843.02953968
  Solvation  Ediel_sol  =         0.00000000
  ---------------------------------------------------
  free energy    TOTEN  =        -1.64026788 eV

  energy without entropy =       -1.63908887  energy(sigma->0) =       -1.63967837


--------------------------------------------------------------------------------------------------------




--------------------------------------- Iteration      1(   6)  ---------------------------------------


    POTLOK:  cpu time      0.0064: real time      0.0054
    SETDIJ:  cpu time      0.0104: real time      0.0052
     EDDAV:  cpu time      0.4423: real time      0.4414
       DOS:  cpu time      0.0003: real time      0.0003
    CHARGE:  cpu time      0.0390: real time      0.0370
    MIXING:  cpu time      0.0028: real time      0.0018
    --------------------------------------------
      LOOP:  cpu time      0.5012: real time      0.4910

 eigenvalue-minimisations  :   652
 total energy-change (2. order) :-0.8020823E-03  (-0.6430699E-03)
 number of electron      10.0000000 magnetization 
 augmentation part        0.4102162 magnetization 

 Broyden mixing:
  rms(total) = 0.61177E+00    rms(broyden)= 0.61177E+00
  rms(prec ) = 0.63395E+00
  weight for this iteration     100.00

 eigenvalues of (default mixing * dielectric matrix)
  average eigenvalue GAMMA=   2.2865
  2.2865

 Free energy of the ion-electron system (eV)
  ---------------------------------------------------
  alpha Z        PSCENC =        33.57607253
  Ewald energy   TEWEN  =      -544.08104189
  -Hartree energ DENC   =      -209.63689200
  -exchange      EXHF   =         0.00000000
  -V(xc)+E(xc)   XCENC  =        34.41638056
  PAW double counting   =       682.32809568     -669.67013244
  entropy T*S    EENTRO =        -0.00118811
  eigenvalues    EBANDS =      -171.60190396
  atomic energy  EATOM  =       843.02953968
  Solvation  Ediel_sol  =         0.00000000
  ---------------------------------------------------
  free energy    TOTEN  =        -1.64106996 eV

  energy without entropy =       -1.63988185  energy(sigma->0) =       -1.64047590


--------------------------------------------------------------------------------------------------------




--------------------------------------- Iteration      1(   7)  ---------------------------------------


    POTLOK:  cpu time      0.0062: real time      0.0051
    SETDIJ:  cpu time      0.0069: real time      0.0035
     EDDAV:  cpu time      0.4043: real time      0.4034
       DOS:  cpu time      0.0003: real time      0.0003
    CHARGE:  cpu time      0.0388: real time      0.0368
    MIXING:  cpu time      0.0028: real time      0.0018
    --------------------------------------------
      LOOP:  cpu time      0.4593: real time      0.4508

 eigenvalue-minimisations  :   598
 total energy-change (2. order) :-0.4637340E-03  (-0.1101690E-02)
 number of electron      10.0000000 magnetization 
 augmentation part        0.4055846 magnetization 

 Broyden mixing:
  rms(total) = 0.28702E-01    rms(broyden)= 0.28702E-01
  rms(prec ) = 0.41430E-01
  weight for this iteration     100.00

 eigenvalues of (default mixing * dielectric matrix)
  average eigenvalue GAMMA=   2.2283
  1.8454  2.6112

 Free energy of the ion-electron system (eV)
  ---------------------------------------------------
  alpha Z        PSCENC =        33.57607253
  Ewald energy   TEWEN  =      -544.08104189
  -Hartree energ DENC   =      -207.52011278
  -exchange      EXHF   =         0.00000000
  -V(xc)+E(xc)   XCENC  =        34.33328033
  PAW double counting   =       758.08503171     -747.22968620
  entropy T*S    EENTRO =        -0.00120036
  eigenvalues    EBANDS =      -171.83341669
  atomic energy  EATOM  =       843.02953968
  Solvation  Ediel_sol  =         0.00000000
  ---------------------------------------------------
  free energy    TOTEN  =        -1.64153369 eV

  energy without entropy =       -1.64033333  energy(sigma->0) =       -1.64093351


--------------------------------------------------------------------------------------------------------




--------------------------------------- Iteration      1(   8)  ---------------------------------------


    POTLOK:  cpu time      0.0061: real time      0.0050
    SETDIJ:  cpu time      0.0069: real time      0.0035
     EDDAV:  cpu time      0.5056: real time      0.5047
       DOS:  cpu time      0.0003: real time      0.0003
    CHARGE:  cpu time      0.0389: real time      0.0369
    MIXING:  cpu time      0.0028: real time      0.0018
    --------------------------------------------
      LOOP:  cpu time      0.5607: real time      0.5522

 eigenvalue-minimisations  :   798
 total energy-change (2. order) : 0.3677664E-05  (-0.1892145E-03)
 number of electron      10.0000000 magnetization 
 augmentation part        0.3985133 magnetization 

 Broyden mixing:
  rms(total) = 0.12844E-01    rms(broyden)= 0.12844E-01
  rms(prec ) = 0.16516E-01
  weight for this iteration     100.00

 eigenvalues of (default mixing * dielectric matrix)
  average eigenvalue GAMMA=   1.7159
  2.4625  1.8930  0.7922

 Free energy of the ion-electron system (eV)
  ---------------------------------------------------
  alpha Z        PSCENC =        33.57607253
  Ewald energy   TEWEN  =      -544.08104189
  -Hartree energ DENC   =      -207.02885394
  -exchange      EXHF   =         0.00000000
  -V(xc)+E(xc)   XCENC  =        34.31324187
  PAW double counting   =       765.35581262     -754.66922044
  entropy T*S    EENTRO =        -0.00120081
  eigenvalues    EBANDS =      -172.13587963
  atomic energy  EATOM  =       843.02953968
  Solvation  Ediel_sol  =         0.00000000
  ---------------------------------------------------
  free energy    TOTEN  =        -1.64153001 eV

  energy without entropy =       -1.64032920  energy(sigma->0) =       -1.64092961


--------------------------------------------------------------------------------------------------------




--------------------------------------- Iteration      1(   9)  ---------------------------------------


    POTLOK:  cpu time      0.0062: real time      0.0051
    SETDIJ:  cpu time      0.0069: real time      0.0035
     EDDAV:  cpu time      0.4827: real time      0.4819
       DOS:  cpu time      0.0003: real time      0.0003
    CHARGE:  cpu time      0.0400: real time      0.0379
    MIXING:  cpu time      0.0028: real time      0.0018
    --------------------------------------------
      LOOP:  cpu time      0.5387: real time      0.5304

 eigenvalue-minimisations  :   723
 total energy-change (2. order) :-0.1782444E-04  (-0.2326275E-05)
 number of electron      10.0000000 magnetization 
 augmentation part        0.3984495 magnetization 

 Broyden mixing:
  rms(total) = 0.36157E-02    rms(broyden)= 0.36157E-02
  rms(prec ) = 0.73593E-02
  weight for this iteration     100.00

 eigenvalues of (default mixing * dielectric matrix)
  average eigenvalue GAMMA=   2.1459
  1.0052  3.2644  2.1569  2.1569

 Free energy of the ion-electron system (eV)
  ---------------------------------------------------
  alpha Z        PSCENC =        33.57607253
  Ewald energy   TEWEN  =      -544.08104189
  -Hartree energ DENC   =      -207.10814964
  -exchange      EXHF   =         0.00000000
  -V(xc)+E(xc)   XCENC  =        34.31729964
  PAW double counting   =       763.89776592     -753.15322889
  entropy T*S    EENTRO =        -0.00120113
  eigenvalues    EBANDS =      -172.11860405
  atomic energy  EATOM  =       843.02953968
  Solvation  Ediel_sol  =         0.00000000
  ---------------------------------------------------
  free energy    TOTEN  =        -1.64154784 eV

  energy without entropy =       -1.64034671  energy(sigma->0) =       -1.64094727


--------------------------------------------------------------------------------------------------------




--------------------------------------- Iteration      1(  10)  ---------------------------------------


    POTLOK:  cpu time      0.0062: real time      0.0051
    SETDIJ:  cpu time      0.0069: real time      0.0035
     EDDAV:  cpu time      0.4566: real time      0.4558
       DOS:  cpu time      0.0003: real time      0.0003
    CHARGE:  cpu time      0.0423: real time      0.0402
    MIXING:  cpu time      0.0031: real time      0.0020
    --------------------------------------------
      LOOP:  cpu time      0.5155: real time      0.5069

 eigenvalue-minimisations  :   681
 total energy-change (2. order) :-0.1557467E-04  (-0.1144836E-05)
 number of electron      10.0000000 magnetization 
 augmentation part        0.3984635 magnetization 

 Broyden mixing:
  rms(total) = 0.40413E-02    rms(broyden)= 0.40413E-02
  rms(prec ) = 0.41665E-02
  weight for this iteration     100.00

 eigenvalues of (default mixing * dielectric matrix)
  average eigenvalue GAMMA=   1.7462
  2.7761  2.1023  2.1023  1.0598  0.6907

 Free energy of the ion-electron system (eV)
  ---------------------------------------------------
  alpha Z        PSCENC =        33.57607253
  Ewald energy   TEWEN  =      -544.08104189
  -Hartree energ DENC   =      -207.18750632
  -exchange      EXHF   =         0.00000000
  -V(xc)+E(xc)   XCENC  =        34.32307298
  PAW double counting   =       764.26760865     -753.46270258
  entropy T*S    EENTRO =        -0.00120250
  eigenvalues    EBANDS =      -172.10540396
  atomic energy  EATOM  =       843.02953968
  Solvation  Ediel_sol  =         0.00000000
  ---------------------------------------------------
  free energy    TOTEN  =        -1.64156341 eV

  energy without entropy =       -1.64036091  energy(sigma->0) =       -1.64096216


--------------------------------------------------------------------------------------------------------




--------------------------------------- Iteration      1(  11)  ---------------------------------------


    POTLOK:  cpu time      0.0065: real time      0.0054
    SETDIJ:  cpu time      0.0083: real time      0.0042
     EDDAV:  cpu time      0.3301: real time      0.3291
       DOS:  cpu time      0.0003: real time      0.0003
    --------------------------------------------
      LOOP:  cpu time      0.3451: real time      0.3390

 eigenvalue-minimisations  :   417
 total energy-change (2. order) : 0.7749636E-06  (-0.6162135E-07)
 number of electron      10.0000000 magnetization 
 augmentation part        0.3984635 magnetization 

 Free energy of the ion-electron system (eV)
  ---------------------------------------------------
  alpha Z        PSCENC =        33.57607253
  Ewald energy   TEWEN  =      -544.08104189
  -Hartree energ DENC   =      -207.17819475
  -exchange      EXHF   =         0.00000000
  -V(xc)+E(xc)   XCENC  =        34.32245075
  PAW double counting   =       764.04943461     -753.24634594
  entropy T*S    EENTRO =        -0.00120233
  eigenvalues    EBANDS =      -172.11227530
  atomic energy  EATOM  =       843.02953968
  Solvation  Ediel_sol  =         0.00000000
  ---------------------------------------------------
  free energy    TOTEN  =        -1.64156264 eV

  energy without entropy =       -1.64036031  energy(sigma->0) =       -1.64096147


--------------------------------------------------------------------------------------------------------




 average (electrostatic) potential at core
  the test charge radii are     1.1929
  (the norm of the test charge is              1.0000)
       1 -41.1044
 
 
 
 E-fermi :   1.5201     XC(G=0):  -7.3040     alpha+bet : -6.0431

 Fermi energy:         1.5200935258

 k-point     1 :       0.0000    0.0000    0.0000
  band No.  band energies     occupation 
      1     -35.1149      2.00000
      2     -17.0043      2.00000
      3     -17.0043      2.00000
      4     -17.0043      2.00000
      5      -2.0908      2.00000
      6       3.8598      0.00000
      7       3.8598      0.00000
      8       3.8598      0.00000
      9       5.3011      0.00000

 k-point     2 :       0.1250    0.0000    0.0000
  band No.  band energies     occupation 
      1     -35.1130      2.00000
      2     -17.0320      2.00000
      3     -17.0080      2.00000
      4     -17.0080      2.00000
      5      -1.8451      2.00000
      6       3.5005      0.00000
      7       3.9648      0.00000
      8       3.9648      0.00000
      9       5.1713      0.00000

 k-point     3 :       0.2500    0.0000    0.0000
  band No.  band energies     occupation 
      1     -35.1085      2.00000
      2     -17.0980      2.00000
      3     -17.0171      2.00000
      4     -17.0171      2.00000
      5      -1.1612      2.00000
      6       2.7884      0.00000
      7       4.0083      0.00000
      8       4.0083      0.00000
      9       5.2518      0.00000

 k-point     4 :       0.3750    0.0000    0.0000
  band No.  band energies     occupation 
      1     -35.1039      2.00000
      2     -17.1628      2.00000
      3     -17.0261      2.00000
      4     -17.0261      2.00000
      5      -0.2210      2.00000
      6       2.0641      0.00000
      7       3.8075      0.00000
      8       3.8075      0.00000
      9       5.8814      0.00000

 k-point     5 :       0.5000    0.0000    0.0000
  band No.  band energies     occupation 
      1     -35.1020      2.00000
      2     -17.1893      2.00000
      3     -17.0298      2.00000
      4     -17.0298      2.00000
      5       0.4205      2.00000
      6       1.5796      0.09237
      7       3.7038      0.00000
      8       3.7038      0.00000
      9       6.3241      0.00000

 k-point     6 :       0.1250    0.1250    0.0000
  band No.  band energies     occupation 
      1     -35.1124      2.00000
      2     -17.0313      2.00000
      3     -17.0143      2.00000
      4     -17.0143      2.00000
      5      -1.7637      2.00000
      6       3.4179      0.00000
      7       4.0202      0.00000
      8       4.0202      0.00000
      9       4.7503      0.00000

 k-point     7 :       0.2500    0.1250    0.0000
  band No.  band energies     occupation 
      1     -35.1088      2.00000
      2     -17.0801      2.00000
      3     -17.0250      2.00000
      4     -17.0222      2.00000
      5      -1.2253      2.00000
      6       2.9077      0.00000
      7       3.9304      0.00000
      8       4.1601      0.00000
      9       4.6518      0.00000

 k-point     8 :       0.3750    0.1250    0.0000
  band No.  band energies     occupation 
      1     -35.1042      2.00000
      2     -17.1415      2.00000
      3     -17.0345      2.00000
      4     -17.0340      2.00000
      5      -0.3508      2.00000
      6       2.2777      0.00000
      7       3.5220      0.00000
      8       4.0586      0.00000
      9       5.3390      0.00000

 k-point     9 :       0.5000    0.1250    0.0000
  band No.  band energies     occupation 
      1     -35.1014      2.00000
      2     -17.1778      2.00000
      3     -17.0462      2.00000
      4     -17.0360      2.00000
      5       0.5399      2.00000
      6       1.6449      0.00042
      7       3.3600      0.00000
      8       3.9048      0.00000
      9       6.1444      0.00000

 k-point    10 :      -0.3750    0.1250    0.0000
  band No.  band energies     occupation 
      1     -35.1020      2.00000
      2     -17.1691      2.00000
      3     -17.0499      2.00000
      4     -17.0299      2.00000
      5       0.2854      2.00000
      6       1.8614      0.00000
      7       3.3603      0.00000
      8       3.9249      0.00000
      9       5.7641      0.00000

 k-point    11 :      -0.2500    0.1250    0.0000
  band No.  band energies     occupation 
      1     -35.1057      2.00000
      2     -17.1214      2.00000
      3     -17.0423      2.00000
      4     -17.0191      2.00000
      5      -0.6652      2.00000
      6       2.5352      0.00000
      7       3.5651      0.00000
      8       4.1608      0.00000
      9       4.9418      0.00000

 k-point    12 :      -0.1250    0.1250    0.0000
  band No.  band energies     occupation 
      1     -35.1103      2.00000
      2     -17.0644      2.00000
      3     -17.0251      2.00000
      4     -17.0101      2.00000
      5      -1.4517      2.00000
      6       3.1155      0.00000
      7       3.8860      0.00000
      8       4.1980      0.00000
      9       4.7321      0.00000

 k-point    13 :       0.2500    0.2500    0.0000
  band No.  band energies     occupation 
      1     -35.1063      2.00000
      2     -17.0942      2.00000
      3     -17.0382      2.00000
      4     -17.0382      2.00000
      5      -0.8624      2.00000
      6       2.6521      0.00000
      7       3.6352      0.00000
      8       4.5241      0.00000
      9       4.5241      0.00000

 k-point    14 :       0.3750    0.2500    0.0000
  band No.  band energies     occupation 
      1     -35.1027      2.00000
      2     -17.1334      2.00000
      3     -17.0542      2.00000
      4     -17.0489      2.00000
      5      -0.1472      2.00000
      6       2.2960      0.00000
      7       3.0727      0.00000
      8       4.6623      0.00000
      9       5.1203      0.00000

 k-point    15 :       0.5000    0.2500    0.0000
  band No.  band energies     occupation 
      1     -35.0999      2.00000
      2     -17.1576      2.00000
      3     -17.0780      2.00000
      4     -17.0509      2.00000
      5       0.7634      2.00000
      6       1.8467      0.00000
      7       2.7807      0.00000
      8       4.4899      0.00000
      9       5.7475      0.00000

 k-point    16 :      -0.3750    0.2500    0.0000
  band No.  band energies     occupation 
      1     -35.0996      2.00000
      2     -17.1526      2.00000
      3     -17.0961      2.00000
      4     -17.0431      2.00000
      5       1.0827      2.00000
      6       1.7429      0.00000
      7       2.6271      0.00000
      8       4.3484      0.00000
      9       5.8370      0.00000

 k-point    17 :      -0.2500    0.2500    0.0000
  band No.  band energies     occupation 
      1     -35.1020      2.00000
      2     -17.1370      2.00000
      3     -17.0820      2.00000
      4     -17.0299      2.00000
      5       0.1723      2.00000
      6       2.3744      0.00000
      7       2.7579      0.00000
      8       4.3229      0.00000
      9       5.0990      0.00000

 k-point    18 :       0.3750    0.3750    0.0000
  band No.  band energies     occupation 
      1     -35.1003      2.00000
      2     -17.1544      2.00000
      3     -17.0620      2.00000
      4     -17.0620      2.00000
      5       0.3006      2.00000
      6       2.0892      0.00000
      7       2.7854      0.00000
      8       5.4112      0.00000
      9       5.4112      0.00000

 k-point    19 :       0.5000    0.3750    0.0000
  band No.  band energies     occupation 
      1     -35.0984      2.00000
      2     -17.1661      2.00000
      3     -17.0801      2.00000
      4     -17.0658      2.00000
      5       0.8839      2.00000
      6       1.9484      0.00000
      7       2.5362      0.00000
      8       5.4033      0.00000
      9       5.8772      0.00000

 k-point    20 :      -0.3750    0.3750    0.0000
  band No.  band energies     occupation 
      1     -35.0981      2.00000
      2     -17.1484      2.00000
      3     -17.1115      2.00000
      4     -17.0579      2.00000
      5       1.4468      1.96182
      6       1.7656      0.00000
      7       2.3537      0.00000
      8       4.9173      0.00000
      9       5.3386      0.00000

 k-point    21 :       0.5000    0.5000    0.0000
  band No.  band energies     occupation 
      1     -35.0978      2.00000
      2     -17.1784      2.00000
      3     -17.0719      2.00000
      4     -17.0719      2.00000
      5       0.9069      2.00000
      6       1.8901      0.00000
      7       2.5549      0.00000
      8       6.3299      0.00000
      9       6.6568      0.00000

 k-point    22 :       0.3750    0.2500    0.1250
  band No.  band energies     occupation 
      1     -35.1051      2.00000
      2     -17.1141      2.00000
      3     -17.0511      2.00000
      4     -17.0286      2.00000
      5      -0.5861      2.00000
      6       2.5591      0.00000
      7       3.3527      0.00000
      8       4.4899      0.00000
      9       4.6825      0.00000

 k-point    23 :       0.5000    0.2500    0.1250
  band No.  band energies     occupation 
      1     -35.1014      2.00000
      2     -17.1490      2.00000
      3     -17.0715      2.00000
      4     -17.0394      2.00000
      5       0.3250      2.00000
      6       2.1110      0.00000
      7       2.9078      0.00000
      8       4.2837      0.00000
      9       5.4064      0.00000

 k-point    24 :      -0.3750    0.2500    0.1250
  band No.  band energies     occupation 
      1     -35.0999      2.00000
      2     -17.1639      2.00000
      3     -17.0780      2.00000
      4     -17.0452      2.00000
      5       1.0819      2.00000
      6       1.5439      0.49983
      7       2.8685      0.00000
      8       4.1586      0.00000
      9       5.8013      0.00000

 k-point    25 :       0.5000    0.3750    0.1250
  band No.  band energies     occupation 
      1     -35.0999      2.00000
      2     -17.1508      2.00000
      3     -17.0770      2.00000
      4     -17.0582      2.00000
      5       0.5612      2.00000
      6       2.1190      0.00000
      7       2.6203      0.00000
      8       4.7925      0.00000
      9       5.5227      0.00000

 k-point    26 :      -0.3750    0.3750    0.1250
  band No.  band energies     occupation 
      1     -35.0984      2.00000
      2     -17.1469      2.00000
      3     -17.1041      2.00000
      4     -17.0624      2.00000
      5       1.3564      2.00000
      6       1.8520      0.00000
      7       2.4047      0.00000
      8       4.3082      0.00000
      9       5.8375      0.00000

 k-point    27 :      -0.2500    0.3750    0.1250
  band No.  band energies     occupation 
      1     -35.0990      2.00000
      2     -17.1370      2.00000
      3     -17.1128      2.00000
      4     -17.0529      2.00000
      5       1.1772      2.00000
      6       2.1306      0.00000
      7       2.2181      0.00000
      8       4.2890      0.00000
      9       5.7826      0.00000

 k-point    28 :      -0.3750    0.5000    0.1250
  band No.  band energies     occupation 
      1     -35.0978      2.00000
      2     -17.1630      2.00000
      3     -17.0877      2.00000
      4     -17.0728      2.00000
      5       1.1890      2.00000
      6       1.9581      0.00000
      7       2.4204      0.00000
      8       4.7614      0.00000
      9       6.6888      0.00000

 k-point    29 :      -0.2500    0.5000    0.2500
  band No.  band energies     occupation 
      1     -35.0978      2.00000
      2     -17.1255      2.00000
      3     -17.1255      2.00000
      4     -17.0736      2.00000
      5       1.6071      0.01382
      6       2.1575      0.00000
      7       2.1575      0.00000
      8       3.7456      0.00000
      9       6.6424      0.00000


--------------------------------------------------------------------------------------------------------


 soft charge-density along one line, spin component            1
         0         1         2         3         4         5         6         7         8         9
 total charge-density along one line
 
 pseudopotential strength for first ion, spin component:            1
-11.265  -4.085   0.000   0.000   0.000   0.000   0.000   0.000
 -4.085  -0.671   0.000   0.000   0.000   0.000   0.000   0.000
  0.000   0.000 -15.894  -0.000   0.000 -15.582  -0.000   0.000
  0.000   0.000  -0.000 -15.894  -0.000  -0.000 -15.582  -0.000
  0.000   0.000   0.000  -0.000 -15.894   0.000  -0.000 -15.582
  0.000   0.000 -15.582  -0.000   0.000 -15.275  -0.000   0.000
  0.000   0.000  -0.000 -15.582  -0.000  -0.000 -15.275  -0.000
  0.000   0.000   0.000  -0.000 -15.582   0.000  -0.000 -15.275
  0.000   0.000   0.000   0.000   0.000   0.000   0.000   0.000
 -0.000  -0.000   0.000   0.000   0.000   0.000   0.000   0.000
  0.000   0.000  -0.000   0.000  -0.000  -0.000   0.000  -0.000
 -0.000  -0.000   0.000   0.000   0.000   0.000   0.000   0.000
  0.000   0.000  -0.000   0.000   0.000  -0.000   0.000   0.000
  0.000   0.000   0.000   0.000   0.000   0.000   0.000   0.000
 -0.000  -0.000   0.000   0.000   0.000   0.000   0.000   0.000
  0.000   0.000  -0.000   0.000  -0.000  -0.000   0.000  -0.000
 -0.000  -0.000   0.000   0.000   0.000   0.000   0.000   0.000
  0.000   0.000  -0.000   0.000   0.000  -0.000   0.000   0.000
 total augmentation occupancy for first ion, spin component:            1
  1.998  -0.012   0.000   0.000   0.000   0.000   0.000   0.000  -0.000   0.000  -0.000   0.000  -0.000   0.000  -0.000   0.000
 -0.012   1.085   0.000   0.000   0.000   0.000   0.000   0.000   0.000  -0.000   0.000  -0.000   0.000  -0.000   0.000  -0.000
  0.000   0.000   6.490  -0.000   0.000  -4.772   0.000  -0.000   0.000   0.000   0.000   0.000   0.000   0.000   0.000   0.000
  0.000   0.000  -0.000   6.490  -0.000   0.000  -4.772   0.000   0.000   0.000   0.000   0.000   0.000   0.000   0.000   0.000
  0.000   0.000   0.000  -0.000   6.490  -0.000   0.000  -4.772   0.000   0.000   0.000   0.000   0.000   0.000   0.000   0.000
  0.000   0.000  -4.772   0.000  -0.000   5.069  -0.000   0.000   0.000   0.000   0.000   0.000   0.000   0.000   0.000   0.000
  0.000   0.000   0.000  -4.772   0.000  -0.000   5.069  -0.000   0.000   0.000   0.000   0.000   0.000   0.000   0.000   0.000
  0.000   0.000  -0.000   0.000  -4.772   0.000  -0.000   5.069   0.000   0.000   0.000   0.000   0.000   0.000   0.000   0.000
 -0.000   0.000   0.000   0.000   0.000   0.000   0.000   0.000   0.814  -0.000  -0.152  -0.000   0.088  -0.365   0.000   0.065
  0.000  -0.000   0.000   0.000   0.000   0.000   0.000   0.000  -0.000   0.814  -0.000  -0.176   0.000   0.000  -0.365   0.000
 -0.000   0.000   0.000   0.000   0.000   0.000   0.000   0.000  -0.152  -0.000   0.659  -0.000  -0.054   0.065   0.000  -0.299
  0.000  -0.000   0.000   0.000   0.000   0.000   0.000   0.000  -0.000  -0.176  -0.000   0.690  -0.000   0.000   0.075   0.000
 -0.000   0.000   0.000   0.000   0.000   0.000   0.000   0.000   0.088   0.000  -0.054  -0.000   0.597  -0.038  -0.000   0.023
  0.000  -0.000   0.000   0.000   0.000   0.000   0.000   0.000  -0.365   0.000   0.065   0.000  -0.038   0.164  -0.000  -0.028
 -0.000   0.000   0.000   0.000   0.000   0.000   0.000   0.000   0.000  -0.365   0.000   0.075  -0.000  -0.000   0.164  -0.000
  0.000  -0.000   0.000   0.000   0.000   0.000   0.000   0.000   0.065   0.000  -0.299   0.000   0.023  -0.028  -0.000   0.136
 -0.000   0.000   0.000   0.000   0.000   0.000   0.000   0.000   0.000   0.075   0.000  -0.312   0.000  -0.000  -0.032  -0.000
  0.000  -0.000   0.000   0.000   0.000   0.000   0.000   0.000  -0.038  -0.000   0.023   0.000  -0.272   0.016   0.000  -0.010


------------------------ aborting loop because EDIFF is reached ----------------------------------------


    CHARGE:  cpu time      0.0443: real time      0.0417
    FORLOC:  cpu time      0.0022: real time      0.0022
    FORNL :  cpu time      0.1451: real time      0.1323
    STRESS:  cpu time      0.8361: real time      0.7654
    FORCOR:  cpu time      0.0065: real time      0.0055
    FORHAR:  cpu time      0.0015: real time      0.0015
    MIXING:  cpu time      0.0037: real time      0.0024
    OFIELD:  cpu time      0.0000: real time      0.0000

  FORCE on cell =-STRESS in cart. coord.  units (eV):
  Direction    XX          YY          ZZ          XY          YZ          ZX
  --------------------------------------------------------------------------------------
  Alpha Z    33.57607    33.57607    33.57607
  Ewald    -181.36040  -181.36024  -181.36042    -0.00001     0.00001     0.00002
  Hartree    69.05448    69.05446    69.05447     0.00000    -0.00000    -0.00000
  E(xc)     -36.83204   -36.83204   -36.83204     0.00000    -0.00000    -0.00000
  Local      27.92758    27.92758    27.92758    -0.00001     0.00000     0.00000
  n-local   -51.23884   -55.30502   -57.47198    -0.10406     0.12611     0.38005
  augment     2.60422     2.60421     2.60422     0.00000    -0.00000    -0.00000
  Kinetic   137.31168   139.68344   141.79043     0.09662    -0.01343     0.04935
  Fock        0.00000     0.00000     0.00000     0.00000     0.00000     0.00000
  -------------------------------------------------------------------------------------
  Total      -0.10682    -0.10682    -0.10682    -0.00000     0.00000     0.00000
  in kB      -3.06507    -3.06506    -3.06507    -0.00000     0.00000     0.00000
  external pressure =       -3.07 kB  Pullay stress =        0.00 kB


 VOLUME and BASIS-vectors are now :
 -----------------------------------------------------------------------------
  energy-cutoff  :      430.00
  volume of cell :       55.83
      direct lattice vectors                 reciprocal lattice vectors
     3.715390760  0.000000000  2.145081420     0.269150693 -0.095159239  0.000000000
     1.238463930  3.502901350  2.145081420    -0.000000000  0.285477637  0.000000001
    -0.000000010 -0.000000010  4.290163880    -0.134575314 -0.095159176  0.233091328

  length of vectors
     4.290163493  4.290161427  4.290163880     0.285477454  0.285477637  0.285477409


 FORCES acting on ions
    electron-ion (+dipol)            ewald-force                    non-local-force                 convergence-correction
 -----------------------------------------------------------------------------------------------
   -.170E-15 -.143E-15 -.413E-14   0.243E-15 0.182E-15 0.176E-15   0.207E-23 0.000E+00 0.290E-23   0.304E-13 0.187E-13 0.518E-13
 -----------------------------------------------------------------------------------------------
   -.170E-15 -.143E-15 -.413E-14   0.243E-15 0.182E-15 0.176E-15   0.207E-23 0.000E+00 0.290E-23   0.304E-13 0.187E-13 0.518E-13
 
 
 POSITION                                       TOTAL-FORCE (eV/Angst)
 -----------------------------------------------------------------------------------
      0.00000      0.00000      0.00000        -0.000000      0.000000      0.000000
 -----------------------------------------------------------------------------------
    total drift:                                0.000000      0.000000      0.000000


--------------------------------------------------------------------------------------------------------



  FREE ENERGIE OF THE ION-ELECTRON SYSTEM (eV)
  ---------------------------------------------------
  free  energy   TOTEN  =        -1.64156264 eV

  energy  without entropy=       -1.64036031  energy(sigma->0) =       -1.64096147
 


--------------------------------------------------------------------------------------------------------


    POTLOK:  cpu time      0.0161: real time      0.0113


--------------------------------------------------------------------------------------------------------


     LOOP+:  cpu time      6.5407: real time      6.3844
    4ORBIT:  cpu time      0.0000: real time      0.0000

 total amount of memory used by VASP MPI-rank0    59067. kBytes
=======================================================================

   base      :      30000. kBytes
   nonl-proj :       4854. kBytes
   fftplans  :       7596. kBytes
   grid      :      11692. kBytes
   one-center:         15. kBytes
   wavefun   :       4910. kBytes
 
  
  
 General timing and accounting informations for this job:
 ========================================================
  
                  Total CPU time used (sec):        7.626
                            User time (sec):        6.872
                          System time (sec):        0.754
                         Elapsed time (sec):        7.389
  
                   Maximum memory used (kb):     1550992.
                   Average memory used (kb):          N/A
  
                          Minor page faults:       366691
                          Major page faults:            0
                 Voluntary context switches:         5994
