<?xml version="1.0" encoding="ISO-8859-1"?>
<modeling>
 <generator>
  <i name="program" type="string">vasp </i>
  <i name="version" type="string">6.4.2  </i>
  <i name="subversion" type="string">20Jul23 (build Mar  2 2025 11:04:54) complex                          parallel </i>
  <i name="platform" type="string">LinuxNV </i>
  <i name="date" type="string">2026 04 07 </i>
  <i name="time" type="string">00:05:25 </i>
 </generator>
 <incar>
  <i type="string" name="SYSTEM">static single-point for EOS</i>
  <i type="string" name="PREC">Accurate</i>
  <i type="int" name="IBRION">    -1</i>
  <i name="EDIFF">      0.00000100</i>
  <i type="int" name="NSW">     0</i>
  <i type="int" name="ISIF">     2</i>
  <i name="ENCUT">    430.00000000</i>
  <i type="int" name="ISMEAR">     0</i>
  <i name="SIGMA">      0.05000000</i>
  <i name="KSPACING">      0.25000000</i>
  <i type="logical" name="KGAMMA"> T  </i>
  <i type="logical" name="LWAVE"> F  </i>
  <i type="logical" name="LCHARG"> F  </i>
 </incar>
 <primitive_cell>
  <structure name="primitive_cell" >
   <crystal>
    <varray name="basis" >
     <v>       3.71539076       0.00000000       2.14508142 </v>
     <v>       1.23846393       3.50290135       2.14508142 </v>
     <v>      -0.00000001      -0.00000001       4.29016388 </v>
    </varray>
    <i name="volume">     55.83496992 </i>
    <varray name="rec_basis" >
     <v>       0.26915069      -0.09515924       0.00000000 </v>
     <v>      -0.00000000       0.28547764       0.00000000 </v>
     <v>      -0.13457531      -0.09515918       0.23309133 </v>
    </varray>
   </crystal>
   <varray name="positions" >
    <v>       0.00000000       0.00000000       0.00000000 </v>
   </varray>
  </structure>
  <varray name="primitive_index" >
   <v type="int" >        1 </v>
  </varray>
 </primitive_cell>
 <kpoints>
  <generation param="Gamma">
   <v type="int" name="divisions">       8        8        8 </v>
   <v name="usershift">      0.00000000       0.00000000       0.00000000 </v>
   <v name="genvec1">      0.12500000       0.00000000       0.00000000 </v>
   <v name="genvec2">      0.00000000       0.12500000      -0.00000000 </v>
   <v name="genvec3">     -0.00000000      -0.00000000       0.12500000 </v>
   <v name="shift">      0.00000000       0.00000000       0.00000000 </v>
  </generation>
  <varray name="kpointlist" >
   <v>       0.00000000       0.00000000       0.00000000 </v>
   <v>       0.12500000       0.00000000       0.00000000 </v>
   <v>       0.25000000       0.00000000       0.00000000 </v>
   <v>       0.37500000       0.00000000       0.00000000 </v>
   <v>       0.50000000       0.00000000       0.00000000 </v>
   <v>       0.12500000       0.12500000       0.00000000 </v>
   <v>       0.25000000       0.12500000       0.00000000 </v>
   <v>       0.37500000       0.12500000       0.00000000 </v>
   <v>       0.50000000       0.12500000       0.00000000 </v>
   <v>      -0.37500000       0.12500000       0.00000000 </v>
   <v>      -0.25000000       0.12500000       0.00000000 </v>
   <v>      -0.12500000       0.12500000       0.00000000 </v>
   <v>       0.25000000       0.25000000       0.00000000 </v>
   <v>       0.37500000       0.25000000       0.00000000 </v>
   <v>       0.50000000       0.25000000       0.00000000 </v>
   <v>      -0.37500000       0.25000000       0.00000000 </v>
   <v>      -0.25000000       0.25000000       0.00000000 </v>
   <v>       0.37500000       0.37500000       0.00000000 </v>
   <v>       0.50000000       0.37500000       0.00000000 </v>
   <v>      -0.37500000       0.37500000       0.00000000 </v>
   <v>       0.50000000       0.50000000       0.00000000 </v>
   <v>       0.37500000       0.25000000       0.12500000 </v>
   <v>       0.50000000       0.25000000       0.12500000 </v>
   <v>      -0.37500000       0.25000000       0.12500000 </v>
   <v>       0.50000000       0.37500000       0.12500000 </v>
   <v>      -0.37500000       0.37500000       0.12500000 </v>
   <v>      -0.25000000       0.37500000       0.12500000 </v>
   <v>      -0.37500000       0.50000000       0.12500000 </v>
   <v>      -0.25000000       0.50000000       0.25000000 </v>
  </varray>
  <varray name="weights" >
   <v>       0.00195313 </v>
   <v>       0.01562500 </v>
   <v>       0.01562500 </v>
   <v>       0.01562500 </v>
   <v>       0.00781250 </v>
   <v>       0.01171875 </v>
   <v>       0.04687500 </v>
   <v>       0.04687500 </v>
   <v>       0.04687500 </v>
   <v>       0.04687500 </v>
   <v>       0.04687500 </v>
   <v>       0.02343750 </v>
   <v>       0.01171875 </v>
   <v>       0.04687500 </v>
   <v>       0.04687500 </v>
   <v>       0.04687500 </v>
   <v>       0.02343750 </v>
   <v>       0.01171875 </v>
   <v>       0.04687500 </v>
   <v>       0.02343750 </v>
   <v>       0.00585938 </v>
   <v>       0.04687500 </v>
   <v>       0.09375000 </v>
   <v>       0.04687500 </v>
   <v>       0.04687500 </v>
   <v>       0.09375000 </v>
   <v>       0.04687500 </v>
   <v>       0.02343750 </v>
   <v>       0.01171875 </v>
  </varray>
 </kpoints>
 <parameters>
  <separator name="general" >
   <i type="string" name="SYSTEM">static single-point for EOS</i>
   <i type="logical" name="LCOMPAT"> F  </i>
  </separator>
  <separator name="electronic" >
   <i type="string" name="PREC">accura</i>
   <i name="ENMAX">    430.00000000</i>
   <i name="ENAUG">    366.80400000</i>
   <i name="EDIFF">      0.00000100</i>
   <i type="int" name="IALGO">    38</i>
   <i type="int" name="IWAVPR">    10</i>
   <i type="int" name="NBANDS">     9</i>
   <i type="int" name="NBANDSLOW">    -1</i>
   <i type="int" name="NBANDSHIGH">    -1</i>
   <i name="NELECT">     10.00000000</i>
   <i type="int" name="TURBO">     0</i>
   <i type="int" name="IRESTART">     0</i>
   <i type="int" name="NREBOOT">     0</i>
   <i type="int" name="NMIN">     0</i>
   <i name="EREF">      0.00000000</i>
   <separator name="electronic smearing" >
    <i type="int" name="ISMEAR">     0</i>
    <i name="SIGMA">      0.05000000</i>
    <i name="KSPACING">      0.25000000</i>
    <i type="logical" name="KGAMMA"> T  </i>
    <i type="logical" name="KBLOWUP"> T  </i>
   </separator>
   <separator name="electronic projectors" >
    <i type="logical" name="LREAL"> F  </i>
    <v name="ROPT">      0.00000000</v>
    <i type="int" name="LMAXPAW">  -100</i>
    <i type="int" name="LMAXMIX">     2</i>
    <i type="logical" name="NLSPLINE"> F  </i>
   </separator>
   <separator name="electronic startup" >
    <i type="int" name="ISTART">     0</i>
    <i type="int" name="ICHARG">     2</i>
    <i type="int" name="INIWAV">     1</i>
   </separator>
   <separator name="electronic spin" >
    <i type="int" name="ISPIN">     1</i>
    <i type="logical" name="LNONCOLLINEAR"> F  </i>
    <v name="MAGMOM">      1.00000000</v>
    <i name="NUPDOWN">     -1.00000000</i>
    <i type="logical" name="LSORBIT"> F  </i>
    <v name="SAXIS">      0.00000000      0.00000000      1.00000000</v>
    <i type="logical" name="LSPIRAL"> F  </i>
    <v name="QSPIRAL">      0.00000000      0.00000000      0.00000000</v>
    <i type="logical" name="LZEROZ"> F  </i>
   </separator>
   <separator name="electronic exchange-correlation" >
    <i type="logical" name="LASPH"> F  </i>
    <i type="logical" name="LMETAGGA"> F  </i>
   </separator>
   <separator name="electronic convergence" >
    <i type="int" name="NELM">    60</i>
    <i type="int" name="NELMDL">    -5</i>
    <i type="int" name="NELMIN">     2</i>
    <i name="ENINI">    430.00000000</i>
    <separator name="electronic convergence detail" >
     <i type="logical" name="LDIAG"> T  </i>
     <i type="logical" name="LSUBROT"> F  </i>
     <i name="WEIMIN">      0.00000000</i>
     <i name="EBREAK">      0.00000003</i>
     <i name="DEPER">      0.30000000</i>
     <i type="int" name="NRMM">     4</i>
     <i name="TIME">      0.40000000</i>
    </separator>
   </separator>
   <separator name="electronic mixer" >
    <i name="AMIX">      0.40000000</i>
    <i name="BMIX">      1.00000000</i>
    <i name="AMIN">      0.10000000</i>
    <i name="AMIX_MAG">      1.60000000</i>
    <i name="BMIX_MAG">      1.00000000</i>
    <separator name="electronic mixer details" >
     <i type="int" name="IMIX">     4</i>
     <i type="logical" name="MIXFIRST"> F  </i>
     <i type="int" name="MAXMIX">   -45</i>
     <i name="WC">    100.00000000</i>
     <i type="int" name="INIMIX">     1</i>
     <i type="int" name="MIXPRE">     1</i>
     <i type="int" name="MREMOVE">     5</i>
    </separator>
   </separator>
   <separator name="electronic dipolcorrection" >
    <i type="logical" name="LDIPOL"> F  </i>
    <i type="logical" name="LMONO"> F  </i>
    <i type="int" name="IDIPOL">     0</i>
    <i name="EPSILON">      1.00000000</i>
    <v name="DIPOL">   -100.00000000   -100.00000000   -100.00000000</v>
    <i name="EFIELD">      0.00000000</i>
   </separator>
  </separator>
  <separator name="grids" >
   <i type="int" name="NGX">    30</i>
   <i type="int" name="NGY">    30</i>
   <i type="int" name="NGZ">    30</i>
   <i type="int" name="NGXF">    60</i>
   <i type="int" name="NGYF">    60</i>
   <i type="int" name="NGZF">    60</i>
   <i type="logical" name="ADDGRID"> F  </i>
  </separator>
  <separator name="ionic" >
   <i type="int" name="NSW">     0</i>
   <i type="int" name="IBRION">    -1</i>
   <i type="int" name="MDALGO">     0</i>
   <i type="int" name="ISIF">     2</i>
   <i name="PSTRESS">      0.00000000</i>
   <i name="EDIFFG">      0.00001000</i>
   <i type="int" name="NFREE">     0</i>
   <i name="POTIM">      0.50000000</i>
   <i name="SMASS">     -3.00000000</i>
   <i name="SCALEE">      1.00000000</i>
  </separator>
  <separator name="ionic md" >
   <i name="TEBEG">      0.00010000</i>
   <i name="TEEND">      0.00010000</i>
   <i type="int" name="NBLOCK">     1</i>
   <i type="int" name="KBLOCK">     1</i>
   <i type="int" name="NPACO">   256</i>
   <i name="APACO">     10.00000000</i>
  </separator>
  <separator name="symmetry" >
   <i type="int" name="ISYM">     2</i>
   <i name="SYMPREC">      0.00001000</i>
  </separator>
  <separator name="dos" >
   <i type="int" name="LORBIT">     0</i>
   <v name="RWIGS">     -1.00000000</v>
   <i type="int" name="NEDOS">   301</i>
   <i name="EMIN">     10.00000000</i>
   <i name="EMAX">    -10.00000000</i>
   <i name="EFERMI">      0.00000000</i>
  </separator>
  <separator name="writing" >
   <i type="int" name="NWRITE">     2</i>
   <i type="logical" name="LWAVE"> F  </i>
   <i type="logical" name="LDOWNSAMPLE"> F  </i>
   <i type="logical" name="LCHARG"> F  </i>
   <i type="logical" name="LPARD"> F  </i>
   <i type="logical" name="LVTOT"> F  </i>
   <i type="logical" name="LVHAR"> F  </i>
   <i type="logical" name="LELF"> F  </i>
   <i type="logical" name="LOPTICS"> F  </i>
   <v name="STM">      0.00000000      0.00000000      0.00000000      0.00000000      0.00000000      0.00000000      0.00000000</v>
  </separator>
  <separator name="performance" >
   <i type="int" name="NPAR">     1</i>
   <i type="int" name="NSIM">     4</i>
   <i type="int" name="NBLK">    -1</i>
   <i type="logical" name="LPLANE"> T  </i>
   <i type="logical" name="LSCALAPACK"> T  </i>
   <i type="logical" name="LSCAAWARE"> F  </i>
   <i type="logical" name="LSCALU"> F  </i>
   <i type="logical" name="LASYNC"> F  </i>
   <i type="logical" name="LORBITALREAL"> F  </i>
  </separator>
  <separator name="miscellaneous" >
   <i type="int" name="IDIOT">     3</i>
   <i type="int" name="PHON_NSTRUCT">    -1</i>
   <i type="logical" name="LMUSIC"> F  </i>
   <v name="POMASS">     87.62000000</v>
   <v name="DARWINR">      0.00000000</v>
   <v name="DARWINV">      1.00000000</v>
   <i type="logical" name="LCORR"> T  </i>
  </separator>
  <i type="logical" name="GGA_COMPAT"> T  </i>
  <i type="logical" name="LBERRY"> F  </i>
  <i type="int" name="ICORELEVEL">     0</i>
  <i type="logical" name="LDAU"> F  </i>
  <i type="int" name="I_CONSTRAINED_M">     0</i>
  <separator name="electronic exchange-correlation" >
   <i type="string" name="GGA">--</i>
   <i type="int" name="VOSKOWN">     0</i>
   <i type="logical" name="LHFCALC"> F  </i>
   <i type="string" name="PRECFOCK"></i>
   <i type="logical" name="LSYMGRAD"> F  </i>
   <i type="logical" name="LHFONE"> F  </i>
   <i type="logical" name="LRHFCALC"> F  </i>
   <i type="logical" name="LTHOMAS"> F  </i>
   <i type="logical" name="LMODELHF"> F  </i>
   <i type="logical" name="LFOCKACE"> F  </i>
   <i name="ENCUT4O">     -1.00000000</i>
   <i type="int" name="EXXOEP">     0</i>
   <i type="int" name="FOURORBIT">     0</i>
   <i name="AEXX">      0.00000000</i>
   <i name="HFALPHA">      0.00000000</i>
   <i name="MCALPHA">      0.00000000</i>
   <i name="ALDAX">      1.00000000</i>
   <i name="AGGAX">      1.00000000</i>
   <i name="ALDAC">      1.00000000</i>
   <i name="AGGAC">      1.00000000</i>
   <i type="int" name="NKREDX">     1</i>
   <i type="int" name="NKREDY">     1</i>
   <i type="int" name="NKREDZ">     1</i>
   <i type="logical" name="SHIFTRED"> F  </i>
   <i type="logical" name="ODDONLY"> F  </i>
   <i type="logical" name="EVENONLY"> F  </i>
   <i type="int" name="LMAXFOCK">     0</i>
   <i type="int" name="NMAXFOCKAE">     0</i>
   <i type="logical" name="LFOCKAEDFT"> F  </i>
   <i name="HFSCREEN">      0.00000000</i>
   <i name="HFSCREENC">      0.00000000</i>
   <i type="int" name="NBANDSGWLOW">     0</i>
  </separator>
  <separator name="vdW DFT" >
   <i type="logical" name="LUSE_VDW"> F  </i>
   <i type="int" name="IVDW_NL">     1</i>
   <i type="logical" name="LSPIN_VDW"> F  </i>
   <i name="Zab_VDW">     -0.84910000</i>
   <i name="PARAM1">      0.12340000</i>
   <i name="PARAM2">      1.00000000</i>
   <i name="PARAM3">      0.00000000</i>
  </separator>
  <separator name="model GW" >
   <i type="int" name="MODEL_GW">     0</i>
   <i name="MODEL_EPS0">     33.50098195</i>
   <i name="MODEL_ALPHA">      1.00000000</i>
  </separator>
  <separator name="linear response parameters" >
   <i type="logical" name="LEPSILON"> F  </i>
   <i type="logical" name="LRPA"> F  </i>
   <i type="logical" name="LNABLA"> F  </i>
   <i type="logical" name="LVEL"> F  </i>
   <i name="CSHIFT">      0.10000000</i>
   <i name="OMEGAMAX">     -1.00000000</i>
   <i name="DEG_THRESHOLD">      0.00200000</i>
   <i name="RTIME">     -0.10000000</i>
   <i name="WPLASMAI">      0.00000000</i>
   <v name="DFIELD">      0.00000000      0.00000000      0.00000000</v>
   <v name="WPLASMA">      0.00000000      0.00000000      0.00000000      0.00000000      0.00000000      0.00000000      0.00000000      0.00000000      0.00000000</v>
  </separator>
  <separator name="orbital magnetization" >
   <i type="logical" name="NUCIND"> F  </i>
   <v name="MAGPOS">      0.00000000      0.00000000      0.00000000</v>
   <i type="logical" name="LNICSALL"> T  </i>
   <i type="logical" name="ORBITALMAG"> F  </i>
   <i type="logical" name="LMAGBLOCH"> F  </i>
   <i type="logical" name="LCHIMAG"> F  </i>
   <i type="logical" name="LGAUGE"> T  </i>
   <i type="int" name="MAGATOM">     0</i>
   <v name="MAGDIPOL">      0.00000000      0.00000000      0.00000000</v>
   <v name="AVECCONST">      0.00000000      0.00000000      0.00000000</v>
  </separator>
  <separator name="response functions" >
   <i type="logical" name="LALL_IN_ONE"> F  </i>
   <i type="int" name="IALL_IN_ONE">    -1</i>
   <i type="int" name="NBANDS_WAVE">    -1</i>
   <i type="logical" name="LFINITE_TEMPERATURE"> F  </i>
   <i type="logical" name="LADDER"> F  </i>
   <i type="logical" name="LRPAFORCE"> F  </i>
   <i type="logical" name="LFXC"> F  </i>
   <i type="logical" name="LHARTREE"> T  </i>
   <i type="int" name="IBSE">     0</i>
   <v type="int" name="KPOINT">    -1     0     0     0</v>
   <i type="logical" name="LTCTC"> F  </i>
   <i type="logical" name="LTCTE"> F  </i>
   <i type="logical" name="LTETE"> F  </i>
   <i type="logical" name="LTRIPLET"> F  </i>
   <i type="logical" name="LFXCEPS"> F  </i>
   <i type="logical" name="LFXHEG"> F  </i>
   <i type="int" name="NATURALO">     2</i>
   <i type="logical" name="LHOLEGF"> F  </i>
   <i type="logical" name="L2ORDER"> F  </i>
   <i type="logical" name="LDMP1"> F  </i>
   <i type="logical" name="LMP2LT"> F  </i>
   <i type="logical" name="LSMP2LT"> F  </i>
   <i type="logical" name="LGWLF"> F  </i>
   <i name="ENCUTGW">     -1.60000002</i>
   <i name="ENCUTGWSOFT">     -1.60000002</i>
   <i name="ENCUTLF">     -1.00000000</i>
   <i type="logical" name="LESF_SPLINES"> F  </i>
   <i type="int" name="LMAXMP2">    -1</i>
   <i name="SCISSOR">      0.00000000</i>
   <i type="int" name="NOMEGA">     0</i>
   <i type="int" name="NOMEGAR">     0</i>
   <i type="int" name="NBANDSGW">    -1</i>
   <i type="int" name="NBANDSO">    -1</i>
   <i type="int" name="NBANDSV">    -1</i>
   <i type="int" name="NELMGW">     1</i>
   <i type="int" name="NELMHF">     1</i>
   <i type="int" name="DIM">     3</i>
   <i type="int" name="IESPILON">     4</i>
   <i type="int" name="ANTIRES">     0</i>
   <i name="OMEGAMAX">    -30.00000000</i>
   <i name="OMEGAMIN">    -30.00000000</i>
   <i name="OMEGATL">   -200.00000000</i>
   <i type="int" name="OMEGAGRID">     0</i>
   <i name="CSHIFT">     -0.10000000</i>
   <i type="logical" name="LSELFENERGY"> F  </i>
   <i type="logical" name="LSPECTRAL"> F  </i>
   <i type="logical" name="LSPECTRALGW"> F  </i>
   <i type="logical" name="LSINGLES"> F  </i>
   <i type="logical" name="LFERMIGW"> F  </i>
   <i type="logical" name="ODDONLYGW"> F  </i>
   <i type="logical" name="EVENONLYGW"> F  </i>
   <i type="int" name="NKREDLFX">     1</i>
   <i type="int" name="NKREDLFY">     1</i>
   <i type="int" name="NKREDLFZ">     1</i>
   <i type="int" name="MAXMEM">  2800</i>
   <i type="int" name="TELESCOPE">     0</i>
   <i type="int" name="NTAUPAR">    -1</i>
   <i type="int" name="NOMEGAPAR">    -1</i>
   <i name="DAMP_NEWTON">      0.80000001</i>
   <i name="LAMBDA">      1.00000000</i>
  </separator>
  <separator name="External order field" >
   <i name="OFIELD_KAPPA">      0.00000000</i>
   <v name="OFIELD_K">      0.00000000      0.00000000      0.00000000</v>
   <i name="OFIELD_Q6_NEAR">      0.00000000</i>
   <i name="OFIELD_Q6_FAR">      0.00000000</i>
   <i name="OFIELD_A">      0.00000000</i>
  </separator>
  <separator name="optional k-points parameters" >
   <i type="int" name="KPOINTS_OPT_MODE">     1</i>
   <i type="logical" name="LKPOINTS_OPT"> F  </i>
  </separator>
 </parameters>
 <atominfo>
  <atoms>       1 </atoms>
  <types>       1 </types>
  <array name="atoms" >
   <dimension dim="1">ion</dimension>
   <field type="string">element</field>
   <field type="int">atomtype</field>
   <set>
    <rc><c>Sr</c><c>   1</c></rc>
   </set>
  </array>
  <array name="atomtypes" >
   <dimension dim="1">type</dimension>
   <field type="int">atomspertype</field>
   <field type="string">element</field>
   <field>mass</field>
   <field>valence</field>
   <field type="string">pseudopotential</field>
   <set>
    <rc><c>   1</c><c>Sr</c><c>     87.62000000</c><c>     10.00000000</c><c>  PAW_PBE Sr_sv 07Sep2000               </c></rc>
   </set>
  </array>
 </atominfo>
 <structure name="initialpos" >
  <crystal>
   <varray name="basis" >
    <v>       3.71539076       0.00000000       2.14508142 </v>
    <v>       1.23846393       3.50290135       2.14508142 </v>
    <v>      -0.00000001      -0.00000001       4.29016388 </v>
   </varray>
   <i name="volume">     55.83496992 </i>
   <varray name="rec_basis" >
    <v>       0.26915069      -0.09515924       0.00000000 </v>
    <v>      -0.00000000       0.28547764       0.00000000 </v>
    <v>      -0.13457531      -0.09515918       0.23309133 </v>
   </varray>
  </crystal>
  <varray name="positions" >
   <v>       0.00000000       0.00000000       0.00000000 </v>
  </varray>
 </structure>
 <calculation>
  <scstep>
   <time name="dav">    0.52    0.52</time>
   <time name="total">    0.55    0.55</time>
   <energy>
    <i name="alphaZ">     33.57607253 </i>
    <i name="ewald">   -544.08104189 </i>
    <i name="hartreedc">   -210.98374295 </i>
    <i name="XCdc">     34.47126742 </i>
    <i name="pawpsdc">    631.17397051 </i>
    <i name="pawaedc">   -617.19253826 </i>
    <i name="eentropy">     -0.00099553 </i>
    <i name="bandstr">   -138.93307735 </i>
    <i name="atom">    843.02953968 </i>
    <i name="e_fr_energy">     31.05945415 </i>
    <i name="e_wo_entrp">     31.06044969 </i>
    <i name="e_0_energy">     31.05995192 </i>
   </energy>
  </scstep>
  <scstep>
   <time name="dav">    0.40    0.40</time>
   <time name="total">    0.40    0.40</time>
   <energy>
    <i name="e_fr_energy">     -0.02631954 </i>
    <i name="e_wo_entrp">     -0.02128718 </i>
    <i name="e_0_energy">     -0.02380336 </i>
   </energy>
  </scstep>
  <scstep>
   <time name="dav">    0.50    0.50</time>
   <time name="total">    0.50    0.50</time>
   <energy>
    <i name="e_fr_energy">     -1.58757213 </i>
    <i name="e_wo_entrp">     -1.58639873 </i>
    <i name="e_0_energy">     -1.58698543 </i>
   </energy>
  </scstep>
  <scstep>
   <time name="dav">    0.49    0.49</time>
   <time name="total">    0.49    0.49</time>
   <energy>
    <i name="e_fr_energy">     -1.63908997 </i>
    <i name="e_wo_entrp">     -1.63791082 </i>
    <i name="e_0_energy">     -1.63850039 </i>
   </energy>
  </scstep>
  <scstep>
   <time name="dav">    0.54    0.54</time>
   <time name="total">    0.59    0.58</time>
   <energy>
    <i name="e_fr_energy">     -1.64026788 </i>
    <i name="e_wo_entrp">     -1.63908887 </i>
    <i name="e_0_energy">     -1.63967837 </i>
   </energy>
  </scstep>
  <scstep>
   <time name="dav">    0.44    0.44</time>
   <time name="total">    0.50    0.49</time>
   <energy>
    <i name="e_fr_energy">     -1.64106996 </i>
    <i name="e_wo_entrp">     -1.63988185 </i>
    <i name="e_0_energy">     -1.64047590 </i>
   </energy>
  </scstep>
  <scstep>
   <time name="dav">    0.40    0.40</time>
   <time name="total">    0.46    0.45</time>
   <energy>
    <i name="e_fr_energy">     -1.64153369 </i>
    <i name="e_wo_entrp">     -1.64033333 </i>
    <i name="e_0_energy">     -1.64093351 </i>
   </energy>
  </scstep>
  <scstep>
   <time name="dav">    0.51    0.50</time>
   <time name="total">    0.56    0.55</time>
   <energy>
    <i name="e_fr_energy">     -1.64153001 </i>
    <i name="e_wo_entrp">     -1.64032920 </i>
    <i name="e_0_energy">     -1.64092961 </i>
   </energy>
  </scstep>
  <scstep>
   <time name="dav">    0.48    0.48</time>
   <time name="total">    0.54    0.53</time>
   <energy>
    <i name="e_fr_energy">     -1.64154784 </i>
    <i name="e_wo_entrp">     -1.64034671 </i>
    <i name="e_0_energy">     -1.64094727 </i>
   </energy>
  </scstep>
  <scstep>
   <time name="dav">    0.46    0.46</time>
   <time name="total">    0.52    0.51</time>
   <energy>
    <i name="e_fr_energy">     -1.64156341 </i>
    <i name="e_wo_entrp">     -1.64036091 </i>
    <i name="e_0_energy">     -1.64096216 </i>
   </energy>
  </scstep>
  <scstep>
   <time name="dav">    0.33    0.33</time>
   <time name="total">    0.35    0.34</time>
   <energy>
    <i name="alphaZ">     33.57607253 </i>
    <i name="ewald">   -544.08104189 </i>
    <i name="hartreedc">   -207.17819475 </i>
    <i name="XCdc">     34.32245075 </i>
    <i name="pawpsdc">    764.04943461 </i>
    <i name="pawaedc">   -753.24634594 </i>
    <i name="eentropy">     -0.00120233 </i>
    <i name="bandstr">   -172.11227530 </i>
    <i name="atom">    843.02953968 </i>
    <i name="e_fr_energy">     -1.64156264 </i>
    <i name="e_wo_entrp">     -1.64036031 </i>
    <i name="e_0_energy">     -1.64096147 </i>
   </energy>
  </scstep>
  <structure>
   <crystal>
    <varray name="basis" >
     <v>       3.71539076       0.00000000       2.14508142 </v>
     <v>       1.23846393       3.50290135       2.14508142 </v>
     <v>      -0.00000001      -0.00000001       4.29016388 </v>
    </varray>
    <i name="volume">     55.83496992 </i>
    <varray name="rec_basis" >
     <v>       0.26915069      -0.09515924       0.00000000 </v>
     <v>      -0.00000000       0.28547764       0.00000000 </v>
     <v>      -0.13457531      -0.09515918       0.23309133 </v>
    </varray>
   </crystal>
   <varray name="positions" >
    <v>       0.00000000       0.00000000       0.00000000 </v>
   </varray>
  </structure>
  <varray name="forces" >
   <v>      -0.00000000       0.00000000       0.00000000 </v>
  </varray>
  <varray name="stress" >
   <v>      -3.06506911      -0.00000031       0.00000044 </v>
   <v>      -0.00000031      -3.06506447       0.00000031 </v>
   <v>       0.00000044       0.00000031      -3.06506934 </v>
  </varray>
  <energy>
   <i name="e_fr_energy">     -1.64156264 </i>
   <i name="e_wo_entrp">     -1.64036031 </i>
   <i name="e_0_energy">     -1.64096147 </i>
  </energy>
  <time name="totalsc">    6.54    6.38</time>
  <eigenvalues>
   <array>
    <dimension dim="1">band</dimension>
    <dimension dim="2">kpoint</dimension>
    <dimension dim="3">spin</dimension>
    <field>eigene</field>
    <field>occ</field>
    <set>
     <set comment="spin 1">
      <set comment="kpoint 1">
       <r>  -35.1149    1.0000 </r>
       <r>  -17.0043    1.0000 </r>
       <r>  -17.0043    1.0000 </r>
       <r>  -17.0043    1.0000 </r>
       <r>   -2.0908    1.0000 </r>
       <r>    3.8598    0.0000 </r>
       <r>    3.8598    0.0000 </r>
       <r>    3.8598    0.0000 </r>
       <r>    5.3011    0.0000 </r>
      </set>
      <set comment="kpoint 2">
       <r>  -35.1130    1.0000 </r>
       <r>  -17.0320    1.0000 </r>
       <r>  -17.0080    1.0000 </r>
       <r>  -17.0080    1.0000 </r>
       <r>   -1.8451    1.0000 </r>
       <r>    3.5005    0.0000 </r>
       <r>    3.9648    0.0000 </r>
       <r>    3.9648    0.0000 </r>
       <r>    5.1713    0.0000 </r>
      </set>
      <set comment="kpoint 3">
       <r>  -35.1085    1.0000 </r>
       <r>  -17.0980    1.0000 </r>
       <r>  -17.0171    1.0000 </r>
       <r>  -17.0171    1.0000 </r>
       <r>   -1.1612    1.0000 </r>
       <r>    2.7884    0.0000 </r>
       <r>    4.0083    0.0000 </r>
       <r>    4.0083    0.0000 </r>
       <r>    5.2518    0.0000 </r>
      </set>
      <set comment="kpoint 4">
       <r>  -35.1039    1.0000 </r>
       <r>  -17.1628    1.0000 </r>
       <r>  -17.0261    1.0000 </r>
       <r>  -17.0261    1.0000 </r>
       <r>   -0.2210    1.0000 </r>
       <r>    2.0641    0.0000 </r>
       <r>    3.8075    0.0000 </r>
       <r>    3.8075    0.0000 </r>
       <r>    5.8814    0.0000 </r>
      </set>
      <set comment="kpoint 5">
       <r>  -35.1020    1.0000 </r>
       <r>  -17.1893    1.0000 </r>
       <r>  -17.0298    1.0000 </r>
       <r>  -17.0298    1.0000 </r>
       <r>    0.4205    1.0000 </r>
       <r>    1.5796    0.0462 </r>
       <r>    3.7038    0.0000 </r>
       <r>    3.7038    0.0000 </r>
       <r>    6.3241    0.0000 </r>
      </set>
      <set comment="kpoint 6">
       <r>  -35.1124    1.0000 </r>
       <r>  -17.0313    1.0000 </r>
       <r>  -17.0143    1.0000 </r>
       <r>  -17.0143    1.0000 </r>
       <r>   -1.7637    1.0000 </r>
       <r>    3.4179    0.0000 </r>
       <r>    4.0202    0.0000 </r>
       <r>    4.0202    0.0000 </r>
       <r>    4.7503    0.0000 </r>
      </set>
      <set comment="kpoint 7">
       <r>  -35.1088    1.0000 </r>
       <r>  -17.0801    1.0000 </r>
       <r>  -17.0250    1.0000 </r>
       <r>  -17.0222    1.0000 </r>
       <r>   -1.2253    1.0000 </r>
       <r>    2.9077    0.0000 </r>
       <r>    3.9304    0.0000 </r>
       <r>    4.1601    0.0000 </r>
       <r>    4.6518    0.0000 </r>
      </set>
      <set comment="kpoint 8">
       <r>  -35.1042    1.0000 </r>
       <r>  -17.1415    1.0000 </r>
       <r>  -17.0345    1.0000 </r>
       <r>  -17.0340    1.0000 </r>
       <r>   -0.3508    1.0000 </r>
       <r>    2.2777    0.0000 </r>
       <r>    3.5220    0.0000 </r>
       <r>    4.0586    0.0000 </r>
       <r>    5.3390    0.0000 </r>
      </set>
      <set comment="kpoint 9">
       <r>  -35.1014    1.0000 </r>
       <r>  -17.1778    1.0000 </r>
       <r>  -17.0462    1.0000 </r>
       <r>  -17.0360    1.0000 </r>
       <r>    0.5399    1.0000 </r>
       <r>    1.6449    0.0002 </r>
       <r>    3.3600    0.0000 </r>
       <r>    3.9048    0.0000 </r>
       <r>    6.1444    0.0000 </r>
      </set>
      <set comment="kpoint 10">
       <r>  -35.1020    1.0000 </r>
       <r>  -17.1691    1.0000 </r>
       <r>  -17.0499    1.0000 </r>
       <r>  -17.0299    1.0000 </r>
       <r>    0.2854    1.0000 </r>
       <r>    1.8614    0.0000 </r>
       <r>    3.3603    0.0000 </r>
       <r>    3.9249    0.0000 </r>
       <r>    5.7641    0.0000 </r>
      </set>
      <set comment="kpoint 11">
       <r>  -35.1057    1.0000 </r>
       <r>  -17.1214    1.0000 </r>
       <r>  -17.0423    1.0000 </r>
       <r>  -17.0191    1.0000 </r>
       <r>   -0.6652    1.0000 </r>
       <r>    2.5352    0.0000 </r>
       <r>    3.5651    0.0000 </r>
       <r>    4.1608    0.0000 </r>
       <r>    4.9418    0.0000 </r>
      </set>
      <set comment="kpoint 12">
       <r>  -35.1103    1.0000 </r>
       <r>  -17.0644    1.0000 </r>
       <r>  -17.0251    1.0000 </r>
       <r>  -17.0101    1.0000 </r>
       <r>   -1.4517    1.0000 </r>
       <r>    3.1155    0.0000 </r>
       <r>    3.8860    0.0000 </r>
       <r>    4.1980    0.0000 </r>
       <r>    4.7321    0.0000 </r>
      </set>
      <set comment="kpoint 13">
       <r>  -35.1063    1.0000 </r>
       <r>  -17.0942    1.0000 </r>
       <r>  -17.0382    1.0000 </r>
       <r>  -17.0382    1.0000 </r>
       <r>   -0.8624    1.0000 </r>
       <r>    2.6521    0.0000 </r>
       <r>    3.6352    0.0000 </r>
       <r>    4.5241    0.0000 </r>
       <r>    4.5241    0.0000 </r>
      </set>
      <set comment="kpoint 14">
       <r>  -35.1027    1.0000 </r>
       <r>  -17.1334    1.0000 </r>
       <r>  -17.0542    1.0000 </r>
       <r>  -17.0489    1.0000 </r>
       <r>   -0.1472    1.0000 </r>
       <r>    2.2960    0.0000 </r>
       <r>    3.0727    0.0000 </r>
       <r>    4.6623    0.0000 </r>
       <r>    5.1203    0.0000 </r>
      </set>
      <set comment="kpoint 15">
       <r>  -35.0999    1.0000 </r>
       <r>  -17.1576    1.0000 </r>
       <r>  -17.0780    1.0000 </r>
       <r>  -17.0509    1.0000 </r>
       <r>    0.7634    1.0000 </r>
       <r>    1.8467    0.0000 </r>
       <r>    2.7807    0.0000 </r>
       <r>    4.4899    0.0000 </r>
       <r>    5.7475    0.0000 </r>
      </set>
      <set comment="kpoint 16">
       <r>  -35.0996    1.0000 </r>
       <r>  -17.1526    1.0000 </r>
       <r>  -17.0961    1.0000 </r>
       <r>  -17.0431    1.0000 </r>
       <r>    1.0827    1.0000 </r>
       <r>    1.7429    0.0000 </r>
       <r>    2.6271    0.0000 </r>
       <r>    4.3484    0.0000 </r>
       <r>    5.8370    0.0000 </r>
      </set>
      <set comment="kpoint 17">
       <r>  -35.1020    1.0000 </r>
       <r>  -17.1370    1.0000 </r>
       <r>  -17.0820    1.0000 </r>
       <r>  -17.0299    1.0000 </r>
       <r>    0.1723    1.0000 </r>
       <r>    2.3744    0.0000 </r>
       <r>    2.7579    0.0000 </r>
       <r>    4.3229    0.0000 </r>
       <r>    5.0990    0.0000 </r>
      </set>
      <set comment="kpoint 18">
       <r>  -35.1003    1.0000 </r>
       <r>  -17.1544    1.0000 </r>
       <r>  -17.0620    1.0000 </r>
       <r>  -17.0620    1.0000 </r>
       <r>    0.3006    1.0000 </r>
       <r>    2.0892    0.0000 </r>
       <r>    2.7854    0.0000 </r>
       <r>    5.4112    0.0000 </r>
       <r>    5.4112    0.0000 </r>
      </set>
      <set comment="kpoint 19">
       <r>  -35.0984    1.0000 </r>
       <r>  -17.1661    1.0000 </r>
       <r>  -17.0801    1.0000 </r>
       <r>  -17.0658    1.0000 </r>
       <r>    0.8839    1.0000 </r>
       <r>    1.9484    0.0000 </r>
       <r>    2.5362    0.0000 </r>
       <r>    5.4033    0.0000 </r>
       <r>    5.8772    0.0000 </r>
      </set>
      <set comment="kpoint 20">
       <r>  -35.0981    1.0000 </r>
       <r>  -17.1484    1.0000 </r>
       <r>  -17.1115    1.0000 </r>
       <r>  -17.0579    1.0000 </r>
       <r>    1.4468    0.9809 </r>
       <r>    1.7656    0.0000 </r>
       <r>    2.3537    0.0000 </r>
       <r>    4.9173    0.0000 </r>
       <r>    5.3386    0.0000 </r>
      </set>
      <set comment="kpoint 21">
       <r>  -35.0978    1.0000 </r>
       <r>  -17.1784    1.0000 </r>
       <r>  -17.0719    1.0000 </r>
       <r>  -17.0719    1.0000 </r>
       <r>    0.9069    1.0000 </r>
       <r>    1.8901    0.0000 </r>
       <r>    2.5549    0.0000 </r>
       <r>    6.3299    0.0000 </r>
       <r>    6.6568    0.0000 </r>
      </set>
      <set comment="kpoint 22">
       <r>  -35.1051    1.0000 </r>
       <r>  -17.1141    1.0000 </r>
       <r>  -17.0511    1.0000 </r>
       <r>  -17.0286    1.0000 </r>
       <r>   -0.5861    1.0000 </r>
       <r>    2.5591    0.0000 </r>
       <r>    3.3527    0.0000 </r>
       <r>    4.4899    0.0000 </r>
       <r>    4.6825    0.0000 </r>
      </set>
      <set comment="kpoint 23">
       <r>  -35.1014    1.0000 </r>
       <r>  -17.1490    1.0000 </r>
       <r>  -17.0715    1.0000 </r>
       <r>  -17.0394    1.0000 </r>
       <r>    0.3250    1.0000 </r>
       <r>    2.1110    0.0000 </r>
       <r>    2.9078    0.0000 </r>
       <r>    4.2837    0.0000 </r>
       <r>    5.4064    0.0000 </r>
      </set>
      <set comment="kpoint 24">
       <r>  -35.0999    1.0000 </r>
       <r>  -17.1639    1.0000 </r>
       <r>  -17.0780    1.0000 </r>
       <r>  -17.0452    1.0000 </r>
       <r>    1.0819    1.0000 </r>
       <r>    1.5439    0.2499 </r>
       <r>    2.8685    0.0000 </r>
       <r>    4.1586    0.0000 </r>
       <r>    5.8013    0.0000 </r>
      </set>
      <set comment="kpoint 25">
       <r>  -35.0999    1.0000 </r>
       <r>  -17.1508    1.0000 </r>
       <r>  -17.0770    1.0000 </r>
       <r>  -17.0582    1.0000 </r>
       <r>    0.5612    1.0000 </r>
       <r>    2.1190    0.0000 </r>
       <r>    2.6203    0.0000 </r>
       <r>    4.7925    0.0000 </r>
       <r>    5.5227    0.0000 </r>
      </set>
      <set comment="kpoint 26">
       <r>  -35.0984    1.0000 </r>
       <r>  -17.1469    1.0000 </r>
       <r>  -17.1041    1.0000 </r>
       <r>  -17.0624    1.0000 </r>
       <r>    1.3564    1.0000 </r>
       <r>    1.8520    0.0000 </r>
       <r>    2.4047    0.0000 </r>
       <r>    4.3082    0.0000 </r>
       <r>    5.8375    0.0000 </r>
      </set>
      <set comment="kpoint 27">
       <r>  -35.0990    1.0000 </r>
       <r>  -17.1370    1.0000 </r>
       <r>  -17.1128    1.0000 </r>
       <r>  -17.0529    1.0000 </r>
       <r>    1.1772    1.0000 </r>
       <r>    2.1306    0.0000 </r>
       <r>    2.2181    0.0000 </r>
       <r>    4.2890    0.0000 </r>
       <r>    5.7826    0.0000 </r>
      </set>
      <set comment="kpoint 28">
       <r>  -35.0978    1.0000 </r>
       <r>  -17.1630    1.0000 </r>
       <r>  -17.0877    1.0000 </r>
       <r>  -17.0728    1.0000 </r>
       <r>    1.1890    1.0000 </r>
       <r>    1.9581    0.0000 </r>
       <r>    2.4204    0.0000 </r>
       <r>    4.7614    0.0000 </r>
       <r>    6.6888    0.0000 </r>
      </set>
      <set comment="kpoint 29">
       <r>  -35.0978    1.0000 </r>
       <r>  -17.1255    1.0000 </r>
       <r>  -17.1255    1.0000 </r>
       <r>  -17.0736    1.0000 </r>
       <r>    1.6071    0.0069 </r>
       <r>    2.1575    0.0000 </r>
       <r>    2.1575    0.0000 </r>
       <r>    3.7456    0.0000 </r>
       <r>    6.6424    0.0000 </r>
      </set>
     </set>
    </set>
   </array>
  </eigenvalues>
  <separator name="orbital magnetization" >
   <v name="MAGDIPOLOUT">      0.00000000      0.00000000      0.00000000</v>
  </separator>
  <dos>
   <i name="efermi">      1.52009353 </i>
   <total>
    <array>
     <dimension dim="1">gridpoints</dimension>
     <dimension dim="2">spin</dimension>
     <field>energy</field>
     <field>total</field>
     <field>integrated</field>
     <set>
      <set comment="spin 1">
       <r>   -37.2051     0.0000     0.0000 </r>
       <r>   -37.0518     0.0000     0.0000 </r>
       <r>   -36.8986     0.0000     0.0000 </r>
       <r>   -36.7453     0.0000     0.0000 </r>
       <r>   -36.5920     0.0000     0.0000 </r>
       <r>   -36.4387     0.0000     0.0000 </r>
       <r>   -36.2854     0.0000     0.0000 </r>
       <r>   -36.1322     0.0000     0.0000 </r>
       <r>   -35.9789     0.0000     0.0000 </r>
       <r>   -35.8256     0.0000     0.0000 </r>
       <r>   -35.6723     0.0000     0.0000 </r>
       <r>   -35.5190     0.0000     0.0000 </r>
       <r>   -35.3658     0.0000     0.0000 </r>
       <r>   -35.2125     0.0124     0.0019 </r>
       <r>   -35.0592    11.5481     1.7720 </r>
       <r>   -34.9059     1.4875     2.0000 </r>
       <r>   -34.7526     0.0000     2.0000 </r>
       <r>   -34.5994     0.0000     2.0000 </r>
       <r>   -34.4461     0.0000     2.0000 </r>
       <r>   -34.2928     0.0000     2.0000 </r>
       <r>   -34.1395     0.0000     2.0000 </r>
       <r>   -33.9862     0.0000     2.0000 </r>
       <r>   -33.8330     0.0000     2.0000 </r>
       <r>   -33.6797     0.0000     2.0000 </r>
       <r>   -33.5264     0.0000     2.0000 </r>
       <r>   -33.3731     0.0000     2.0000 </r>
       <r>   -33.2198     0.0000     2.0000 </r>
       <r>   -33.0666     0.0000     2.0000 </r>
       <r>   -32.9133     0.0000     2.0000 </r>
       <r>   -32.7600     0.0000     2.0000 </r>
       <r>   -32.6067     0.0000     2.0000 </r>
       <r>   -32.4534     0.0000     2.0000 </r>
       <r>   -32.3002     0.0000     2.0000 </r>
       <r>   -32.1469     0.0000     2.0000 </r>
       <r>   -31.9936     0.0000     2.0000 </r>
       <r>   -31.8403     0.0000     2.0000 </r>
       <r>   -31.6870     0.0000     2.0000 </r>
       <r>   -31.5337     0.0000     2.0000 </r>
       <r>   -31.3805     0.0000     2.0000 </r>
       <r>   -31.2272     0.0000     2.0000 </r>
       <r>   -31.0739     0.0000     2.0000 </r>
       <r>   -30.9206     0.0000     2.0000 </r>
       <r>   -30.7673     0.0000     2.0000 </r>
       <r>   -30.6141     0.0000     2.0000 </r>
       <r>   -30.4608     0.0000     2.0000 </r>
       <r>   -30.3075     0.0000     2.0000 </r>
       <r>   -30.1542     0.0000     2.0000 </r>
       <r>   -30.0009     0.0000     2.0000 </r>
       <r>   -29.8477     0.0000     2.0000 </r>
       <r>   -29.6944     0.0000     2.0000 </r>
       <r>   -29.5411     0.0000     2.0000 </r>
       <r>   -29.3878     0.0000     2.0000 </r>
       <r>   -29.2345     0.0000     2.0000 </r>
       <r>   -29.0813     0.0000     2.0000 </r>
       <r>   -28.9280     0.0000     2.0000 </r>
       <r>   -28.7747     0.0000     2.0000 </r>
       <r>   -28.6214     0.0000     2.0000 </r>
       <r>   -28.4681     0.0000     2.0000 </r>
       <r>   -28.3149     0.0000     2.0000 </r>
       <r>   -28.1616     0.0000     2.0000 </r>
       <r>   -28.0083     0.0000     2.0000 </r>
       <r>   -27.8550     0.0000     2.0000 </r>
       <r>   -27.7017     0.0000     2.0000 </r>
       <r>   -27.5485     0.0000     2.0000 </r>
       <r>   -27.3952     0.0000     2.0000 </r>
       <r>   -27.2419     0.0000     2.0000 </r>
       <r>   -27.0886     0.0000     2.0000 </r>
       <r>   -26.9353     0.0000     2.0000 </r>
       <r>   -26.7821     0.0000     2.0000 </r>
       <r>   -26.6288     0.0000     2.0000 </r>
       <r>   -26.4755     0.0000     2.0000 </r>
       <r>   -26.3222     0.0000     2.0000 </r>
       <r>   -26.1689     0.0000     2.0000 </r>
       <r>   -26.0157     0.0000     2.0000 </r>
       <r>   -25.8624     0.0000     2.0000 </r>
       <r>   -25.7091     0.0000     2.0000 </r>
       <r>   -25.5558     0.0000     2.0000 </r>
       <r>   -25.4025     0.0000     2.0000 </r>
       <r>   -25.2493     0.0000     2.0000 </r>
       <r>   -25.0960     0.0000     2.0000 </r>
       <r>   -24.9427     0.0000     2.0000 </r>
       <r>   -24.7894     0.0000     2.0000 </r>
       <r>   -24.6361     0.0000     2.0000 </r>
       <r>   -24.4828     0.0000     2.0000 </r>
       <r>   -24.3296     0.0000     2.0000 </r>
       <r>   -24.1763     0.0000     2.0000 </r>
       <r>   -24.0230     0.0000     2.0000 </r>
       <r>   -23.8697     0.0000     2.0000 </r>
       <r>   -23.7164     0.0000     2.0000 </r>
       <r>   -23.5632     0.0000     2.0000 </r>
       <r>   -23.4099     0.0000     2.0000 </r>
       <r>   -23.2566     0.0000     2.0000 </r>
       <r>   -23.1033     0.0000     2.0000 </r>
       <r>   -22.9500     0.0000     2.0000 </r>
       <r>   -22.7968     0.0000     2.0000 </r>
       <r>   -22.6435     0.0000     2.0000 </r>
       <r>   -22.4902     0.0000     2.0000 </r>
       <r>   -22.3369     0.0000     2.0000 </r>
       <r>   -22.1836     0.0000     2.0000 </r>
       <r>   -22.0304     0.0000     2.0000 </r>
       <r>   -21.8771     0.0000     2.0000 </r>
       <r>   -21.7238     0.0000     2.0000 </r>
       <r>   -21.5705     0.0000     2.0000 </r>
       <r>   -21.4172     0.0000     2.0000 </r>
       <r>   -21.2640     0.0000     2.0000 </r>
       <r>   -21.1107     0.0000     2.0000 </r>
       <r>   -20.9574     0.0000     2.0000 </r>
       <r>   -20.8041     0.0000     2.0000 </r>
       <r>   -20.6508     0.0000     2.0000 </r>
       <r>   -20.4976     0.0000     2.0000 </r>
       <r>   -20.3443     0.0000     2.0000 </r>
       <r>   -20.1910     0.0000     2.0000 </r>
       <r>   -20.0377     0.0000     2.0000 </r>
       <r>   -19.8844     0.0000     2.0000 </r>
       <r>   -19.7312     0.0000     2.0000 </r>
       <r>   -19.5779     0.0000     2.0000 </r>
       <r>   -19.4246     0.0000     2.0000 </r>
       <r>   -19.2713     0.0000     2.0000 </r>
       <r>   -19.1180     0.0000     2.0000 </r>
       <r>   -18.9648     0.0000     2.0000 </r>
       <r>   -18.8115     0.0000     2.0000 </r>
       <r>   -18.6582     0.0000     2.0000 </r>
       <r>   -18.5049     0.0000     2.0000 </r>
       <r>   -18.3516     0.0000     2.0000 </r>
       <r>   -18.1984     0.0000     2.0000 </r>
       <r>   -18.0451     0.0000     2.0000 </r>
       <r>   -17.8918     0.0000     2.0000 </r>
       <r>   -17.7385     0.0000     2.0000 </r>
       <r>   -17.5852     0.0000     2.0000 </r>
       <r>   -17.4320     0.0000     2.0000 </r>
       <r>   -17.2787     0.0046     2.0007 </r>
       <r>   -17.1254     9.9821     3.5308 </r>
       <r>   -16.9721    28.4213     7.8872 </r>
       <r>   -16.8188     0.7360     8.0000 </r>
       <r>   -16.6655     0.0000     8.0000 </r>
       <r>   -16.5123     0.0000     8.0000 </r>
       <r>   -16.3590     0.0000     8.0000 </r>
       <r>   -16.2057     0.0000     8.0000 </r>
       <r>   -16.0524     0.0000     8.0000 </r>
       <r>   -15.8991     0.0000     8.0000 </r>
       <r>   -15.7459     0.0000     8.0000 </r>
       <r>   -15.5926     0.0000     8.0000 </r>
       <r>   -15.4393     0.0000     8.0000 </r>
       <r>   -15.2860     0.0000     8.0000 </r>
       <r>   -15.1327     0.0000     8.0000 </r>
       <r>   -14.9795     0.0000     8.0000 </r>
       <r>   -14.8262     0.0000     8.0000 </r>
       <r>   -14.6729     0.0000     8.0000 </r>
       <r>   -14.5196     0.0000     8.0000 </r>
       <r>   -14.3663     0.0000     8.0000 </r>
       <r>   -14.2131     0.0000     8.0000 </r>
       <r>   -14.0598     0.0000     8.0000 </r>
       <r>   -13.9065     0.0000     8.0000 </r>
       <r>   -13.7532     0.0000     8.0000 </r>
       <r>   -13.5999     0.0000     8.0000 </r>
       <r>   -13.4467     0.0000     8.0000 </r>
       <r>   -13.2934     0.0000     8.0000 </r>
       <r>   -13.1401     0.0000     8.0000 </r>
       <r>   -12.9868     0.0000     8.0000 </r>
       <r>   -12.8335     0.0000     8.0000 </r>
       <r>   -12.6803     0.0000     8.0000 </r>
       <r>   -12.5270     0.0000     8.0000 </r>
       <r>   -12.3737     0.0000     8.0000 </r>
       <r>   -12.2204     0.0000     8.0000 </r>
       <r>   -12.0671     0.0000     8.0000 </r>
       <r>   -11.9139     0.0000     8.0000 </r>
       <r>   -11.7606     0.0000     8.0000 </r>
       <r>   -11.6073     0.0000     8.0000 </r>
       <r>   -11.4540     0.0000     8.0000 </r>
       <r>   -11.3007     0.0000     8.0000 </r>
       <r>   -11.1475     0.0000     8.0000 </r>
       <r>   -10.9942     0.0000     8.0000 </r>
       <r>   -10.8409     0.0000     8.0000 </r>
       <r>   -10.6876     0.0000     8.0000 </r>
       <r>   -10.5343     0.0000     8.0000 </r>
       <r>   -10.3811     0.0000     8.0000 </r>
       <r>   -10.2278     0.0000     8.0000 </r>
       <r>   -10.0745     0.0000     8.0000 </r>
       <r>    -9.9212     0.0000     8.0000 </r>
       <r>    -9.7679     0.0000     8.0000 </r>
       <r>    -9.6146     0.0000     8.0000 </r>
       <r>    -9.4614     0.0000     8.0000 </r>
       <r>    -9.3081     0.0000     8.0000 </r>
       <r>    -9.1548     0.0000     8.0000 </r>
       <r>    -9.0015     0.0000     8.0000 </r>
       <r>    -8.8482     0.0000     8.0000 </r>
       <r>    -8.6950     0.0000     8.0000 </r>
       <r>    -8.5417     0.0000     8.0000 </r>
       <r>    -8.3884     0.0000     8.0000 </r>
       <r>    -8.2351     0.0000     8.0000 </r>
       <r>    -8.0818     0.0000     8.0000 </r>
       <r>    -7.9286     0.0000     8.0000 </r>
       <r>    -7.7753     0.0000     8.0000 </r>
       <r>    -7.6220     0.0000     8.0000 </r>
       <r>    -7.4687     0.0000     8.0000 </r>
       <r>    -7.3154     0.0000     8.0000 </r>
       <r>    -7.1622     0.0000     8.0000 </r>
       <r>    -7.0089     0.0000     8.0000 </r>
       <r>    -6.8556     0.0000     8.0000 </r>
       <r>    -6.7023     0.0000     8.0000 </r>
       <r>    -6.5490     0.0000     8.0000 </r>
       <r>    -6.3958     0.0000     8.0000 </r>
       <r>    -6.2425     0.0000     8.0000 </r>
       <r>    -6.0892     0.0000     8.0000 </r>
       <r>    -5.9359     0.0000     8.0000 </r>
       <r>    -5.7826     0.0000     8.0000 </r>
       <r>    -5.6294     0.0000     8.0000 </r>
       <r>    -5.4761     0.0000     8.0000 </r>
       <r>    -5.3228     0.0000     8.0000 </r>
       <r>    -5.1695     0.0000     8.0000 </r>
       <r>    -5.0162     0.0000     8.0000 </r>
       <r>    -4.8630     0.0000     8.0000 </r>
       <r>    -4.7097     0.0000     8.0000 </r>
       <r>    -4.5564     0.0000     8.0000 </r>
       <r>    -4.4031     0.0000     8.0000 </r>
       <r>    -4.2498     0.0000     8.0000 </r>
       <r>    -4.0966     0.0000     8.0000 </r>
       <r>    -3.9433     0.0000     8.0000 </r>
       <r>    -3.7900     0.0000     8.0000 </r>
       <r>    -3.6367     0.0000     8.0000 </r>
       <r>    -3.4834     0.0000     8.0000 </r>
       <r>    -3.3302     0.0000     8.0000 </r>
       <r>    -3.1769     0.0000     8.0000 </r>
       <r>    -3.0236     0.0000     8.0000 </r>
       <r>    -2.8703     0.0000     8.0000 </r>
       <r>    -2.7170     0.0000     8.0000 </r>
       <r>    -2.5637     0.0000     8.0000 </r>
       <r>    -2.4105     0.0000     8.0000 </r>
       <r>    -2.2572     0.0000     8.0000 </r>
       <r>    -2.1039     0.0091     8.0014 </r>
       <r>    -1.9506     0.0167     8.0040 </r>
       <r>    -1.7973     0.2117     8.0364 </r>
       <r>    -1.6441     0.1447     8.0586 </r>
       <r>    -1.4908     0.0412     8.0649 </r>
       <r>    -1.3375     0.2649     8.1055 </r>
       <r>    -1.1842     0.5887     8.1957 </r>
       <r>    -1.0309     0.2265     8.2305 </r>
       <r>    -0.8777     0.0509     8.2383 </r>
       <r>    -0.7244     0.1308     8.2583 </r>
       <r>    -0.5711     0.9865     8.4095 </r>
       <r>    -0.4178     0.2257     8.4441 </r>
       <r>    -0.2645     0.6119     8.5379 </r>
       <r>    -0.1113     0.7027     8.6456 </r>
       <r>     0.0420     0.0948     8.6602 </r>
       <r>     0.1953     0.2308     8.6955 </r>
       <r>     0.3486     1.7206     8.9593 </r>
       <r>     0.5019     0.5577     9.0448 </r>
       <r>     0.6551     1.1075     9.2145 </r>
       <r>     0.8084     0.5619     9.3007 </r>
       <r>     0.9617     0.7272     9.4121 </r>
       <r>     1.1150     1.0481     9.5728 </r>
       <r>     1.2683     1.1062     9.7423 </r>
       <r>     1.4215     1.2551     9.9347 </r>
       <r>     1.5748     0.8553    10.0658 </r>
       <r>     1.7281     1.1413    10.2407 </r>
       <r>     1.8814     2.6488    10.6468 </r>
       <r>     2.0347     1.5315    10.8815 </r>
       <r>     2.1879     3.0398    11.3475 </r>
       <r>     2.3412     1.9647    11.6486 </r>
       <r>     2.4945     2.1733    11.9817 </r>
       <r>     2.6478     2.7335    12.4007 </r>
       <r>     2.8011     1.3562    12.6086 </r>
       <r>     2.9543     2.5804    13.0041 </r>
       <r>     3.1076     0.8158    13.1292 </r>
       <r>     3.2609     0.2844    13.1728 </r>
       <r>     3.4142     1.7986    13.4485 </r>
       <r>     3.5675     1.2585    13.6414 </r>
       <r>     3.7207     0.6829    13.7460 </r>
       <r>     3.8740     0.9362    13.8895 </r>
       <r>     4.0273     2.8358    14.3242 </r>
       <r>     4.1806     2.1863    14.6593 </r>
       <r>     4.3339     3.7322    15.2314 </r>
       <r>     4.4871     1.5813    15.4738 </r>
       <r>     4.6404     1.3763    15.6848 </r>
       <r>     4.7937     2.3621    16.0468 </r>
       <r>     4.9470     0.9687    16.1953 </r>
       <r>     5.1003     0.6674    16.2976 </r>
       <r>     5.2536     0.8986    16.4353 </r>
       <r>     5.4068     2.0944    16.7564 </r>
       <r>     5.5601     1.6026    17.0020 </r>
       <r>     5.7134     0.2569    17.0414 </r>
       <r>     5.8667     4.0165    17.6571 </r>
       <r>     6.0200     0.9123    17.7969 </r>
       <r>     6.1732     0.4846    17.8712 </r>
       <r>     6.3265     0.2159    17.9043 </r>
       <r>     6.4798     0.0894    17.9180 </r>
       <r>     6.6331     0.0974    17.9329 </r>
       <r>     6.7864     0.4369    17.9999 </r>
       <r>     6.9396     0.0009    18.0000 </r>
       <r>     7.0929     0.0000    18.0000 </r>
       <r>     7.2462     0.0000    18.0000 </r>
       <r>     7.3995     0.0000    18.0000 </r>
       <r>     7.5528     0.0000    18.0000 </r>
       <r>     7.7060     0.0000    18.0000 </r>
       <r>     7.8593     0.0000    18.0000 </r>
       <r>     8.0126     0.0000    18.0000 </r>
       <r>     8.1659     0.0000    18.0000 </r>
       <r>     8.3192     0.0000    18.0000 </r>
       <r>     8.4724     0.0000    18.0000 </r>
       <r>     8.6257     0.0000    18.0000 </r>
       <r>     8.7790     0.0000    18.0000 </r>
      </set>
     </set>
    </array>
   </total>
  </dos>
 </calculation>
 <structure name="finalpos" >
  <crystal>
   <varray name="basis" >
    <v>       3.71539076       0.00000000       2.14508142 </v>
    <v>       1.23846393       3.50290135       2.14508142 </v>
    <v>      -0.00000001      -0.00000001       4.29016388 </v>
   </varray>
   <i name="volume">     55.83496992 </i>
   <varray name="rec_basis" >
    <v>       0.26915069      -0.09515924       0.00000000 </v>
    <v>      -0.00000000       0.28547764       0.00000000 </v>
    <v>      -0.13457531      -0.09515918       0.23309133 </v>
   </varray>
  </crystal>
  <varray name="positions" >
   <v>       0.00000000       0.00000000       0.00000000 </v>
  </varray>
 </structure>
</modeling>
