    2    2    1    1
  0.3561798E+02  0.4145400E-09  0.4145400E-09  0.4145400E-09  0.5000000E-15
   1.0000000000000000E-004
  CAR 
 unknown system                          
      2    120      5
 
  0.1262379E-14  0.1262379E-14  0.1262379E-14  0.2962963E-03
      1         -2.657162   1.000000
      2          5.287845   0.000000
      3          5.287845   0.000000
      4          5.727328   0.000000
      5          5.727328   0.000000
 
  0.6666667E-01  0.1262379E-14  0.1262379E-14  0.1777778E-02
      1         -2.617208   1.000000
      2          4.588923   0.000000
      3          5.326616   0.000000
      4          5.760265   0.000000
      5          5.760265   0.000000
 
  0.1333333E+00  0.1262379E-14  0.1262379E-14  0.1777778E-02
      1         -2.497446   1.000000
      2          3.699072   0.000000
      3          5.442928   0.000000
      4          5.859137   0.000000
      5          5.859137   0.000000
 
  0.2000000E+00  0.1262379E-14  0.1262379E-14  0.1777778E-02
      1         -2.298313   1.000000
      2          2.825419   0.000000
      3          5.636771   0.000000
      4          6.024117   0.000000
      5          6.024117   0.000000
 
  0.2666667E+00  0.1262379E-14  0.1262379E-14  0.1777778E-02
      1         -2.020509   1.000000
      2          1.993948   0.000000
      3          5.908128   0.000000
      4          6.255498   0.000000
      5          6.255498   0.000000
 
  0.3333333E+00  0.1262379E-14  0.1262379E-14  0.1777778E-02
      1         -1.665030   1.000000
      2          1.216886   0.000000
      3          6.256977   0.000000
      4          6.553665   0.000000
      5          6.553665   0.000000
 
  0.4000000E+00  0.1262379E-14  0.1262379E-14  0.1777778E-02
      1         -1.233200   1.000000
      2          0.501435   1.000000
      3          6.683282   0.000000
      4          6.919074   0.000000
      5          6.919074   0.000000
 
  0.4666667E+00  0.1262379E-14  0.1262379E-14  0.1777778E-02
      1         -0.726682   1.000000
      2         -0.147580   1.000000
      3          7.186994   0.000000
      4          7.352203   0.000000
      5          7.352203   0.000000
 
  0.6666667E-01  0.6666667E-01  0.1262379E-14  0.3555556E-02
      1         -2.577263   1.000000
      2          4.476693   0.000000
      3          4.828913   0.000000
      4          5.793199   0.000000
      5          6.043920   0.000000
 
  0.1333333E+00  0.6666667E-01  0.1262379E-14  0.7111111E-02
      1         -2.457575   1.000000
      2          3.716472   0.000000
      3          4.819432   0.000000
      4          5.892057   0.000000
      5          6.210388   0.000000
 
  0.2000000E+00  0.6666667E-01  0.1262379E-14  0.7111111E-02
      1         -2.258554   1.000000
      2          2.856640   0.000000
      3          4.990167   0.000000
      4          6.057011   0.000000
      5          6.407259   0.000000
 
  0.2666667E+00  0.6666667E-01  0.1262379E-14  0.7111111E-02
      1         -1.980917   1.000000
      2          2.029149   0.000000
      3          5.241669   0.000000
      4          6.288351   0.000000
      5          6.670110   0.000000
 
  0.3333333E+00  0.6666667E-01  0.1262379E-14  0.7111111E-02
      1         -1.625650   1.000000
      2          1.253756   0.000000
      3          5.567360   0.000000
      4          6.586456   0.000000
      5          7.003946   0.000000
 
  0.4000000E+00  0.6666667E-01  0.1262379E-14  0.7111111E-02
      1         -1.194093   1.000000
      2          0.539199   0.999999
      3          5.965535   0.000000
      4          6.951767   0.000000
      5          7.409943   0.000000
 
  0.4666667E+00  0.6666667E-01  0.1262379E-14  0.7111111E-02
      1         -0.687908   1.000000
      2         -0.109236   1.000000
      3          6.435241   0.000000
      4          6.975642   0.000000
      5          7.384750   0.000000
 
  0.1333333E+00  0.1333333E+00  0.1262379E-14  0.3555556E-02
      1         -2.338095   1.000000
      2          3.625022   0.000000
      3          4.142352   0.000000
      4          5.990869   0.000000
      5          6.456199   0.000000
 
  0.2000000E+00  0.1333333E+00  0.1262379E-14  0.7111111E-02
      1         -2.139426   1.000000
      2          2.938285   0.000000
      3          4.139154   0.000000
      4          6.155744   0.000000
      5          6.688193   0.000000
 
  0.2666667E+00  0.1333333E+00  0.1262379E-14  0.7111111E-02
      1         -1.862282   1.000000
      2          2.132489   0.000000
      3          4.368397   0.000000
      4          6.386952   0.000000
      5          6.974245   0.000000
 
  0.3333333E+00  0.1333333E+00  0.1262379E-14  0.7111111E-02
      1         -1.507666   1.000000
      2          1.363662   0.000000
      3          4.687520   0.000000
      4          6.684843   0.000000
      5          7.329639   0.000000
 
  0.4000000E+00  0.1333333E+00  0.1262379E-14  0.7111111E-02
      1         -1.076922   1.000000
      2          0.652171   0.945776
      3          5.083085   0.000000
      4          6.701507   0.000000
      5          7.049822   0.000000
 
  0.4666667E+00  0.1333333E+00  0.1262379E-14  0.7111111E-02
      1         -0.571763   1.000000
      2          0.005596   1.000000
      3          5.551671   0.000000
      4          6.091600   0.000000
      5          7.482292   0.000000
 
  0.2000000E+00  0.2000000E+00  0.1262379E-14  0.3555556E-02
      1         -1.941351   1.000000
      2          2.911464   0.000000
      3          3.476627   0.000000
      4          6.320467   0.000000
      5          6.938456   0.000000
 
  0.2666667E+00  0.2000000E+00  0.1262379E-14  0.7111111E-02
      1         -1.665032   1.000000
      2          2.289352   0.000000
      3          3.524211   0.000000
      4          6.551409   0.000000
      5          7.235395   0.000000
 
  0.3333333E+00  0.2000000E+00  0.1262379E-14  0.7111111E-02
      1         -1.311519   1.000000
      2          1.543481   0.000000
      3          3.823587   0.000000
      4          6.520177   0.000000
      5          6.848865   0.000000
 
  0.4000000E+00  0.2000000E+00  0.1262379E-14  0.7111111E-02
      1         -0.882150   1.000000
      2          0.839166   0.000115
      3          4.215996   0.000000
      4          5.839750   0.000000
      5          7.213136   0.000000
 
  0.4666667E+00  0.2000000E+00  0.1262379E-14  0.7111111E-02
      1         -0.378767   1.000000
      2          0.196218   1.000000
      3          4.685388   0.000000
      4          5.227428   0.000000
      5          7.644451   0.000000
 
  0.2666667E+00  0.2666667E+00  0.1262379E-14  0.3555556E-02
      1         -1.389909   1.000000
      2          2.340633   0.000000
      3          2.901969   0.000000
      4          6.457685   0.000000
      5          6.781883   0.000000
 
  0.3333333E+00  0.2666667E+00  0.1262379E-14  0.7111111E-02
      1         -1.037952   1.000000
      2          1.779108   0.000000
      3          3.021708   0.000000
      4          5.709166   0.000000
      5          7.078531   0.000000
 
  0.4000000E+00  0.2666667E+00  0.1262379E-14  0.7111111E-02
      1         -0.610617   1.000000
      2          1.096908   0.000000
      3          3.397522   0.000000
      4          5.025450   0.000000
      5          7.441414   0.000000
 
  0.4666667E+00  0.2666667E+00  0.1262379E-14  0.7111111E-02
      1         -0.109900   1.000000
      2          0.461176   1.000000
      3          3.865680   0.000000
      4          4.409927   0.000000
      5          7.870261   0.000000
 
  0.3333333E+00  0.3333333E+00  0.1262379E-14  0.3555556E-02
      1         -0.688104   1.000000
      2          1.912875   0.000000
      3          2.451917   0.000000
      4          4.957130   0.000000
      5          7.373709   0.000000
 
  0.4000000E+00  0.3333333E+00  0.1262379E-14  0.7111111E-02
      1         -0.263587   1.000000
      2          1.411949   0.000000
      3          2.652946   0.000000
      4          4.269794   0.000000
      5          7.733847   0.000000
 
  0.4666667E+00  0.3333333E+00  0.1262379E-14  0.7111111E-02
      1          0.233089   1.000000
      2          0.797025   0.006354
      3          3.107212   0.000000
      4          3.651386   0.000000
      5          8.157232   0.000000
 
  0.4000000E+00  0.4000000E+00  0.1262379E-14  0.3555556E-02
      1          0.156848   1.000000
      2          1.627953   0.000000
      3          2.144170   0.000000
      4          3.579363   0.000000
      5          8.088250   0.000000
 
  0.4666667E+00  0.4000000E+00  0.1262379E-14  0.7111111E-02
      1          0.646445   0.961400
      2          1.190570   0.000000
      3          2.428439   0.000000
      4          2.960474   0.000000
      5          8.497930   0.000000
 
  0.4666667E+00  0.4666667E+00  0.1262379E-14  0.3555556E-02
      1          1.116591   0.000000
      2          1.485580   0.000000
      3          1.988200   0.000000
      4          2.353125   0.000000
      5          8.863076   0.000000
 
  0.6666667E-01  0.6666667E-01  0.6666667E-01  0.2370370E-02
      1         -2.537340   1.000000
      2          4.513018   0.000000
      3          4.513018   0.000000
      4          5.422741   0.000000
      5          6.720727   0.000000
 
  0.1333333E+00  0.6666667E-01  0.6666667E-01  0.7111111E-02
      1         -2.417725   1.000000
      2          3.737578   0.000000
      3          4.621975   0.000000
      4          5.412930   0.000000
      5          6.826984   0.000000
 
  0.2000000E+00  0.6666667E-01  0.6666667E-01  0.7111111E-02
      1         -2.218819   1.000000
      2          2.888072   0.000000
      3          4.803504   0.000000
      4          5.562737   0.000000
      5          7.004334   0.000000
 
  0.2666667E+00  0.6666667E-01  0.6666667E-01  0.7111111E-02
      1         -1.941349   1.000000
      2          2.064325   0.000000
      3          5.057509   0.000000
      4          5.799247   0.000000
      5          7.253141   0.000000
 
  0.3333333E+00  0.6666667E-01  0.6666667E-01  0.7111111E-02
      1         -1.586299   1.000000
      2          1.290581   0.000000
      3          5.383858   0.000000
      4          6.109636   0.000000
      5          7.573890   0.000000
 
  0.4000000E+00  0.6666667E-01  0.6666667E-01  0.7111111E-02
      1         -1.155011   1.000000
      2          0.576926   0.999906
      3          5.782385   0.000000
      4          6.489864   0.000000
      5          7.408742   0.000000
 
  0.4666667E+00  0.6666667E-01  0.6666667E-01  0.7111111E-02
      1         -0.649167   1.000000
      2         -0.070921   1.000000
      3          6.252883   0.000000
      4          6.795112   0.000000
      5          6.937849   0.000000
 
  0.1333333E+00  0.1333333E+00  0.6666667E-01  0.7111111E-02
      1         -2.298313   1.000000
      2          3.660971   0.000000
      3          4.097217   0.000000
      4          5.329081   0.000000
      5          7.207841   0.000000
 
  0.2000000E+00  0.1333333E+00  0.6666667E-01  0.1422222E-01
      1         -2.099764   1.000000
      2          2.970840   0.000000
      3          4.127920   0.000000
      4          5.467783   0.000000
      5          7.438252   0.000000
 
  0.2666667E+00  0.1333333E+00  0.6666667E-01  0.1422222E-01
      1         -1.822786   1.000000
      2          2.167604   0.000000
      3          4.362894   0.000000
      4          5.704097   0.000000
      5          7.707040   0.000000
 
  0.3333333E+00  0.1333333E+00  0.6666667E-01  0.1422222E-01
      1         -1.468391   1.000000
      2          1.400355   0.000000
      3          4.683203   0.000000
      4          6.017620   0.000000
      5          7.376998   0.000000
 
  0.4000000E+00  0.1333333E+00  0.6666667E-01  0.1422222E-01
      1         -1.037920   1.000000
      2          0.689781   0.705897
      3          5.078816   0.000000
      4          6.402495   0.000000
      5          6.697489   0.000000
 
  0.4666667E+00  0.1333333E+00  0.6666667E-01  0.1422222E-01
      1         -0.533106   1.000000
      2          0.043809   1.000000
      3          5.547203   0.000000
      4          6.087114   0.000000
      5          6.855807   0.000000
 
  0.2000000E+00  0.2000000E+00  0.6666667E-01  0.7111111E-02
      1         -1.901807   1.000000
      2          2.947239   0.000000
      3          3.491702   0.000000
      4          5.606298   0.000000
      5          7.712417   0.000000
 
  0.2666667E+00  0.2000000E+00  0.6666667E-01  0.1422222E-01
      1         -1.625659   1.000000
      2          2.324522   0.000000
      3          3.547551   0.000000
      4          5.842647   0.000000
      5          7.286686   0.000000
 
  0.3333333E+00  0.2000000E+00  0.6666667E-01  0.1422222E-01
      1         -1.272368   1.000000
      2          1.579945   0.000000
      3          3.848151   0.000000
      4          6.155992   0.000000
      5          6.542166   0.000000
 
  0.4000000E+00  0.2000000E+00  0.6666667E-01  0.1422222E-01
      1         -0.843285   1.000000
      2          0.876574   0.000001
      3          4.240438   0.000000
      4          5.862457   0.000000
      5          6.540407   0.000000
 
  0.4666667E+00  0.2000000E+00  0.6666667E-01  0.1422222E-01
      1         -0.340257   1.000000
      2          0.234261   1.000000
      3          4.709335   0.000000
      4          5.250768   0.000000
      5          6.992746   0.000000
 
  0.2666667E+00  0.2666667E+00  0.6666667E-01  0.7111111E-02
      1         -1.350710   1.000000
      2          2.376301   0.000000
      3          2.932249   0.000000
      4          6.077946   0.000000
      5          6.484243   0.000000
 
  0.3333333E+00  0.2666667E+00  0.6666667E-01  0.1422222E-01
      1         -0.998982   1.000000
      2          1.815222   0.000000
      3          3.054040   0.000000
      4          5.738040   0.000000
      5          6.389420   0.000000
 
  0.4000000E+00  0.2666667E+00  0.6666667E-01  0.1422222E-01
      1         -0.571945   1.000000
      2          1.133998   0.000000
      3          3.429758   0.000000
      4          5.055593   0.000000
      5          6.771007   0.000000
 
  0.4666667E+00  0.2666667E+00  0.6666667E-01  0.1422222E-01
      1         -0.071608   1.000000
      2          0.498962   1.000000
      3          3.897405   0.000000
      4          4.440957   0.000000
      5          7.218911   0.000000
 
  0.3333333E+00  0.3333333E+00  0.6666667E-01  0.7111111E-02
      1         -0.649379   1.000000
      2          1.948472   0.000000
      3          2.487325   0.000000
      4          4.988781   0.000000
      5          6.697663   0.000000
 
  0.4000000E+00  0.3333333E+00  0.6666667E-01  0.1422222E-01
      1         -0.225180   1.000000
      2          1.448505   0.000000
      3          2.688358   0.000000
      4          4.302917   0.000000
      5          7.074073   0.000000
 
  0.4666667E+00  0.3333333E+00  0.6666667E-01  0.1422222E-01
      1          0.271074   1.000000
      2          0.834433   0.000193
      3          3.142032   0.000000
      4          3.685476   0.000000
      5          7.512959   0.000000
 
  0.4000000E+00  0.4000000E+00  0.6666667E-01  0.7111111E-02
      1          0.194894   1.000000
      2          1.663507   0.000000
      3          2.181628   0.000000
      4          3.614043   0.000000
      5          7.441118   0.000000
 
  0.4666667E+00  0.4000000E+00  0.6666667E-01  0.1422222E-01
      1          0.683995   0.759625
      2          1.227342   0.000000
      3          2.465018   0.000000
      4          2.996176   0.000000
      5          7.860199   0.000000
 
  0.4666667E+00  0.4666667E+00  0.6666667E-01  0.7111111E-02
      1          1.153429   0.000000
      2          1.521111   0.000000
      3          2.026426   0.000000
      4          2.390012   0.000000
      5          8.222436   0.000000
 
  0.1333333E+00  0.1333333E+00  0.1333333E+00  0.2370370E-02
      1         -2.179112   1.000000
      2          3.768823   0.000000
      3          3.768823   0.000000
      4          4.846827   0.000000
      5          8.120578   0.000000
 
  0.2000000E+00  0.1333333E+00  0.1333333E+00  0.7111111E-02
      1         -1.980921   1.000000
      2          3.059588   0.000000
      3          3.948597   0.000000
      4          4.849871   0.000000
      5          8.299817   0.000000
 
  0.2666667E+00  0.1333333E+00  0.1333333E+00  0.7111111E-02
      1         -1.704439   1.000000
      2          2.270834   0.000000
      3          4.200319   0.000000
      4          5.055459   0.000000
      5          7.978726   0.000000
 
  0.3333333E+00  0.1333333E+00  0.1333333E+00  0.7111111E-02
      1         -1.350708   1.000000
      2          1.509732   0.000000
      3          4.524033   0.000000
      4          5.363517   0.000000
      5          7.223466   0.000000
 
  0.4000000E+00  0.1333333E+00  0.1333333E+00  0.7111111E-02
      1         -0.921065   1.000000
      2          0.802282   0.004138
      3          4.919790   0.000000
      4          5.751294   0.000000
      5          6.539574   0.000000
 
  0.4666667E+00  0.1333333E+00  0.1333333E+00  0.7111111E-02
      1         -0.417308   1.000000
      2          0.158239   1.000000
      3          5.387630   0.000000
      4          5.927571   0.000000
      5          6.210217   0.000000
 
  0.2000000E+00  0.2000000E+00  0.1333333E+00  0.7111111E-02
      1         -1.783320   1.000000
      2          3.054580   0.000000
      3          3.492536   0.000000
      4          4.782548   0.000000
      5          8.122452   0.000000
 
  0.2666667E+00  0.2000000E+00  0.1333333E+00  0.1422222E-01
      1         -1.507688   1.000000
      2          2.428448   0.000000
      3          3.592728   0.000000
      4          4.977936   0.000000
      5          7.331838   0.000000
 
  0.3333333E+00  0.2000000E+00  0.1333333E+00  0.1422222E-01
      1         -1.155064   1.000000
      2          1.688669   0.000000
      3          3.899793   0.000000
      4          5.284015   0.000000
      5          6.588906   0.000000
 
  0.4000000E+00  0.2000000E+00  0.1333333E+00  0.1422222E-01
      1         -0.726844   1.000000
      2          0.988458   0.000000
      3          4.292290   0.000000
      4          5.671400   0.000000
      5          5.910037   0.000000
 
  0.4666667E+00  0.2000000E+00  0.1333333E+00  0.1422222E-01
      1         -0.224909   1.000000
      2          0.348170   1.000000
      3          4.759838   0.000000
      4          5.299649   0.000000
      5          6.130320   0.000000
 
  0.2666667E+00  0.2666667E+00  0.1333333E+00  0.7111111E-02
      1         -1.233261   1.000000
      2          2.483325   0.000000
      3          3.013855   0.000000
      4          5.173384   0.000000
      5          6.557919   0.000000
 
  0.3333333E+00  0.2666667E+00  0.1333333E+00  0.1422222E-01
      1         -0.882229   1.000000
      2          1.923050   0.000000
      3          3.145613   0.000000
      4          5.477935   0.000000
      5          5.819892   0.000000
 
  0.4000000E+00  0.2666667E+00  0.1333333E+00  0.1422222E-01
      1         -0.456096   1.000000
      2          1.244937   0.000000
      3          3.521659   0.000000
      4          5.141338   0.000000
      5          5.862255   0.000000
 
  0.4666667E+00  0.2666667E+00  0.1333333E+00  0.1422222E-01
      1          0.043079   1.000000
      2          0.612094   0.996917
      3          3.987878   0.000000
      4          4.529347   0.000000
      5          6.316257   0.000000
 
  0.3333333E+00  0.3333333E+00  0.1333333E+00  0.7111111E-02
      1         -0.533369   1.000000
      2          2.055288   0.000000
      3          2.590681   0.000000
      4          5.081350   0.000000
      5          5.779008   0.000000
 
  0.4000000E+00  0.3333333E+00  0.1333333E+00  0.1422222E-01
      1         -0.110139   1.000000
      2          1.557902   0.000000
      3          2.792780   0.000000
      4          4.400449   0.000000
      5          6.157461   0.000000
 
  0.4666667E+00  0.3333333E+00  0.1333333E+00  0.1422222E-01
      1          0.384832   1.000000
      2          0.946429   0.000000
      3          3.244846   0.000000
      4          3.786069   0.000000
      5          6.601141   0.000000
 
  0.4000000E+00  0.4000000E+00  0.1333333E+00  0.7111111E-02
      1          0.308847   1.000000
      2          1.770191   0.000000
      3          2.292658   0.000000
      4          3.716962   0.000000
      5          6.525253   0.000000
 
  0.4666667E+00  0.4000000E+00  0.1333333E+00  0.1422222E-01
      1          0.796444   0.006654
      2          1.337457   0.000000
      3          2.573841   0.000000
      4          3.102369   0.000000
      5          6.946483   0.000000
 
  0.4666667E+00  0.4666667E+00  0.1333333E+00  0.7111111E-02
      1          1.263764   0.000000
      2          1.627732   0.000000
      3          2.140185   0.000000
      4          2.499962   0.000000
      5          7.305039   0.000000
 
  0.2000000E+00  0.2000000E+00  0.2000000E+00  0.2370370E-02
      1         -1.586324   1.000000
      2          3.233537   0.000000
      3          3.233537   0.000000
      4          4.331506   0.000000
      5          8.079256   0.000000
 
  0.2666667E+00  0.2000000E+00  0.2000000E+00  0.7111111E-02
      1         -1.311556   1.000000
      2          2.590497   0.000000
      3          3.484187   0.000000
      4          4.393862   0.000000
      5          7.254253   0.000000
 
  0.3333333E+00  0.2000000E+00  0.2000000E+00  0.7111111E-02
      1         -0.960067   1.000000
      2          1.866650   0.000000
      3          3.806633   0.000000
      4          4.671130   0.000000
      5          6.499642   0.000000
 
  0.4000000E+00  0.2000000E+00  0.2000000E+00  0.7111111E-02
      1         -0.533319   1.000000
      2          1.173580   0.000000
      3          4.200992   0.000000
      4          5.053001   0.000000
      5          5.816742   0.000000
 
  0.4666667E+00  0.2000000E+00  0.2000000E+00  0.7111111E-02
      1         -0.033279   1.000000
      2          0.537207   0.999999
      3          4.667396   0.000000
      4          5.205962   0.000000
      5          5.512518   0.000000
 
  0.2666667E+00  0.2666667E+00  0.2000000E+00  0.7111111E-02
      1         -1.038015   1.000000
      2          2.661767   0.000000
      3          3.091517   0.000000
      4          4.386994   0.000000
      5          6.651849   0.000000
 
  0.3333333E+00  0.2666667E+00  0.2000000E+00  0.1422222E-01
      1         -0.688174   1.000000
      2          2.100287   0.000000
      3          3.265032   0.000000
      4          4.653349   0.000000
      5          5.930689   0.000000
 
  0.4000000E+00  0.2666667E+00  0.2000000E+00  0.1422222E-01
      1         -0.263581   1.000000
      2          1.428500   0.000000
      3          3.645279   0.000000
      4          5.030499   0.000000
      5          5.256951   0.000000
 
  0.4666667E+00  0.2666667E+00  0.2000000E+00  0.1422222E-01
      1          0.233570   1.000000
      2          0.799809   0.005076
      3          4.109908   0.000000
      4          4.648386   0.000000
      5          5.485091   0.000000
 
  0.3333333E+00  0.3333333E+00  0.2000000E+00  0.7111111E-02
      1         -0.340573   1.000000
      2          2.233394   0.000000
      3          2.748853   0.000000
      4          4.917025   0.000000
      5          5.225281   0.000000
 
  0.4000000E+00  0.3333333E+00  0.2000000E+00  0.1422222E-01
      1          0.080999   1.000000
      2          1.739172   0.000000
      3          2.958222   0.000000
      4          4.554899   0.000000
      5          5.288211   0.000000
 
  0.4666667E+00  0.3333333E+00  0.2000000E+00  0.1422222E-01
      1          0.573745   0.999934
      2          1.132243   0.000000
      3          3.408492   0.000000
      4          3.946050   0.000000
      5          5.731869   0.000000
 
  0.4000000E+00  0.4000000E+00  0.2000000E+00  0.7111111E-02
      1          0.498120   1.000000
      2          1.948085   0.000000
      3          2.472184   0.000000
      4          3.883970   0.000000
      5          5.648122   0.000000
 
  0.4666667E+00  0.4000000E+00  0.2000000E+00  0.1422222E-01
      1          0.983148   0.000000
      2          1.520269   0.000000
      3          2.751519   0.000000
      4          3.275715   0.000000
      5          6.068040   0.000000
 
  0.4666667E+00  0.4666667E+00  0.2000000E+00  0.7111111E-02
      1          1.447007   0.000000
      2          1.805521   0.000000
      3          2.326307   0.000000
      4          2.680471   0.000000
      5          6.422609   0.000000
 
  0.2666667E+00  0.2666667E+00  0.2666667E+00  0.2370370E-02
      1         -0.765752   1.000000
      2          2.911731   0.000000
      3          2.911731   0.000000
      4          3.990179   0.000000
      5          6.675227   0.000000
 
  0.3333333E+00  0.2666667E+00  0.2666667E+00  0.7111111E-02
      1         -0.417637   1.000000
      2          2.336220   0.000000
      3          3.233352   0.000000
      4          4.124911   0.000000
      5          5.921520   0.000000
 
  0.4000000E+00  0.2666667E+00  0.2666667E+00  0.7111111E-02
      1          0.004691   1.000000
      2          1.681327   0.000000
      3          3.626790   0.000000
      4          4.474371   0.000000
      5          5.239557   0.000000
 
  0.4666667E+00  0.2666667E+00  0.2666667E+00  0.7111111E-02
      1          0.498758   1.000000
      2          1.060479   0.000000
      3          4.092211   0.000000
      4          4.629765   0.000000
      5          4.921153   0.000000
 
  0.3333333E+00  0.3333333E+00  0.2666667E+00  0.7111111E-02
      1         -0.071867   1.000000
      2          2.482904   0.000000
      3          2.905792   0.000000
      4          4.188818   0.000000
      5          5.391767   0.000000
 
  0.4000000E+00  0.3333333E+00  0.2666667E+00  0.1422222E-01
      1          0.347247   1.000000
      2          1.989682   0.000000
      3          3.152683   0.000000
      4          4.523862   0.000000
      5          4.740822   0.000000
 
  0.4666667E+00  0.3333333E+00  0.2666667E+00  0.1422222E-01
      1          0.836646   0.000152
      2          1.390240   0.000000
      3          3.604712   0.000000
      4          4.138590   0.000000
      5          4.958965   0.000000
 
  0.4000000E+00  0.4000000E+00  0.2666667E+00  0.7111111E-02
      1          0.761647   0.067949
      2          2.197309   0.000000
      3          2.705643   0.000000
      4          4.104344   0.000000
      5          4.848411   0.000000
 
  0.4666667E+00  0.4000000E+00  0.2666667E+00  0.1422222E-01
      1          1.242890   0.000000
      2          1.774448   0.000000
      3          2.988861   0.000000
      4          3.507533   0.000000
      5          5.259880   0.000000
 
  0.4666667E+00  0.4666667E+00  0.2666667E+00  0.7111111E-02
      1          1.702071   0.000000
      2          2.054606   0.000000
      3          2.577674   0.000000
      4          2.925775   0.000000
      5          5.605104   0.000000
 
  0.3333333E+00  0.3333333E+00  0.3333333E+00  0.2370370E-02
      1          0.271376   1.000000
      2          2.803965   0.000000
      3          2.803965   0.000000
      4          3.854850   0.000000
      5          5.488546   0.000000
 
  0.4000000E+00  0.3333333E+00  0.3333333E+00  0.7111111E-02
      1          0.687029   0.732134
      2          2.298520   0.000000
      3          3.196764   0.000000
      4          4.057043   0.000000
      5          4.807356   0.000000
 
  0.4666667E+00  0.3333333E+00  0.3333333E+00  0.7111111E-02
      1          1.171409   0.000000
      2          1.716587   0.000000
      3          3.661495   0.000000
      4          4.198322   0.000000
      5          4.458316   0.000000
 
  0.4000000E+00  0.4000000E+00  0.3333333E+00  0.7111111E-02
      1          1.097630   0.000000
      2          2.518024   0.000000
      3          2.937197   0.000000
      4          4.183267   0.000000
      5          4.347932   0.000000
 
  0.4666667E+00  0.4000000E+00  0.3333333E+00  0.1422222E-01
      1          1.573426   0.000000
      2          2.096946   0.000000
      3          3.254328   0.000000
      4          3.770749   0.000000
      5          4.555425   0.000000
 
  0.4666667E+00  0.4666667E+00  0.3333333E+00  0.7111111E-02
      1          2.026909   0.000000
      2          2.375154   0.000000
      3          2.877419   0.000000
      4          3.222433   0.000000
      5          4.864647   0.000000
 
  0.4000000E+00  0.4000000E+00  0.4000000E+00  0.2370370E-02
      1          1.502805   0.000000
      2          2.910416   0.000000
      3          2.910416   0.000000
      4          3.900640   0.000000
      5          4.519569   0.000000
 
  0.4666667E+00  0.4000000E+00  0.4000000E+00  0.7111111E-02
      1          1.969951   0.000000
      2          2.476399   0.000000
      3          3.374697   0.000000
      4          3.911049   0.000000
      5          4.122753   0.000000
 
  0.4666667E+00  0.4666667E+00  0.4000000E+00  0.7111111E-02
      1          2.416752   0.000000
      2          2.767348   0.000000
      3          3.173163   0.000000
      4          3.534958   0.000000
      5          4.228796   0.000000
 
  0.4666667E+00  0.4666667E+00  0.4666667E+00  0.2370370E-02
      1          2.854757   0.000000
      2          3.231406   0.000000
      3          3.231406   0.000000
      4          3.767518   0.000000
      5          3.767518   0.000000
