[1776480919.399064] [d01:2774896:f]        vfs_fuse.c:281  UCX  ERROR inotify_add_watch(/tmp) failed: No space left on device
 running    1 mpi-ranks, with    2 threads/rank, on    1 nodes
 distrk:  each k-point on    1 cores,    1 groups
 distr:  one band on    1 cores,    1 groups
 OpenACC runtime initialized ...    1 GPUs detected
 vasp.6.4.2 20Jul23 (build Mar  2 2025 11:04:54) complex                         
 POSCAR found type information on POSCAR Si
 POSCAR found :  1 types and       2 ions
 scaLAPACK will be used selectively (only on CPU)
 LDA part: xc-table for Pade appr. of Perdew
 -----------------------------------------------------------------------------
|                                                                             |
|           W    W    AA    RRRRR   N    N  II  N    N   GGGG   !!!           |
|           W    W   A  A   R    R  NN   N  II  NN   N  G    G  !!!           |
|           W    W  A    A  R    R  N N  N  II  N N  N  G       !!!           |
|           W WW W  AAAAAA  RRRRR   N  N N  II  N  N N  G  GGG   !            |
|           WW  WW  A    A  R   R   N   NN  II  N   NN  G    G                |
|           W    W  A    A  R    R  N    N  II  N    N   GGGG   !!!           |
|                                                                             |
|     The requested file  could not be found or opened for reading            |
|     k-point information. Automatic k-point generation is used as a          |
|     fallback, which may lead to unwanted results.                           |
|                                                                             |
 -----------------------------------------------------------------------------

 POSCAR, INCAR and KPOINTS ok, starting setup
 FFT: planning ... GRIDC
 FFT: planning ... GRID_SOFT
 FFT: planning ... GRID
 WAVECAR not read
 entering main loop
       N       E                     dE             d eps       ncg     rms          rms(c)
DAV:   1     0.374150584555E+01    0.37415E+01   -0.29364E+03  1344   0.706E+02
DAV:   2    -0.107298748574E+02   -0.14471E+02   -0.13974E+02  2032   0.711E+01
DAV:   3    -0.109187836693E+02   -0.18891E+00   -0.18891E+00  1832   0.103E+01
DAV:   4    -0.109195351462E+02   -0.75148E-03   -0.75148E-03  2088   0.707E-01
DAV:   5    -0.109195362434E+02   -0.10972E-05   -0.10972E-05  1856   0.207E-02    0.430E+00
RMM:   6    -0.108315487628E+02    0.87987E-01   -0.33371E-02  1354   0.113E+00    0.260E+00
RMM:   7    -0.107879645598E+02    0.43584E-01   -0.85276E-02  1479   0.194E+00    0.133E-01
RMM:   8    -0.107896143424E+02   -0.16498E-02   -0.62207E-03  1418   0.631E-01    0.664E-02
RMM:   9    -0.107898205663E+02   -0.20622E-03   -0.12902E-03  1515   0.272E-01    0.804E-02
RMM:  10    -0.107898869528E+02   -0.66387E-04   -0.26119E-04  1481   0.138E-01    0.211E-02
RMM:  11    -0.107898984195E+02   -0.11467E-04   -0.74423E-05  1526   0.760E-02    0.136E-02
RMM:  12    -0.107898995539E+02   -0.11344E-05   -0.11049E-05  1543   0.316E-02    0.234E-02
RMM:  13    -0.107898985610E+02    0.99285E-06   -0.38868E-06  1285   0.177E-02
   1 F= -.10789899E+02 E0= -.10789899E+02  d E =-.423380E-11
Warning: ieee_invalid is signaling
Warning: ieee_divide_by_zero is signaling
Warning: ieee_overflow is signaling
Warning: ieee_underflow is signaling
Warning: ieee_inexact is signaling
FORTRAN STOP
