   1   1   0   0
  0.1219412E+02  0.2583579E-09  0.2583580E-09  0.2583580E-09  0.5000000E-15
   1.0000000000000000E-004
  CAR 
 Rh FCC EOS static single-point          
     35.35365603      3.24742997  301     14.10727174      1.00000000
      3.247  0.0000E+00  0.0000E+00
      3.354  0.0000E+00  0.0000E+00
      3.461  0.0000E+00  0.0000E+00
      3.568 -0.1373E-32 -0.1470E-33
      3.676 -0.7706E-29 -0.8249E-30
      3.783 -0.2428E-25 -0.2599E-26
      3.890 -0.4292E-22 -0.4596E-23
      3.997 -0.4258E-19 -0.4562E-20
      4.104 -0.2305E-16 -0.2471E-17
      4.211 -0.7129E-14 -0.7654E-15
      4.318 -0.1240E-11 -0.1334E-12
      4.425 -0.1211E-09 -0.1309E-10
      4.532 -0.6679E-08 -0.7279E-09
      4.639 -0.2100E-06 -0.2320E-07
      4.746 -0.3810E-05 -0.4309E-06
      4.853 -0.4006E-04 -0.4718E-05
      4.960 -0.2352E-03 -0.2989E-04
      5.067 -0.6362E-03 -0.9798E-04
      5.174  0.1594E-03 -0.8092E-04
      5.281  0.5227E-02  0.4785E-03
      5.388  0.1349E-01  0.1922E-02
      5.495  0.2208E-01  0.4285E-02
      5.602  0.3333E-01  0.7852E-02
      5.709  0.3825E-01  0.1195E-01
      5.816  0.3528E-01  0.1572E-01
      5.923  0.4638E-01  0.2069E-01
      6.030  0.6257E-01  0.2738E-01
      6.137  0.6167E-01  0.3398E-01
      6.244  0.5099E-01  0.3944E-01
      6.351  0.5550E-01  0.4538E-01
      6.458  0.8605E-01  0.5459E-01
      6.565  0.1173E+00  0.6714E-01
      6.672  0.1424E+00  0.8238E-01
      6.779  0.1780E+00  0.1014E+00
      6.886  0.2719E+00  0.1305E+00
      6.993  0.4612E+00  0.1799E+00
      7.100  0.6741E+00  0.2520E+00
      7.207  0.8467E+00  0.3426E+00
      7.314  0.1027E+01  0.4526E+00
      7.421  0.1222E+01  0.5833E+00
      7.528  0.1355E+01  0.7283E+00
      7.635  0.1484E+01  0.8872E+00
      7.742  0.1739E+01  0.1073E+01
      7.849  0.1946E+01  0.1282E+01
      7.956  0.1903E+01  0.1485E+01
      8.063  0.1761E+01  0.1674E+01
      8.170  0.1618E+01  0.1847E+01
      8.277  0.1421E+01  0.1999E+01
      8.384  0.1240E+01  0.2132E+01
      8.491  0.1161E+01  0.2256E+01
      8.598  0.1121E+01  0.2376E+01
      8.705  0.1006E+01  0.2484E+01
      8.813  0.9120E+00  0.2581E+01
      8.920  0.1011E+01  0.2689E+01
      9.027  0.1190E+01  0.2817E+01
      9.134  0.1239E+01  0.2949E+01
      9.241  0.1148E+01  0.3072E+01
      9.348  0.1075E+01  0.3187E+01
      9.455  0.1119E+01  0.3307E+01
      9.562  0.1140E+01  0.3429E+01
      9.669  0.1068E+01  0.3543E+01
      9.776  0.1031E+01  0.3654E+01
      9.883  0.1062E+01  0.3767E+01
      9.990  0.1111E+01  0.3886E+01
     10.097  0.1179E+01  0.4012E+01
     10.204  0.1194E+01  0.4140E+01
     10.311  0.1163E+01  0.4265E+01
     10.418  0.1312E+01  0.4405E+01
     10.525  0.1597E+01  0.4576E+01
     10.632  0.1710E+01  0.4759E+01
     10.739  0.1813E+01  0.4953E+01
     10.846  0.2137E+01  0.5182E+01
     10.953  0.2182E+01  0.5415E+01
     11.060  0.1744E+01  0.5602E+01
     11.167  0.1362E+01  0.5748E+01
     11.274  0.1244E+01  0.5881E+01
     11.381  0.1262E+01  0.6016E+01
     11.488  0.1201E+01  0.6144E+01
     11.595  0.1009E+01  0.6252E+01
     11.702  0.9906E+00  0.6358E+01
     11.809  0.1133E+01  0.6480E+01
     11.916  0.1066E+01  0.6594E+01
     12.023  0.8909E+00  0.6689E+01
     12.130  0.9957E+00  0.6796E+01
     12.237  0.1236E+01  0.6928E+01
     12.344  0.1310E+01  0.7068E+01
     12.451  0.1327E+01  0.7210E+01
     12.558  0.1372E+01  0.7357E+01
     12.665  0.1368E+01  0.7503E+01
     12.772  0.1245E+01  0.7637E+01
     12.879  0.1029E+01  0.7747E+01
     12.986  0.9753E+00  0.7851E+01
     13.093  0.1159E+01  0.7975E+01
     13.200  0.1301E+01  0.8114E+01
     13.307  0.1163E+01  0.8239E+01
     13.414  0.8759E+00  0.8333E+01
     13.521  0.7881E+00  0.8417E+01
     13.628  0.9012E+00  0.8513E+01
     13.735  0.1004E+01  0.8621E+01
     13.842  0.1085E+01  0.8737E+01
     13.950  0.1071E+01  0.8851E+01
     14.057  0.9509E+00  0.8953E+01
     14.164  0.9463E+00  0.9054E+01
     14.271  0.1071E+01  0.9169E+01
     14.378  0.1194E+01  0.9297E+01
     14.485  0.1401E+01  0.9447E+01
     14.592  0.1766E+01  0.9636E+01
     14.699  0.1924E+01  0.9842E+01
     14.806  0.1682E+01  0.1002E+02
     14.913  0.1343E+01  0.1017E+02
     15.020  0.1044E+01  0.1028E+02
     15.127  0.7817E+00  0.1036E+02
     15.234  0.6215E+00  0.1043E+02
     15.341  0.5461E+00  0.1049E+02
     15.448  0.5058E+00  0.1054E+02
     15.555  0.4268E+00  0.1059E+02
     15.662  0.2895E+00  0.1062E+02
     15.769  0.1868E+00  0.1064E+02
     15.876  0.1301E+00  0.1065E+02
     15.983  0.7976E-01  0.1066E+02
     16.090  0.6705E-01  0.1067E+02
     16.197  0.9131E-01  0.1068E+02
     16.304  0.1004E+00  0.1069E+02
     16.411  0.1391E+00  0.1070E+02
     16.518  0.2831E+00  0.1073E+02
     16.625  0.4410E+00  0.1078E+02
     16.732  0.4508E+00  0.1083E+02
     16.839  0.2991E+00  0.1086E+02
     16.946  0.1416E+00  0.1087E+02
     17.053  0.1075E+00  0.1089E+02
     17.160  0.1564E+00  0.1090E+02
     17.267  0.1654E+00  0.1092E+02
     17.374  0.1283E+00  0.1093E+02
     17.481  0.1184E+00  0.1095E+02
     17.588  0.1481E+00  0.1096E+02
     17.695  0.2327E+00  0.1099E+02
     17.802  0.3566E+00  0.1103E+02
     17.909  0.3856E+00  0.1107E+02
     18.016  0.3017E+00  0.1110E+02
     18.123  0.2193E+00  0.1112E+02
     18.230  0.1639E+00  0.1114E+02
     18.337  0.1628E+00  0.1116E+02
     18.444  0.2230E+00  0.1118E+02
     18.551  0.2223E+00  0.1121E+02
     18.658  0.1426E+00  0.1122E+02
     18.765  0.1352E+00  0.1124E+02
     18.872  0.2139E+00  0.1126E+02
     18.979  0.2697E+00  0.1129E+02
     19.087  0.2995E+00  0.1132E+02
     19.194  0.2780E+00  0.1135E+02
     19.301  0.1875E+00  0.1137E+02
     19.408  0.1502E+00  0.1138E+02
     19.515  0.1910E+00  0.1141E+02
     19.622  0.2147E+00  0.1143E+02
     19.729  0.1982E+00  0.1145E+02
     19.836  0.1937E+00  0.1147E+02
     19.943  0.2150E+00  0.1149E+02
     20.050  0.2563E+00  0.1152E+02
     20.157  0.2546E+00  0.1155E+02
     20.264  0.1699E+00  0.1157E+02
     20.371  0.1419E+00  0.1158E+02
     20.478  0.1722E+00  0.1160E+02
     20.585  0.1361E+00  0.1161E+02
     20.692  0.1244E+00  0.1163E+02
     20.799  0.1910E+00  0.1165E+02
     20.906  0.2236E+00  0.1167E+02
     21.013  0.1937E+00  0.1169E+02
     21.120  0.1858E+00  0.1171E+02
     21.227  0.2139E+00  0.1174E+02
     21.334  0.2151E+00  0.1176E+02
     21.441  0.1910E+00  0.1178E+02
     21.548  0.1389E+00  0.1179E+02
     21.655  0.8011E-01  0.1180E+02
     21.762  0.7848E-01  0.1181E+02
     21.869  0.1070E+00  0.1182E+02
     21.976  0.1129E+00  0.1183E+02
     22.083  0.1135E+00  0.1185E+02
     22.190  0.1522E+00  0.1186E+02
     22.297  0.1961E+00  0.1188E+02
     22.404  0.1861E+00  0.1190E+02
     22.511  0.1449E+00  0.1192E+02
     22.618  0.9828E-01  0.1193E+02
     22.725  0.5605E-01  0.1194E+02
     22.832  0.5233E-01  0.1194E+02
     22.939  0.7452E-01  0.1195E+02
     23.046  0.8127E-01  0.1196E+02
     23.153  0.6098E-01  0.1196E+02
     23.260  0.2648E-01  0.1197E+02
     23.367  0.2067E-01  0.1197E+02
     23.474  0.8284E-01  0.1198E+02
     23.581  0.2092E+00  0.1200E+02
     23.688  0.3328E+00  0.1204E+02
     23.795  0.4005E+00  0.1208E+02
     23.902  0.4777E+00  0.1213E+02
     24.009  0.5407E+00  0.1219E+02
     24.116  0.4715E+00  0.1224E+02
     24.223  0.3493E+00  0.1228E+02
     24.331  0.2857E+00  0.1231E+02
     24.438  0.3014E+00  0.1234E+02
     24.545  0.3544E+00  0.1238E+02
     24.652  0.3675E+00  0.1242E+02
     24.759  0.3519E+00  0.1245E+02
     24.866  0.3397E+00  0.1249E+02
     24.973  0.2799E+00  0.1252E+02
     25.080  0.1839E+00  0.1254E+02
     25.187  0.1859E+00  0.1256E+02
     25.294  0.2950E+00  0.1259E+02
     25.401  0.3882E+00  0.1263E+02
     25.508  0.3611E+00  0.1267E+02
     25.615  0.2612E+00  0.1270E+02
     25.722  0.2499E+00  0.1273E+02
     25.829  0.2829E+00  0.1276E+02
     25.936  0.2206E+00  0.1278E+02
     26.043  0.1097E+00  0.1279E+02
     26.150  0.1442E+00  0.1281E+02
     26.257  0.3630E+00  0.1285E+02
     26.364  0.4849E+00  0.1290E+02
     26.471  0.3779E+00  0.1294E+02
     26.578  0.2274E+00  0.1296E+02
     26.685  0.1297E+00  0.1298E+02
     26.792  0.1012E+00  0.1299E+02
     26.899  0.1718E+00  0.1301E+02
     27.006  0.2992E+00  0.1304E+02
     27.113  0.4384E+00  0.1308E+02
     27.220  0.5365E+00  0.1314E+02
     27.327  0.4958E+00  0.1320E+02
     27.434  0.3684E+00  0.1323E+02
     27.541  0.3354E+00  0.1327E+02
     27.648  0.4125E+00  0.1331E+02
     27.755  0.5040E+00  0.1337E+02
     27.862  0.5589E+00  0.1343E+02
     27.969  0.5117E+00  0.1348E+02
     28.076  0.4343E+00  0.1353E+02
     28.183  0.4738E+00  0.1358E+02
     28.290  0.5845E+00  0.1364E+02
     28.397  0.6020E+00  0.1371E+02
     28.504  0.5020E+00  0.1376E+02
     28.611  0.3748E+00  0.1380E+02
     28.718  0.3032E+00  0.1383E+02
     28.825  0.2953E+00  0.1387E+02
     28.932  0.3150E+00  0.1390E+02
     29.039  0.4020E+00  0.1394E+02
     29.146  0.5091E+00  0.1400E+02
     29.253  0.5206E+00  0.1405E+02
     29.360  0.4152E+00  0.1410E+02
     29.468  0.1956E+00  0.1412E+02
     29.575  0.3764E+00  0.1416E+02
     29.682  0.2326E+01  0.1441E+02
     29.789  0.5099E+01  0.1495E+02
     29.896  0.4755E+01  0.1546E+02
     30.003  0.1810E+01  0.1566E+02
     30.110  0.1295E+00  0.1567E+02
     30.217 -0.4127E-02  0.1567E+02
     30.324  0.1029E+00  0.1568E+02
     30.431  0.1433E+00  0.1569E+02
     30.538  0.1721E+00  0.1571E+02
     30.645  0.1898E+00  0.1573E+02
     30.752  0.1627E+00  0.1575E+02
     30.859  0.1075E+00  0.1576E+02
     30.966  0.1049E+00  0.1577E+02
     31.073  0.1552E+00  0.1579E+02
     31.180  0.2144E+00  0.1581E+02
     31.287  0.2041E+00  0.1584E+02
     31.394  0.1187E+00  0.1585E+02
     31.501  0.9208E-01  0.1586E+02
     31.608  0.1478E+00  0.1587E+02
     31.715  0.1990E+00  0.1589E+02
     31.822  0.1863E+00  0.1591E+02
     31.929  0.1123E+00  0.1593E+02
     32.036  0.7566E-01  0.1593E+02
     32.143  0.1136E+00  0.1595E+02
     32.250  0.1328E+00  0.1596E+02
     32.357  0.9608E-01  0.1597E+02
     32.464  0.4811E-01  0.1598E+02
     32.571  0.2472E-01  0.1598E+02
     32.678  0.3595E-01  0.1598E+02
     32.785  0.5341E-01  0.1599E+02
     32.892  0.4863E-01  0.1599E+02
     32.999  0.2522E-01  0.1600E+02
     33.106  0.5533E-02  0.1600E+02
     33.213  0.3516E-02  0.1600E+02
     33.320  0.9439E-02  0.1600E+02
     33.427  0.9164E-02  0.1600E+02
     33.534  0.3474E-02  0.1600E+02
     33.641 -0.5204E-04  0.1600E+02
     33.748 -0.4214E-03  0.1600E+02
     33.855 -0.1236E-03  0.1600E+02
     33.962 -0.1582E-04  0.1600E+02
     34.069 -0.1033E-05  0.1600E+02
     34.176 -0.3608E-07  0.1600E+02
     34.283 -0.6878E-09  0.1600E+02
     34.390 -0.7229E-11  0.1600E+02
     34.497 -0.4215E-13  0.1600E+02
     34.605 -0.1369E-15  0.1600E+02
     34.712  0.0000E+00  0.1600E+02
     34.819  0.0000E+00  0.1600E+02
     34.926  0.0000E+00  0.1600E+02
     35.033  0.0000E+00  0.1600E+02
     35.140  0.0000E+00  0.1600E+02
     35.247  0.0000E+00  0.1600E+02
     35.354  0.0000E+00  0.1600E+02
