    1    1    1    1
  0.1219412E+02  0.2583579E-09  0.2583580E-09  0.2583580E-09  0.5000000E-15
   1.0000000000000000E-004
  CAR 
 Rh FCC EOS static single-point          
      9    256      8
 
  0.1262379E-14  0.1262379E-14  0.1262379E-14  0.1250000E-03
      1          5.247430   1.000000
      2         10.398473   1.000000
      3         10.398475   1.000000
      4         10.398478   1.000000
      5         12.926350   1.000000
      6         12.926350   1.000000
      7         29.782917   0.000000
      8         29.918083   0.000000
 
  0.5000000E-01  0.1267157E-14  0.1262379E-14  0.1000000E-02
      1          5.360666   1.000000
      2         10.342384   1.000000
      3         10.445695   1.000000
      4         10.445698   1.000000
      5         12.896963   1.000000
      6         12.896963   1.000000
      7         29.782887   0.000000
      8         30.103208   0.000000
 
  0.1000000E+00  0.1273440E-14  0.1262379E-14  0.1000000E-02
      1          5.686637   1.000000
      2         10.198250   1.000000
      3         10.572944   1.000000
      4         10.572947   1.000000
      5         12.827897   1.000000
      6         12.827897   1.000000
      7         29.782734   0.000000
      8         30.618993   0.000000
 
  0.1500000E+00  0.1284264E-14  0.1262379E-14  0.1000000E-02
      1          6.175745   1.000000
      2         10.040698   1.000000
      3         10.731655   1.000000
      4         10.731658   1.000000
      5         12.778892   1.000000
      6         12.778893   1.000000
      7         29.780900   0.000000
      8         31.330985   0.000000
 
  0.2000000E+00  0.1268400E-14  0.1262379E-14  0.1000000E-02
      1          6.713378   1.000000
      2         10.010970   1.000000
      3         10.837766   1.000000
      4         10.837770   1.000000
      5         12.845442   1.000000
      6         12.845443   1.000000
      7         29.776553   0.000000
      8         31.302474   0.000000
 
  0.2500000E+00  0.1285023E-14  0.1262379E-14  0.1000000E-02
      1          7.102088   1.000000
      2         10.321253   1.000000
      3         10.823388   1.000000
      4         10.823393   1.000000
      5         13.098357   1.000000
      6         13.098358   1.000000
      7         29.712658   0.000000
      8         29.996529   0.000000
 
  0.3000000E+00  0.1260012E-14  0.1262379E-14  0.1000000E-02
      1          7.216613   1.000000
      2         10.707845   1.000000
      3         10.707850   1.000000
      4         11.089319   1.000000
      5         13.506667   1.000092
      6         13.506668   1.000092
      7         28.529097   0.000000
      8         29.799173   0.000000
 
  0.3500000E+00  0.1251468E-14  0.1262379E-14  0.1000000E-02
      1          7.150410   1.000000
      2         10.555930   1.000000
      3         10.555935   1.000000
      4         12.179106   1.000000
      5         13.975523   0.944636
      6         13.975523   0.944636
      7         27.106586   0.000000
      8         29.792460   0.000000
 
  0.4000000E+00  0.1341278E-14  0.1262379E-14  0.1000000E-02
      1          7.035954   1.000000
      2         10.418820   1.000000
      3         10.418825   1.000000
      4         13.354275   1.000001
      5         14.405305  -0.028088
      6         14.405305  -0.028088
      7         25.692190   0.000000
      8         29.788838   0.000000
 
  0.4500000E+00  0.1290340E-14  0.1262379E-14  0.1000000E-02
      1          6.946383   1.000000
      2         10.326503   1.000000
      3         10.326508   1.000000
      4         14.326849  -0.032530
      5         14.707554  -0.000093
      6         14.707555  -0.000093
      7         24.551220   0.000000
      8         29.630540   0.000000
 
  0.5000000E+00  0.1308482E-14  0.1262379E-14  0.5000000E-03
      1          6.913538   1.000000
      2         10.294173   1.000000
      3         10.294178   1.000000
      4         14.723927  -0.000058
      5         14.816608  -0.000003
      6         14.816609  -0.000003
      7         24.091995   0.000000
      8         29.478744   0.000000
 
  0.5000000E-01  0.5000000E-01  0.1262379E-14  0.7500000E-03
      1          5.398493   1.000000
      2         10.287113   1.000000
      3         10.480759   1.000000
      4         10.480760   1.000000
      5         12.805777   1.000000
      6         12.966754   1.000000
      7         29.783100   0.000000
      8         30.166510   0.000000
 
  0.1000000E+00  0.5000000E-01  0.1262379E-14  0.3000000E-02
      1          5.654351   1.000000
      2         10.147513   1.000000
      3         10.591927   1.000000
      4         10.601062   1.000000
      5         12.670252   1.000000
      6         12.985014   1.000000
      7         29.782696   0.000000
      8         30.577992   0.000000
 
  0.1500000E+00  0.5000000E-01  0.1262379E-14  0.3000000E-02
      1          6.093954   1.000000
      2          9.973791   1.000000
      3         10.748069   1.000000
      4         10.764453   1.000000
      5         12.543724   1.000000
      6         12.994965   1.000000
      7         29.781621   0.000000
      8         31.241990   0.000000
 
  0.2000000E+00  0.5000000E-01  0.1262379E-14  0.3000000E-02
      1          6.631786   1.000000
      2          9.863259   1.000000
      3         10.870730   1.000000
      4         10.897663   1.000000
      5         12.537225   1.000000
      6         13.074883   1.000000
      7         29.778750   0.000000
      8         31.815971   0.000000
 
  0.2500000E+00  0.5000000E-01  0.1262379E-14  0.3000000E-02
      1          7.094233   1.000000
      2          9.999212   1.000000
      3         10.858135   1.000000
      4         10.928283   1.000000
      5         12.773040   1.000000
      6         13.298375   1.000000
      7         29.764404   0.000000
      8         30.502913   0.000000
 
  0.3000000E+00  0.5000000E-01  0.1262379E-14  0.3000000E-02
      1          7.296256   1.000000
      2         10.533772   1.000000
      3         10.742933   1.000000
      4         10.848239   1.000000
      5         13.249899   1.000000
      6         13.662988   1.003667
      7         29.073374   0.000000
      8         29.809795   0.000000
 
  0.3500000E+00  0.5000000E-01  0.1262379E-14  0.3000000E-02
      1          7.268580   1.000000
      2         10.524820   1.000000
      3         10.707679   1.000000
      4         11.469386   1.000000
      5         13.886679   1.032777
      6         14.091120   0.568098
      7         27.646619   0.000000
      8         29.794645   0.000000
 
  0.4000000E+00  0.5000000E-01  0.1262379E-14  0.3000000E-02
      1          7.157195   1.000000
      2         10.365822   1.000000
      3         10.560521   1.000000
      4         12.444127   1.000000
      5         14.484060  -0.011420
      6         14.620198  -0.000863
      7         26.171874   0.000000
      8         29.791265   0.000000
 
  0.4500000E+00  0.5000000E-01  0.1262379E-14  0.3000000E-02
      1          7.054468   1.000000
      2         10.254932   1.000000
      3         10.443685   1.000000
      4         13.236492   1.000000
      5         14.750532  -0.000026
      6         15.363997  -0.000000
      7         24.863986   0.000000
      8         29.788260   0.000000
 
  0.5000000E+00  0.5000000E-01  0.1262379E-14  0.3000000E-02
      1          7.001876   1.000000
      2         10.208943   1.000000
      3         10.379045   1.000000
      4         13.660656   1.003507
      5         14.823317  -0.000003
      6         15.867066  -0.000000
      7         24.111924   0.000000
      8         29.667397   0.000000
 
 -0.4500000E+00  0.5000000E-01  0.1262379E-14  0.3000000E-02
      1          7.014195   1.000000
      2         10.232400   1.000000
      3         10.377360   1.000000
      4         13.630737   1.001925
      5         14.677419  -0.000210
      6         15.827606  -0.000000
      7         24.277168   0.000000
      8         29.714896   0.000000
 
 -0.4000000E+00  0.5000000E-01  0.1262379E-14  0.3000000E-02
      1          7.088571   1.000000
      2         10.320579   1.000000
      3         10.440168   1.000000
      4         13.111872   1.000000
      5         14.337662  -0.034558
      6         15.357084  -0.000000
      7         25.268294   0.000000
      8         29.790043   0.000000
 
 -0.3500000E+00  0.5000000E-01  0.1262379E-14  0.3000000E-02
      1          7.202796   1.000000
      2         10.458607   1.000000
      3         10.559236   1.000000
      4         12.212194   1.000000
      5         13.867687   1.035343
      6         14.772421  -0.000013
      7         26.667283   0.000000
      8         29.792244   0.000000
 
 -0.3000000E+00  0.5000000E-01  0.1262379E-14  0.3000000E-02
      1          7.301333   1.000000
      2         10.609772   1.000000
      3         10.713105   1.000000
      4         11.216851   1.000000
      5         13.351735   1.000001
      6         14.196191   0.161832
      7         28.137085   0.000000
      8         29.797128   0.000000
 
 -0.2500000E+00  0.5000000E-01  0.1262379E-14  0.3000000E-02
      1          7.268215   1.000000
      2         10.332728   1.000000
      3         10.820141   1.000000
      4         10.857207   1.000000
      5         12.886701   1.000000
      6         13.675155   1.004600
      7         29.500825   0.000000
      8         29.844010   0.000000
 
 -0.2000000E+00  0.5000000E-01  0.1262379E-14  0.3000000E-02
      1          6.966545   1.000000
      2          9.933806   1.000000
      3         10.884882   1.000000
      4         10.913815   1.000000
      5         12.584060   1.000000
      6         13.273140   1.000000
      7         29.773082   0.000000
      8         30.935486   0.000000
 
 -0.1500000E+00  0.5000000E-01  0.1262379E-14  0.3000000E-02
      1          6.451146   1.000000
      2          9.908496   1.000000
      3         10.824712   1.000000
      4         10.846228   1.000000
      5         12.516770   1.000000
      6         13.041876   1.000000
      7         29.780351   0.000000
      8         31.708115   0.000000
 
 -0.1000000E+00  0.5000000E-01  0.1262379E-14  0.3000000E-02
      1          5.930154   1.000000
      2         10.061351   1.000000
      3         10.654246   1.000000
      4         10.710733   1.000000
      5         12.618811   1.000000
      6         12.958716   1.000000
      7         29.782374   0.000000
      8         30.994140   0.000000
 
 -0.5000000E-01  0.5000000E-01  0.1262379E-14  0.1500000E-02
      1          5.545365   1.000000
      2         10.235722   1.000000
      3         10.508827   1.000000
      4         10.553222   1.000000
      5         12.770613   1.000000
      6         12.936277   1.000000
      7         29.782960   0.000000
      8         30.400972   0.000000
 
  0.1000000E+00  0.1000000E+00  0.1262379E-14  0.7500000E-03
      1          5.834552   1.000000
      2          9.975975   1.000000
      3         10.725401   1.000000
      4         10.725402   1.000000
      5         12.474427   1.000000
      6         13.085021   1.000000
      7         29.782348   0.000000
      8         30.881482   0.000000
 
  0.1500000E+00  0.1000000E+00  0.1262379E-14  0.3000000E-02
      1          6.205300   1.000000
      2          9.768641   1.000000
      3         10.899688   1.000000
      4         10.907639   1.000000
      5         12.289057   1.000000
      6         13.155145   1.000000
      7         29.781935   0.000000
      8         31.468846   0.000000
 
  0.2000000E+00  0.1000000E+00  0.1262379E-14  0.3000000E-02
      1          6.708364   1.000000
      2          9.583872   1.000000
      3         11.009623   1.000000
      4         11.080270   1.000000
      5         12.266132   1.000000
      6         13.257924   1.000000
      7         29.780370   0.000000
      8         32.179125   0.000000
 
  0.2500000E+00  0.1000000E+00  0.1262379E-14  0.3000000E-02
      1          7.211057   1.000000
      2          9.548916   1.000000
      3         10.911336   1.000000
      4         11.164824   1.000000
      5         12.593560   1.000000
      6         13.467065   1.000029
      7         29.774687   0.000000
      8         31.234072   0.000000
 
  0.3000000E+00  0.1000000E+00  0.1262379E-14  0.3000000E-02
      1          7.499092   1.000000
      2          9.859889   1.000000
      3         10.676885   1.000000
      4         11.129807   1.000000
      5         13.231245   1.000000
      6         13.801635   1.026379
      7         29.671582   0.000000
      8         29.936855   0.000000
 
  0.3500000E+00  0.1000000E+00  0.1262379E-14  0.3000000E-02
      1          7.516167   1.000000
      2         10.407467   1.000000
      3         10.547851   1.000000
      4         11.010357   1.000000
      5         14.077904   0.622790
      6         14.199807   0.151085
      7         28.311879   0.000000
      8         29.799006   0.000000
 
  0.4000000E+00  0.1000000E+00  0.1262379E-14  0.3000000E-02
      1          7.414965   1.000000
      2         10.202877   1.000000
      3         10.861171   1.000000
      4         11.345512   1.000000
      5         14.564273  -0.002865
      6         15.065687  -0.000000
      7         26.734341   0.000000
      8         29.792952   0.000000
 
  0.4500000E+00  0.1000000E+00  0.1262379E-14  0.3000000E-02
      1          7.308967   1.000000
      2         10.052131   1.000000
      3         10.725159   1.000000
      4         12.081518   1.000000
      5         14.801465  -0.000005
      6         16.088203  -0.000000
      7         25.240222   0.000000
      8         29.790862   0.000000
 
  0.5000000E+00  0.1000000E+00  0.1262379E-14  0.3000000E-02
      1          7.246978   1.000000
      2          9.979059   1.000000
      3         10.630381   1.000000
      4         12.589334   1.000000
      5         14.843023  -0.000001
      6         16.901406  -0.000000
      7         24.185542   0.000000
      8         29.790724   0.000000
 
 -0.4500000E+00  0.1000000E+00  0.1262379E-14  0.3000000E-02
      1          7.247304   1.000000
      2          9.987632   1.000000
      3         10.593310   1.000000
      4         12.748230   1.000000
      5         14.664177  -0.000296
      6         17.123251  -0.000000
      7         24.033109   0.000000
      8         29.791555   0.000000
 
 -0.4000000E+00  0.1000000E+00  0.1262379E-14  0.3000000E-02
      1          7.311798   1.000000
      2         10.073102   1.000000
      3         10.621357   1.000000
      4         12.491442   1.000000
      5         14.290005  -0.013693
      6         16.690793  -0.000000
      7         24.873778   0.000000
      8         29.791475   0.000000
 
 -0.3500000E+00  0.1000000E+00  0.1262379E-14  0.3000000E-02
      1          7.427047   1.000000
      2         10.220098   1.000000
      3         10.713602   1.000000
      4         11.862209   1.000000
      5         13.782230   1.021904
      6         15.971940  -0.000000
      7         26.278605   0.000000
      8         29.792937   0.000000
 
 -0.3000000E+00  0.1000000E+00  0.1262379E-14  0.3000000E-02
      1          7.554097   1.000000
      2         10.382104   1.000000
      3         10.858455   1.000000
      4         11.057278   1.000000
      5         13.219331   1.000000
      6         15.216877  -0.000000
      7         27.835585   0.000000
      8         29.797058   0.000000
 
 -0.2500000E+00  0.1000000E+00  0.1262379E-14  0.3000000E-02
      1          7.596893   1.000000
      2         10.133734   1.000000
      3         10.724171   1.000000
      4         11.024050   1.000000
      5         12.689190   1.000000
      6         14.506637  -0.008077
      7         29.288375   0.000000
      8         29.823740   0.000000
 
 -0.2000000E+00  0.1000000E+00  0.1262379E-14  0.3000000E-02
      1          7.385809   1.000000
      2          9.715857   1.000000
      3         10.856667   1.000000
      4         11.127394   1.000000
      5         12.312613   1.000000
      6         13.889713   1.032003
      7         29.766988   0.000000
      8         30.674171   0.000000
 
 -0.1500000E+00  0.1000000E+00  0.1262379E-14  0.3000000E-02
      1          6.899234   1.000000
      2          9.679952   1.000000
      3         10.924265   1.000000
      4         11.042069   1.000000
      5         12.234694   1.000000
      6         13.420352   1.000007
      7         29.778751   0.000000
      8         31.860437   0.000000
 
 -0.1000000E+00  0.1000000E+00  0.1262379E-14  0.1500000E-02
      1          6.358317   1.000000
      2          9.851746   1.000000
      3         10.832041   1.000000
      4         10.863787   1.000000
      5         12.392945   1.000000
      6         13.125823   1.000000
      7         29.781349   0.000000
      8         31.616564   0.000000
 
  0.1500000E+00  0.1500000E+00  0.1262379E-14  0.7500000E-03
      1          6.492147   1.000000
      2          9.522911   1.000000
      3         11.125875   1.000000
      4         11.125876   1.000000
      5         12.033248   1.000000
      6         13.273139   1.000000
      7         29.782044   0.000000
      8         31.981537   0.000000
 
  0.2000000E+00  0.1500000E+00  0.1262379E-14  0.3000000E-02
      1          6.914669   1.000000
      2          9.282442   1.000000
      3         11.257260   1.000000
      4         11.356048   1.000000
      5         11.987316   1.000000
      6         13.395624   1.000003
      7         29.781115   0.000000
      8         32.667828   0.000000
 
  0.2500000E+00  0.1500000E+00  0.1262379E-14  0.3000000E-02
      1          7.387434   1.000000
      2          9.118668   1.000000
      3         11.043486   1.000000
      4         11.512354   1.000000
      5         12.458982   1.000000
      6         13.594332   1.000863
      7         29.778617   0.000000
      8         32.075504   0.000000
 
  0.3000000E+00  0.1500000E+00  0.1262379E-14  0.3000000E-02
      1          7.725155   1.000000
      2          9.193571   1.000000
      3         10.729805   1.000000
      4         11.538004   1.000000
      5         13.250957   1.000000
      6         13.907653   1.024928
      7         29.766723   0.000000
      8         30.692754   0.000000
 
  0.3500000E+00  0.1500000E+00  0.1262379E-14  0.3000000E-02
      1          7.782673   1.000000
      2          9.588344   1.000000
      3         10.476779   1.000000
      4         11.451667   1.000000
      5         14.260576   0.019020
      6         14.287717  -0.011781
      7         29.077370   0.000000
      8         29.811577   0.000000
 
  0.4000000E+00  0.1500000E+00  0.1262379E-14  0.3000000E-02
      1          7.701392   1.000000
      2          9.854761   1.000000
      3         10.593163   1.000000
      4         11.309344   1.000000
      5         14.636008  -0.000595
      6         15.434506  -0.000000
      7         27.384748   0.000000
      8         29.793533   0.000000
 
  0.4500000E+00  0.1500000E+00  0.1262379E-14  0.3000000E-02
      1          7.614971   1.000000
      2          9.764484   1.000000
      3         11.137449   1.000000
      4         11.160225   1.000000
      5         14.854879  -0.000001
      6         16.685518  -0.000000
      7         25.704723   0.000000
      8         29.790398   0.000000
 
  0.5000000E+00  0.1500000E+00  0.1262379E-14  0.3000000E-02
      1          7.571804   1.000000
      2          9.672722   1.000000
      3         11.037918   1.000000
      4         11.635755   1.000000
      5         14.874403  -0.000000
      6         17.815701  -0.000000
      7         24.350376   0.000000
      8         29.789263   0.000000
 
 -0.4500000E+00  0.1500000E+00  0.1262379E-14  0.3000000E-02
      1          7.587288   1.000000
      2          9.657728   1.000000
      3         10.964263   1.000000
      4         11.898431   1.000000
      5         14.670751  -0.000250
      6         18.385598  -0.000000
      7         23.835121   0.000000
      8         29.789088   0.000000
 
 -0.4000000E+00  0.1500000E+00  0.1262379E-14  0.3000000E-02
      1          7.663341   1.000000
      2          9.729679   1.000000
      3         10.951950   1.000000
      4         11.824005   1.000000
      5         14.270161   0.006348
      6         18.071763  -0.000000
      7         24.509148   0.000000
      8         29.789697   0.000000
 
 -0.3500000E+00  0.1500000E+00  0.1262379E-14  0.3000000E-02
      1          7.792235   1.000000
      2          9.878054   1.000000
      3         11.006491   1.000000
      4         11.403306   1.000000
      5         13.733521   1.011932
      6         17.279614  -0.000000
      7         25.922443   0.000000
      8         29.791872   0.000000
 
 -0.3000000E+00  0.1500000E+00  0.1262379E-14  0.3000000E-02
      1          7.950167   1.000000
      2         10.053334   1.000000
      3         10.770877   1.000000
      4         11.126147   1.000000
      5         13.133531   1.000000
      6         16.386714  -0.000000
      7         27.561533   0.000000
      8         29.796284   0.000000
 
 -0.2500000E+00  0.1500000E+00  0.1262379E-14  0.3000000E-02
      1          8.065699   1.000000
      2          9.857998   1.000000
      3         10.498045   1.000000
      4         11.298474   1.000000
      5         12.542429   1.000000
      6         15.507652  -0.000000
      7         29.095818   0.000000
      8         29.817699   0.000000
 
 -0.2000000E+00  0.1500000E+00  0.1262379E-14  0.3000000E-02
      1          7.937271   1.000000
      2          9.459628   1.000000
      3         10.692044   1.000000
      4         11.466449   1.000000
      5         12.058694   1.000000
      6         14.687100  -0.000162
      7         29.754200   0.000000
      8         30.405527   0.000000
 
 -0.1500000E+00  0.1500000E+00  0.1262379E-14  0.1500000E-02
      1          7.456235   1.000000
      2          9.469165   1.000000
      3         10.866606   1.000000
      4         11.344852   1.000000
      5         11.990290   1.000000
      6         13.973886   0.947793
      7         29.774226   0.000000
      8         31.267115   0.000000
 
  0.2000000E+00  0.2000000E+00  0.1262379E-14  0.7500000E-03
      1          7.211616   1.000000
      2          8.997189   1.000000
      3         11.669506   1.000000
      4         11.669507   1.000000
      5         11.693331   1.000000
      6         13.517172   1.000123
      7         29.780853   0.000000
      8         33.353656   0.000000
 
  0.2500000E+00  0.2000000E+00  0.1262379E-14  0.3000000E-02
      1          7.548947   1.000000
      2          8.756629   1.000000
      3         11.372637   1.000000
      4         11.929430   1.000000
      5         12.325095   1.000000
      6         13.688952   1.005881
      7         29.779723   0.000000
      8         32.882957   0.000000
 
  0.3000000E+00  0.2000000E+00  0.1262379E-14  0.3000000E-02
      1          7.828878   1.000000
      2          8.646484   1.000000
      3         11.068452   1.000000
      4         12.044911   1.000000
      5         13.224662   1.000000
      6         13.974202   0.947189
      7         29.775786   0.000000
      8         31.576685   0.000000
 
  0.3500000E+00  0.2000000E+00  0.1262379E-14  0.3000000E-02
      1          7.894467   1.000000
      2          8.807128   1.000000
      3         10.817862   1.000000
      4         12.009725   1.000000
      5         14.343592  -0.035154
      6         14.355796  -0.035410
      7         29.711068   0.000000
      8         30.012336   0.000000
 
  0.4000000E+00  0.2000000E+00  0.1262379E-14  0.3000000E-02
      1          7.831489   1.000000
      2          9.097870   1.000000
      3         10.693805   1.000000
      4         11.884995   1.000000
      5         14.689913  -0.000150
      6         15.674614  -0.000000
      7         28.102453   0.000000
      8         29.794571   0.000000
 
  0.4500000E+00  0.2000000E+00  0.1262379E-14  0.3000000E-02
      1          7.784286   1.000000
      2          9.284758   1.000000
      3         10.776209   1.000000
      4         11.729591   1.000000
      5         14.904970  -0.000000
      6         17.113027  -0.000000
      7         26.268529   0.000000
      8         29.788367   0.000000
 
  0.5000000E+00  0.2000000E+00  0.1262379E-14  0.3000000E-02
      1          7.796606   1.000000
      2          9.333071   1.000000
      3         11.010287   1.000000
      4         11.583422   1.000000
      5         14.915431  -0.000000
      6         18.535851  -0.000000
      7         24.655542   0.000000
      8         29.785652   0.000000
 
 -0.4500000E+00  0.2000000E+00  0.1262379E-14  0.3000000E-02
      1          7.876316   1.000000
      2          9.346717   1.000000
      3         11.204849   1.000000
      4         11.472378   1.000000
      5         14.698880  -0.000118
      6         19.543407   0.000000
      7         23.726487   0.000000
      8         29.783518   0.000000
 
 -0.4000000E+00  0.2000000E+00  0.1262379E-14  0.3000000E-02
      1          8.017186   1.000000
      2          9.402837   1.000000
      3         11.197950   1.000000
      4         11.412851   1.000000
      5         14.284811  -0.009208
      6         19.438983   0.000000
      7         24.192821   0.000000
      8         29.781597   0.000000
 
 -0.3500000E+00  0.2000000E+00  0.1262379E-14  0.3000000E-02
      1          8.205387   1.000000
      2          9.528682   1.000000
      3         10.920291   1.000000
      4         11.414191   1.000000
      5         13.736435   1.012437
      6         18.592232  -0.000000
      7         25.636249   0.000000
      8         29.783186   0.000000
 
 -0.3000000E+00  0.2000000E+00  0.1262379E-14  0.3000000E-02
      1          8.420634   1.000000
      2          9.693715   1.000000
      3         10.439463   1.000000
      4         11.479521   1.000000
      5         13.126212   1.000000
      6         17.596820  -0.000000
      7         27.329148   0.000000
      8         29.791051   0.000000
 
 -0.2500000E+00  0.2000000E+00  0.1262379E-14  0.3000000E-02
      1          8.611820   1.000000
      2          9.563145   1.000000
      3         10.212815   1.000000
      4         11.604859   1.000000
      5         12.521435   1.000000
      6         16.590812  -0.000000
      7         28.864053   0.000000
      8         29.813221   0.000000
 
 -0.2000000E+00  0.2000000E+00  0.1262379E-14  0.1500000E-02
      1          8.492497   1.000000
      2          9.292390   1.000000
      3         10.439507   1.000000
      4         11.749971   1.000000
      5         12.007392   1.000000
      6         15.607125  -0.000000
      7         29.676763   0.000000
      8         30.002840   0.000000
 
  0.2500000E+00  0.2500000E+00  0.1262379E-14  0.7500000E-03
      1          7.666770   1.000000
      2          8.462482   1.000000
      3         11.830693   1.000000
      4         12.335176   1.000000
      5         12.335177   1.000000
      6         13.797668   1.025470
      7         29.779935   0.000000
      8         33.254270   0.000000
 
  0.3000000E+00  0.2500000E+00  0.1262379E-14  0.3000000E-02
      1          7.756474   1.000000
      2          8.247812   1.000000
      3         11.783660   1.000000
      4         12.598913   1.000000
      5         13.131289   1.000000
      6         14.013115   0.853631
      7         29.778097   0.000000
      8         32.354075   0.000000
 
  0.3500000E+00  0.2500000E+00  0.1262379E-14  0.3000000E-02
      1          7.778646   1.000000
      2          8.199314   1.000000
      3         11.576172   1.000000
      4         12.649600   1.000000
      5         14.339559  -0.034786
      6         14.360984  -0.035179
      7         29.768326   0.000000
      8         30.738726   0.000000
 
  0.4000000E+00  0.2500000E+00  0.1262379E-14  0.3000000E-02
      1          7.719523   1.000000
      2          8.353915   1.000000
      3         11.371256   1.000000
      4         12.556932   1.000000
      5         14.717680  -0.000070
      6         15.766267  -0.000000
      7         28.830009   0.000000
      8         29.796296   0.000000
 
  0.4500000E+00  0.2500000E+00  0.1262379E-14  0.3000000E-02
      1          7.690161   1.000000
      2          8.591569   1.000000
      3         11.203950   1.000000
      4         12.403503   1.000000
      5         14.946187  -0.000000
      6         17.342807  -0.000000
      7         26.916260   0.000000
      8         29.784138   0.000000
 
  0.5000000E+00  0.2500000E+00  0.1262379E-14  0.3000000E-02
      1          7.738043   1.000000
      2          8.835205   1.000000
      3         11.081608   1.000000
      4         12.238052   1.000000
      5         14.963595  -0.000000
      6         18.988462  -0.000000
      7         25.137487   0.000000
      8         29.776354   0.000000
 
 -0.4500000E+00  0.2500000E+00  0.1262379E-14  0.3000000E-02
      1          7.873691   1.000000
      2          9.047525   1.000000
      3         10.972940   1.000000
      4         12.089106   1.000000
      5         14.749369  -0.000027
      6         20.462374   0.000000
      7         23.798638   0.000000
      8         29.749911   0.000000
 
 -0.4000000E+00  0.2500000E+00  0.1262379E-14  0.3000000E-02
      1          8.093600   1.000000
      2          9.226269   1.000000
      3         10.805987   1.000000
      4         11.973411   1.000000
      5         14.340195  -0.034854
      6         20.755233   0.000000
      7         23.918503   0.000000
      8         29.498928   0.000000
 
 -0.3500000E+00  0.2500000E+00  0.1262379E-14  0.3000000E-02
      1          8.382909   1.000000
      2          9.392396   1.000000
      3         10.509995   1.000000
      4         11.897589   1.000000
      5         13.809003   1.028036
      6         19.858357   0.000000
      7         25.451132   0.000000
      8         29.136815   0.000000
 
 -0.3000000E+00  0.2500000E+00  0.1262379E-14  0.3000000E-02
      1          8.709254   1.000000
      2          9.545806   1.000000
      3         10.101214   1.000000
      4         11.853087   1.000000
      5         13.245155   1.000000
      6         18.785868  -0.000000
      7         27.224492   0.000000
      8         29.041394   0.000000
 
 -0.2500000E+00  0.2500000E+00  0.1262379E-14  0.1500000E-02
      1          8.949412   1.000000
      2          9.454169   1.000000
      3          9.970327   1.000000
      4         11.793013   1.000000
      5         12.762385   1.000000
      6         17.693777  -0.000000
      7         28.483016   0.000000
      8         29.692052   0.000000
 
  0.3000000E+00  0.3000000E+00  0.1262379E-14  0.7500000E-03
      1          7.619175   1.000000
      2          7.969017   1.000000
      3         12.712198   1.000000
      4         13.088016   1.000000
      5         13.088017   1.000000
      6         14.089539   0.574707
      7         29.777605   0.000000
      8         32.592628   0.000000
 
  0.3500000E+00  0.3000000E+00  0.1262379E-14  0.3000000E-02
      1          7.520960   1.000000
      2          7.796857   1.000000
      3         12.669778   1.000000
      4         13.314573   1.000000
      5         14.211703   0.117977
      6         14.344980  -0.035246
      7         29.773296   0.000000
      8         31.208262   0.000000
 
  0.4000000E+00  0.3000000E+00  0.1262379E-14  0.3000000E-02
      1          7.454995   1.000000
      2          7.786004   1.000000
      3         12.404362   1.000000
      4         13.279308   1.000000
      5         14.712963  -0.000080
      6         15.710646  -0.000000
      7         29.435629   0.000000
      8         29.804756   0.000000
 
  0.4500000E+00  0.3000000E+00  0.1262379E-14  0.3000000E-02
      1          7.425345   1.000000
      2          7.944147   1.000000
      3         12.102087   1.000000
      4         13.136915   1.000000
      5         14.973938  -0.000000
      6         17.366591  -0.000000
      7         27.590754   0.000000
      8         29.773280   0.000000
 
  0.5000000E+00  0.3000000E+00  0.1262379E-14  0.3000000E-02
      1          7.472077   1.000000
      2          8.218158   1.000000
      3         11.772616   1.000000
      4         12.958304   1.000000
      5         15.016769  -0.000000
      6         19.129519  -0.000000
      7         25.785142   0.000000
      8         29.722729   0.000000
 
 -0.4500000E+00  0.3000000E+00  0.1262379E-14  0.3000000E-02
      1          7.611100   1.000000
      2          8.562647   1.000000
      3         11.407944   1.000000
      4         12.771774   1.000000
      5         14.822980  -0.000003
      6         20.915334   0.000000
      7         24.201461   0.000000
      8         29.192453   0.000000
 
 -0.4000000E+00  0.3000000E+00  0.1262379E-14  0.3000000E-02
      1          7.841563   1.000000
      2          8.939749   1.000000
      3         10.990390   1.000000
      4         12.587437   1.000000
      5         14.443718  -0.019328
      6         21.970824   0.000000
      7         23.609436   0.000000
      8         28.458687   0.000000
 
 -0.3500000E+00  0.3000000E+00  0.1262379E-14  0.3000000E-02
      1          8.149516   1.000000
      2          9.318911   1.000000
      3         10.509696   1.000000
      4         12.397083   1.000000
      5         13.974952   0.945745
      6         21.064856   0.000000
      7         25.188467   0.000000
      8         27.840305   0.000000
 
 -0.3000000E+00  0.3000000E+00  0.1262379E-14  0.1500000E-02
      1          8.495108   1.000000
      2          9.655885   1.000000
      3         10.020492   1.000000
      4         12.166335   1.000000
      5         13.537723   1.000213
      6         19.935201   0.000000
      7         26.992957   0.000000
      8         27.537526   0.000000
 
  0.3500000E+00  0.3500000E+00  0.1262379E-14  0.7500000E-03
      1          7.277908   1.000000
      2          7.553434   1.000000
      3         13.871347   1.035124
      4         13.871347   1.035124
      5         14.114032   0.471412
      6         14.363624  -0.034995
      7         29.770528   0.000000
      8         30.888480   0.000000
 
  0.4000000E+00  0.3500000E+00  0.1262379E-14  0.3000000E-02
      1          7.142214   1.000000
      2          7.433852   1.000000
      3         13.630775   1.001926
      4         13.986781   0.921113
      5         14.671525  -0.000245
      6         15.548601  -0.000000
      7         29.687723   0.000000
      8         29.816866   0.000000
 
  0.4500000E+00  0.3500000E+00  0.1262379E-14  0.3000000E-02
      1          7.105058   1.000000
      2          7.468062   1.000000
      3         13.228997   1.000000
      4         13.861845   1.035457
      5         14.986981  -0.000000
      6         17.203280  -0.000000
      7         28.179070   0.000000
      8         29.721479   0.000000
 
  0.5000000E+00  0.3500000E+00  0.1262379E-14  0.3000000E-02
      1          7.150697   1.000000
      2          7.668687   1.000000
      3         12.754867   1.000000
      4         13.677997   1.004843
      5         15.075450  -0.000000
      6         18.958282  -0.000000
      7         26.526422   0.000000
      8         29.233166   0.000000
 
 -0.4500000E+00  0.3500000E+00  0.1262379E-14  0.3000000E-02
      1          7.284729   1.000000
      2          8.008124   1.000000
      3         12.215180   1.000000
      4         13.456456   1.000021
      5         14.922349  -0.000000
      6         20.766720   0.000000
      7         24.963171   0.000000
      8         28.474090   0.000000
 
 -0.4000000E+00  0.3500000E+00  0.1262379E-14  0.3000000E-02
      1          7.508915   1.000000
      2          8.444005   1.000000
      3         11.620148   1.000000
      4         13.187333   1.000000
      5         14.605386  -0.001208
      6         22.531852   0.000000
      7         23.589726   0.000000
      8         27.792674   0.000000
 
 -0.3500000E+00  0.3500000E+00  0.1262379E-14  0.1500000E-02
      1          7.810598   1.000000
      2          8.920591   1.000000
      3         11.006135   1.000000
      4         12.840268   1.000000
      5         14.252184   0.031843
      6         22.246557   0.000000
      7         24.231238   0.000000
      8         27.406676   0.000000
 
  0.4000000E+00  0.4000000E+00  0.1262379E-14  0.7500000E-03
      1          6.910928   1.000000
      2          7.240839   1.000000
      3         14.589132  -0.001720
      4         14.594534  -0.001532
      5         14.594534  -0.001532
      6         15.672377  -0.000000
      7         29.442395   0.000000
      8         29.442400   0.000000
 
  0.4500000E+00  0.4000000E+00  0.1262379E-14  0.3000000E-02
      1          6.818482   1.000000
      2          7.181827   1.000000
      3         14.396663  -0.029938
      4         14.468269  -0.014241
      5         15.002101  -0.000000
      6         16.939788  -0.000000
      7         28.517530   0.000000
      8         29.031333   0.000000
 
  0.5000000E+00  0.4000000E+00  0.1262379E-14  0.3000000E-02
      1          6.853116   1.000000
      2          7.275758   1.000000
      3         13.833446   1.032839
      4         14.296219  -0.018401
      5         15.149335  -0.000000
      6         18.514692  -0.000000
      7         27.242757   0.000000
      8         28.643543   0.000000
 
 -0.4500000E+00  0.4000000E+00  0.1262379E-14  0.3000000E-02
      1          6.989127   1.000000
      2          7.535451   1.000000
      3         13.143674   1.000000
      4         14.051798   0.725015
      5         15.052676  -0.000000
      6         20.103133   0.000000
      7         25.912292   0.000000
      8         28.076409   0.000000
 
 -0.4000000E+00  0.4000000E+00  0.1262379E-14  0.1500000E-02
      1          7.212282   1.000000
      2          7.941776   1.000000
      3         12.383690   1.000000
      4         13.691020   1.006095
      5         14.826895  -0.000002
      6         21.550225   0.000000
      7         24.651440   0.000000
      8         27.719938   0.000000
 
  0.4500000E+00  0.4500000E+00  0.1262379E-14  0.7500000E-03
      1          6.653036   1.000000
      2          7.047317   1.000000
      3         14.737895  -0.000039
      4         15.126713  -0.000000
      5         15.126713  -0.000000
      6         16.996684  -0.000000
      7         28.456658   0.000000
      8         28.456663   0.000000
 
  0.5000000E+00  0.4500000E+00  0.1262379E-14  0.3000000E-02
      1          6.639294   1.000000
      2          7.053072   1.000000
      3         14.680067  -0.000196
      4         14.828746  -0.000002
      5         15.256495  -0.000000
      6         17.915615  -0.000000
      7         27.785164   0.000000
      8         28.257174   0.000000
 
 -0.4500000E+00  0.4500000E+00  0.1262379E-14  0.1500000E-02
      1          6.762982   1.000000
      2          7.211541   1.000000
      3         14.057949   0.701829
      4         14.463300  -0.015206
      5         15.198201  -0.000000
      6         19.084994  -0.000000
      7         26.890198   0.000000
      8         28.035703   0.000000
 
  0.5000000E+00  0.5000000E+00  0.1262379E-14  0.3750000E-03
      1          6.561684   1.000000
      2          6.981864   1.000000
      3         14.789951  -0.000008
      4         15.326369  -0.000000
      5         15.326370  -0.000000
      6         17.551819  -0.000000
      7         28.012807   0.000000
      8         28.103050   0.000000
 
  0.1500000E+00  0.1000000E+00  0.5000000E-01  0.3000000E-02
      1          5.969376   1.000000
      2          9.967127   1.000000
      3         10.726308   1.000000
      4         10.762240   1.000000
      5         12.491707   1.000000
      6         13.050577   1.000000
      7         29.782291   0.000000
      8         31.073462   0.000000
 
  0.2000000E+00  0.1000000E+00  0.5000000E-01  0.6000000E-02
      1          6.447520   1.000000
      2          9.772805   1.000000
      3         10.900689   1.000000
      4         10.916614   1.000000
      5         12.348199   1.000000
      6         13.156663   1.000000
      7         29.780865   0.000000
      8         31.763719   0.000000
 
  0.2500000E+00  0.1000000E+00  0.5000000E-01  0.6000000E-02
      1          6.985040   1.000000
      2          9.676334   1.000000
      3         10.924356   1.000000
      4         11.059018   1.000000
      5         12.383156   1.000000
      6         13.389691   1.000002
      7         29.777169   0.000000
      8         31.532352   0.000000
 
  0.3000000E+00  0.1000000E+00  0.5000000E-01  0.6000000E-02
      1          7.380157   1.000000
      2          9.872948   1.000000
      3         10.796090   1.000000
      4         11.062501   1.000000
      5         12.700474   1.000000
      6         13.796853   1.025282
      7         29.748078   0.000000
      8         30.227602   0.000000
 
  0.3500000E+00  0.1000000E+00  0.5000000E-01  0.6000000E-02
      1          7.484792   1.000000
      2         10.435721   1.000000
      3         10.628645   1.000000
      4         10.960076   1.000000
      5         13.224156   1.000000
      6         14.352393  -0.035458
      7         28.757939   0.000000
      8         29.804110   0.000000
 
  0.4000000E+00  0.1000000E+00  0.5000000E-01  0.6000000E-02
      1          7.405715   1.000000
      2         10.360881   1.000000
      3         10.781392   1.000000
      4         11.368761   1.000000
      5         13.814701   1.029272
      6         15.017876  -0.000000
      7         27.249001   0.000000
      8         29.794300   0.000000
 
  0.4500000E+00  0.1000000E+00  0.5000000E-01  0.6000000E-02
      1          7.285826   1.000000
      2         10.193106   1.000000
      3         10.650997   1.000000
      4         12.182388   1.000000
      5         14.328949  -0.033027
      6         15.768713  -0.000000
      7         25.731084   0.000000
      8         29.791723   0.000000
 
  0.5000000E+00  0.1000000E+00  0.5000000E-01  0.6000000E-02
      1          7.195280   1.000000
      2         10.084030   1.000000
      3         10.558958   1.000000
      4         12.771975   1.000000
      5         14.655903  -0.000365
      6         16.480254  -0.000000
      7         24.497570   0.000000
      8         29.791117   0.000000
 
 -0.4500000E+00  0.1000000E+00  0.5000000E-01  0.3000000E-02
      1          7.162517   1.000000
      2         10.046527   1.000000
      3         10.526426   1.000000
      4         12.986896   1.000000
      5         14.763660  -0.000018
      6         16.803380  -0.000000
      7         23.993172   0.000000
      8         29.970171   0.000000
 
  0.2000000E+00  0.1500000E+00  0.5000000E-01  0.3000000E-02
      1          6.610184   1.000000
      2          9.540475   1.000000
      3         11.053089   1.000000
      4         11.120988   1.000000
      5         12.135943   1.000000
      6         13.276936   1.000000
      7         29.781229   0.000000
      8         32.097431   0.000000
 
  0.2500000E+00  0.1500000E+00  0.5000000E-01  0.6000000E-02
      1          7.117577   1.000000
      2          9.351089   1.000000
      3         11.011286   1.000000
      4         11.331798   1.000000
      5         12.231891   1.000000
      6         13.495971   1.000068
      7         29.779283   0.000000
      8         32.206152   0.000000
 
  0.3000000E+00  0.1500000E+00  0.5000000E-01  0.6000000E-02
      1          7.571193   1.000000
      2          9.345861   1.000000
      3         10.777580   1.000000
      4         11.407161   1.000000
      5         12.660974   1.000000
      6         13.888747   1.032261
      7         29.771309   0.000000
      8         30.965428   0.000000
 
  0.3500000E+00  0.1500000E+00  0.5000000E-01  0.6000000E-02
      1          7.751301   1.000000
      2          9.714205   1.000000
      3         10.491444   1.000000
      4         11.342911   1.000000
      5         13.288515   1.000000
      6         14.468543  -0.014188
      7         29.471375   0.000000
      8         29.844666   0.000000
 
  0.4000000E+00  0.1500000E+00  0.5000000E-01  0.6000000E-02
      1          7.698651   1.000000
      2         10.145303   1.000000
      3         10.447652   1.000000
      4         11.218204   1.000000
      5         13.936948   1.002100
      6         15.237025  -0.000000
      7         27.926064   0.000000
      8         29.796686   0.000000
 
  0.4500000E+00  0.1500000E+00  0.5000000E-01  0.6000000E-02
      1          7.586769   1.000000
      2          9.963308   1.000000
      3         10.954704   1.000000
      4         11.254225   1.000000
      5         14.437001  -0.020834
      6         16.190146  -0.000000
      7         26.271839   0.000000
      8         29.791778   0.000000
 
  0.5000000E+00  0.1500000E+00  0.5000000E-01  0.6000000E-02
      1          7.498028   1.000000
      2          9.820357   1.000000
      3         10.903282   1.000000
      4         11.791908   1.000000
      5         14.706133  -0.000096
      6         17.189931  -0.000000
      7         24.799744   0.000000
      8         29.790312   0.000000
 
 -0.4500000E+00  0.1500000E+00  0.5000000E-01  0.6000000E-02
      1          7.462276   1.000000
      2          9.760331   1.000000
      3         10.839577   1.000000
      4         12.136451   1.000000
      5         14.737322  -0.000039
      6         17.874327  -0.000000
      7         23.938342   0.000000
      8         29.790099   0.000000
 
 -0.4000000E+00  0.1500000E+00  0.5000000E-01  0.6000000E-02
      1          7.488713   1.000000
      2          9.788447   1.000000
      3         10.830263   1.000000
      4         12.129271   1.000000
      5         14.555101  -0.003427
      6         17.797879  -0.000000
      7         24.164906   0.000000
      8         29.790308   0.000000
 
 -0.3500000E+00  0.1500000E+00  0.5000000E-01  0.6000000E-02
      1          7.574624   1.000000
      2          9.900573   1.000000
      3         10.876738   1.000000
      4         11.757965   1.000000
      5         14.186299   0.192792
      6         17.102836  -0.000000
      7         25.326396   0.000000
      8         29.791321   0.000000
 
 -0.3000000E+00  0.1500000E+00  0.5000000E-01  0.6000000E-02
      1          7.703239   1.000000
      2         10.082059   1.000000
      3         10.890527   1.000000
      4         11.204421   1.000000
      5         13.666811   1.003942
      6         16.232576  -0.000000
      7         26.894029   0.000000
      8         29.793861   0.000000
 
 -0.2500000E+00  0.1500000E+00  0.5000000E-01  0.6000000E-02
      1          7.826938   1.000000
      2         10.192263   1.000000
      3         10.414994   1.000000
      4         11.199355   1.000000
      5         13.074898   1.000000
      6         15.382658  -0.000000
      7         28.503078   0.000000
      8         29.802471   0.000000
 
 -0.2000000E+00  0.1500000E+00  0.5000000E-01  0.6000000E-02
      1          7.815550   1.000000
      2          9.648976   1.000000
      3         10.608447   1.000000
      4         11.334738   1.000000
      5         12.523026   1.000000
      6         14.607909  -0.001142
      7         29.711558   0.000000
      8         30.042312   0.000000
 
 -0.1500000E+00  0.1500000E+00  0.5000000E-01  0.6000000E-02
      1          7.484306   1.000000
      2          9.437447   1.000000
      3         10.832925   1.000000
      4         11.358361   1.000000
      5         12.175692   1.000000
      6         13.949451   0.987207
      7         29.773511   0.000000
      8         31.180301   0.000000
 
 -0.1000000E+00  0.1500000E+00  0.5000000E-01  0.3000000E-02
      1          6.948222   1.000000
      2          9.553086   1.000000
      3         10.950252   1.000000
      4         11.155662   1.000000
      5         12.173406   1.000000
      6         13.458716   1.000023
      7         29.779173   0.000000
      8         32.124338   0.000000
 
  0.2500000E+00  0.2000000E+00  0.5000000E-01  0.3000000E-02
      1          7.318847   1.000000
      2          9.038100   1.000000
      3         11.186269   1.000000
      4         11.663340   1.000000
      5         12.148421   1.000000
      6         13.580392   1.000622
      7         29.779695   0.000000
      8         32.767889   0.000000
 
  0.3000000E+00  0.2000000E+00  0.5000000E-01  0.6000000E-02
      1          7.734108   1.000000
      2          8.882641   1.000000
      3         10.906062   1.000000
      4         11.863040   1.000000
      5         12.658714   1.000000
      6         13.936327   1.002753
      7         29.776771   0.000000
      8         31.754560   0.000000
 
  0.3500000E+00  0.2000000E+00  0.5000000E-01  0.6000000E-02
      1          7.956410   1.000000
      2          8.997011   1.000000
      3         10.607533   1.000000
      4         11.863056   1.000000
      5         13.369080   1.000001
      6         14.525963  -0.005843
      7         29.755690   0.000000
      8         30.390560   0.000000
 
  0.4000000E+00  0.2000000E+00  0.5000000E-01  0.6000000E-02
      1          7.927314   1.000000
      2          9.363485   1.000000
      3         10.409696   1.000000
      4         11.752647   1.000000
      5         14.051303   0.726853
      6         15.392171  -0.000000
      7         28.676626   0.000000
      8         29.801846   0.000000
 
  0.4500000E+00  0.2000000E+00  0.5000000E-01  0.6000000E-02
      1          7.843015   1.000000
      2          9.560409   1.000000
      3         10.534110   1.000000
      4         11.606532   1.000000
      5         14.531051  -0.005344
      6         16.528770  -0.000000
      7         26.896090   0.000000
      8         29.791320   0.000000
 
  0.5000000E+00  0.2000000E+00  0.5000000E-01  0.6000000E-02
      1          7.791970   1.000000
      2          9.505350   1.000000
      3         10.930478   1.000000
      4         11.474417   1.000000
      5         14.763530  -0.000018
      6         17.788423  -0.000000
      7         25.214632   0.000000
      8         29.788426   0.000000
 
 -0.4500000E+00  0.2000000E+00  0.5000000E-01  0.6000000E-02
      1          7.796102   1.000000
      2          9.437416   1.000000
      3         11.227120   1.000000
      4         11.419207   1.000000
      5         14.749953  -0.000027
      6         18.861255  -0.000000
      7         23.993589   0.000000
      8         29.787335   0.000000
 
 -0.4000000E+00  0.2000000E+00  0.5000000E-01  0.6000000E-02
      1          7.857326   1.000000
      2          9.441788   1.000000
      3         11.248794   1.000000
      4         11.453257   1.000000
      5         14.517457  -0.006758
      6         19.124977  -0.000000
      7         23.880592   0.000000
      8         29.786934   0.000000
 
 -0.3500000E+00  0.2000000E+00  0.5000000E-01  0.6000000E-02
      1          7.969947   1.000000
      2          9.538025   1.000000
      3         11.139418   1.000000
      4         11.367034   1.000000
      5         14.109446   0.490801
      6         18.466648  -0.000000
      7         24.976571   0.000000
      8         29.787832   0.000000
 
 -0.3000000E+00  0.2000000E+00  0.5000000E-01  0.6000000E-02
      1          8.123284   1.000000
      2          9.718701   1.000000
      3         10.689280   1.000000
      4         11.407319   1.000000
      5         13.571890   1.000507
      6         17.506978  -0.000000
      7         26.584516   0.000000
      8         29.791282   0.000000
 
 -0.2500000E+00  0.2000000E+00  0.5000000E-01  0.6000000E-02
      1          8.291606   1.000000
      2          9.868138   1.000000
      3         10.149705   1.000000
      4         11.535377   1.000000
      5         12.965178   1.000000
      6         16.522949  -0.000000
      7         28.260253   0.000000
      8         29.800406   0.000000
 
 -0.2000000E+00  0.2000000E+00  0.5000000E-01  0.6000000E-02
      1          8.366554   1.000000
      2          9.396722   1.000000
      3         10.322393   1.000000
      4         11.709607   1.000000
      5         12.366238   1.000000
      6         15.575580  -0.000000
      7         29.591246   0.000000
      8         29.902081   0.000000
 
 -0.1500000E+00  0.2000000E+00  0.5000000E-01  0.3000000E-02
      1          8.044251   1.000000
      2          9.251765   1.000000
      3         10.607812   1.000000
      4         11.753406   1.000000
      5         11.993167   1.000000
      6         14.700117  -0.000114
      7         29.762906   0.000000
      8         30.660568   0.000000
 
  0.3000000E+00  0.2500000E+00  0.5000000E-01  0.3000000E-02
      1          7.782426   1.000000
      2          8.523855   1.000000
      3         11.292218   1.000000
      4         12.329254   1.000000
      5         12.728337   1.000000
      6         13.951087   0.985005
      7         29.778228   0.000000
      8         32.368118   0.000000
 
  0.3500000E+00  0.2500000E+00  0.5000000E-01  0.6000000E-02
      1          7.947664   1.000000
      2          8.427723   1.000000
      3         11.084284   1.000000
      4         12.488365   1.000000
      5         13.416355   1.000006
      6         14.516004  -0.006925
      7         29.772393   0.000000
      8         31.180857   0.000000
 
  0.4000000E+00  0.2500000E+00  0.5000000E-01  0.6000000E-02
      1          7.927054   1.000000
      2          8.593351   1.000000
      3         10.882798   1.000000
      4         12.416366   1.000000
      5         14.119368   0.448921
      6         15.457609  -0.000000
      7         29.429069   0.000000
      8         29.829837   0.000000
 
  0.4500000E+00  0.2500000E+00  0.5000000E-01  0.6000000E-02
      1          7.865475   1.000000
      2          8.848072   1.000000
      3         10.759346   1.000000
      4         12.262820   1.000000
      5         14.596689  -0.001462
      6         16.738150  -0.000000
      7         27.586670   0.000000
      8         29.789788   0.000000
 
  0.5000000E+00  0.2500000E+00  0.5000000E-01  0.6000000E-02
      1          7.861172   1.000000
      2          9.040483   1.000000
      3         10.761686   1.000000
      4         12.086765   1.000000
      5         14.820036  -0.000003
      6         18.201547  -0.000000
      7         25.759361   0.000000
      8         29.784554   0.000000
 
 -0.4500000E+00  0.2500000E+00  0.5000000E-01  0.6000000E-02
      1          7.934415   1.000000
      2          9.135751   1.000000
      3         10.858115   1.000000
      4         11.917276   1.000000
      5         14.790804  -0.000007
      6         19.634804   0.000000
      7         24.231194   0.000000
      8         29.779984   0.000000
 
 -0.4000000E+00  0.2500000E+00  0.5000000E-01  0.6000000E-02
      1          8.084102   1.000000
      2          9.186135   1.000000
      3         10.910179   1.000000
      4         11.784486   1.000000
      5         14.536743  -0.004826
      6         20.390030   0.000000
      7         23.668372   0.000000
      8         29.771299   0.000000
 
 -0.3500000E+00  0.2500000E+00  0.5000000E-01  0.6000000E-02
      1          8.296269   1.000000
      2          9.258408   1.000000
      3         10.755316   1.000000
      4         11.739277   1.000000
      5         14.110319   0.487106
      6         19.805341   0.000000
      7         24.710807   0.000000
      8         29.748944   0.000000
 
 -0.3000000E+00  0.2500000E+00  0.5000000E-01  0.6000000E-02
      1          8.545382   1.000000
      2          9.392320   1.000000
      3         10.359778   1.000000
      4         11.784170   1.000000
      5         13.570702   1.000492
      6         18.769131  -0.000000
      7         26.382140   0.000000
      8         29.732864   0.000000
 
 -0.2500000E+00  0.2500000E+00  0.5000000E-01  0.6000000E-02
      1          8.797695   1.000000
      2          9.524267   1.000000
      3          9.893317   1.000000
      4         11.876186   1.000000
      5         12.985669   1.000000
      6         17.691178  -0.000000
      7         28.061060   0.000000
      8         29.787334   0.000000
 
 -0.2000000E+00  0.2500000E+00  0.5000000E-01  0.3000000E-02
      1          8.893817   1.000000
      2          9.229053   1.000000
      3         10.009265   1.000000
      4         11.945892   1.000000
      5         12.473561   1.000000
      6         16.619414  -0.000000
      7         29.182144   0.000000
      8         29.831895   0.000000
 
  0.3500000E+00  0.3000000E+00  0.5000000E-01  0.3000000E-02
      1          7.741570   1.000000
      2          8.047319   1.000000
      3         11.878760   1.000000
      4         13.083064   1.000000
      5         13.543847   1.000250
      6         14.440672  -0.020007
      7         29.775064   0.000000
      8         31.671263   0.000000
 
  0.4000000E+00  0.3000000E+00  0.5000000E-01  0.6000000E-02
      1          7.715422   1.000000
      2          8.004487   1.000000
      3         11.720922   1.000000
      4         13.170857   1.000000
      5         14.135381   0.382351
      6         15.427704  -0.000000
      7         29.748480   0.000000
      8         30.195337   0.000000
 
  0.4500000E+00  0.3000000E+00  0.5000000E-01  0.6000000E-02
      1          7.661018   1.000000
      2          8.156164   1.000000
      3         11.509433   1.000000
      4         13.018105   1.000000
      5         14.628362  -0.000714
      6         16.802231  -0.000000
      7         28.288687   0.000000
      8         29.786004   0.000000
 
  0.5000000E+00  0.3000000E+00  0.5000000E-01  0.6000000E-02
      1          7.664659   1.000000
      2          8.404220   1.000000
      3         11.294728   1.000000
      4         12.810723   1.000000
      5         14.872439  -0.000000
      6         18.393385  -0.000000
      7         26.418302   0.000000
      8         29.774180   0.000000
 
 -0.4500000E+00  0.3000000E+00  0.5000000E-01  0.6000000E-02
      1          7.756388   1.000000
      2          8.686791   1.000000
      3         11.084200   1.000000
      4         12.592150   1.000000
      5         14.856206  -0.000001
      6         20.072838   0.000000
      7         24.716921   0.000000
      8         29.735792   0.000000
 
 -0.4000000E+00  0.3000000E+00  0.5000000E-01  0.6000000E-02
      1          7.940655   1.000000
      2          8.962310   1.000000
      3         10.848950   1.000000
      4         12.393887   1.000000
      5         14.610983  -0.001065
      6         21.456307   0.000000
      7         23.593630   0.000000
      8         29.306079   0.000000
 
 -0.3500000E+00  0.3000000E+00  0.5000000E-01  0.6000000E-02
      1          8.210785   1.000000
      2          9.210080   1.000000
      3         10.531658   1.000000
      4         12.249191   1.000000
      5         14.201526   0.146086
      6         21.088714   0.000000
      7         24.483829   0.000000
      8         28.697296   0.000000
 
 -0.3000000E+00  0.3000000E+00  0.5000000E-01  0.6000000E-02
      1          8.547780   1.000000
      2          9.433444   1.000000
      3         10.098322   1.000000
      4         12.164723   1.000000
      5         13.710436   1.008411
      6         19.984394   0.000000
      7         26.293153   0.000000
      8         28.262073   0.000000
 
 -0.2500000E+00  0.3000000E+00  0.5000000E-01  0.3000000E-02
      1          8.890140   1.000000
      2          9.580259   1.000000
      3          9.680173   1.000000
      4         12.081359   1.000000
      5         13.250953   1.000000
      6         18.845745  -0.000000
      7         27.914064   0.000000
      8         28.362694   0.000000
 
  0.4000000E+00  0.3500000E+00  0.5000000E-01  0.3000000E-02
      1          7.396401   1.000000
      2          7.644808   1.000000
      3         12.744699   1.000000
      4         13.867824   1.035337
      5         14.206097   0.133146
      6         15.340439  -0.000000
      7         29.761536   0.000000
      8         30.444299   0.000000
 
  0.4500000E+00  0.3500000E+00  0.5000000E-01  0.6000000E-02
      1          7.346501   1.000000
      2          7.645110   1.000000
      3         12.511853   1.000000
      4         13.818161   1.029996
      5         14.620449  -0.000858
      6         16.740897  -0.000000
      7         28.882637   0.000000
      8         29.773425   0.000000
 
  0.5000000E+00  0.3500000E+00  0.5000000E-01  0.6000000E-02
      1          7.352599   1.000000
      2          7.818700   1.000000
      3         12.195784   1.000000
      4         13.568586   1.000467
      5         14.920807  -0.000000
      6         18.363081  -0.000000
      7         27.129521   0.000000
      8         29.714312   0.000000
 
 -0.4500000E+00  0.3500000E+00  0.5000000E-01  0.6000000E-02
      1          7.439412   1.000000
      2          8.121800   1.000000
      3         11.819418   1.000000
      4         13.292957   1.000000
      5         14.947876  -0.000000
      6         20.115665   0.000000
      7         25.436559   0.000000
      8         29.191178   0.000000
 
 -0.4000000E+00  0.3500000E+00  0.5000000E-01  0.6000000E-02
      1          7.618185   1.000000
      2          8.507236   1.000000
      3         11.377789   1.000000
      4         13.016914   1.000000
      5         14.742270  -0.000034
      6         21.897049   0.000000
      7         23.951314   0.000000
      8         28.415322   0.000000
 
 -0.3500000E+00  0.3500000E+00  0.5000000E-01  0.6000000E-02
      1          7.884282   1.000000
      2          8.928074   1.000000
      3         10.869025   1.000000
      4         12.752475   1.000000
      5         14.391155  -0.031041
      6         22.320007   0.000000
      7         24.022032   0.000000
      8         27.724109   0.000000
 
 -0.3000000E+00  0.3500000E+00  0.5000000E-01  0.3000000E-02
      1          8.217112   1.000000
      2          9.318499   1.000000
      3         10.341264   1.000000
      4         12.483268   1.000000
      5         14.007240   0.870184
      6         21.164356   0.000000
      7         25.635568   0.000000
      8         27.372437   0.000000
 
  0.4500000E+00  0.4000000E+00  0.5000000E-01  0.3000000E-02
      1          7.024902   1.000000
      2          7.341428   1.000000
      3         13.567326   1.000453
      4         14.540141  -0.004537
      5         14.592689  -0.001594
      6         16.660822  -0.000000
      7         29.112518   0.000000
      8         29.310375   0.000000
 
  0.5000000E+00  0.4000000E+00  0.5000000E-01  0.6000000E-02
      1          7.025589   1.000000
      2          7.398648   1.000000
      3         13.227104   1.000000
      4         14.255894   0.025970
      5         14.981189  -0.000000
      6         18.153191  -0.000000
      7         27.778024   0.000000
      8         29.054675   0.000000
 
 -0.4500000E+00  0.4000000E+00  0.5000000E-01  0.6000000E-02
      1          7.117561   1.000000
      2          7.623179   1.000000
      3         12.751288   1.000000
      4         13.925597   1.012821
      5         15.074579  -0.000000
      6         19.786983   0.000000
      7         26.284360   0.000000
      8         28.530160   0.000000
 
 -0.4000000E+00  0.4000000E+00  0.5000000E-01  0.6000000E-02
      1          7.295964   1.000000
      2          7.991585   1.000000
      3         12.159583   1.000000
      4         13.579945   1.000615
      5         14.928192  -0.000000
      6         21.440790   0.000000
      7         24.864249   0.000000
      8         27.903193   0.000000
 
 -0.3500000E+00  0.4000000E+00  0.5000000E-01  0.3000000E-02
      1          7.557875   1.000000
      2          8.454513   1.000000
      3         11.498770   1.000000
      4         13.198012   1.000000
      5         14.659363  -0.000335
      6         22.945556   0.000000
      7         23.564717   0.000000
      8         27.517950   0.000000
 
  0.5000000E+00  0.4500000E+00  0.5000000E-01  0.3000000E-02
      1          6.764403   1.000000
      2          7.153400   1.000000
      3         14.192559   0.172935
      4         14.667589  -0.000271
      5         15.126477  -0.000000
      6         17.897277  -0.000000
      7         28.123319   0.000000
      8         28.337777   0.000000
 
 -0.4500000E+00  0.4500000E+00  0.5000000E-01  0.6000000E-02
      1          6.846267   1.000000
      2          7.274380   1.000000
      3         13.704788   1.007679
      4         14.378337  -0.033272
      5         15.234312  -0.000000
      6         19.170006  -0.000000
      7         27.116378   0.000000
      8         28.122723   0.000000
 
 -0.4000000E+00  0.4500000E+00  0.5000000E-01  0.3000000E-02
      1          7.031386   1.000000
      2          7.559646   1.000000
      3         12.980199   1.000000
      4         14.028132   0.807570
      5         15.129661  -0.000000
      6         20.433073   0.000000
      7         25.972865   0.000000
      8         27.856619   0.000000
 
 -0.4500000E+00  0.5000000E+00  0.5000000E-01  0.1500000E-02
      1          6.672228   1.000000
      2          7.089760   1.000000
      3         14.508250  -0.007869
      4         14.618635  -0.000895
      5         15.326812  -0.000000
      6         18.436897  -0.000000
      7         27.682304   0.000000
      8         27.987935   0.000000
 
  0.3000000E+00  0.2000000E+00  0.1000000E+00  0.3000000E-02
      1          7.618919   1.000000
      2          9.142001   1.000000
      3         10.814882   1.000000
      4         11.668438   1.000000
      5         12.260754   1.000000
      6         13.961256   0.969937
      7         29.776162   0.000000
      8         31.602998   0.000000
 
  0.3500000E+00  0.2000000E+00  0.1000000E+00  0.6000000E-02
      1          8.044465   1.000000
      2          9.117822   1.000000
      3         10.517691   1.000000
      4         11.815289   1.000000
      5         12.549504   1.000000
      6         14.645463  -0.000473
      7         29.763446   0.000000
      8         30.655166   0.000000
 
  0.4000000E+00  0.2000000E+00  0.1000000E+00  0.6000000E-02
      1          8.128252   1.000000
      2          9.512765   1.000000
      3         10.208335   1.000000
      4         11.717116   1.000000
      5         13.122727   1.000000
      6         15.488249  -0.000000
      7         29.220320   0.000000
      8         29.821936   0.000000
 
  0.4500000E+00  0.2000000E+00  0.1000000E+00  0.6000000E-02
      1          8.022837   1.000000
      2          9.839863   1.000000
      3         10.221905   1.000000
      4         11.572921   1.000000
      5         13.730535   1.011428
      6         16.452589  -0.000000
      7         27.578200   0.000000
      8         29.794801   0.000000
 
  0.5000000E+00  0.2000000E+00  0.1000000E+00  0.6000000E-02
      1          7.908456   1.000000
      2          9.638514   1.000000
      3         10.789240   1.000000
      4         11.458192   1.000000
      5         14.227139   0.080283
      6         17.505198  -0.000000
      7         25.869657   0.000000
      8         29.790396   0.000000
 
 -0.4500000E+00  0.2000000E+00  0.1000000E+00  0.6000000E-02
      1          7.832367   1.000000
      2          9.491520   1.000000
      3         11.149991   1.000000
      4         11.454449   1.000000
      5         14.530731  -0.005374
      6         18.507147  -0.000000
      7         24.420912   0.000000
      8         29.788861   0.000000
 
 -0.4000000E+00  0.2000000E+00  0.1000000E+00  0.3000000E-02
      1          7.806254   1.000000
      2          9.440154   1.000000
      3         11.206664   1.000000
      4         11.532398   1.000000
      5         14.628778  -0.000707
      6         18.995097  -0.000000
      7         23.776913   0.000000
      8         29.788431   0.000000
 
  0.3500000E+00  0.2500000E+00  0.1000000E+00  0.3000000E-02
      1          8.106968   1.000000
      2          8.698009   1.000000
      3         10.654650   1.000000
      4         12.322697   1.000000
      5         12.740760   1.000000
      6         14.614558  -0.000983
      7         29.771420   0.000000
      8         31.159748   0.000000
 
  0.4000000E+00  0.2500000E+00  0.1000000E+00  0.6000000E-02
      1          8.266363   1.000000
      2          8.797234   1.000000
      3         10.385013   1.000000
      4         12.388019   1.000000
      5         13.199337   1.000000
      6         15.522078  -0.000000
      7         29.713187   0.000000
      8         30.065179   0.000000
 
  0.4500000E+00  0.2500000E+00  0.1000000E+00  0.6000000E-02
      1          8.184713   1.000000
      2          9.137711   1.000000
      3         10.209511   1.000000
      4         12.231590   1.000000
      5         13.813487   1.029013
      6         16.597531  -0.000000
      7         28.312635   0.000000
      8         29.796761   0.000000
 
  0.5000000E+00  0.2500000E+00  0.1000000E+00  0.6000000E-02
      1          8.118584   1.000000
      2          9.275665   1.000000
      3         10.318894   1.000000
      4         12.046366   1.000000
      5         14.298534  -0.019979
      6         17.816031  -0.000000
      7         26.508388   0.000000
      8         29.788026   0.000000
 
 -0.4500000E+00  0.2500000E+00  0.1000000E+00  0.6000000E-02
      1          8.110697   1.000000
      2          9.199124   1.000000
      3         10.648917   1.000000
      4         11.862087   1.000000
      5         14.563152  -0.002930
      6         19.093546  -0.000000
      7         24.839918   0.000000
      8         29.784889   0.000000
 
 -0.4000000E+00  0.2500000E+00  0.1000000E+00  0.6000000E-02
      1          8.157873   1.000000
      2          9.119006   1.000000
      3         10.910214   1.000000
      4         11.708139   1.000000
      5         14.598570  -0.001403
      6         20.062051   0.000000
      7         23.753021   0.000000
      8         29.783392   0.000000
 
 -0.3500000E+00  0.2500000E+00  0.1000000E+00  0.6000000E-02
      1          8.241258   1.000000
      2          9.129717   1.000000
      3         10.866618   1.000000
      4         11.692291   1.000000
      5         14.433890  -0.021543
      6         19.860866   0.000000
      7         24.123499   0.000000
      8         29.782521   0.000000
 
 -0.3000000E+00  0.2500000E+00  0.1000000E+00  0.6000000E-02
      1          8.343362   1.000000
      2          9.262026   1.000000
      3         10.494713   1.000000
      4         11.818715   1.000000
      5         14.088715   0.578146
      6         18.839771  -0.000000
      7         25.573619   0.000000
      8         29.783515   0.000000
 
 -0.2500000E+00  0.2500000E+00  0.1000000E+00  0.6000000E-02
      1          8.464850   1.000000
      2          9.495065   1.000000
      3          9.959636   1.000000
      4         11.987337   1.000000
      5         13.582907   1.000661
      6         17.704144  -0.000000
      7         27.306641   0.000000
      8         29.789421   0.000000
 
 -0.2000000E+00  0.2500000E+00  0.1000000E+00  0.6000000E-02
      1          8.605890   1.000000
      2          9.315376   1.000000
      3          9.851868   1.000000
      4         12.174398   1.000000
      5         12.975951   1.000000
      6         16.608624  -0.000000
      7         28.939684   0.000000
      8         29.812600   0.000000
 
 -0.1500000E+00  0.2500000E+00  0.1000000E+00  0.3000000E-02
      1          8.552110   1.000000
      2          8.952482   1.000000
      3         10.189226   1.000000
      4         12.350632   1.000000
      5         12.377341   1.000000
      6         15.578372  -0.000000
      7         29.723769   0.000000
      8         30.154850   0.000000
 
  0.4000000E+00  0.3000000E+00  0.1000000E+00  0.3000000E-02
      1          8.094152   1.000000
      2          8.276289   1.000000
      3         10.943308   1.000000
      4         13.073122   1.000000
      5         13.357228   1.000001
      6         15.486478  -0.000000
      7         29.757515   0.000000
      8         30.517040   0.000000
 
  0.4500000E+00  0.3000000E+00  0.1000000E+00  0.6000000E-02
      1          8.066560   1.000000
      2          8.413873   1.000000
      3         10.759067   1.000000
      4         13.017678   1.000000
      5         13.863847   1.035449
      6         16.658205  -0.000000
      7         29.033373   0.000000
      8         29.804419   0.000000
 
  0.5000000E+00  0.3000000E+00  0.1000000E+00  0.6000000E-02
      1          8.022111   1.000000
      2          8.657777   1.000000
      3         10.612260   1.000000
      4         12.779088   1.000000
      5         14.365659  -0.034824
      6         18.001559  -0.000000
      7         27.224929   0.000000
      8         29.782400   0.000000
 
 -0.4500000E+00  0.3000000E+00  0.1000000E+00  0.6000000E-02
      1          8.058099   1.000000
      2          8.852686   1.000000
      3         10.554479   1.000000
      4         12.521515   1.000000
      5         14.633920  -0.000626
      6         19.475322   0.000000
      7         25.440043   0.000000
      8         29.775107   0.000000
 
 -0.4000000E+00  0.3000000E+00  0.1000000E+00  0.6000000E-02
      1          8.183069   1.000000
      2          8.952273   1.000000
      3         10.560540   1.000000
      4         12.285797   1.000000
      5         14.654276  -0.000380
      6         20.893052   0.000000
      7         23.973133   0.000000
      8         29.760012   0.000000
 
 -0.3500000E+00  0.3000000E+00  0.1000000E+00  0.6000000E-02
      1          8.393509   1.000000
      2          8.987529   1.000000
      3         10.483169   1.000000
      4         12.151965   1.000000
      5         14.461598  -0.015545
      6         21.188688   0.000000
      7         23.905145   0.000000
      8         29.613373   0.000000
 
 -0.3000000E+00  0.3000000E+00  0.1000000E+00  0.6000000E-02
      1          8.674750   1.000000
      2          9.022177   1.000000
      3         10.187799   1.000000
      4         12.181331   1.000000
      5         14.097106   0.542955
      6         20.143044   0.000000
      7         25.417734   0.000000
      8         29.229326   0.000000
 
 -0.2500000E+00  0.3000000E+00  0.1000000E+00  0.6000000E-02
      1          8.965019   1.000000
      2          9.139856   1.000000
      3          9.713419   1.000000
      4         12.313116   1.000000
      5         13.608751   1.001197
      6         18.946848  -0.000000
      7         27.199040   0.000000
      8         29.077828   0.000000
 
 -0.2000000E+00  0.3000000E+00  0.1000000E+00  0.3000000E-02
      1          9.091564   1.000000
      2          9.202453   1.000000
      3          9.469998   1.000000
      4         12.414037   1.000000
      5         13.116896   1.000000
      6         17.767928  -0.000000
      7         28.531324   0.000000
      8         29.654850   0.000000
 
  0.4500000E+00  0.3500000E+00  0.1000000E+00  0.3000000E-02
      1          7.736051   1.000000
      2          7.914989   1.000000
      3         11.590120   1.000000
      4         13.858943   1.035415
      5         13.868445   1.035307
      6         16.663150  -0.000000
      7         29.453127   0.000000
      8         29.833137   0.000000
 
  0.5000000E+00  0.3500000E+00  0.1000000E+00  0.6000000E-02
      1          7.727381   1.000000
      2          8.051162   1.000000
      3         11.372066   1.000000
      4         13.552310   1.000311
      5         14.426645  -0.023211
      6         18.066009  -0.000000
      7         27.959158   0.000000
      8         29.714094   0.000000
 
 -0.4500000E+00  0.3500000E+00  0.1000000E+00  0.6000000E-02
      1          7.761257   1.000000
      2          8.319404   1.000000
      3         11.126488   1.000000
      4         13.209954   1.000000
      5         14.743474  -0.000033
      6         19.626409   0.000000
      7         26.191869   0.000000
      8         29.683923   0.000000
 
 -0.4000000E+00  0.3500000E+00  0.1000000E+00  0.6000000E-02
      1          7.881785   1.000000
      2          8.633993   1.000000
      3         10.858142   1.000000
      4         12.874153   1.000000
      5         14.794678  -0.000007
      6         21.286978   0.000000
      7         24.555830   0.000000
      8         29.228418   0.000000
 
 -0.3500000E+00  0.3500000E+00  0.1000000E+00  0.6000000E-02
      1          8.090914   1.000000
      2          8.943211   1.000000
      3         10.530874   1.000000
      4         12.610739   1.000000
      5         14.621486  -0.000838
      6         22.419653   0.000000
      7         23.712978   0.000000
      8         28.489995   0.000000
 
 -0.3000000E+00  0.3500000E+00  0.1000000E+00  0.6000000E-02
      1          8.378808   1.000000
      2          9.215789   1.000000
      3         10.102123   1.000000
      4         12.476408   1.000000
      5         14.289167  -0.013004
      6         21.401254   0.000000
      7         25.248010   0.000000
      8         27.847095   0.000000
 
 -0.2500000E+00  0.3500000E+00  0.1000000E+00  0.3000000E-02
      1          8.725461   1.000000
      2          9.420247   1.000000
      3          9.616403   1.000000
      4         12.432093   1.000000
      5         13.893799   1.030780
      6         20.171307   0.000000
      7         27.032522   0.000000
      8         27.517093   0.000000
 
  0.5000000E+00  0.4000000E+00  0.1000000E+00  0.3000000E-02
      1          7.349262   1.000000
      2          7.640352   1.000000
      3         12.302348   1.000000
      4         14.145606   0.341054
      5         14.587519  -0.001780
      6         18.067440  -0.000000
      7         28.451812   0.000000
      8         28.893756   0.000000
 
 -0.4500000E+00  0.4000000E+00  0.1000000E+00  0.6000000E-02
      1          7.409761   1.000000
      2          7.818077   1.000000
      3         11.983392   1.000000
      4         13.807029   1.027597
      5         14.910891  -0.000000
      6         19.569421   0.000000
      7         27.011697   0.000000
      8         28.747857   0.000000
 
 -0.4000000E+00  0.4000000E+00  0.1000000E+00  0.6000000E-02
      1          7.536280   1.000000
      2          8.142684   1.000000
      3         11.578401   1.000000
      4         13.398415   1.000003
      5         15.006650  -0.000000
      6         21.194990   0.000000
      7         25.442482   0.000000
      8         28.376244   0.000000
 
 -0.3500000E+00  0.4000000E+00  0.1000000E+00  0.6000000E-02
      1          7.744954   1.000000
      2          8.550789   1.000000
      3         11.082759   1.000000
      4         13.029066   1.000000
      5         14.872128  -0.000000
      6         22.853201   0.000000
      7         24.008248   0.000000
      8         27.719858   0.000000
 
 -0.3000000E+00  0.4000000E+00  0.1000000E+00  0.3000000E-02
      1          8.032437   1.000000
      2          8.968240   1.000000
      3         10.528893   1.000000
      4         12.733087   1.000000
      5         14.593006  -0.001583
      6         22.647127   0.000000
      7         24.417698   0.000000
      8         27.337372   0.000000
 
 -0.4500000E+00  0.4500000E+00  0.1000000E+00  0.3000000E-02
      1          7.080107   1.000000
      2          7.469281   1.000000
      3         12.903654   1.000000
      4         14.190313   0.179959
      5         15.125633  -0.000000
      6         19.375198  -0.000000
      7         27.622865   0.000000
      8         27.957170   0.000000
 
 -0.4000000E+00  0.4500000E+00  0.1000000E+00  0.6000000E-02
      1          7.228089   1.000000
      2          7.705087   1.000000
      3         12.408813   1.000000
      4         13.815980   1.029542
      5         15.226989  -0.000000
      6         20.707004   0.000000
      7         26.444277   0.000000
      8         27.833365   0.000000
 
 -0.3500000E+00  0.4500000E+00  0.1000000E+00  0.3000000E-02
      1          7.451041   1.000000
      2          8.087896   1.000000
      3         11.771956   1.000000
      4         13.420148   1.000007
      5         15.114993  -0.000000
      6         21.972033   0.000000
      7         25.165027   0.000000
      8         27.582360   0.000000
 
 -0.4000000E+00  0.5000000E+00  0.1000000E+00  0.1500000E-02
      1          6.985248   1.000000
      2          7.411228   1.000000
      3         13.173892   1.000000
      4         14.144452   0.345650
      5         15.327956  -0.000000
      6         19.966442   0.000000
      7         27.235190   0.000000
      8         27.617802   0.000000
 
  0.4500000E+00  0.3000000E+00  0.1500000E+00  0.3000000E-02
      1          8.626120   1.000000
      2          8.636644   1.000000
      3         10.124453   1.000000
      4         12.916659   1.000000
      5         13.074145   1.000000
      6         16.641541  -0.000000
      7         29.360140   0.000000
      8         29.842653   0.000000
 
  0.5000000E+00  0.3000000E+00  0.1500000E+00  0.6000000E-02
      1          8.528344   1.000000
      2          8.950966   1.000000
      3          9.943790   1.000000
      4         12.704071   1.000000
      5         13.657221   1.003283
      6         17.845356  -0.000000
      7         28.059232   0.000000
      8         29.780519   0.000000
 
 -0.4500000E+00  0.3000000E+00  0.1500000E+00  0.6000000E-02
      1          8.496989   1.000000
      2          9.017289   1.000000
      3         10.041945   1.000000
      4         12.448908   1.000000
      5         14.157253   0.295657
      6         19.128536  -0.000000
      7         26.295377   0.000000
      8         29.756620   0.000000
 
 -0.4000000E+00  0.3000000E+00  0.1500000E+00  0.6000000E-02
      1          8.537934   1.000000
      2          8.874181   1.000000
      3         10.318124   1.000000
      4         12.223622   1.000000
      5         14.467637  -0.014361
      6         20.439540   0.000000
      7         24.615819   0.000000
      8         29.765788   0.000000
 
 -0.3500000E+00  0.3000000E+00  0.1500000E+00  0.3000000E-02
      1          8.599783   1.000000
      2          8.762161   1.000000
      3         10.457547   1.000000
      4         12.122456   1.000000
      5         14.570105  -0.002551
      6         21.251304   0.000000
      7         23.671725   0.000000
      8         29.770173   0.000000
 
  0.5000000E+00  0.3500000E+00  0.1500000E+00  0.3000000E-02
      1          8.240604   1.000000
      2          8.351636   1.000000
      3         10.562466   1.000000
      4         13.361898   1.000001
      5         13.850546   1.034965
      6         17.942801  -0.000000
      7         28.586291   0.000000
      8         29.417946   0.000000
 
 -0.4500000E+00  0.3500000E+00  0.1500000E+00  0.6000000E-02
      1          8.230625   1.000000
      2          8.587297   1.000000
      3         10.379141   1.000000
      4         13.088086   1.000000
      5         14.307137  -0.025057
      6         19.319739  -0.000000
      7         27.112883   0.000000
      8         29.063708   0.000000
 
 -0.4000000E+00  0.3500000E+00  0.1500000E+00  0.6000000E-02
      1          8.267088   1.000000
      2          8.815118   1.000000
      3         10.259696   1.000000
      4         12.756696   1.000000
      5         14.622798  -0.000813
      6         20.793048   0.000000
      7         25.358775   0.000000
      8         29.338987   0.000000
 
 -0.3500000E+00  0.3500000E+00  0.1500000E+00  0.6000000E-02
      1          8.368489   1.000000
      2          8.952577   1.000000
      3         10.175125   1.000000
      4         12.513892   1.000000
      5         14.712423  -0.000081
      6         22.195813   0.000000
      7         23.893701   0.000000
      8         29.399125   0.000000
 
 -0.3000000E+00  0.3500000E+00  0.1500000E+00  0.6000000E-02
      1          8.508698   1.000000
      2          9.031290   1.000000
      3         10.003453   1.000000
      4         12.471852   1.000000
      5         14.583528  -0.001936
      6         21.768623   0.000000
      7         24.517694   0.000000
      8         28.808186   0.000000
 
 -0.2500000E+00  0.3500000E+00  0.1500000E+00  0.6000000E-02
      1          8.647872   1.000000
      2          9.081832   1.000000
      3          9.750640   1.000000
      4         12.622039   1.000000
      5         14.267011   0.010287
      6         20.430596   0.000000
      7         26.278038   0.000000
      8         28.314779   0.000000
 
 -0.2000000E+00  0.3500000E+00  0.1500000E+00  0.3000000E-02
      1          8.760847   1.000000
      2          8.931704   1.000000
      3          9.720046   1.000000
      4         12.807186   1.000000
      5         13.854680   1.035244
      6         19.118940  -0.000000
      7         27.914660   0.000000
      8         28.323417   0.000000
 
 -0.4500000E+00  0.4000000E+00  0.1500000E+00  0.3000000E-02
      1          7.821242   1.000000
      2          8.128801   1.000000
      3         11.132503   1.000000
      4         13.567452   1.000455
      5         14.580145  -0.002077
      6         19.442376   0.000000
      7         27.827928   0.000000
      8         28.160908   0.000000
 
 -0.4000000E+00  0.4000000E+00  0.1500000E+00  0.6000000E-02
      1          7.894070   1.000000
      2          8.404817   1.000000
      3         10.845164   1.000000
      4         13.208185   1.000000
      5         14.873621  -0.000000
      6         20.930336   0.000000
      7         26.277917   0.000000
      8         28.251250   0.000000
 
 -0.3500000E+00  0.4000000E+00  0.1500000E+00  0.6000000E-02
      1          8.014574   1.000000
      2          8.757614   1.000000
      3         10.505622   1.000000
      4         12.852011   1.000000
      5         14.973697  -0.000000
      6         22.520063   0.000000
      7         24.666061   0.000000
      8         28.245908   0.000000
 
 -0.3000000E+00  0.4000000E+00  0.1500000E+00  0.6000000E-02
      1          8.195291   1.000000
      2          9.112826   1.000000
      3         10.085708   1.000000
      4         12.642615   1.000000
      5         14.854460  -0.000001
      6         23.069304   0.000000
      7         24.313036   0.000000
      8         27.637788   0.000000
 
 -0.2500000E+00  0.4000000E+00  0.1500000E+00  0.3000000E-02
      1          8.420761   1.000000
      2          9.423527   1.000000
      3          9.604024   1.000000
      4         12.608560   1.000000
      5         14.573430  -0.002384
      6         21.736146   0.000000
      7         25.844112   0.000000
      8         27.274776   0.000000
 
 -0.4000000E+00  0.4500000E+00  0.1500000E+00  0.3000000E-02
      1          7.535487   1.000000
      2          7.987823   1.000000
      3         11.634485   1.000000
      4         13.550353   1.000296
      5         15.123857  -0.000000
      6         20.887576   0.000000
      7         27.209310   0.000000
      8         27.269557   0.000000
 
 -0.3500000E+00  0.4500000E+00  0.1500000E+00  0.6000000E-02
      1          7.701113   1.000000
      2          8.320455   1.000000
      3         11.172316   1.000000
      4         13.164819   1.000000
      5         15.224854  -0.000000
      6         22.260078   0.000000
      7         25.769031   0.000000
      8         27.436825   0.000000
 
 -0.3000000E+00  0.4500000E+00  0.1500000E+00  0.3000000E-02
      1          7.920459   1.000000
      2          8.740007   1.000000
      3         10.617418   1.000000
      4         12.851326   1.000000
      5         15.114208  -0.000000
      6         23.524735   0.000000
      7         24.390199   0.000000
      8         27.273686   0.000000
 
 -0.3500000E+00  0.5000000E+00  0.1500000E+00  0.1500000E-02
      1          7.435704   1.000000
      2          7.939644   1.000000
      3         11.855157   1.000000
      4         13.491793   1.000060
      5         15.329400  -0.000000
      6         21.590652   0.000000
      7         26.860701   0.000000
      8         26.943542   0.000000
 
 -0.4000000E+00  0.4000000E+00  0.2000000E+00  0.3000000E-02
      1          8.289624   1.000000
      2          8.791300   1.000000
      3         10.133142   1.000000
      4         12.965531   1.000000
      5         14.573371  -0.002387
      6         20.682730   0.000000
      7         27.122709   0.000000
      8         27.422551   0.000000
 
 -0.3500000E+00  0.4000000E+00  0.2000000E+00  0.6000000E-02
      1          8.270786   1.000000
      2          9.109484   1.000000
      3          9.913795   1.000000
      4         12.716109   1.000000
      5         14.856798  -0.000001
      6         22.117225   0.000000
      7         25.427952   0.000000
      8         27.802345   0.000000
 
 -0.3000000E+00  0.4000000E+00  0.2000000E+00  0.3000000E-02
      1          8.262253   1.000000
      2          9.282100   1.000000
      3          9.795511   1.000000
      4         12.602563   1.000000
      5         14.964522  -0.000000
      6         23.410130   0.000000
      7         24.010166   0.000000
      8         28.193920   0.000000
 
 -0.3500000E+00  0.4500000E+00  0.2000000E+00  0.3000000E-02
      1          7.985500   1.000000
      2          8.697312   1.000000
      3         10.490763   1.000000
      4         12.931566   1.000000
      5         15.121005  -0.000000
      6         22.290272   0.000000
      7         26.263520   0.000000
      8         27.003561   0.000000
 
 -0.3000000E+00  0.4500000E+00  0.2000000E+00  0.6000000E-02
      1          8.070721   1.000000
      2          9.100963   1.000000
      3         10.063569   1.000000
      4         12.693492   1.000000
      5         15.224456  -0.000000
      6         23.699751   0.000000
      7         24.902086   0.000000
      8         27.128561   0.000000
 
 -0.2500000E+00  0.4500000E+00  0.2000000E+00  0.3000000E-02
      1          8.171871   1.000000
      2          9.521569   1.000000
      3          9.581332   1.000000
      4         12.631198   1.000000
      5         15.117348  -0.000000
      6         23.470600   0.000000
      7         24.986853   0.000000
      8         27.040290   0.000000
 
 -0.3000000E+00  0.5000000E+00  0.2000000E+00  0.1500000E-02
      1          7.880961   1.000000
      2          8.664427   1.000000
      3         10.642517   1.000000
      4         12.881442   1.000000
      5         15.330540  -0.000000
      6         23.186103   0.000000
      7         25.946524   0.000000
      8         26.633559   0.000000
 
 -0.2500000E+00  0.5000000E+00  0.2500000E+00  0.7500000E-03
      1          8.081304   1.000000
      2          9.571283   1.000000
      3          9.571283   1.000000
      4         12.617720   1.000000
      5         15.330938  -0.000000
      6         24.667316   0.000000
      7         24.667317   0.000000
      8         26.559990   0.000000
