  26  26   0   0
  0.1884261E+02  0.8848639E-09  0.8848640E-09  0.8848638E-09  0.5000000E-15
   1.0000000000000000E-004
  CAR 
 Au Full Structural Relaxation (atoms + c
     18.29897409     -2.92652204  301      8.25729532      1.00000000
     -2.927  0.0000E+00  0.0000E+00
     -2.856  0.0000E+00  0.0000E+00
     -2.785  0.0000E+00  0.0000E+00
     -2.714  0.0000E+00  0.0000E+00
     -2.644  0.0000E+00  0.0000E+00
     -2.573 -0.5715E-32 -0.4043E-33
     -2.502 -0.1627E-29 -0.1155E-30
     -2.431 -0.3617E-27 -0.2571E-28
     -2.361 -0.6237E-25 -0.4439E-26
     -2.290 -0.8354E-23 -0.5955E-24
     -2.219 -0.8693E-21 -0.6210E-22
     -2.148 -0.7027E-19 -0.5034E-20
     -2.078 -0.4267E-17 -0.3069E-18
     -2.007 -0.2079E-15 -0.1502E-16
     -1.936 -0.7852E-14 -0.5706E-15
     -1.865 -0.2303E-12 -0.1687E-13
     -1.794 -0.5256E-11 -0.3887E-12
     -1.724 -0.9344E-10 -0.7000E-11
     -1.653 -0.1297E-08 -0.9875E-10
     -1.582 -0.1409E-07 -0.1095E-08
     -1.511 -0.1200E-06 -0.9589E-08
     -1.441 -0.8034E-06 -0.6643E-07
     -1.370 -0.4210E-05 -0.3643E-06
     -1.299 -0.1710E-04 -0.1574E-05
     -1.228 -0.5243E-04 -0.5284E-05
     -1.158 -0.1141E-03 -0.1336E-04
     -1.087 -0.1439E-03 -0.2354E-04
     -1.016  0.3216E-04 -0.2127E-04
     -0.945  0.6238E-03  0.2287E-04
     -0.875  0.1643E-02  0.1391E-03
     -0.804  0.2875E-02  0.3425E-03
     -0.733  0.4224E-02  0.6414E-03
     -0.662  0.5752E-02  0.1048E-02
     -0.592  0.7082E-02  0.1549E-02
     -0.521  0.7518E-02  0.2081E-02
     -0.450  0.7361E-02  0.2602E-02
     -0.379  0.8065E-02  0.3173E-02
     -0.309  0.1018E-01  0.3893E-02
     -0.238  0.1226E-01  0.4760E-02
     -0.167  0.1270E-01  0.5658E-02
     -0.096  0.1163E-01  0.6481E-02
     -0.026  0.1045E-01  0.7221E-02
      0.045  0.1039E-01  0.7956E-02
      0.116  0.1185E-01  0.8795E-02
      0.187  0.1440E-01  0.9814E-02
      0.257  0.1689E-01  0.1101E-01
      0.328  0.1790E-01  0.1227E-01
      0.399  0.1681E-01  0.1346E-01
      0.470  0.1465E-01  0.1450E-01
      0.540  0.1363E-01  0.1547E-01
      0.611  0.1555E-01  0.1657E-01
      0.682  0.2019E-01  0.1799E-01
      0.753  0.2492E-01  0.1976E-01
      0.823  0.2652E-01  0.2163E-01
      0.894  0.2442E-01  0.2336E-01
      0.965  0.2141E-01  0.2488E-01
      1.036  0.2099E-01  0.2636E-01
      1.106  0.2483E-01  0.2812E-01
      1.177  0.3173E-01  0.3036E-01
      1.248  0.3832E-01  0.3307E-01
      1.319  0.4245E-01  0.3608E-01
      1.389  0.4604E-01  0.3933E-01
      1.460  0.5273E-01  0.4307E-01
      1.531  0.6384E-01  0.4758E-01
      1.602  0.7827E-01  0.5312E-01
      1.672  0.9397E-01  0.5977E-01
      1.743  0.1084E+00  0.6744E-01
      1.814  0.1213E+00  0.7602E-01
      1.885  0.1371E+00  0.8572E-01
      1.955  0.1595E+00  0.9701E-01
      2.026  0.1846E+00  0.1101E+00
      2.097  0.2046E+00  0.1246E+00
      2.168  0.2159E+00  0.1398E+00
      2.238  0.2200E+00  0.1554E+00
      2.309  0.2203E+00  0.1710E+00
      2.380  0.2201E+00  0.1866E+00
      2.451  0.2225E+00  0.2023E+00
      2.521  0.2283E+00  0.2185E+00
      2.592  0.2354E+00  0.2351E+00
      2.663  0.2391E+00  0.2520E+00
      2.734  0.2348E+00  0.2686E+00
      2.804  0.2216E+00  0.2843E+00
      2.875  0.2041E+00  0.2988E+00
      2.946  0.1917E+00  0.3123E+00
      3.017  0.1939E+00  0.3260E+00
      3.087  0.2121E+00  0.3410E+00
      3.158  0.2377E+00  0.3579E+00
      3.229  0.2598E+00  0.3762E+00
      3.300  0.2734E+00  0.3956E+00
      3.370  0.2793E+00  0.4154E+00
      3.441  0.2800E+00  0.4352E+00
      3.512  0.2784E+00  0.4549E+00
      3.583  0.2772E+00  0.4745E+00
      3.653  0.2780E+00  0.4941E+00
      3.724  0.2820E+00  0.5141E+00
      3.795  0.2902E+00  0.5346E+00
      3.866  0.3027E+00  0.5560E+00
      3.936  0.3209E+00  0.5787E+00
      4.007  0.3477E+00  0.6034E+00
      4.078  0.3787E+00  0.6301E+00
      4.149  0.3973E+00  0.6583E+00
      4.219  0.3875E+00  0.6857E+00
      4.290  0.3530E+00  0.7106E+00
      4.361  0.3129E+00  0.7328E+00
      4.432  0.2827E+00  0.7528E+00
      4.502  0.2655E+00  0.7716E+00
      4.573  0.2587E+00  0.7899E+00
      4.644  0.2607E+00  0.8083E+00
      4.715  0.2673E+00  0.8272E+00
      4.785  0.2724E+00  0.8465E+00
      4.856  0.2732E+00  0.8658E+00
      4.927  0.2721E+00  0.8851E+00
      4.998  0.2718E+00  0.9043E+00
      5.068  0.2741E+00  0.9237E+00
      5.139  0.2817E+00  0.9436E+00
      5.210  0.2955E+00  0.9645E+00
      5.281  0.3076E+00  0.9863E+00
      5.351  0.3046E+00  0.1008E+01
      5.422  0.2813E+00  0.1028E+01
      5.493  0.2509E+00  0.1046E+01
      5.564  0.2344E+00  0.1062E+01
      5.634  0.2393E+00  0.1079E+01
      5.705  0.2529E+00  0.1097E+01
      5.776  0.2607E+00  0.1115E+01
      5.847  0.2618E+00  0.1134E+01
      5.917  0.2643E+00  0.1153E+01
      5.988  0.2727E+00  0.1172E+01
      6.059  0.2844E+00  0.1192E+01
      6.130  0.2944E+00  0.1213E+01
      6.200  0.3012E+00  0.1234E+01
      6.271  0.3076E+00  0.1256E+01
      6.342  0.3149E+00  0.1278E+01
      6.413  0.3170E+00  0.1301E+01
      6.483  0.3042E+00  0.1322E+01
      6.554  0.2722E+00  0.1341E+01
      6.625  0.2221E+00  0.1357E+01
      6.696  0.1589E+00  0.1368E+01
      6.766  0.9358E-01  0.1375E+01
      6.837  0.4106E-01  0.1378E+01
      6.908  0.1100E-01  0.1379E+01
      6.979  0.2534E-02  0.1379E+01
      7.049  0.9343E-02  0.1379E+01
      7.120  0.2566E-01  0.1381E+01
      7.191  0.4590E-01  0.1385E+01
      7.262  0.6204E-01  0.1389E+01
      7.332  0.6695E-01  0.1394E+01
      7.403  0.6046E-01  0.1398E+01
      7.474  0.4825E-01  0.1401E+01
      7.545  0.3548E-01  0.1404E+01
      7.615  0.2499E-01  0.1406E+01
      7.686  0.1910E-01  0.1407E+01
      7.757  0.1838E-01  0.1408E+01
      7.828  0.2092E-01  0.1410E+01
      7.898  0.2538E-01  0.1412E+01
      7.969  0.3307E-01  0.1414E+01
      8.040  0.4484E-01  0.1417E+01
      8.111  0.5706E-01  0.1421E+01
      8.181  0.6287E-01  0.1426E+01
      8.252  0.5862E-01  0.1430E+01
      8.323  0.4740E-01  0.1433E+01
      8.394  0.3532E-01  0.1436E+01
      8.464  0.2652E-01  0.1437E+01
      8.535  0.2262E-01  0.1439E+01
      8.606  0.2337E-01  0.1441E+01
      8.677  0.2634E-01  0.1443E+01
      8.748  0.2907E-01  0.1445E+01
      8.818  0.3246E-01  0.1447E+01
      8.889  0.3875E-01  0.1450E+01
      8.960  0.4607E-01  0.1453E+01
      9.031  0.4964E-01  0.1456E+01
      9.101  0.4823E-01  0.1460E+01
      9.172  0.4503E-01  0.1463E+01
      9.243  0.4206E-01  0.1466E+01
      9.314  0.3867E-01  0.1469E+01
      9.384  0.3561E-01  0.1471E+01
      9.455  0.3515E-01  0.1474E+01
      9.526  0.3695E-01  0.1476E+01
      9.597  0.3779E-01  0.1479E+01
      9.667  0.3544E-01  0.1482E+01
      9.738  0.3056E-01  0.1484E+01
      9.809  0.2583E-01  0.1486E+01
      9.880  0.2436E-01  0.1487E+01
      9.950  0.2735E-01  0.1489E+01
     10.021  0.3304E-01  0.1492E+01
     10.092  0.3889E-01  0.1494E+01
     10.163  0.4372E-01  0.1497E+01
     10.233  0.4697E-01  0.1501E+01
     10.304  0.4787E-01  0.1504E+01
     10.375  0.4662E-01  0.1507E+01
     10.446  0.4421E-01  0.1511E+01
     10.516  0.4037E-01  0.1513E+01
     10.587  0.3454E-01  0.1516E+01
     10.658  0.2834E-01  0.1518E+01
     10.729  0.2437E-01  0.1520E+01
     10.799  0.2314E-01  0.1521E+01
     10.870  0.2399E-01  0.1523E+01
     10.941  0.2777E-01  0.1525E+01
     11.012  0.3556E-01  0.1527E+01
     11.082  0.4534E-01  0.1531E+01
     11.153  0.5289E-01  0.1534E+01
     11.224  0.5598E-01  0.1538E+01
     11.295  0.5576E-01  0.1542E+01
     11.365  0.5406E-01  0.1546E+01
     11.436  0.5103E-01  0.1550E+01
     11.507  0.4585E-01  0.1553E+01
     11.578  0.3937E-01  0.1556E+01
     11.648  0.3553E-01  0.1558E+01
     11.719  0.3844E-01  0.1561E+01
     11.790  0.4694E-01  0.1564E+01
     11.861  0.5400E-01  0.1568E+01
     11.931  0.5398E-01  0.1572E+01
     12.002  0.4830E-01  0.1575E+01
     12.073  0.4190E-01  0.1578E+01
     12.144  0.3668E-01  0.1581E+01
     12.214  0.3168E-01  0.1583E+01
     12.285  0.2683E-01  0.1585E+01
     12.356  0.2363E-01  0.1587E+01
     12.427  0.2396E-01  0.1588E+01
     12.497  0.2960E-01  0.1590E+01
     12.568  0.4013E-01  0.1593E+01
     12.639  0.5063E-01  0.1597E+01
     12.710  0.5477E-01  0.1601E+01
     12.780  0.5122E-01  0.1604E+01
     12.851  0.4469E-01  0.1608E+01
     12.922  0.4081E-01  0.1610E+01
     12.993  0.4142E-01  0.1613E+01
     13.063  0.4325E-01  0.1616E+01
     13.134  0.4150E-01  0.1619E+01
     13.205  0.3582E-01  0.1622E+01
     13.276  0.3117E-01  0.1624E+01
     13.346  0.3166E-01  0.1626E+01
     13.417  0.3658E-01  0.1629E+01
     13.488  0.4312E-01  0.1632E+01
     13.559  0.5006E-01  0.1636E+01
     13.629  0.5740E-01  0.1640E+01
     13.700  0.6380E-01  0.1644E+01
     13.771  0.6563E-01  0.1649E+01
     13.842  0.5970E-01  0.1653E+01
     13.912  0.4743E-01  0.1656E+01
     13.983  0.3578E-01  0.1659E+01
     14.054  0.3288E-01  0.1661E+01
     14.125  0.4053E-01  0.1664E+01
     14.195  0.5025E-01  0.1668E+01
     14.266  0.5021E-01  0.1671E+01
     14.337  0.3900E-01  0.1674E+01
     14.408  0.2891E-01  0.1676E+01
     14.478  0.3174E-01  0.1678E+01
     14.549  0.4522E-01  0.1681E+01
     14.620  0.5663E-01  0.1685E+01
     14.691  0.5698E-01  0.1689E+01
     14.761  0.4873E-01  0.1693E+01
     14.832  0.4042E-01  0.1696E+01
     14.903  0.3605E-01  0.1698E+01
     14.974  0.3223E-01  0.1701E+01
     15.044  0.2512E-01  0.1702E+01
     15.115  0.1625E-01  0.1704E+01
     15.186  0.1028E-01  0.1704E+01
     15.257  0.9607E-02  0.1705E+01
     15.327  0.1250E-01  0.1706E+01
     15.398  0.1495E-01  0.1707E+01
     15.469  0.1424E-01  0.1708E+01
     15.540  0.1093E-01  0.1709E+01
     15.610  0.7262E-02  0.1709E+01
     15.681  0.4514E-02  0.1709E+01
     15.752  0.2689E-02  0.1710E+01
     15.823  0.1552E-02  0.1710E+01
     15.893  0.8949E-03  0.1710E+01
     15.964  0.4497E-03  0.1710E+01
     16.035  0.1161E-03  0.1710E+01
     16.106 -0.1299E-04  0.1710E+01
     16.176  0.1123E-03  0.1710E+01
     16.247  0.3739E-03  0.1710E+01
     16.318  0.5531E-03  0.1710E+01
     16.389  0.5069E-03  0.1710E+01
     16.459  0.2937E-03  0.1710E+01
     16.530  0.8629E-04  0.1710E+01
     16.601 -0.1464E-04  0.1710E+01
     16.672 -0.2965E-04  0.1710E+01
     16.742 -0.1646E-04  0.1710E+01
     16.813 -0.5666E-05  0.1710E+01
     16.884 -0.1368E-05  0.1710E+01
     16.955 -0.2419E-06  0.1710E+01
     17.025 -0.3202E-07  0.1710E+01
     17.096 -0.3210E-08  0.1710E+01
     17.167 -0.2455E-09  0.1710E+01
     17.238 -0.1439E-10  0.1710E+01
     17.308 -0.6491E-12  0.1710E+01
     17.379 -0.2257E-13  0.1710E+01
     17.450 -0.6063E-15  0.1710E+01
     17.521 -0.1264E-16  0.1710E+01
     17.591  0.0000E+00  0.1710E+01
     17.662  0.0000E+00  0.1710E+01
     17.733  0.0000E+00  0.1710E+01
     17.804  0.0000E+00  0.1710E+01
     17.874  0.0000E+00  0.1710E+01
     17.945  0.0000E+00  0.1710E+01
     18.016  0.0000E+00  0.1710E+01
     18.087  0.0000E+00  0.1710E+01
     18.157  0.0000E+00  0.1710E+01
     18.228  0.0000E+00  0.1710E+01
     18.299  0.0000E+00  0.1710E+01
