    4    4    1    1
  0.1053315E+02  0.2512428E-09  0.2512428E-09  0.7707265E-09  0.5000000E-15
   1.0000000000000000E-004
  CAR 
 PBE Static SCF for BN Band Structure Pre
     16    176     12
 
  0.1262379E-14  0.1262379E-14  0.1262379E-14  0.4166667E-03
      1        -16.520732   1.000000
      2        -16.435014   1.000000
      3         -4.534022   1.000000
      4         -3.563686   1.000000
      5         -0.217213   1.000000
      6         -0.217122   1.000000
      7         -0.209821   1.000000
      8         -0.209730   1.000000
      9          5.723924   0.000000
     10          9.703084   0.000000
     11         12.061454   0.000000
     12         12.632169   0.000000
 
  0.5000000E-01  0.1260569E-14  0.1262379E-14  0.2500000E-02
      1        -16.472547   1.000000
      2        -16.387366   1.000000
      3         -4.468174   1.000000
      4         -3.501555   1.000000
      5         -0.423107   1.000000
      6         -0.418538   1.000000
      7         -0.312750   1.000000
      8         -0.304968   1.000000
      9          5.813076   0.000000
     10          9.724593   0.000000
     11         12.118358   0.000000
     12         12.604562   0.000000
 
  0.1000000E+00  0.1267564E-14  0.1262379E-14  0.2500000E-02
      1        -16.328903   1.000000
      2        -16.245369   1.000000
      3         -4.271508   1.000000
      4         -3.316334   1.000000
      5         -1.001236   1.000000
      6         -0.998332   1.000000
      7         -0.577195   1.000000
      8         -0.568398   1.000000
      9          6.067320   0.000000
     10          9.774709   0.000000
     11         12.106303   0.000000
     12         12.538562   0.000000
 
  0.1500000E+00  0.1272648E-14  0.1262379E-14  0.2500000E-02
      1        -16.092650   1.000000
      2        -16.011943   1.000000
      3         -3.946919   1.000000
      4         -3.011558   1.000000
      5         -1.853276   1.000000
      6         -1.847781   1.000000
      7         -0.956075   1.000000
      8         -0.946002   1.000000
      9          6.462474   0.000000
     10          9.803391   0.000000
     11         11.945221   0.000000
     12         12.400369   0.000000
 
  0.2000000E+00  0.1272399E-14  0.1262379E-14  0.2500000E-02
      1        -15.769394   1.000000
      2        -15.692735   1.000000
      3         -3.499996   1.000000
      4         -2.868739   1.000000
      5         -2.861866   1.000000
      6         -2.594097   1.000000
      7         -1.387824   1.000000
      8         -1.376615   1.000000
      9          6.981047   0.000000
     10          9.709172   0.000000
     11         11.447054   0.000000
     12         11.737217   0.000000
 
  0.2500000E+00  0.1249117E-14  0.1262379E-14  0.2500000E-02
      1        -15.368764   1.000000
      2        -15.297416   1.000000
      3         -3.956726   1.000000
      4         -3.947254   1.000000
      5         -2.940379   1.000000
      6         -2.075679   1.000000
      7         -1.819964   1.000000
      8         -1.807724   1.000000
      9          7.611143   0.000000
     10          9.353780   0.000000
     11         10.350643   0.000000
     12         11.531771   0.000000
 
  0.3000000E+00  0.1223395E-14  0.1262379E-14  0.2500000E-02
      1        -14.907314   1.000000
      2        -14.842786   1.000000
      3         -5.041392   1.000000
      4         -5.027656   1.000000
      5         -2.284949   1.000000
      6         -2.213711   1.000000
      7         -2.200584   1.000000
      8         -1.476728   1.000000
      9          8.335970   0.000000
     10          8.663241   0.000000
     11          9.203803   0.000000
     12         11.350470   0.000000
 
  0.3500000E+00  0.1223146E-14  0.1262379E-14  0.2500000E-02
      1        -14.414011   1.000000
      2        -14.358386   1.000000
      3         -6.051804   1.000000
      4         -6.034060   1.000000
      5         -2.542017   1.000000
      6         -2.528273   1.000000
      7         -1.564868   1.000000
      8         -0.834022   1.000000
      9          7.700368   0.000000
     10          8.136887   0.000000
     11          9.116318   0.000000
     12         11.203675   0.000000
 
  0.4000000E+00  0.1272914E-14  0.1262379E-14  0.2500000E-02
      1        -13.940517   1.000000
      2        -13.896696   1.000000
      3         -6.908318   1.000000
      4         -6.888059   1.000000
      5         -2.787273   1.000000
      6         -2.773135   1.000000
      7         -0.840980   1.000000
      8         -0.216280   1.000000
      9          6.688700   0.000000
     10          7.217563   0.000000
     11          9.853456   0.000000
     12         11.096458   0.000000
 
  0.4500000E+00  0.1242469E-14  0.1262379E-14  0.2500000E-02
      1        -13.573992   1.000000
      2        -13.545014   1.000000
      3         -7.506111   1.000000
      4         -7.486004   1.000000
      5         -2.938470   1.000000
      6         -2.923997   1.000000
      7         -0.238318   1.000000
      8          0.254251   1.000000
      9          5.903998   0.000000
     10          6.533393   0.000000
     11         10.362503   0.000000
     12         11.031369   0.000000
 
  0.5000000E+00  0.1231845E-14  0.1262379E-14  0.1250000E-02
      1        -13.429579   1.000000
      2        -13.410926   1.000000
      3         -7.725581   1.000000
      4         -7.706288   1.000000
      5         -2.989529   1.000000
      6         -2.974915   1.000000
      7          0.017538   1.000000
      8          0.430102   1.000000
      9          5.598474   0.000000
     10          6.268707   0.000000
     11         10.527811   0.000000
     12         11.009543   0.000000
 
  0.5000000E-01  0.5000000E-01  0.1262379E-14  0.2500000E-02
      1        -16.376592   1.000000
      2        -16.292540   1.000000
      3         -4.336898   1.000000
      4         -3.377835   1.000000
      5         -0.803385   1.000000
      6         -0.803236   1.000000
      7         -0.503178   1.000000
      8         -0.495190   1.000000
      9          5.984835   0.000000
     10          9.760602   0.000000
     11         12.204264   0.000000
     12         12.565786   0.000000
 
  0.1000000E+00  0.5000000E-01  0.1262379E-14  0.5000000E-02
      1        -16.186613   1.000000
      2        -16.104794   1.000000
      3         -4.076222   1.000000
      4         -3.132815   1.000000
      5         -1.496534   1.000000
      6         -1.491926   1.000000
      7         -0.848858   1.000000
      8         -0.839731   1.000000
      9          6.310201   0.000000
     10          9.801632   0.000000
     11         12.202695   0.000000
     12         12.567314   0.000000
 
  0.1500000E+00  0.5000000E-01  0.1262379E-14  0.5000000E-02
      1        -15.906682   1.000000
      2        -15.828269   1.000000
      3         -3.690291   1.000000
      4         -2.771487   1.000000
      5         -2.406042   1.000000
      6         -2.399733   1.000000
      7         -1.278622   1.000000
      8         -1.268038   1.000000
      9          6.769276   0.000000
     10          9.773705   0.000000
     11         11.853183   0.000000
     12         12.037544   0.000000
 
  0.2000000E+00  0.5000000E-01  0.1262379E-14  0.5000000E-02
      1        -15.544205   1.000000
      2        -15.470431   1.000000
      3         -3.438824   1.000000
      4         -3.431011   1.000000
      5         -3.186480   1.000000
      6         -2.302856   1.000000
      7         -1.729891   1.000000
      8         -1.718011   1.000000
      9          7.348321   0.000000
     10          9.553817   0.000000
     11         10.840378   0.000000
     12         11.838405   0.000000
 
  0.2500000E+00  0.5000000E-01  0.1262379E-14  0.5000000E-02
      1        -15.111879   1.000000
      2        -15.044165   1.000000
      3         -4.512790   1.000000
      4         -4.501568   1.000000
      5         -2.577582   1.000000
      6         -2.156364   1.000000
      7         -2.143512   1.000000
      8         -1.742489   1.000000
      9          8.034796   0.000000
     10          9.029009   0.000000
     11          9.723293   0.000000
     12         11.649059   0.000000
 
  0.3000000E+00  0.5000000E-01  0.1262379E-14  0.5000000E-02
      1        -14.631536   1.000000
      2        -14.571578   1.000000
      3         -5.554180   1.000000
      4         -5.538627   1.000000
      5         -2.526232   1.000000
      6         -2.512606   1.000000
      7         -1.886365   1.000000
      8         -1.117632   1.000000
      9          8.194628   0.000000
     10          8.617303   0.000000
     11          8.805881   0.000000
     12         11.487027   0.000000
 
  0.3500000E+00  0.5000000E-01  0.1262379E-14  0.5000000E-02
      1        -14.141935   1.000000
      2        -14.092215   1.000000
      3         -6.488107   1.000000
      4         -6.468984   1.000000
      5         -2.818572   1.000000
      6         -2.804320   1.000000
      7         -1.155980   1.000000
      8         -0.478427   1.000000
      9          7.183499   0.000000
     10          7.634454   0.000000
     11          9.605060   0.000000
     12         11.360769   0.000000
 
  0.4000000E+00  0.5000000E-01  0.1262379E-14  0.5000000E-02
      1        -13.710955   1.000000
      2        -13.674595   1.000000
      3         -7.222717   1.000000
      4         -7.202229   1.000000
      5         -3.019930   1.000000
      6         -3.005283   1.000000
      7         -0.473352   1.000000
      8          0.081921   1.000000
      9          6.262847   0.000000
     10          6.824796   0.000000
     11         10.293938   0.000000
     12         11.274744   0.000000
 
  0.4500000E+00  0.5000000E-01  0.1262379E-14  0.5000000E-02
      1        -13.443053   1.000000
      2        -13.421336   1.000000
      3         -7.641098   1.000000
      4         -7.621267   1.000000
      5         -3.122404   1.000000
      6         -3.107579   1.000000
      7         -0.012435   1.000000
      8          0.417961   1.000000
      9          5.694567   0.000000
     10          6.332319   0.000000
     11         10.670328   0.000000
     12         11.231202   0.000000
 
  0.1000000E+00  0.1000000E+00  0.1262379E-14  0.2500000E-02
      1        -15.952806   1.000000
      2        -15.873827   1.000000
      3         -3.754073   1.000000
      4         -2.831036   1.000000
      5         -2.204764   1.000000
      6         -2.198422   1.000000
      7         -1.286990   1.000000
      8         -1.276779   1.000000
      9          6.701131   0.000000
     10          9.789975   0.000000
     11         11.997506   0.000000
     12         12.517432   0.000000
 
  0.1500000E+00  0.1000000E+00  0.1262379E-14  0.5000000E-02
      1        -15.633101   1.000000
      2        -15.558125   1.000000
      3         -3.310693   1.000000
      4         -3.076589   1.000000
      5         -3.069789   1.000000
      6         -2.417890   1.000000
      7         -1.791237   1.000000
      8         -1.779457   1.000000
      9          7.225656   0.000000
     10          9.645241   0.000000
     11         11.115003   0.000000
     12         12.487262   0.000000
 
  0.2000000E+00  0.1000000E+00  0.1262379E-14  0.5000000E-02
      1        -15.237388   1.000000
      2        -15.167756   1.000000
      3         -4.051568   1.000000
      4         -4.043194   1.000000
      5         -2.756013   1.000000
      6         -2.281672   1.000000
      7         -2.268629   1.000000
      8         -1.905363   1.000000
      9          7.871028   0.000000
     10          9.257795   0.000000
     11         10.095797   0.000000
     12         12.326272   0.000000
 
  0.2500000E+00  0.1000000E+00  0.1262379E-14  0.5000000E-02
      1        -14.782469   1.000000
      2        -14.719680   1.000000
      3         -5.055409   1.000000
      4         -5.043105   1.000000
      5         -2.714800   1.000000
      6         -2.700762   1.000000
      7         -2.107124   1.000000
      8         -1.314121   1.000000
      9          8.584496   0.000000
     10          8.623014   0.000000
     11          9.020387   0.000000
     12         12.164440   0.000000
 
  0.3000000E+00  0.1000000E+00  0.1262379E-14  0.5000000E-02
      1        -14.297488   1.000000
      2        -14.243593   1.000000
      3         -6.009361   1.000000
      4         -5.992604   1.000000
      5         -3.067739   1.000000
      6         -3.052960   1.000000
      7         -1.395235   1.000000
      8         -0.681014   1.000000
      9          7.671607   0.000000
     10          8.013828   0.000000
     11          9.454613   0.000000
     12         12.025676   0.000000
 
  0.3500000E+00  0.1000000E+00  0.1262379E-14  0.5000000E-02
      1        -13.833831   1.000000
      2        -13.791551   1.000000
      3         -6.826468   1.000000
      4         -6.806651   1.000000
      5         -3.327387   1.000000
      6         -3.312079   1.000000
      7         -0.680783   1.000000
      8         -0.074494   1.000000
      9          6.706703   0.000000
     10          7.148253   0.000000
     11         10.297201   0.000000
     12         11.920956   0.000000
 
  0.4000000E+00  0.1000000E+00  0.1262379E-14  0.5000000E-02
      1        -13.476726   1.000000
      2        -13.448914   1.000000
      3         -7.399403   1.000000
      4         -7.378680   1.000000
      5         -3.485957   1.000000
      6         -3.470294   1.000000
      7         -0.086598   1.000000
      8          0.384921   1.000000
      9          5.956788   0.000000
     10          6.500082   0.000000
     11         10.975150   0.000000
     12         11.856101   0.000000
 
  0.4500000E+00  0.1000000E+00  0.1262379E-14  0.2500000E-02
      1        -13.336636   1.000000
      2        -13.318719   1.000000
      3         -7.609933   1.000000
      4         -7.589338   1.000000
      5         -3.539234   1.000000
      6         -3.523487   1.000000
      7          0.166014   1.000000
      8          0.555098   1.000000
      9          5.664784   0.000000
     10          6.248184   0.000000
     11         11.232129   0.000000
     12         11.834150   0.000000
 
  0.1500000E+00  0.1500000E+00  0.1262379E-14  0.2500000E-02
      1        -15.279691   1.000000
      2        -15.209398   1.000000
      3         -3.842537   1.000000
      4         -3.836080   1.000000
      5         -2.815940   1.000000
      6         -2.382976   1.000000
      7         -2.369527   1.000000
      8         -1.960218   1.000000
      9          7.819197   0.000000
     10          9.334982   0.000000
     11         10.233540   0.000000
     12         13.129815   0.000000
 
  0.2000000E+00  0.1500000E+00  0.1262379E-14  0.5000000E-02
      1        -14.859581   1.000000
      2        -14.795392   1.000000
      3         -4.687530   1.000000
      4         -4.679706   1.000000
      5         -2.941389   1.000000
      6         -2.926695   1.000000
      7         -2.219365   1.000000
      8         -1.414471   1.000000
      9          8.535897   0.000000
     10          8.797658   0.000000
     11          9.261991   0.000000
     12         13.108887   0.000000
 
  0.2500000E+00  0.1500000E+00  0.1262379E-14  0.5000000E-02
      1        -14.395255   1.000000
      2        -14.338873   1.000000
      3         -5.561483   1.000000
      4         -5.549127   1.000000
      5         -3.404829   1.000000
      6         -3.389333   1.000000
      7         -1.544082   1.000000
      8         -0.808395   1.000000
      9          8.047565   0.000000
     10          8.283096   0.000000
     11          9.359554   0.000000
     12         12.981693   0.000000
 
  0.3000000E+00  0.1500000E+00  0.1262379E-14  0.5000000E-02
      1        -13.925524   1.000000
      2        -13.879223   1.000000
      3         -6.380140   1.000000
      4         -6.362773   1.000000
      5         -3.754696   1.000000
      6         -3.738570   1.000000
      7         -0.833171   1.000000
      8         -0.192188   1.000000
      9          7.141540   0.000000
     10          7.420913   0.000000
     11         10.261008   0.000000
     12         12.863865   0.000000
 
  0.3500000E+00  0.1500000E+00  0.1262379E-14  0.5000000E-02
      1        -13.516246   1.000000
      2        -13.482800   1.000000
      3         -7.038717   1.000000
      4         -7.018008   1.000000
      5         -3.987992   1.000000
      6         -3.971362   1.000000
      7         -0.171219   1.000000
      8          0.342712   1.000000
      9          6.310621   0.000000
     10          6.707188   0.000000
     11         11.164601   0.000000
     12         12.777892   0.000000
 
  0.4000000E+00  0.1500000E+00  0.1262379E-14  0.5000000E-02
      1        -13.264554   1.000000
      2        -13.244836   1.000000
      3         -7.416927   1.000000
      4         -7.394823   1.000000
      5         -4.104599   1.000000
      6         -4.087761   1.000000
      7          0.275801   1.000000
      8          0.657801   1.000000
      9          5.797822   0.000000
     10          6.267303   0.000000
     11         11.839988   0.000000
     12         12.732956   0.000000
 
  0.2000000E+00  0.2000000E+00  0.1262379E-14  0.2500000E-02
      1        -14.428542   1.000000
      2        -14.371298   1.000000
      3         -5.348763   1.000000
      4         -5.341177   1.000000
      5         -3.584397   1.000000
      6         -3.568669   1.000000
      7         -1.594545   1.000000
      8         -0.851796   1.000000
      9          8.192931   0.000000
     10          8.380345   0.000000
     11          9.325533   0.000000
     12         13.913995   0.000000
 
  0.2500000E+00  0.2000000E+00  0.1262379E-14  0.5000000E-02
      1        -13.974286   1.000000
      2        -13.925951   1.000000
      3         -6.023952   1.000000
      4         -6.011962   1.000000
      5         -4.113170   1.000000
      6         -4.097041   1.000000
      7         -0.913426   1.000000
      8         -0.255073   1.000000
      9          7.451897   0.000000
     10          7.547073   0.000000
     11         10.220367   0.000000
     12         13.811169   0.000000
 
  0.3000000E+00  0.2000000E+00  0.1262379E-14  0.5000000E-02
      1        -13.546913   1.000000
      2        -13.509779   1.000000
      3         -6.646390   1.000000
      4         -6.627932   1.000000
      5         -4.486985   1.000000
      6         -4.470372   1.000000
      7         -0.235104   1.000000
      8          0.308145   1.000000
      9          6.641800   0.000000
     10          6.861435   0.000000
     11         11.187964   0.000000
     12         13.631095   0.000000
 
  0.3500000E+00  0.2000000E+00  0.1262379E-14  0.5000000E-02
      1        -13.224001   1.000000
      2        -13.200371   1.000000
      3         -7.101969   1.000000
      4         -7.078708   1.000000
      5         -4.705550   1.000000
      6         -4.688329   1.000000
      7          0.326201   1.000000
      8          0.723755   1.000000
      9          6.020057   0.000000
     10          6.333554   0.000000
     11         12.141343   0.000000
     12         13.457455   0.000000
 
  0.4000000E+00  0.2000000E+00  0.1262379E-14  0.2500000E-02
      1        -13.099225   1.000000
      2        -13.084564   1.000000
      3         -7.271957   1.000000
      4         -7.247128   1.000000
      5         -4.777203   1.000000
      6         -4.759738   1.000000
      7          0.566641   1.000000
      8          0.870854   1.000000
      9          5.779181   0.000000
     10          6.125594   0.000000
     11         12.691848   0.000000
     12         13.390288   0.000000
 
  0.2500000E+00  0.2500000E+00  0.1262379E-14  0.2500000E-02
      1        -13.558324   1.000000
      2        -13.519978   1.000000
      3         -6.442051   1.000000
      4         -6.427052   1.000000
      5         -4.728700   1.000000
      6         -4.713493   1.000000
      7         -0.258563   1.000000
      8          0.294923   1.000000
      9          6.803678   0.000000
     10          6.894549   0.000000
     11         11.178471   0.000000
     12         13.429751   0.000000
 
  0.3000000E+00  0.2500000E+00  0.1262379E-14  0.5000000E-02
      1        -13.206789   1.000000
      2        -13.180630   1.000000
      3         -6.793313   1.000000
      4         -6.770734   1.000000
      5         -5.165746   1.000000
      6         -5.151228   1.000000
      7          0.342436   1.000000
      8          0.754835   1.000000
      9          6.209569   0.000000
     10          6.370403   0.000000
     11         12.190628   0.000000
     12         13.036860   0.000000
 
  0.3500000E+00  0.2500000E+00  0.1262379E-14  0.5000000E-02
      1        -12.996949   1.000000
      2        -12.983154   1.000000
      3         -7.006800   1.000000
      4         -6.977904   1.000000
      5         -5.386012   1.000000
      6         -5.370891   1.000000
      7          0.749188   1.000000
      8          1.006137   1.000000
      9          5.847320   0.000000
     10          6.047020   0.000000
     11         12.802416   0.000000
     12         13.126583   0.000000
 
  0.3000000E+00  0.3000000E+00  0.1262379E-14  0.2500000E-02
      1        -12.962741   1.000000
      2        -12.948532   1.000000
      3         -6.823859   1.000000
      4         -6.791958   1.000000
      5         -5.685714   1.000000
      6         -5.676951   1.000000
      7          0.810018   1.000000
      8          1.052941   1.000000
      9          5.902967   0.000000
     10          6.008824   0.000000
     11         12.582756   0.000000
     12         13.193436   0.000000
 
  0.3500000E+00  0.3000000E+00  0.1262379E-14  0.2500000E-02
      1        -12.871107   1.000000
      2        -12.865778   1.000000
      3         -6.805578   1.000000
      4         -6.766103   1.000000
      5         -5.899956   1.000000
      6         -5.893538   1.000000
      7          1.025123   1.000000
      8          1.129115   1.000000
      9          5.792963   0.000000
     10          5.867162   0.000000
     11         12.416317   0.000000
     12         13.889082   0.000000
 
  0.1262379E-14  0.1262379E-14  0.1666667E+00  0.8333333E-03
      1        -16.515117   1.000000
      2        -16.440855   1.000000
      3         -4.477254   1.000000
      4         -3.639118   1.000000
      5         -0.216680   1.000000
      6         -0.216589   1.000000
      7         -0.210288   1.000000
      8         -0.210197   1.000000
      9          5.925144   0.000000
     10          9.247270   0.000000
     11         12.353438   0.000000
     12         12.642273   0.000000
 
  0.5000000E-01  0.1260569E-14  0.1666667E+00  0.5000000E-02
      1        -16.466948   1.000000
      2        -16.393179   1.000000
      3         -4.411596   1.000000
      4         -3.576690   1.000000
      5         -0.422677   1.000000
      6         -0.418670   1.000000
      7         -0.312224   1.000000
      8         -0.305478   1.000000
      9          6.012824   0.000000
     10          9.288686   0.000000
     11         12.340295   0.000000
     12         12.606413   0.000000
 
  0.1000000E+00  0.1267564E-14  0.1666667E+00  0.5000000E-02
      1        -16.323360   1.000000
      2        -16.251075   1.000000
      3         -4.215560   1.000000
      4         -3.390582   1.000000
      5         -1.000563   1.000000
      6         -0.998093   1.000000
      7         -0.576617   1.000000
      8         -0.568977   1.000000
      9          6.262819   0.000000
     10          9.394243   0.000000
     11         12.213763   0.000000
     12         12.531513   0.000000
 
  0.1500000E+00  0.1272648E-14  0.1666667E+00  0.5000000E-02
      1        -16.087325   1.000000
      2        -16.017453   1.000000
      3         -3.892199   1.000000
      4         -3.084628   1.000000
      5         -1.851799   1.000000
      6         -1.847336   1.000000
      7         -0.955404   1.000000
      8         -0.946717   1.000000
      9          6.650384   0.000000
     10          9.508479   0.000000
     11         11.994377   0.000000
     12         12.337189   0.000000
 
  0.2000000E+00  0.1272399E-14  0.1666667E+00  0.5000000E-02
      1        -15.764323   1.000000
      2        -15.697932   1.000000
      3         -3.448154   1.000000
      4         -2.873086   1.000000
      5         -2.862039   1.000000
      6         -2.656531   1.000000
      7         -1.387068   1.000000
      8         -1.377324   1.000000
      9          7.155541   0.000000
     10          9.525243   0.000000
     11         11.472840   0.000000
     12         11.735012   0.000000
 
  0.2500000E+00  0.1249117E-14  0.1666667E+00  0.5000000E-02
      1        -15.364036   1.000000
      2        -15.302254   1.000000
      3         -3.956940   1.000000
      4         -3.948623   1.000000
      5         -2.887604   1.000000
      6         -2.140480   1.000000
      7         -1.819145   1.000000
      8         -1.808551   1.000000
      9          7.757021   0.000000
     10          9.276631   0.000000
     11         10.407632   0.000000
     12         11.482588   0.000000
 
  0.3000000E+00  0.1223395E-14  0.1666667E+00  0.5000000E-02
      1        -14.903021   1.000000
      2        -14.847153   1.000000
      3         -5.040772   1.000000
      4         -5.028842   1.000000
      5         -2.235805   1.000000
      6         -2.212809   1.000000
      7         -2.201458   1.000000
      8         -1.536946   1.000000
      9          8.355081   0.000000
     10          8.661098   0.000000
     11          9.357763   0.000000
     12         11.292084   0.000000
 
  0.3500000E+00  0.1223146E-14  0.1666667E+00  0.5000000E-02
      1        -14.410273   1.000000
      2        -14.362117   1.000000
      3         -6.050791   1.000000
      4         -6.035407   1.000000
      5         -2.541085   1.000000
      6         -2.529180   1.000000
      7         -1.519885   1.000000
      8         -0.887629   1.000000
      9          7.697346   0.000000
     10          8.047372   0.000000
     11          9.368553   0.000000
     12         11.160986   0.000000
 
  0.4000000E+00  0.1272914E-14  0.1666667E+00  0.5000000E-02
      1        -13.937590   1.000000
      2        -13.899607   1.000000
      3         -6.907054   1.000000
      4         -6.889550   1.000000
      5         -2.786343   1.000000
      6         -2.774080   1.000000
      7         -0.801628   1.000000
      8         -0.260893   1.000000
      9          6.706509   0.000000
     10          7.160451   0.000000
     11         10.004483   0.000000
     12         11.069862   0.000000
 
  0.4500000E+00  0.1242469E-14  0.1666667E+00  0.5000000E-02
      1        -13.572089   1.000000
      2        -13.547017   1.000000
      3         -7.504916   1.000000
      4         -7.487512   1.000000
      5         -2.937506   1.000000
      6         -2.924968   1.000000
      7         -0.206153   1.000000
      8          0.220542   1.000000
      9          5.931300   0.000000
     10          6.474536   0.000000
     11         10.443731   0.000000
     12         11.014376   0.000000
 
  0.5000000E+00  0.1231845E-14  0.1666667E+00  0.2500000E-02
      1        -13.428361   1.000000
      2        -13.412175   1.000000
      3         -7.724438   1.000000
      4         -7.707667   1.000000
      5         -2.988559   1.000000
      6         -2.975904   1.000000
      7          0.045260   1.000000
      8          0.402803   1.000000
      9          5.628587   0.000000
     10          6.207522   0.000000
     11         10.581714   0.000000
     12         10.995682   0.000000
 
  0.5000000E-01  0.5000000E-01  0.1666667E+00  0.5000000E-02
      1        -16.371084   1.000000
      2        -16.298292   1.000000
      3         -4.280747   1.000000
      4         -3.452451   1.000000
      5         -0.802988   1.000000
      6         -0.802972   1.000000
      7         -0.502626   1.000000
      8         -0.495750   1.000000
      9          6.181743   0.000000
     10          9.362540   0.000000
     11         12.347647   0.000000
     12         12.567166   0.000000
 
  0.1000000E+00  0.5000000E-01  0.1666667E+00  0.1000000E-01
      1        -16.181225   1.000000
      2        -16.110371   1.000000
      3         -4.020996   1.000000
      4         -3.206279   1.000000
      5         -1.495345   1.000000
      6         -1.491694   1.000000
      7         -0.848239   1.000000
      8         -0.840324   1.000000
      9          6.501312   0.000000
     10          9.474790   0.000000
     11         12.258597   0.000000
     12         12.539757   0.000000
 
  0.1500000E+00  0.5000000E-01  0.1666667E+00  0.1000000E-01
      1        -15.901514   1.000000
      2        -15.833612   1.000000
      3         -3.636769   1.000000
      4         -2.845156   1.000000
      5         -2.402973   1.000000
      6         -2.398374   1.000000
      7         -1.277892   1.000000
      8         -1.268731   1.000000
      9          6.950266   0.000000
     10          9.546525   0.000000
     11         11.872829   0.000000
     12         12.039866   0.000000
 
  0.2000000E+00  0.5000000E-01  0.1666667E+00  0.1000000E-01
      1        -15.539356   1.000000
      2        -15.475471   1.000000
      3         -3.440945   1.000000
      4         -3.433769   1.000000
      5         -3.130042   1.000000
      6         -2.368885   1.000000
      7         -1.729052   1.000000
      8         -1.718774   1.000000
      9          7.509805   0.000000
     10          9.437366   0.000000
     11         10.886087   0.000000
     12         11.788217   0.000000
 
  0.2500000E+00  0.5000000E-01  0.1666667E+00  0.1000000E-01
      1        -15.107401   1.000000
      2        -15.048740   1.000000
      3         -4.512500   1.000000
      4         -4.502721   1.000000
      5         -2.526946   1.000000
      6         -2.155459   1.000000
      7         -2.144437   1.000000
      8         -1.804792   1.000000
      9          8.141648   0.000000
     10          8.992989   0.000000
     11          9.815627   0.000000
     12         11.575855   0.000000
 
  0.3000000E+00  0.5000000E-01  0.1666667E+00  0.1000000E-01
      1        -14.627564   1.000000
      2        -14.575660   1.000000
      3         -5.553361   1.000000
      4         -5.539911   1.000000
      5         -2.525394   1.000000
      6         -2.513586   1.000000
      7         -1.839301   1.000000
      8         -1.174460   1.000000
      9          8.171952   0.000000
     10          8.425858   0.000000
     11          9.194492   0.000000
     12         11.427959   0.000000
 
  0.3500000E+00  0.5000000E-01  0.1666667E+00  0.1000000E-01
      1        -14.138625   1.000000
      2        -14.095558   1.000000
      3         -6.486968   1.000000
      4         -6.470419   1.000000
      5         -2.817626   1.000000
      6         -2.805289   1.000000
      7         -1.113783   1.000000
      8         -0.527481   1.000000
      9          7.192112   0.000000
     10          7.574906   0.000000
     11          9.801183   0.000000
     12         11.323398   0.000000
 
  0.4000000E+00  0.5000000E-01  0.1666667E+00  0.1000000E-01
      1        -13.708540   1.000000
      2        -13.677049   1.000000
      3         -7.221498   1.000000
      4         -7.203738   1.000000
      5         -3.018941   1.000000
      6         -3.006274   1.000000
      7         -0.437727   1.000000
      8          0.043099   1.000000
      9          6.285350   0.000000
     10          6.769843   0.000000
     11         10.413242   0.000000
     12         11.252343   0.000000
 
  0.4500000E+00  0.5000000E-01  0.1666667E+00  0.1000000E-01
      1        -13.441640   1.000000
      2        -13.422813   1.000000
      3         -7.639919   1.000000
      4         -7.622742   1.000000
      5         -3.121452   1.000000
      6         -3.108589   1.000000
      7          0.016290   1.000000
      8          0.389265   1.000000
      9          5.722874   0.000000
     10          6.273838   0.000000
     11         10.735018   0.000000
     12         11.215863   0.000000
 
  0.1000000E+00  0.1000000E+00  0.1666667E+00  0.5000000E-02
      1        -15.947605   1.000000
      2        -15.879179   1.000000
      3         -3.700189   1.000000
      4         -2.903912   1.000000
      5         -2.202097   1.000000
      6         -2.197950   1.000000
      7         -1.286217   1.000000
      8         -1.277418   1.000000
      9          6.884155   0.000000
     10          9.549505   0.000000
     11         12.020561   0.000000
     12         12.477987   0.000000
 
  0.1500000E+00  0.1000000E+00  0.1666667E+00  0.1000000E-01
      1        -15.628180   1.000000
      2        -15.563244   1.000000
      3         -3.263664   1.000000
      4         -3.078006   1.000000
      5         -3.064474   1.000000
      6         -2.483707   1.000000
      7         -1.790278   1.000000
      8         -1.780160   1.000000
      9          7.393604   0.000000
     10          9.507345   0.000000
     11         11.158880   0.000000
     12         12.377166   0.000000
 
  0.2000000E+00  0.1000000E+00  0.1666667E+00  0.1000000E-01
      1        -15.232816   1.000000
      2        -15.172492   1.000000
      3         -4.051630   1.000000
      4         -4.044409   1.000000
      5         -2.704480   1.000000
      6         -2.280975   1.000000
      7         -2.269533   1.000000
      8         -1.968521   1.000000
      9          8.003009   0.000000
     10          9.202803   0.000000
     11         10.173980   0.000000
     12         12.187771   0.000000
 
  0.2500000E+00  0.1000000E+00  0.1666667E+00  0.1000000E-01
      1        -14.778303   1.000000
      2        -14.723931   1.000000
      3         -5.054875   1.000000
      4         -5.044206   1.000000
      5         -2.714004   1.000000
      6         -2.701845   1.000000
      7         -2.058569   1.000000
      8         -1.372899   1.000000
      9          8.500784   0.000000
     10          8.608835   0.000000
     11          9.302006   0.000000
     12         12.053710   0.000000
 
  0.3000000E+00  0.1000000E+00  0.1666667E+00  0.1000000E-01
      1        -14.293915   1.000000
      2        -14.247222   1.000000
      3         -6.008401   1.000000
      4         -5.993906   1.000000
      5         -3.066817   1.000000
      6         -3.054029   1.000000
      7         -1.351008   1.000000
      8         -0.733118   1.000000
      9          7.667578   0.000000
     10          7.948254   0.000000
     11          9.696743   0.000000
     12         11.958022   0.000000
 
  0.3500000E+00  0.1000000E+00  0.1666667E+00  0.1000000E-01
      1        -13.831031   1.000000
      2        -13.794401   1.000000
      3         -6.825292   1.000000
      4         -6.808110   1.000000
      5         -3.326423   1.000000
      6         -3.313139   1.000000
      7         -0.642340   1.000000
      8         -0.117502   1.000000
      9          6.720498   0.000000
     10          7.100689   0.000000
     11         10.465569   0.000000
     12         11.883701   0.000000
 
  0.4000000E+00  0.1000000E+00  0.1666667E+00  0.1000000E-01
      1        -13.474861   1.000000
      2        -13.450752   1.000000
      3         -7.398141   1.000000
      4         -7.380183   1.000000
      5         -3.484938   1.000000
      6         -3.471388   1.000000
      7         -0.055522   1.000000
      8          0.352964   1.000000
      9          5.979669   0.000000
     10          6.449188   0.000000
     11         11.077734   0.000000
     12         11.834817   0.000000
 
  0.4500000E+00  0.1000000E+00  0.1666667E+00  0.5000000E-02
      1        -13.335454   1.000000
      2        -13.319909   1.000000
      3         -7.608718   1.000000
      4         -7.590884   1.000000
      5         -3.538207   1.000000
      6         -3.524569   1.000000
      7          0.192456   1.000000
      8          0.529694   1.000000
      9          5.690330   0.000000
     10          6.194767   0.000000
     11         11.299614   0.000000
     12         11.817747   0.000000
 
  0.1500000E+00  0.1500000E+00  0.1666667E+00  0.5000000E-02
      1        -15.275063   1.000000
      2        -15.214176   1.000000
      3         -3.842728   1.000000
      4         -3.837464   1.000000
      5         -2.764008   1.000000
      6         -2.382609   1.000000
      7         -2.370038   1.000000
      8         -2.023660   1.000000
      9          7.957771   0.000000
     10          9.273113   0.000000
     11         10.308564   0.000000
     12         12.720926   0.000000
 
  0.2000000E+00  0.1500000E+00  0.1666667E+00  0.1000000E-01
      1        -14.855359   1.000000
      2        -14.799750   1.000000
      3         -4.687301   1.000000
      4         -4.680562   1.000000
      5         -2.940598   1.000000
      6         -2.927917   1.000000
      7         -2.169994   1.000000
      8         -1.474158   1.000000
      9          8.537985   0.000000
     10          8.776582   0.000000
     11          9.467569   0.000000
     12         12.774787   0.000000
 
  0.2500000E+00  0.1500000E+00  0.1666667E+00  0.1000000E-01
      1        -14.391518   1.000000
      2        -14.342677   1.000000
      3         -5.560836   1.000000
      4         -5.550144   1.000000
      5         -3.403891   1.000000
      6         -3.390470   1.000000
      7         -1.498647   1.000000
      8         -0.862281   1.000000
      9          8.033781   0.000000
     10          8.203758   0.000000
     11          9.638509   0.000000
     12         12.788349   0.000000
 
  0.3000000E+00  0.1500000E+00  0.1666667E+00  0.1000000E-01
      1        -13.922460   1.000000
      2        -13.882340   1.000000
      3         -6.379090   1.000000
      4         -6.364071   1.000000
      5         -3.753703   1.000000
      6         -3.739702   1.000000
      7         -0.792847   1.000000
      8         -0.238062   1.000000
      9          7.143103   0.000000
     10          7.383238   0.000000
     11         10.461061   0.000000
     12         12.769492   0.000000
 
  0.3500000E+00  0.1500000E+00  0.1666667E+00  0.1000000E-01
      1        -13.514007   1.000000
      2        -13.485084   1.000000
      3         -7.037445   1.000000
      4         -7.019512   1.000000
      5         -3.986953   1.000000
      6         -3.972541   1.000000
      7         -0.137766   1.000000
      8          0.307343   1.000000
      9          6.324467   0.000000
     10          6.667550   0.000000
     11         11.314865   0.000000
     12         12.734488   0.000000
 
  0.4000000E+00  0.1500000E+00  0.1666667E+00  0.1000000E-01
      1        -13.263218   1.000000
      2        -13.246168   1.000000
      3         -7.415562   1.000000
      4         -7.396431   1.000000
      5         -4.103525   1.000000
      6         -4.088909   1.000000
      7          0.301884   1.000000
      8          0.632982   1.000000
      9          5.816953   0.000000
     10          6.223294   0.000000
     11         11.936944   0.000000
     12         12.710189   0.000000
 
  0.2000000E+00  0.2000000E+00  0.1666667E+00  0.5000000E-02
      1        -14.424773   1.000000
      2        -14.375238   1.000000
      3         -5.348459   1.000000
      4         -5.341901   1.000000
      5         -3.583484   1.000000
      6         -3.569878   1.000000
      7         -1.548715   1.000000
      8         -0.906253   1.000000
      9          8.179808   0.000000
     10          8.287744   0.000000
     11          9.620414   0.000000
     12         13.192446   0.000000
 
  0.2500000E+00  0.2000000E+00  0.1666667E+00  0.1000000E-01
      1        -13.971112   1.000000
      2        -13.929226   1.000000
      3         -6.023248   1.000000
      4         -6.012878   1.000000
      5         -4.112173   1.000000
      6         -4.098228   1.000000
      7         -0.872137   1.000000
      8         -0.302389   1.000000
      9          7.439569   0.000000
     10          7.520908   0.000000
     11         10.432707   0.000000
     12         13.378237   0.000000
 
  0.3000000E+00  0.2000000E+00  0.1666667E+00  0.1000000E-01
      1        -13.544422   1.000000
      2        -13.512311   1.000000
      3         -6.645249   1.000000
      4         -6.629253   1.000000
      5         -4.485964   1.000000
      6         -4.471538   1.000000
      7         -0.200042   1.000000
      8          0.270383   1.000000
      9          6.643817   0.000000
     10          6.834881   0.000000
     11         11.358500   0.000000
     12         13.443601   0.000000
 
  0.3500000E+00  0.2000000E+00  0.1666667E+00  0.1000000E-01
      1        -13.222419   1.000000
      2        -13.201983   1.000000
      3         -7.100527   1.000000
      4         -7.080365   1.000000
      5         -4.704478   1.000000
      6         -4.689585   1.000000
      7          0.353179   1.000000
      8          0.697713   1.000000
      9          6.029727   0.000000
     10          6.301556   0.000000
     11         12.271178   0.000000
     12         13.441062   0.000000
 
  0.4000000E+00  0.2000000E+00  0.1666667E+00  0.5000000E-02
      1        -13.098250   1.000000
      2        -13.085611   1.000000
      3         -7.270420   1.000000
      4         -7.248906   1.000000
      5         -4.776133   1.000000
      6         -4.761005   1.000000
      7          0.588252   1.000000
      8          0.852033   1.000000
      9          5.790942   0.000000
     10          6.091093   0.000000
     11         12.794430   0.000000
     12         13.433902   0.000000
 
  0.2500000E+00  0.2500000E+00  0.1666667E+00  0.5000000E-02
      1        -13.555774   1.000000
      2        -13.522583   1.000000
      3         -6.441128   1.000000
      4         -6.428161   1.000000
      5         -4.727769   1.000000
      6         -4.714637   1.000000
      7         -0.222949   1.000000
      8          0.256329   1.000000
      9          6.795913   0.000000
     10          6.878029   0.000000
     11         11.352886   0.000000
     12         13.342879   0.000000
 
  0.3000000E+00  0.2500000E+00  0.1666667E+00  0.1000000E-01
      1        -13.205039   1.000000
      2        -13.182389   1.000000
      3         -6.791889   1.000000
      4         -6.772308   1.000000
      5         -5.164861   1.000000
      6         -5.152306   1.000000
      7          0.370249   1.000000
      8          0.727616   1.000000
      9          6.209159   0.000000
     10          6.349700   0.000000
     11         12.326477   0.000000
     12         13.072908   0.000000
 
  0.3500000E+00  0.2500000E+00  0.1666667E+00  0.1000000E-01
      1        -12.996031   1.000000
      2        -12.984056   1.000000
      3         -7.004907   1.000000
      4         -6.979927   1.000000
      5         -5.385113   1.000000
      6         -5.372013   1.000000
      7          0.768062   1.000000
      8          0.990892   1.000000
      9          5.849679   0.000000
     10          6.023111   0.000000
     11         12.872146   0.000000
     12         13.239108   0.000000
 
  0.3000000E+00  0.3000000E+00  0.1666667E+00  0.5000000E-02
      1        -12.961761   1.000000
      2        -12.949489   1.000000
      3         -6.821765   1.000000
      4         -6.794112   1.000000
      5         -5.685262   1.000000
      6         -5.677655   1.000000
      7          0.828063   1.000000
      8          1.038730   1.000000
      9          5.899002   0.000000
     10          5.991480   0.000000
     11         12.666741   0.000000
     12         13.287386   0.000000
 
  0.3500000E+00  0.3000000E+00  0.1666667E+00  0.5000000E-02
      1        -12.870738   1.000000
      2        -12.866130   1.000000
      3         -6.802970   1.000000
      4         -6.768745   1.000000
      5         -5.899691   1.000000
      6         -5.894105   1.000000
      7          1.034682   1.000000
      8          1.124908   1.000000
      9          5.786834   0.000000
     10          5.851338   0.000000
     11         12.511798   0.000000
     12         13.996382   0.000000
 
  0.1262379E-14  0.1262379E-14  0.3333333E+00  0.8333333E-03
      1        -16.499639   1.000000
      2        -16.456702   1.000000
      3         -4.317237   1.000000
      4         -3.835760   1.000000
      5         -0.215325   1.000000
      6         -0.215233   1.000000
      7         -0.211631   1.000000
      8         -0.211539   1.000000
      9          6.492184   0.000000
     10          8.315646   0.000000
     11         12.639016   0.000000
     12         12.651801   0.000000
 
  0.5000000E-01  0.1260569E-14  0.3333333E+00  0.5000000E-02
      1        -16.451562   1.000000
      2        -16.408932   1.000000
      3         -4.252134   1.000000
      4         -3.772601   1.000000
      5         -0.421603   1.000000
      6         -0.419209   1.000000
      7         -0.310810   1.000000
      8         -0.306899   1.000000
      9          6.575585   0.000000
     10          8.379050   0.000000
     11         12.558907   0.000000
     12         12.610144   0.000000
 
  0.1000000E+00  0.1267564E-14  0.3333333E+00  0.5000000E-02
      1        -16.308317   1.000000
      2        -16.266546   1.000000
      3         -4.057977   1.000000
      4         -3.584209   1.000000
      5         -0.999184   1.000000
      6         -0.997787   1.000000
      7         -0.575011   1.000000
      8         -0.570603   1.000000
      9          6.812681   0.000000
     10          8.552564   0.000000
     11         12.365677   0.000000
     12         12.507359   0.000000
 
  0.1500000E+00  0.1272648E-14  0.3333333E+00  0.5000000E-02
      1        -16.072750   1.000000
      2        -16.032442   1.000000
      3         -3.738082   1.000000
      4         -3.274535   1.000000
      5         -1.849048   1.000000
      6         -1.846655   1.000000
      7         -0.953575   1.000000
      8         -0.948558   1.000000
      9          7.176584   0.000000
     10          8.791348   0.000000
     11         12.091488   0.000000
     12         12.265718   0.000000
 
  0.2000000E+00  0.1272399E-14  0.3333333E+00  0.5000000E-02
      1        -15.750469   1.000000
      2        -15.712149   1.000000
      3         -3.303310   1.000000
      4         -2.919538   1.000000
      5         -2.856501   1.000000
      6         -2.790512   1.000000
      7         -1.385021   1.000000
      8         -1.379383   1.000000
      9          7.638114   0.000000
     10          9.012389   0.000000
     11         11.545809   0.000000
     12         11.711626   0.000000
 
  0.2500000E+00  0.1249117E-14  0.3333333E+00  0.5000000E-02
      1        -15.351141   1.000000
      2        -15.315453   1.000000
      3         -3.956836   1.000000
      4         -3.951845   1.000000
      5         -2.740727   1.000000
      6         -2.311352   1.000000
      7         -1.816914   1.000000
      8         -1.810777   1.000000
      9          8.142606   0.000000
     10          9.033492   0.000000
     11         10.591857   0.000000
     12         11.281100   0.000000
 
  0.3000000E+00  0.1223395E-14  0.3333333E+00  0.5000000E-02
      1        -14.891338   1.000000
      2        -14.859118   1.000000
      3         -5.038873   1.000000
      4         -5.031972   1.000000
      5         -2.210422   1.000000
      6         -2.203893   1.000000
      7         -2.098436   1.000000
      8         -1.696212   1.000000
      9          8.417943   0.000000
     10          8.608976   0.000000
     11          9.823523   0.000000
     12         11.038701   0.000000
 
  0.3500000E+00  0.1223146E-14  0.3333333E+00  0.5000000E-02
      1        -14.400193   1.000000
      2        -14.372421   1.000000
      3         -6.047906   1.000000
      4         -6.039045   1.000000
      5         -2.538612   1.000000
      6         -2.531743   1.000000
      7         -1.394446   1.000000
      8         -1.030185   1.000000
      9          7.713410   0.000000
     10          7.900034   0.000000
     11          9.937966   0.000000
     12         10.984692   0.000000
 
  0.4000000E+00  0.1272914E-14  0.3333333E+00  0.5000000E-02
      1        -13.929616   1.000000
      2        -13.907715   1.000000
      3         -6.903654   1.000000
      4         -6.893553   1.000000
      5         -2.783756   1.000000
      6         -2.776680   1.000000
      7         -0.692476   1.000000
      8         -0.380588   1.000000
      9          6.767764   0.000000
     10          7.025977   0.000000
     11         10.366196   0.000000
     12         10.967904   0.000000
 
  0.4500000E+00  0.1242469E-14  0.3333333E+00  0.5000000E-02
      1        -13.566794   1.000000
      2        -13.552305   1.000000
      3         -7.501518   1.000000
      4         -7.491475   1.000000
      5         -2.934857   1.000000
      6         -2.927629   1.000000
      7         -0.117575   1.000000
      8          0.128887   1.000000
      9          6.016466   0.000000
     10          6.328121   0.000000
     11         10.633653   0.000000
     12         10.952734   0.000000
 
  0.5000000E+00  0.1231845E-14  0.3333333E+00  0.2500000E-02
      1        -13.424930   1.000000
      2        -13.415617   1.000000
      3         -7.721201   1.000000
      4         -7.711492   1.000000
      5         -2.985847   1.000000
      6         -2.978566   1.000000
      7          0.121064   1.000000
      8          0.327783   1.000000
      9          5.721296   0.000000
     10          6.053933   0.000000
     11         10.711189   0.000000
     12         10.946234   0.000000
 
  0.5000000E-01  0.5000000E-01  0.3333333E+00  0.5000000E-02
      1        -16.355915   1.000000
      2        -16.313854   1.000000
      3         -4.122506   1.000000
      4         -3.646810   1.000000
      5         -0.802405   1.000000
      6         -0.802220   1.000000
      7         -0.501156   1.000000
      8         -0.497187   1.000000
      9          6.735984   0.000000
     10          8.497906   0.000000
     11         12.512138   0.000000
     12         12.569033   0.000000
 
  0.1000000E+00  0.5000000E-01  0.3333333E+00  0.1000000E-01
      1        -16.166457   1.000000
      2        -16.125539   1.000000
      3         -3.865388   1.000000
      4         -3.397613   1.000000
      5         -1.493105   1.000000
      6         -1.491316   1.000000
      7         -0.846542   1.000000
      8         -0.841986   1.000000
      9          7.037671   0.000000
     10          8.706685   0.000000
     11         12.356983   0.000000
     12         12.497152   0.000000
 
  0.1500000E+00  0.5000000E-01  0.3333333E+00  0.1000000E-01
      1        -15.887345   1.000000
      2        -15.848150   1.000000
      3         -3.486167   1.000000
      4         -3.032937   1.000000
      5         -2.399109   1.000000
      6         -2.396096   1.000000
      7         -1.275911   1.000000
      8         -1.270621   1.000000
      9          7.454174   0.000000
     10          8.944534   0.000000
     11         11.926328   0.000000
     12         12.032187   0.000000
 
  0.2000000E+00  0.5000000E-01  0.3333333E+00  0.1000000E-01
      1        -15.526008   1.000000
      2        -15.489138   1.000000
      3         -3.443308   1.000000
      4         -3.438159   1.000000
      5         -2.978202   1.000000
      6         -2.542477   1.000000
      7         -1.726797   1.000000
      8         -1.720866   1.000000
      9          7.948468   0.000000
     10          9.082880   0.000000
     11         11.030049   0.000000
     12         11.592494   0.000000
 
  0.2500000E+00  0.5000000E-01  0.3333333E+00  0.1000000E-01
      1        -15.095130   1.000000
      2        -15.061276   1.000000
      3         -4.511289   1.000000
      4         -4.505611   1.000000
      5         -2.385705   1.000000
      6         -2.152998   1.000000
      7         -2.147108   1.000000
      8         -1.969008   1.000000
      9          8.398650   0.000000
     10          8.875989   0.000000
     11         10.125612   0.000000
     12         11.259137   0.000000
 
  0.3000000E+00  0.5000000E-01  0.3333333E+00  0.1000000E-01
      1        -14.616679   1.000000
      2        -14.586723   1.000000
      3         -5.550954   1.000000
      4         -5.543190   1.000000
      5         -2.523006   1.000000
      6         -2.516151   1.000000
      7         -1.707902   1.000000
      8         -1.325100   1.000000
      9          8.152337   0.000000
     10          8.281576   0.000000
     11          9.849004   0.000000
     12         11.172674   0.000000
 
  0.3500000E+00  0.5000000E-01  0.3333333E+00  0.1000000E-01
      1        -14.129558   1.000000
      2        -14.104710   1.000000
      3         -6.483763   1.000000
      4         -6.474200   1.000000
      5         -2.815053   1.000000
      6         -2.807954   1.000000
      7         -0.996439   1.000000
      8         -0.658467   1.000000
      9          7.231572   0.000000
     10          7.446243   0.000000
     11         10.283390   0.000000
     12         11.173126   0.000000
 
  0.4000000E+00  0.5000000E-01  0.3333333E+00  0.1000000E-01
      1        -13.701904   1.000000
      2        -13.683732   1.000000
      3         -7.218046   1.000000
      4         -7.207779   1.000000
      5         -3.016282   1.000000
      6         -3.008982   1.000000
      7         -0.339296   1.000000
      8         -0.061753   1.000000
      9          6.357686   0.000000
     10          6.635165   0.000000
     11         10.697119   0.000000
     12         11.168427   0.000000
 
  0.4500000E+00  0.5000000E-01  0.3333333E+00  0.1000000E-01
      1        -13.437644   1.000000
      2        -13.426790   1.000000
      3         -7.636569   1.000000
      4         -7.626632   1.000000
      5         -3.118766   1.000000
      6         -3.111325   1.000000
      7          0.094991   1.000000
      8          0.310591   1.000000
      9          5.810489   0.000000
     10          6.127071   0.000000
     11         10.888952   0.000000
     12         11.160672   0.000000
 
  0.1000000E+00  0.1000000E+00  0.3333333E+00  0.5000000E-02
      1        -15.933295   1.000000
      2        -15.893816   1.000000
      3         -3.548486   1.000000
      4         -3.091947   1.000000
      5         -2.198112   1.000000
      6         -2.196928   1.000000
      7         -1.284263   1.000000
      8         -1.279199   1.000000
      9          7.394723   0.000000
     10          8.920349   0.000000
     11         12.089483   0.000000
     12         12.351899   0.000000
 
  0.1500000E+00  0.1000000E+00  0.3333333E+00  0.1000000E-01
      1        -15.614605   1.000000
      2        -15.577134   1.000000
      3         -3.153057   1.000000
      4         -3.083817   1.000000
      5         -3.026982   1.000000
      6         -2.655308   1.000000
      7         -1.787887   1.000000
      8         -1.782115   1.000000
      9          7.853993   0.000000
     10          9.095383   0.000000
     11         11.298263   0.000000
     12         11.972603   0.000000
 
  0.2000000E+00  0.1000000E+00  0.3333333E+00  0.1000000E-01
      1        -15.220203   1.000000
      2        -15.185388   1.000000
      3         -4.051320   1.000000
      4         -4.047168   1.000000
      5         -2.561022   1.000000
      6         -2.280184   1.000000
      7         -2.271775   1.000000
      8         -2.133878   1.000000
      9          8.339633   0.000000
     10          9.030174   0.000000
     11         10.434356   0.000000
     12         11.631039   0.000000
 
  0.2500000E+00  0.1000000E+00  0.3333333E+00  0.1000000E-01
      1        -14.766922   1.000000
      2        -14.735519   1.000000
      3         -5.053139   1.000000
      4         -5.047003   1.000000
      5         -2.711741   1.000000
      6         -2.704693   1.000000
      7         -1.923115   1.000000
      8         -1.528506   1.000000
      9          8.456338   0.000000
     10          8.551680   0.000000
     11          9.928352   0.000000
     12         11.570055   0.000000
 
  0.3000000E+00  0.1000000E+00  0.3333333E+00  0.1000000E-01
      1        -14.284114   1.000000
      2        -14.257152   1.000000
      3         -6.005658   1.000000
      4         -5.997300   1.000000
      5         -3.064244   1.000000
      6         -3.056856   1.000000
      7         -1.227904   1.000000
      8         -0.871889   1.000000
      9          7.676806   0.000000
     10          7.828555   0.000000
     11         10.295617   0.000000
     12         11.665908   0.000000
 
  0.3500000E+00  0.1000000E+00  0.3333333E+00  0.1000000E-01
      1        -13.823299   1.000000
      2        -13.802155   1.000000
      3         -6.821904   1.000000
      4         -6.812012   1.000000
      5         -3.323704   1.000000
      6         -3.316011   1.000000
      7         -0.535896   1.000000
      8         -0.233118   1.000000
      9          6.769993   0.000000
     10          6.987384   0.000000
     11         10.895296   0.000000
     12         11.734582   0.000000
 
  0.4000000E+00  0.1000000E+00  0.3333333E+00  0.1000000E-01
      1        -13.469770   1.000000
      2        -13.455877   1.000000
      3         -7.394627   1.000000
      4         -7.384229   1.000000
      5         -3.482155   1.000000
      6         -3.474315   1.000000
      7          0.029791   1.000000
      8          0.265813   1.000000
      9          6.052016   0.000000
     10          6.321991   0.000000
     11         11.325712   0.000000
     12         11.755269   0.000000
 
  0.4500000E+00  0.1000000E+00  0.3333333E+00  0.5000000E-02
      1        -13.332165   1.000000
      2        -13.323211   1.000000
      3         -7.605206   1.000000
      4         -7.594954   1.000000
      5         -3.535418   1.000000
      6         -3.527554   1.000000
      7          0.264552   1.000000
      8          0.459596   1.000000
      9          5.769911   0.000000
     10          6.060226   0.000000
     11         11.462971   0.000000
     12         11.758033   0.000000
 
  0.1500000E+00  0.1500000E+00  0.3333333E+00  0.5000000E-02
      1        -15.262340   1.000000
      2        -15.227221   1.000000
      3         -3.842937   1.000000
      4         -3.840260   1.000000
      5         -2.619929   1.000000
      6         -2.382455   1.000000
      7         -2.370948   1.000000
      8         -2.190104   1.000000
      9          8.316282   0.000000
     10          9.079153   0.000000
     11         10.557515   0.000000
     12         11.806306   0.000000
 
  0.2000000E+00  0.1500000E+00  0.3333333E+00  0.1000000E-01
      1        -14.843717   1.000000
      2        -14.811617   1.000000
      3         -4.686473   1.000000
      4         -4.682628   1.000000
      5         -2.938236   1.000000
      6         -2.931004   1.000000
      7         -2.032530   1.000000
      8         -1.632117   1.000000
      9          8.570461   0.000000
     10          8.716534   0.000000
     11         10.030181   0.000000
     12         11.839304   0.000000
 
  0.2500000E+00  0.1500000E+00  0.3333333E+00  0.1000000E-01
      1        -14.381302   1.000000
      2        -14.353067   1.000000
      3         -5.558924   1.000000
      4         -5.552762   1.000000
      5         -3.401285   1.000000
      6         -3.393527   1.000000
      7         -1.372137   1.000000
      8         -1.005545   1.000000
      9          8.013569   0.000000
     10          8.093097   0.000000
     11         10.304795   0.000000
     12         12.095555   0.000000
 
  0.3000000E+00  0.1500000E+00  0.3333333E+00  0.1000000E-01
      1        -13.914037   1.000000
      2        -13.890845   1.000000
      3         -6.376191   1.000000
      4         -6.367513   1.000000
      5         -3.750893   1.000000
      6         -3.742838   1.000000
      7         -0.680966   1.000000
      8         -0.361036   1.000000
      9          7.161104   0.000000
     10          7.298391   0.000000
     11         10.994763   0.000000
     12         12.385575   0.000000
 
  0.3500000E+00  0.1500000E+00  0.3333333E+00  0.1000000E-01
      1        -13.507898   1.000000
      2        -13.491204   1.000000
      3         -7.033890   1.000000
      4         -7.023555   1.000000
      5         -3.984024   1.000000
      6         -3.975716   1.000000
      7         -0.045688   1.000000
      8          0.211344   1.000000
      9          6.372018   0.000000
     10          6.569772   0.000000
     11         11.708834   0.000000
     12         12.561705   0.000000
 
  0.4000000E+00  0.1500000E+00  0.3333333E+00  0.1000000E-01
      1        -13.259620   1.000000
      2        -13.249781   1.000000
      3         -7.411778   1.000000
      4         -7.400734   1.000000
      5         -4.100549   1.000000
      6         -4.092096   1.000000
      7          0.372920   1.000000
      8          0.564397   1.000000
      9          5.878377   0.000000
     10          6.112716   0.000000
     11         12.178221   0.000000
     12         12.624860   0.000000
 
  0.2000000E+00  0.2000000E+00  0.3333333E+00  0.5000000E-02
      1        -14.414427   1.000000
      2        -14.385773   1.000000
      3         -5.347461   1.000000
      4         -5.343683   1.000000
      5         -3.580846   1.000000
      6         -3.573014   1.000000
      7         -1.421066   1.000000
      8         -1.050998   1.000000
      9          8.151577   0.000000
     10          8.176624   0.000000
     11         10.306619   0.000000
     12         12.208039   0.000000
 
  0.2500000E+00  0.2000000E+00  0.3333333E+00  0.1000000E-01
      1        -13.962307   1.000000
      2        -13.938122   1.000000
      3         -6.021289   1.000000
      4         -6.015339   1.000000
      5         -4.109401   1.000000
      6         -4.101365   1.000000
      7         -0.757561   1.000000
      8         -0.429042   1.000000
      9          7.421400   0.000000
     10          7.468963   0.000000
     11         11.002238   0.000000
     12         12.638418   0.000000
 
  0.3000000E+00  0.2000000E+00  0.3333333E+00  0.1000000E-01
      1        -13.537682   1.000000
      2        -13.519110   1.000000
      3         -6.642084   1.000000
      4         -6.632846   1.000000
      5         -4.483106   1.000000
      6         -4.474761   1.000000
      7         -0.103335   1.000000
      8          0.168229   1.000000
      9          6.659865   0.000000
     10          6.771242   0.000000
     11         11.818726   0.000000
     12         13.026028   0.000000
 
  0.3500000E+00  0.2000000E+00  0.3333333E+00  0.1000000E-01
      1        -13.218095   1.000000
      2        -13.206329   1.000000
      3         -7.096466   1.000000
      4         -7.084852   1.000000
      5         -4.701501   1.000000
      6         -4.692889   1.000000
      7          0.426760   1.000000
      8          0.625960   1.000000
      9          6.064954   0.000000
     10          6.222286   0.000000
     11         12.610184   0.000000
     12         13.322262   0.000000
 
  0.4000000E+00  0.2000000E+00  0.3333333E+00  0.5000000E-02
      1        -13.095620   1.000000
      2        -13.088347   1.000000
      3         -7.266123   1.000000
      4         -7.253644   1.000000
      5         -4.773119   1.000000
      6         -4.764397   1.000000
      7          0.646617   1.000000
      8          0.799275   1.000000
      9          5.831736   0.000000
     10          6.005274   0.000000
     11         13.058587   0.000000
     12         13.594177   0.000000
 
  0.2500000E+00  0.2500000E+00  0.3333333E+00  0.5000000E-02
      1        -13.548807   1.000000
      2        -13.529666   1.000000
      3         -6.438595   1.000000
      4         -6.431109   1.000000
      5         -4.725232   1.000000
      6         -4.717625   1.000000
      7         -0.124638   1.000000
      8          0.152000   1.000000
      9          6.787844   0.000000
     10          6.839044   0.000000
     11         11.823015   0.000000
     12         13.017143   0.000000
 
  0.3000000E+00  0.2500000E+00  0.3333333E+00  0.1000000E-01
      1        -13.200234   1.000000
      2        -13.187159   1.000000
      3         -6.787862   1.000000
      4         -6.776574   1.000000
      5         -5.162406   1.000000
      6         -5.155145   1.000000
      7          0.446230   1.000000
      8          0.652808   1.000000
      9          6.217343   0.000000
     10          6.299929   0.000000
     11         12.669993   0.000000
     12         13.127806   0.000000
 
  0.3500000E+00  0.2500000E+00  0.3333333E+00  0.1000000E-01
      1        -12.993518   1.000000
      2        -12.986627   1.000000
      3         -6.999787   1.000000
      4         -6.985365   1.000000
      5         -5.382553   1.000000
      6         -5.375001   1.000000
      7          0.818603   1.000000
      8          0.947603   1.000000
      9          5.864622   0.000000
     10          5.965326   0.000000
     11         13.077776   0.000000
     12         13.459571   0.000000
 
  0.3000000E+00  0.3000000E+00  0.3333333E+00  0.5000000E-02
      1        -12.959182   1.000000
      2        -12.952051   1.000000
      3         -6.815984   1.000000
      4         -6.800031   1.000000
      5         -5.683913   1.000000
      6         -5.679539   1.000000
      7          0.876276   1.000000
      8          0.998233   1.000000
      9          5.896889   0.000000
     10          5.951292   0.000000
     11         12.906491   0.000000
     12         13.426683   0.000000
 
  0.3500000E+00  0.3000000E+00  0.3333333E+00  0.5000000E-02
      1        -12.869829   1.000000
      2        -12.867132   1.000000
      3         -6.795834   1.000000
      4         -6.776092   1.000000
      5         -5.898811   1.000000
      6         -5.895593   1.000000
      7          1.059028   1.000000
      8          1.111312   1.000000
      9          5.778404   0.000000
     10          5.815977   0.000000
     11         12.793572   0.000000
     12         13.835546   0.000000
 
  0.1262379E-14  0.1262379E-14  0.5000000E+00  0.4166667E-03
      1        -16.478205   1.000000
      2        -16.478204   1.000000
      3         -4.085435   1.000000
      4         -4.085433   1.000000
      5         -0.213441   1.000000
      6         -0.213437   1.000000
      7         -0.213348   1.000000
      8         -0.213347   1.000000
      9          7.332059   0.000000
     10          7.332060   0.000000
     11         12.647300   0.000000
     12         12.647371   0.000000
 
  0.5000000E-01  0.1260569E-14  0.5000000E+00  0.2500000E-02
      1        -16.430328   1.000000
      2        -16.430327   1.000000
      3         -4.021290   1.000000
      4         -4.021288   1.000000
      5         -0.420277   1.000000
      6         -0.420274   1.000000
      7         -0.308835   1.000000
      8         -0.308834   1.000000
      9          7.408014   0.000000
     10          7.408015   0.000000
     11         12.599711   0.000000
     12         12.600264   0.000000
 
  0.1000000E+00  0.1267564E-14  0.5000000E+00  0.2500000E-02
      1        -16.287545   1.000000
      2        -16.287544   1.000000
      3         -3.829940   1.000000
      4         -3.829939   1.000000
      5         -0.998106   1.000000
      6         -0.998103   1.000000
      7         -0.572820   1.000000
      8         -0.572820   1.000000
      9          7.621866   0.000000
     10          7.621866   0.000000
     11         12.457880   0.000000
     12         12.457903   0.000000
 
  0.1500000E+00  0.1272648E-14  0.5000000E+00  0.2500000E-02
      1        -16.052685   1.000000
      2        -16.052684   1.000000
      3         -3.515029   1.000000
      4         -3.515028   1.000000
      5         -1.847091   1.000000
      6         -1.847088   1.000000
      7         -0.951065   1.000000
      8         -0.951064   1.000000
      9          7.940713   0.000000
     10          7.940714   0.000000
     11         12.185304   0.000000
     12         12.185305   0.000000
 
  0.2000000E+00  0.1272399E-14  0.5000000E+00  0.2500000E-02
      1        -15.731379   1.000000
      2        -15.731378   1.000000
      3         -3.099252   1.000000
      4         -3.099251   1.000000
      5         -2.843048   1.000000
      6         -2.843046   1.000000
      7         -1.382195   1.000000
      8         -1.382194   1.000000
      9          8.315071   0.000000
     10          8.315071   0.000000
     11         11.641735   0.000000
     12         11.641737   0.000000
 
  0.2500000E+00  0.1249117E-14  0.5000000E+00  0.2500000E-02
      1        -15.333365   1.000000
      2        -15.333363   1.000000
      3         -3.955074   1.000000
      4         -3.955071   1.000000
      5         -2.531973   1.000000
      6         -2.531972   1.000000
      7         -1.813850   1.000000
      8         -1.813849   1.000000
      9          8.625165   0.000000
     10          8.625165   0.000000
     11         10.915980   0.000000
     12         10.915982   0.000000
 
  0.3000000E+00  0.1223395E-14  0.5000000E+00  0.2500000E-02
      1        -14.875265   1.000000
      2        -14.875263   1.000000
      3         -5.035736   1.000000
      4         -5.035734   1.000000
      5         -2.207177   1.000000
      6         -2.207176   1.000000
      7         -1.902741   1.000000
      8         -1.902740   1.000000
      9          8.513619   0.000000
     10          8.513621   0.000000
     11         10.478478   0.000000
     12         10.478479   0.000000
 
  0.3500000E+00  0.1223146E-14  0.5000000E+00  0.2500000E-02
      1        -14.386380   1.000000
      2        -14.386379   1.000000
      3         -6.043685   1.000000
      4         -6.043683   1.000000
      5         -2.535204   1.000000
      6         -2.535203   1.000000
      7         -1.216558   1.000000
      8         -1.216557   1.000000
      9          7.780962   0.000000
     10          7.780966   0.000000
     11         10.561009   0.000000
     12         10.561011   0.000000
 
  0.4000000E+00  0.1272914E-14  0.5000000E+00  0.2500000E-02
      1        -13.918654   1.000000
      2        -13.918653   1.000000
      3         -6.898719   1.000000
      4         -6.898717   1.000000
      5         -2.780199   1.000000
      6         -2.780198   1.000000
      7         -0.539131   1.000000
      8         -0.539130   1.000000
      9          6.879740   0.000000
     10          6.879744   0.000000
     11         10.735872   0.000000
     12         10.735874   0.000000
 
  0.4500000E+00  0.1242469E-14  0.5000000E+00  0.2500000E-02
      1        -13.559531   1.000000
      2        -13.559529   1.000000
      3         -7.496613   1.000000
      4         -7.496611   1.000000
      5         -2.931240   1.000000
      6         -2.931239   1.000000
      7          0.004865   1.000000
      8          0.004866   1.000000
      9          6.157339   0.000000
     10          6.157343   0.000000
     11         10.825184   0.000000
     12         10.825186   0.000000
 
  0.5000000E+00  0.1231845E-14  0.5000000E+00  0.1250000E-02
      1        -13.420297   1.000000
      2        -13.420296   1.000000
      3         -7.716536   1.000000
      4         -7.716534   1.000000
      5         -2.982201   1.000000
      6         -2.982200   1.000000
      7          0.224587   1.000000
      8          0.224588   1.000000
      9          5.872650   0.000000
     10          5.872655   0.000000
     11         10.848704   0.000000
     12         10.848707   0.000000
 
  0.5000000E-01  0.5000000E-01  0.5000000E+00  0.2500000E-02
      1        -16.334974   1.000000
      2        -16.334972   1.000000
      3         -3.893520   1.000000
      4         -3.893519   1.000000
      5         -0.801984   1.000000
      6         -0.801980   1.000000
      7         -0.499162   1.000000
      8         -0.499161   1.000000
      9          7.553190   0.000000
     10          7.553191   0.000000
     11         12.561615   0.000000
     12         12.561697   0.000000
 
  0.1000000E+00  0.5000000E-01  0.5000000E+00  0.5000000E-02
      1        -16.146103   1.000000
      2        -16.146102   1.000000
      3         -3.640266   1.000000
      4         -3.640264   1.000000
      5         -1.491599   1.000000
      6         -1.491595   1.000000
      7         -0.844256   1.000000
      8         -0.844256   1.000000
      9          7.821410   0.000000
     10          7.821411   0.000000
     11         12.437966   0.000000
     12         12.438072   0.000000
 
  0.1500000E+00  0.5000000E-01  0.5000000E+00  0.5000000E-02
      1        -15.867829   1.000000
      2        -15.867827   1.000000
      3         -3.268311   1.000000
      4         -3.268310   1.000000
      5         -2.396484   1.000000
      6         -2.396480   1.000000
      7         -1.273244   1.000000
      8         -1.273244   1.000000
      9          8.173962   0.000000
     10          8.173963   0.000000
     11         11.991317   0.000000
     12         11.991327   0.000000
 
  0.2000000E+00  0.5000000E-01  0.5000000E+00  0.5000000E-02
      1        -15.507649   1.000000
      2        -15.507647   1.000000
      3         -3.441987   1.000000
      4         -3.441984   1.000000
      5         -2.766107   1.000000
      6         -2.766106   1.000000
      7         -1.723801   1.000000
      8         -1.723801   1.000000
      9          8.534765   0.000000
     10          8.534765   0.000000
     11         11.282456   0.000000
     12         11.282459   0.000000
 
  0.2500000E+00  0.5000000E-01  0.5000000E+00  0.5000000E-02
      1        -15.078270   1.000000
      2        -15.078269   1.000000
      3         -4.508869   1.000000
      4         -4.508867   1.000000
      5         -2.188192   1.000000
      6         -2.188191   1.000000
      7         -2.144955   1.000000
      8         -2.144955   1.000000
      9          8.671840   0.000000
     10          8.671841   0.000000
     11         10.668165   0.000000
     12         10.668166   0.000000
 
  0.3000000E+00  0.5000000E-01  0.5000000E+00  0.5000000E-02
      1        -14.601736   1.000000
      2        -14.601735   1.000000
      3         -5.547282   1.000000
      4         -5.547280   1.000000
      5         -2.519615   1.000000
      6         -2.519614   1.000000
      7         -1.521269   1.000000
      8         -1.521268   1.000000
      9          8.189966   0.000000
     10          8.189969   0.000000
     11         10.591248   0.000000
     12         10.591249   0.000000
 
  0.3500000E+00  0.5000000E-01  0.5000000E+00  0.5000000E-02
      1        -14.117187   1.000000
      2        -14.117186   1.000000
      3         -6.479164   1.000000
      4         -6.479161   1.000000
      5         -2.811530   1.000000
      6         -2.811529   1.000000
      7         -0.830851   1.000000
      8         -0.830850   1.000000
      9          7.318983   0.000000
     10          7.318986   0.000000
     11         10.817736   0.000000
     12         10.817737   0.000000
 
  0.4000000E+00  0.5000000E-01  0.5000000E+00  0.5000000E-02
      1        -13.692829   1.000000
      2        -13.692828   1.000000
      3         -7.213068   1.000000
      4         -7.213065   1.000000
      5         -3.012650   1.000000
      6         -3.012650   1.000000
      7         -0.202125   1.000000
      8         -0.202124   1.000000
      9          6.481400   0.000000
     10          6.481404   0.000000
     11         10.984584   0.000000
     12         10.984586   0.000000
 
  0.4500000E+00  0.5000000E-01  0.5000000E+00  0.5000000E-02
      1        -13.432213   1.000000
      2        -13.432211   1.000000
      3         -7.631752   1.000000
      4         -7.631750   1.000000
      5         -3.115060   1.000000
      6         -3.115059   1.000000
      7          0.202779   1.000000
      8          0.202779   1.000000
      9          5.954270   0.000000
     10          5.954274   0.000000
     11         11.049518   0.000000
     12         11.049520   0.000000
 
  0.1000000E+00  0.1000000E+00  0.5000000E+00  0.2500000E-02
      1        -15.913686   1.000000
      2        -15.913684   1.000000
      3         -3.329018   1.000000
      4         -3.329016   1.000000
      5         -2.196530   1.000000
      6         -2.196526   1.000000
      7         -1.281724   1.000000
      8         -1.281723   1.000000
      9          8.127611   0.000000
     10          8.127612   0.000000
     11         12.202768   0.000000
     12         12.203119   0.000000
 
  0.1500000E+00  0.1000000E+00  0.5000000E+00  0.5000000E-02
      1        -15.595958   1.000000
      2        -15.595956   1.000000
      3         -3.097742   1.000000
      4         -3.097739   1.000000
      5         -2.869063   1.000000
      6         -2.869062   1.000000
      7         -1.784913   1.000000
      8         -1.784912   1.000000
      9          8.483389   0.000000
     10          8.483390   0.000000
     11         11.559949   0.000000
     12         11.559952   0.000000
 
  0.2000000E+00  0.1000000E+00  0.5000000E+00  0.5000000E-02
      1        -15.202859   1.000000
      2        -15.202857   1.000000
      3         -4.049841   1.000000
      4         -4.049838   1.000000
      5         -2.360497   1.000000
      6         -2.360495   1.000000
      7         -2.268731   1.000000
      8         -2.268731   1.000000
      9          8.728959   0.000000
     10          8.728960   0.000000
     11         10.931808   0.000000
     12         10.931810   0.000000
 
  0.2500000E+00  0.1000000E+00  0.5000000E+00  0.5000000E-02
      1        -14.751265   1.000000
      2        -14.751264   1.000000
      3         -5.050323   1.000000
      4         -5.050321   1.000000
      5         -2.708345   1.000000
      6         -2.708345   1.000000
      7         -1.730815   1.000000
      8         -1.730814   1.000000
      9          8.486931   0.000000
     10          8.486933   0.000000
     11         10.745794   0.000000
     12         10.745795   0.000000
 
  0.3000000E+00  0.1000000E+00  0.5000000E+00  0.5000000E-02
      1        -14.270653   1.000000
      2        -14.270652   1.000000
      3         -6.001635   1.000000
      4         -6.001633   1.000000
      5         -3.060622   1.000000
      6         -3.060622   1.000000
      7         -1.053777   1.000000
      8         -1.053776   1.000000
      9          7.729687   0.000000
     10          7.729691   0.000000
     11         11.040854   0.000000
     12         11.040855   0.000000
 
  0.3500000E+00  0.1000000E+00  0.5000000E+00  0.5000000E-02
      1        -13.812741   1.000000
      2        -13.812740   1.000000
      3         -6.817101   1.000000
      4         -6.817099   1.000000
      5         -3.319889   1.000000
      6         -3.319888   1.000000
      7         -0.386799   1.000000
      8         -0.386798   1.000000
      9          6.863531   0.000000
     10          6.863535   0.000000
     11         11.391067   0.000000
     12         11.391069   0.000000
 
  0.4000000E+00  0.1000000E+00  0.5000000E+00  0.5000000E-02
      1        -13.462817   1.000000
      2        -13.462816   1.000000
      3         -7.389567   1.000000
      4         -7.389565   1.000000
      5         -3.478270   1.000000
      6         -3.478269   1.000000
      7          0.147325   1.000000
      8          0.147326   1.000000
      9          6.173574   0.000000
     10          6.173579   0.000000
     11         11.584288   0.000000
     12         11.584290   0.000000
 
  0.4500000E+00  0.1000000E+00  0.5000000E+00  0.2500000E-02
      1        -13.327657   1.000000
      2        -13.327656   1.000000
      3         -7.600204   1.000000
      4         -7.600201   1.000000
      5         -3.531528   1.000000
      6         -3.531527   1.000000
      7          0.362573   1.000000
      8          0.362574   1.000000
      9          5.901563   0.000000
     10          5.901567   0.000000
     11         11.636871   0.000000
     12         11.636874   0.000000
 
  0.1500000E+00  0.1500000E+00  0.5000000E+00  0.2500000E-02
      1        -15.244832   1.000000
      2        -15.244830   1.000000
      3         -3.842323   1.000000
      4         -3.842319   1.000000
      5         -2.425052   1.000000
      6         -2.425051   1.000000
      7         -2.362393   1.000000
      8         -2.362392   1.000000
      9          8.742253   0.000000
     10          8.742254   0.000000
     11         11.045418   0.000000
     12         11.045420   0.000000
 
  0.2000000E+00  0.1500000E+00  0.5000000E+00  0.5000000E-02
      1        -14.827729   1.000000
      2        -14.827728   1.000000
      3         -4.684873   1.000000
      4         -4.684870   1.000000
      5         -2.934808   1.000000
      6         -2.934808   1.000000
      7         -1.837420   1.000000
      8         -1.837418   1.000000
      9          8.638185   0.000000
     10          8.638187   0.000000
     11         10.857057   0.000000
     12         10.857058   0.000000
 
  0.2500000E+00  0.1500000E+00  0.5000000E+00  0.5000000E-02
      1        -14.367214   1.000000
      2        -14.367212   1.000000
      3         -5.556028   1.000000
      4         -5.556025   1.000000
      5         -3.397503   1.000000
      6         -3.397502   1.000000
      7         -1.192999   1.000000
      8         -1.192998   1.000000
      9          8.027969   0.000000
     10          8.027972   0.000000
     11         11.174318   0.000000
     12         11.174318   0.000000
 
  0.3000000E+00  0.1500000E+00  0.5000000E+00  0.5000000E-02
      1        -13.902446   1.000000
      2        -13.902445   1.000000
      3         -6.371986   1.000000
      4         -6.371983   1.000000
      5         -3.746945   1.000000
      6         -3.746944   1.000000
      7         -0.523758   1.000000
      8         -0.523757   1.000000
      9          7.214186   0.000000
     10          7.214190   0.000000
     11         11.708904   0.000000
     12         11.708905   0.000000
 
  0.3500000E+00  0.1500000E+00  0.5000000E+00  0.5000000E-02
      1        -13.499587   1.000000
      2        -13.499586   1.000000
      3         -7.028846   1.000000
      4         -7.028844   1.000000
      5         -3.979931   1.000000
      6         -3.979930   1.000000
      7          0.081836   1.000000
      8          0.081837   1.000000
      9          6.458607   0.000000
     10          6.458611   0.000000
     11         12.191374   0.000000
     12         12.191376   0.000000
 
  0.4000000E+00  0.1500000E+00  0.5000000E+00  0.5000000E-02
      1        -13.254706   1.000000
      2        -13.254705   1.000000
      3         -7.406375   1.000000
      4         -7.406373   1.000000
      5         -4.096387   1.000000
      6         -4.096386   1.000000
      7          0.469253   1.000000
      8          0.469253   1.000000
      9          5.983412   0.000000
     10          5.983416   0.000000
     11         12.442742   0.000000
     12         12.442744   0.000000
 
  0.2000000E+00  0.2000000E+00  0.5000000E+00  0.2500000E-02
      1        -14.400164   1.000000
      2        -14.400162   1.000000
      3         -5.345760   1.000000
      4         -5.345757   1.000000
      5         -3.577041   1.000000
      6         -3.577041   1.000000
      7         -1.240286   1.000000
      8         -1.240285   1.000000
      9          8.137922   0.000000
     10          8.137926   0.000000
     11         11.205506   0.000000
     12         11.205506   0.000000
 
  0.2500000E+00  0.2000000E+00  0.5000000E+00  0.5000000E-02
      1        -13.950238   1.000000
      2        -13.950237   1.000000
      3         -6.018431   1.000000
      4         -6.018428   1.000000
      5         -4.105466   1.000000
      6         -4.105465   1.000000
      7         -0.596297   1.000000
      8         -0.596296   1.000000
      9          7.429054   0.000000
     10          7.429058   0.000000
     11         11.789431   0.000000
     12         11.789431   0.000000
 
  0.3000000E+00  0.2000000E+00  0.5000000E+00  0.5000000E-02
      1        -13.528441   1.000000
      2        -13.528440   1.000000
      3         -6.637592   1.000000
      4         -6.637590   1.000000
      5         -4.479033   1.000000
      6         -4.479032   1.000000
      7          0.031080   1.000000
      8          0.031081   1.000000
      9          6.703985   0.000000
     10          6.703989   0.000000
     11         12.434775   0.000000
     12         12.434775   0.000000
 
  0.3500000E+00  0.2000000E+00  0.5000000E+00  0.5000000E-02
      1        -13.212230   1.000000
      2        -13.212229   1.000000
      3         -7.090760   1.000000
      4         -7.090758   1.000000
      5         -4.697283   1.000000
      6         -4.697282   1.000000
      7          0.526807   1.000000
      8          0.526808   1.000000
      9          6.132727   0.000000
     10          6.132732   0.000000
     11         13.019007   0.000000
     12         13.019007   0.000000
 
  0.4000000E+00  0.2000000E+00  0.5000000E+00  0.2500000E-02
      1        -13.092010   1.000000
      2        -13.092009   1.000000
      3         -7.259981   1.000000
      4         -7.259979   1.000000
      5         -4.768853   1.000000
      6         -4.768851   1.000000
      7          0.724338   1.000000
      8          0.724339   1.000000
      9          5.907347   0.000000
     10          5.907352   0.000000
     11         13.369102   0.000000
     12         13.369111   0.000000
 
  0.2500000E+00  0.2500000E+00  0.5000000E+00  0.2500000E-02
      1        -13.539242   1.000000
      2        -13.539241   1.000000
      3         -6.434957   1.000000
      4         -6.434955   1.000000
      5         -4.721531   1.000000
      6         -4.721530   1.000000
      7          0.012164   1.000000
      8          0.012165   1.000000
      9          6.802031   0.000000
     10          6.802036   0.000000
     11         12.447120   0.000000
     12         12.447120   0.000000
 
  0.3000000E+00  0.2500000E+00  0.5000000E+00  0.5000000E-02
      1        -13.193750   1.000000
      2        -13.193749   1.000000
      3         -6.782298   1.000000
      4         -6.782295   1.000000
      5         -5.158900   1.000000
      6         -5.158899   1.000000
      7          0.549807   1.000000
      8          0.549808   1.000000
      9          6.248334   0.000000
     10          6.248339   0.000000
     11         13.018373   0.000000
     12         13.018373   0.000000
 
  0.3500000E+00  0.2500000E+00  0.5000000E+00  0.5000000E-02
      1        -12.990107   1.000000
      2        -12.990105   1.000000
      3         -6.992654   1.000000
      4         -6.992652   1.000000
      5         -5.378897   1.000000
      6         -5.378896   1.000000
      7          0.884905   1.000000
      8          0.884906   1.000000
      9          5.904321   0.000000
     10          5.904326   0.000000
     11         13.366185   0.000000
     12         13.366187   0.000000
 
  0.3000000E+00  0.3000000E+00  0.5000000E+00  0.2500000E-02
      1        -12.955674   1.000000
      2        -12.955673   1.000000
      3         -6.808076   1.000000
      4         -6.808074   1.000000
      5         -5.681883   1.000000
      6         -5.681881   1.000000
      7          0.939175   1.000000
      8          0.939175   1.000000
      9          5.913550   0.000000
     10          5.913556   0.000000
     11         13.241446   0.000000
     12         13.241448   0.000000
 
  0.3500000E+00  0.3000000E+00  0.5000000E+00  0.2500000E-02
      1        -12.868455   1.000000
      2        -12.868454   1.000000
      3         -6.785973   1.000000
      4         -6.785971   1.000000
      5         -5.897336   1.000000
      6         -5.897334   1.000000
      7          1.087870   1.000000
      8          1.087870   1.000000
      9          5.786305   0.000000
     10          5.786310   0.000000
     11         13.245149   0.000000
     12         13.245149   0.000000
