    1    1    1    1
  0.8198186E+02  0.4740017E-09  0.4740017E-09  0.4740017E-09  0.5000000E-15
   1.0000000000000000E-004
  CAR 
 BCC Rb EOS Scale 0.980                  
      9    104      8
 
  0.1262379E-14  0.1262379E-14  0.1262379E-14  0.3644315E-03
      1        -28.595580   1.000000
      2        -12.625191   1.000000
      3        -12.625191   1.000000
      4        -12.625191   1.000000
      5         -1.853258   1.000000
      6          4.033315   0.000000
      7          4.033315   0.000000
      8          4.033315   0.000000
 
  0.7142857E-01  0.1260127E-14  0.1265630E-14  0.4373178E-02
      1        -28.595237   1.000000
      2        -12.632204   1.000000
      3        -12.627438   1.000000
      4        -12.625210   1.000000
      5         -1.786666   1.000000
      6          3.939442   0.000000
      7          3.941892   0.000000
      8          4.096495   0.000000
 
  0.1428571E+00  0.1255755E-14  0.1270003E-14  0.4373178E-02
      1        -28.594274   1.000000
      2        -12.651709   1.000000
      3        -12.633697   1.000000
      4        -12.625258   1.000000
      5         -1.590555   1.000000
      6          3.588906   0.000000
      7          3.712905   0.000000
      8          4.284555   0.000000
 
  0.2142857E+00  0.1261858E-14  0.1263899E-14  0.4373178E-02
      1        -28.592884   1.000000
      2        -12.679543   1.000000
      3        -12.642719   1.000000
      4        -12.625322   1.000000
      5         -1.275841   1.000000
      6          3.056676   0.000000
      7          3.447142   0.000000
      8          4.593030   0.000000
 
  0.2857143E+00  0.1240935E-14  0.1284822E-14  0.4373178E-02
      1        -28.591334   1.000000
      2        -12.709955   1.000000
      3        -12.652687   1.000000
      4        -12.625395   1.000000
      5         -0.860859   1.000000
      6          2.499230  -0.000000
      7          3.204393   0.000000
      8          4.905816   0.000000
 
  0.3571429E+00  0.1276979E-14  0.1276534E-14  0.4373178E-02
      1        -28.589943   1.000000
      2        -12.736958   1.000000
      3        -12.661640   1.000000
      4        -12.625462   1.000000
      5         -0.373142   1.000000
      6          1.960424  -0.000000
      7          3.016592   0.000000
      8          4.907882   0.000000
 
  0.4285714E+00  0.1225133E-14  0.1300624E-14  0.4373178E-02
      1        -28.588978   1.000000
      2        -12.755414   1.000000
      3        -12.667812   1.000000
      4        -12.625509   1.000000
      5          0.139363   1.034485
      6          1.449030  -0.000000
      7          2.899253  -0.000000
      8          4.802134   0.000000
 
  0.5000000E+00  0.1277254E-14  0.1276259E-14  0.2186589E-02
      1        -28.588640   1.000000
      2        -12.761972   1.000000
      3        -12.670019   1.000000
      4        -12.625537   1.000000
      5          0.471729  -0.004371
      6          1.123667  -0.000000
      7          2.859455  -0.000000
      8          4.738047   0.000000
 
  0.7142857E-01  0.7142857E-01  0.1277787E-14  0.8746356E-02
      1        -28.594583   1.000000
      2        -12.645660   1.000000
      3        -12.629803   1.000000
      4        -12.626920   1.000000
      5         -1.655282   1.000000
      6          3.732335   0.000000
      7          3.764761   0.000000
      8          4.221192   0.000000
 
  0.1428571E+00  0.7142857E-01  0.1277777E-14  0.1749271E-01
      1        -28.593406   1.000000
      2        -12.668803   1.000000
      3        -12.637273   1.000000
      4        -12.627662   1.000000
      5         -1.399592   1.000000
      6          3.300558   0.000000
      7          3.499142   0.000000
      8          4.460624   0.000000
 
  0.2142857E+00  0.7142857E-01  0.1248301E-14  0.1749271E-01
      1        -28.591937   1.000000
      2        -12.696881   1.000000
      3        -12.647636   1.000000
      4        -12.627895   1.000000
      5         -1.033742   1.000000
      6          2.767583  -0.000000
      7          3.243163   0.000000
      8          4.685166   0.000000
 
  0.2857143E+00  0.7142857E-01  0.1269224E-14  0.1749271E-01
      1        -28.590467   1.000000
      2        -12.724421   1.000000
      3        -12.658148   1.000000
      4        -12.628051   1.000000
      5         -0.579661   1.000000
      6          2.232505  -0.000000
      7          3.032577   0.000000
      8          4.744507   0.000000
 
  0.3571429E+00  0.7142857E-01  0.1279925E-14  0.1749271E-01
      1        -28.589290   1.000000
      2        -12.746184   1.000000
      3        -12.666602   1.000000
      4        -12.628166   1.000000
      5         -0.071055   1.000021
      6          1.713661  -0.000000
      7          2.884906  -0.000000
      8          4.714143   0.000000
 
  0.4285714E+00  0.7142857E-01  0.1276259E-14  0.1749271E-01
      1        -28.588636   1.000000
      2        -12.758141   1.000000
      3        -12.671286   1.000000
      4        -12.628224   1.000000
      5          0.412542  -0.023871
      6          1.243339  -0.000000
      7          2.809087  -0.000000
      8          4.621550   0.000000
 
  0.1428571E+00  0.1428571E+00  0.1239788E-14  0.8746356E-02
      1        -28.592151   1.000000
      2        -12.691517   1.000000
      3        -12.643924   1.000000
      4        -12.631388   1.000000
      5         -1.092044   1.000000
      6          2.926295   0.000000
      7          3.195013   0.000000
      8          4.597210   0.000000
 
  0.2142857E+00  0.1428571E+00  0.1262168E-14  0.1749271E-01
      1        -28.590760   1.000000
      2        -12.714932   1.000000
      3        -12.655181   1.000000
      4        -12.633105   1.000000
      5         -0.684354   1.000000
      6          2.474720  -0.000000
      7          2.939346   0.000000
      8          4.652647   0.000000
 
  0.2857143E+00  0.1428571E+00  0.1283091E-14  0.1749271E-01
      1        -28.589505   1.000000
      2        -12.734950   1.000000
      3        -12.666884   1.000000
      4        -12.633839   1.000000
      5         -0.201318   1.000000
      6          1.996903  -0.000000
      7          2.754009  -0.000000
      8          4.663238   0.000000
 
  0.3571429E+00  0.1428571E+00  0.1293792E-14  0.1749271E-01
      1        -28.588639   1.000000
      2        -12.748356   1.000000
      3        -12.675436   1.000000
      4        -12.634194   1.000000
      5          0.315798   0.073297
      6          1.512715  -0.000000
      7          2.638834  -0.000000
      8          4.538341   0.000000
 
  0.4285714E+00  0.1428571E+00  0.1252148E-14  0.8746356E-02
      1        -28.588327   1.000000
      2        -12.753058   1.000000
      3        -12.678551   1.000000
      4        -12.634304   1.000000
      5          0.680513  -0.000000
      6          1.165543  -0.000000
      7          2.599347  -0.000000
      8          4.461515   0.000000
 
  0.2142857E+00  0.2142857E+00  0.1255336E-14  0.8746356E-02
      1        -28.589581   1.000000
      2        -12.729486   1.000000
      3        -12.667466   1.000000
      4        -12.636858   1.000000
      5         -0.245285   1.000000
      6          2.168502  -0.000000
      7          2.627311  -0.000000
      8          4.743485   0.000000
 
  0.2857143E+00  0.2142857E+00  0.1276259E-14  0.1749271E-01
      1        -28.588637   1.000000
      2        -12.738516   1.000000
      3        -12.681028   1.000000
      4        -12.638697   1.000000
      5          0.256619   0.480218
      6          1.805054  -0.000000
      7          2.389260  -0.000000
      8          4.669513   0.000000
 
  0.3571429E+00  0.2142857E+00  0.1231449E-14  0.1749271E-01
      1        -28.588113   1.000000
      2        -12.742232   1.000000
      3        -12.690067   1.000000
      4        -12.639436   1.000000
      5          0.769835  -0.000000
      6          1.371240  -0.000000
      7          2.268179  -0.000000
      8          4.490598   0.000000
 
  0.2857143E+00  0.2857143E+00  0.1269427E-14  0.8746356E-02
      1        -28.588037   1.000000
      2        -12.734677   1.000000
      3        -12.697941   1.000000
      4        -12.641228   1.000000
      5          0.766370  -0.000000
      6          1.633441  -0.000000
      7          1.989385  -0.000000
      8          4.599189   0.000000
 
  0.3571429E+00  0.2857143E+00  0.1224617E-14  0.8746356E-02
      1        -28.587823   1.000000
      2        -12.729260   1.000000
      3        -12.708178   1.000000
      4        -12.641969   1.000000
      5          1.241333  -0.000000
      6          1.316417  -0.000000
      7          1.809521  -0.000000
      8          4.537919   0.000000
 
  0.7142857E-01  0.7142857E-01  0.7142857E-01  0.2915452E-02
      1        -28.593706   1.000000
      2        -12.665757   1.000000
      3        -12.630120   1.000000
      4        -12.630120   1.000000
      5         -1.462681   1.000000
      6          3.440633   0.000000
      7          3.440633   0.000000
      8          4.429887   0.000000
 
  0.1428571E+00  0.7142857E-01  0.7142857E-01  0.8746356E-02
      1        -28.592437   1.000000
      2        -12.690109   1.000000
      3        -12.639170   1.000000
      4        -12.630585   1.000000
      5         -1.152608   1.000000
      6          2.983698   0.000000
      7          3.162696   0.000000
      8          4.700246   0.000000
 
  0.2142857E+00  0.7142857E-01  0.7142857E-01  0.8746356E-02
      1        -28.591027   1.000000
      2        -12.714794   1.000000
      3        -12.651168   1.000000
      4        -12.631089   1.000000
      5         -0.741881   1.000000
      6          2.484333  -0.000000
      7          2.933246   0.000000
      8          4.957673   0.000000
 
  0.2857143E+00  0.7142857E-01  0.7142857E-01  0.8746356E-02
      1        -28.589756   1.000000
      2        -12.735865   1.000000
      3        -12.662822   1.000000
      4        -12.631552   1.000000
      5         -0.256188   1.000000
      6          1.984782  -0.000000
      7          2.764338  -0.000000
      8          4.914967   0.000000
 
  0.3571429E+00  0.7142857E-01  0.7142857E-01  0.8746356E-02
      1        -28.588879   1.000000
      2        -12.749981   1.000000
      3        -12.671190   1.000000
      4        -12.631879   1.000000
      5          0.260506   0.447430
      6          1.492883  -0.000000
      7          2.661335  -0.000000
      8          4.734527   0.000000
 
  0.4285714E+00  0.7142857E-01  0.7142857E-01  0.4373178E-02
      1        -28.588565   1.000000
      2        -12.754935   1.000000
      3        -12.674220   1.000000
      4        -12.631997   1.000000
      5          0.613458  -0.000002
      6          1.155322  -0.000000
      7          2.626749  -0.000000
      8          4.642602   0.000000
 
 -0.7142857E-01  0.7142857E-01  0.7142857E-01  0.2186589E-02
      1        -28.594896   1.000000
      2        -12.634536   1.000000
      3        -12.629693   1.000000
      4        -12.629693   1.000000
      5         -1.720572   1.000000
      6          3.898221   0.000000
      7          3.898221   0.000000
      8          4.114681   0.000000
 
  0.1428571E+00  0.1428571E+00  0.7142857E-01  0.8746356E-02
      1        -28.591227   1.000000
      2        -12.711056   1.000000
      3        -12.645491   1.000000
      4        -12.635670   1.000000
      5         -0.796587   1.000000
      6          2.648021  -0.000000
      7          2.824967  -0.000000
      8          4.911375   0.000000
 
  0.2142857E+00  0.1428571E+00  0.7142857E-01  0.1749271E-01
      1        -28.590018   1.000000
      2        -12.728299   1.000000
      3        -12.658190   1.000000
      4        -12.637884   1.000000
      5         -0.350345   1.000000
      6          2.233695  -0.000000
      7          2.603330  -0.000000
      8          4.917974   0.000000
 
  0.2857143E+00  0.1428571E+00  0.7142857E-01  0.1749271E-01
      1        -28.589045   1.000000
      2        -12.739863   1.000000
      3        -12.671149   1.000000
      4        -12.638976   1.000000
      5          0.156549   1.022611
      6          1.785728  -0.000000
      7          2.465841  -0.000000
      8          4.670013   0.000000
 
  0.3571429E+00  0.1428571E+00  0.7142857E-01  0.1749271E-01
      1        -28.588509   1.000000
      2        -12.745400   1.000000
      3        -12.679251   1.000000
      4        -12.639504   1.000000
      5          0.661730  -0.000000
      6          1.330556  -0.000000
      7          2.397506  -0.000000
      8          4.456769   0.000000
 
 -0.1428571E+00  0.1428571E+00  0.7142857E-01  0.8746356E-02
      1        -28.593944   1.000000
      2        -12.652248   1.000000
      3        -12.636002   1.000000
      4        -12.630933   1.000000
      5         -1.525901   1.000000
      6          3.607181   0.000000
      7          3.709705   0.000000
      8          4.280039   0.000000
 
  0.2142857E+00  0.2142857E+00  0.7142857E-01  0.8746356E-02
      1        -28.589105   1.000000
      2        -12.734997   1.000000
      3        -12.670980   1.000000
      4        -12.642935   1.000000
      5          0.120454   1.033764
      6          1.982783  -0.000000
      7          2.306602  -0.000000
      8          4.640975   0.000000
 
  0.2857143E+00  0.2142857E+00  0.7142857E-01  0.1749271E-01
      1        -28.588477   1.000000
      2        -12.735278   1.000000
      3        -12.685304   1.000000
      4        -12.645310   1.000000
      5          0.636671  -0.000000
      6          1.642711  -0.000000
      7          2.120581  -0.000000
      8          4.323039   0.000000
 
  0.3571429E+00  0.2142857E+00  0.7142857E-01  0.8746356E-02
      1        -28.588252   1.000000
      2        -12.733770   1.000000
      3        -12.692175   1.000000
      4        -12.646002   1.000000
      5          1.067061  -0.000000
      6          1.272707  -0.000000
      7          2.063953  -0.000000
      8          4.195347   0.000000
 
 -0.2142857E+00  0.2142857E+00  0.7142857E-01  0.8746356E-02
      1        -28.592567   1.000000
      2        -12.679350   1.000000
      3        -12.645094   1.000000
      4        -12.630892   1.000000
      5         -1.213424   1.000000
      6          3.072590   0.000000
      7          3.463308   0.000000
      8          4.305083   0.000000
 
 -0.1428571E+00  0.2142857E+00  0.7142857E-01  0.8746356E-02
      1        -28.592793   1.000000
      2        -12.670991   1.000000
      3        -12.642848   1.000000
      4        -12.635411   1.000000
      5         -1.274052   1.000000
      6          3.271424   0.000000
      7          3.502262   0.000000
      8          4.134226   0.000000
 
  0.2857143E+00  0.2857143E+00  0.7142857E-01  0.8746356E-02
      1        -28.588159   1.000000
      2        -12.723593   1.000000
      3        -12.702874   1.000000
      4        -12.648286   1.000000
      5          1.144170  -0.000000
      6          1.531111  -0.000000
      7          1.736852  -0.000000
      8          4.096452   0.000000
 
 -0.2857143E+00  0.2857143E+00  0.7142857E-01  0.8746356E-02
      1        -28.591040   1.000000
      2        -12.709086   1.000000
      3        -12.655149   1.000000
      4        -12.630738   1.000000
      5         -0.801134   1.000000
      6          2.514040  -0.000000
      7          3.232604   0.000000
      8          4.367870   0.000000
 
 -0.2142857E+00  0.2857143E+00  0.7142857E-01  0.1749271E-01
      1        -28.591355   1.000000
      2        -12.696696   1.000000
      3        -12.653009   1.000000
      4        -12.636611   1.000000
      5         -0.913476   1.000000
      6          2.772474  -0.000000
      7          3.264804   0.000000
      8          4.167132   0.000000
 
 -0.3571429E+00  0.3571429E+00  0.7142857E-01  0.8746356E-02
      1        -28.589662   1.000000
      2        -12.735503   1.000000
      3        -12.664169   1.000000
      4        -12.630577   1.000000
      5         -0.315716   1.000000
      6          1.978193  -0.000000
      7          3.052222   0.000000
      8          4.398354   0.000000
 
 -0.2857143E+00  0.3571429E+00  0.7142857E-01  0.1749271E-01
      1        -28.589919   1.000000
      2        -12.722535   1.000000
      3        -12.663728   1.000000
      4        -12.636715   1.000000
      5         -0.465117   1.000000
      6          2.256073  -0.000000
      7          3.063048   0.000000
      8          4.223152   0.000000
 
 -0.2142857E+00  0.3571429E+00  0.7142857E-01  0.8746356E-02
      1        -28.590011   1.000000
      2        -12.716004   1.000000
      3        -12.664305   1.000000
      4        -12.640095   1.000000
      5         -0.515303   1.000000
      6          2.416574  -0.000000
      7          2.979960   0.000000
      8          4.225150   0.000000
 
 -0.4285714E+00  0.4285714E+00  0.7142857E-01  0.8746356E-02
      1        -28.588710   1.000000
      2        -12.753583   1.000000
      3        -12.670396   1.000000
      4        -12.630473   1.000000
      5          0.197704   0.904061
      6          1.467592  -0.000000
      7          2.938927   0.000000
      8          4.345220   0.000000
 
 -0.3571429E+00  0.4285714E+00  0.7142857E-01  0.1749271E-01
      1        -28.588766   1.000000
      2        -12.743096   1.000000
      3        -12.672389   1.000000
      4        -12.636585   1.000000
      5          0.040022   1.004910
      6          1.750158  -0.000000
      7          2.915944   0.000000
      8          4.194824   0.000000
 
 -0.2857143E+00  0.4285714E+00  0.7142857E-01  0.1749271E-01
      1        -28.588797   1.000000
      2        -12.732737   1.000000
      3        -12.676768   1.000000
      4        -12.641315   1.000000
      5         -0.041637   1.000117
      6          2.015559  -0.000000
      7          2.729429  -0.000000
      8          4.306663   0.000000
 
  0.5000000E+00  0.5000000E+00  0.7142857E-01  0.4373178E-02
      1        -28.588369   1.000000
      2        -12.759995   1.000000
      3        -12.672615   1.000000
      4        -12.630427   1.000000
      5          0.540709  -0.000195
      6          1.132357  -0.000000
      7          2.900416  -0.000000
      8          4.300582   0.000000
 
 -0.4285714E+00  0.5000000E+00  0.7142857E-01  0.1749271E-01
      1        -28.588127   1.000000
      2        -12.754421   1.000000
      3        -12.677197   1.000000
      4        -12.636480   1.000000
      5          0.534302  -0.000273
      6          1.274300  -0.000000
      7          2.837709  -0.000000
      8          4.113763   0.000000
 
 -0.3571429E+00  0.5000000E+00  0.7142857E-01  0.1749271E-01
      1        -28.587960   1.000000
      2        -12.743901   1.000000
      3        -12.686184   1.000000
      4        -12.641659   1.000000
      5          0.472928  -0.004182
      6          1.570200  -0.000000
      7          2.560288  -0.000000
      8          4.254859   0.000000
 
 -0.2857143E+00  0.5000000E+00  0.7142857E-01  0.8746356E-02
      1        -28.587901   1.000000
      2        -12.737207   1.000000
      3        -12.692449   1.000000
      4        -12.643396   1.000000
      5          0.446192  -0.010291
      6          1.783252  -0.000000
      7          2.337062  -0.000000
      8          4.516864   0.000000
 
 -0.4285714E+00 -0.4285714E+00  0.7142857E-01  0.8746356E-02
      1        -28.587659   1.000000
      2        -12.747787   1.000000
      3        -12.689657   1.000000
      4        -12.641715   1.000000
      5          0.873667  -0.000000
      6          1.197233  -0.000000
      7          2.500284  -0.000000
      8          4.201345   0.000000
 
 -0.3571429E+00 -0.4285714E+00  0.7142857E-01  0.1749271E-01
      1        -28.587400   1.000000
      2        -12.736796   1.000000
      3        -12.704459   1.000000
      4        -12.644098   1.000000
      5          0.960788  -0.000000
      6          1.454880  -0.000000
      7          2.072714  -0.000000
      8          4.531274   0.000000
 
 -0.3571429E+00 -0.3571429E+00  0.7142857E-01  0.2915452E-02
      1        -28.587203   1.000000
      2        -12.722734   1.000000
      3        -12.722734   1.000000
      4        -12.644757   1.000000
      5          1.392686  -0.000000
      6          1.392686  -0.000000
      7          1.656807  -0.000000
      8          4.929691   0.000000
 
  0.1428571E+00  0.1428571E+00  0.1428571E+00  0.2915452E-02
      1        -28.590202   1.000000
      2        -12.725880   1.000000
      3        -12.647230   1.000000
      4        -12.647230   1.000000
      5         -0.400720   1.000000
      6          2.437004  -0.000000
      7          2.437004  -0.000000
      8          4.884006   0.000000
 
  0.2142857E+00  0.1428571E+00  0.1428571E+00  0.8746356E-02
      1        -28.589275   1.000000
      2        -12.733971   1.000000
      3        -12.662834   1.000000
      4        -12.648803   1.000000
      5          0.074016   1.014330
      6          2.044071  -0.000000
      7          2.290390  -0.000000
      8          4.565480   0.000000
 
  0.2857143E+00  0.1428571E+00  0.1428571E+00  0.8746356E-02
      1        -28.588631   1.000000
      2        -12.735859   1.000000
      3        -12.677313   1.000000
      4        -12.649888   1.000000
      5          0.591326  -0.000010
      6          1.628122  -0.000000
      7          2.204434  -0.000000
      8          4.205449   0.000000
 
  0.3571429E+00  0.1428571E+00  0.1428571E+00  0.4373178E-02
      1        -28.588404   1.000000
      2        -12.735375   1.000000
      3        -12.683632   1.000000
      4        -12.650279   1.000000
      5          1.006603  -0.000000
      6          1.258604  -0.000000
      7          2.176156  -0.000000
      8          4.057772   0.000000
 
 -0.1428571E+00  0.1428571E+00  0.1428571E+00  0.2186589E-02
      1        -28.593021   1.000000
      2        -12.658047   1.000000
      3        -12.642457   1.000000
      4        -12.642457   1.000000
      5         -1.335482   1.000000
      6          3.643690   0.000000
      7          3.643690   0.000000
      8          3.716944   0.000000
 
  0.2142857E+00  0.2142857E+00  0.1428571E+00  0.8746356E-02
      1        -28.588679   1.000000
      2        -12.731380   1.000000
      3        -12.674153   1.000000
      4        -12.657167   1.000000
      5          0.562635  -0.000058
      6          1.856542  -0.000000
      7          2.033804  -0.000000
      8          4.080729   0.000000
 
  0.2857143E+00  0.2142857E+00  0.1428571E+00  0.1749271E-01
      1        -28.588346   1.000000
      2        -12.723711   1.000000
      3        -12.688790   1.000000
      4        -12.659705   1.000000
      5          1.068032  -0.000000
      6          1.529361  -0.000000
      7          1.925795  -0.000000
      8          3.754476   0.000000
 
 -0.2142857E+00  0.2142857E+00  0.1428571E+00  0.8746356E-02
      1        -28.591686   1.000000
      2        -12.679536   1.000000
      3        -12.651749   1.000000
      4        -12.645682   1.000000
      5         -1.029793   1.000000
      6          3.096367   0.000000
      7          3.485577   0.000000
      8          3.750918   0.000000
 
  0.2857143E+00  0.2857143E+00  0.1428571E+00  0.2915452E-02
      1        -28.588245   1.000000
      2        -12.706289   1.000000
      3        -12.706289   1.000000
      4        -12.662914   1.000000
      5          1.472684  -0.000000
      6          1.472684  -0.000000
      7          1.634450  -0.000000
      8          3.571295   0.000000
 
 -0.2857143E+00  0.2857143E+00  0.1428571E+00  0.8746356E-02
      1        -28.590206   1.000000
      2        -12.706795   1.000000
      3        -12.662022   1.000000
      4        -12.645471   1.000000
      5         -0.626128   1.000000
      6          2.541114  -0.000000
      7          3.303777   0.000000
      8          3.833667   0.000000
 
 -0.2142857E+00  0.2857143E+00  0.1428571E+00  0.8746356E-02
      1        -28.590307   1.000000
      2        -12.697885   1.000000
      3        -12.662113   1.000000
      4        -12.651211   1.000000
      5         -0.680205   1.000000
      6          2.715399  -0.000000
      7          3.306409   0.000000
      8          3.740477   0.000000
 
 -0.3571429E+00  0.3571429E+00  0.1428571E+00  0.8746356E-02
      1        -28.588870   1.000000
      2        -12.731465   1.000000
      3        -12.671241   1.000000
      4        -12.644809   1.000000
      5         -0.149219   1.000000
      6          2.022714  -0.000000
      7          3.150870   0.000000
      8          3.841256   0.000000
 
 -0.2857143E+00  0.3571429E+00  0.1428571E+00  0.1749271E-01
      1        -28.588928   1.000000
      2        -12.719576   1.000000
      3        -12.673399   1.000000
      4        -12.652078   1.000000
      5         -0.245155   1.000000
      6          2.266588  -0.000000
      7          3.103681   0.000000
      8          3.825450   0.000000
 
 -0.4285714E+00  0.4285714E+00  0.1428571E+00  0.8746356E-02
      1        -28.587946   1.000000
      2        -12.748430   1.000000
      3        -12.677596   1.000000
      4        -12.644268   1.000000
      5          0.363056  -0.032000
      6          1.523139  -0.000000
      7          3.051865   0.000000
      8          3.749270   0.000000
 
 -0.3571429E+00  0.4285714E+00  0.1428571E+00  0.1749271E-01
      1        -28.587824   1.000000
      2        -12.737630   1.000000
      3        -12.682566   1.000000
      4        -12.651757   1.000000
      5          0.247935   0.553590
      6          1.808963  -0.000000
      7          2.933087   0.000000
      8          3.809079   0.000000
 
 -0.2857143E+00  0.4285714E+00  0.1428571E+00  0.8746356E-02
      1        -28.587776   1.000000
      2        -12.730850   1.000000
      3        -12.687502   1.000000
      4        -12.654201   1.000000
      5          0.208181   0.847933
      6          1.976379  -0.000000
      7          2.756077  -0.000000
      8          4.011777   0.000000
 
  0.5000000E+00  0.5000000E+00  0.1428571E+00  0.4373178E-02
      1        -28.587616   1.000000
      2        -12.754459   1.000000
      3        -12.679865   1.000000
      4        -12.644067   1.000000
      5          0.738633  -0.000000
      6          1.159316  -0.000000
      7          3.017809   0.000000
      8          3.691038   0.000000
 
 -0.4285714E+00  0.5000000E+00  0.1428571E+00  0.1749271E-01
      1        -28.587209   1.000000
      2        -12.747717   1.000000
      3        -12.687653   1.000000
      4        -12.651405   1.000000
      5          0.752022  -0.000000
      6          1.342881  -0.000000
      7          2.829075  -0.000000
      8          3.732113   0.000000
 
 -0.3571429E+00  0.5000000E+00  0.1428571E+00  0.1749271E-01
      1        -28.586981   1.000000
      2        -12.737895   1.000000
      3        -12.699048   1.000000
      4        -12.654515   1.000000
      5          0.704350  -0.000000
      6          1.641425  -0.000000
      7          2.458034  -0.000000
      8          4.101342   0.000000
 
 -0.4285714E+00 -0.4285714E+00  0.1428571E+00  0.8746356E-02
      1        -28.586699   1.000000
      2        -12.740170   1.000000
      3        -12.703524   1.000000
      4        -12.654498   1.000000
      5          1.157002  -0.000000
      6          1.252269  -0.000000
      7          2.344617  -0.000000
      8          4.088542   0.000000
 
 -0.3571429E+00 -0.4285714E+00  0.1428571E+00  0.8746356E-02
      1        -28.586515   1.000000
      2        -12.731632   1.000000
      3        -12.715470   1.000000
      4        -12.655164   1.000000
      5          1.175669  -0.000000
      6          1.502216  -0.000000
      7          2.007420  -0.000000
      8          4.440846   0.000000
 
  0.2142857E+00  0.2142857E+00  0.2142857E+00  0.2915452E-02
      1        -28.588381   1.000000
      2        -12.719634   1.000000
      3        -12.676344   1.000000
      4        -12.676344   1.000000
      5          1.039919  -0.000000
      6          1.784079  -0.000000
      7          1.784079  -0.000000
      8          3.550140   0.000000
 
  0.2857143E+00  0.2142857E+00  0.2142857E+00  0.4373178E-02
      1        -28.588276   1.000000
      2        -12.707507   1.000000
      3        -12.691151   1.000000
      4        -12.677128   1.000000
      5          1.453813  -0.000000
      6          1.489240  -0.000000
      7          1.760548  -0.000000
      8          3.320967   0.000000
 
 -0.2142857E+00  0.2142857E+00  0.2142857E+00  0.2186589E-02
      1        -28.590410   1.000000
      2        -12.685280   1.000000
      3        -12.661324   1.000000
      4        -12.661324   1.000000
      5         -0.735600   1.000000
      6          2.929728   0.000000
      7          3.460541   0.000000
      8          3.460541   0.000000
 
 -0.2857143E+00  0.2857143E+00  0.2142857E+00  0.8746356E-02
      1        -28.589000   1.000000
      2        -12.704348   1.000000
      3        -12.671918   1.000000
      4        -12.665665   1.000000
      5         -0.348077   1.000000
      6          2.499600  -0.000000
      7          3.380544   0.000000
      8          3.487415   0.000000
 
 -0.3571429E+00  0.3571429E+00  0.2142857E+00  0.8746356E-02
      1        -28.587725   1.000000
      2        -12.725729   1.000000
      3        -12.681420   1.000000
      4        -12.665054   1.000000
      5          0.109199   1.029778
      6          2.052734  -0.000000
      7          3.287688   0.000000
      8          3.455121   0.000000
 
 -0.2857143E+00  0.3571429E+00  0.2142857E+00  0.8746356E-02
      1        -28.587693   1.000000
      2        -12.717569   1.000000
      3        -12.684078   1.000000
      4        -12.670678   1.000000
      5          0.062416   1.010305
      6          2.181336  -0.000000
      7          3.187600   0.000000
      8          3.601022   0.000000
 
 -0.4285714E+00  0.4285714E+00  0.2142857E+00  0.8746356E-02
      1        -28.586846   1.000000
      2        -12.740980   1.000000
      3        -12.687974   1.000000
      4        -12.664027   1.000000
      5          0.604933  -0.000004
      6          1.605948  -0.000000
      7          3.219387   0.000000
      8          3.294748   0.000000
 
 -0.3571429E+00  0.4285714E+00  0.2142857E+00  0.1749271E-01
      1        -28.586646   1.000000
      2        -12.731223   1.000000
      3        -12.694480   1.000000
      4        -12.670770   1.000000
      5          0.524269  -0.000453
      6          1.836542  -0.000000
      7          2.927553   0.000000
      8          3.677070   0.000000
 
  0.5000000E+00  0.5000000E+00  0.2142857E+00  0.4373178E-02
      1        -28.586533   1.000000
      2        -12.746443   1.000000
      3        -12.690308   1.000000
      4        -12.663611   1.000000
      5          1.030377  -0.000000
      6          1.206077  -0.000000
      7          3.194759   0.000000
      8          3.208658   0.000000
 
 -0.4285714E+00  0.5000000E+00  0.2142857E+00  0.1749271E-01
      1        -28.586063   1.000000
      2        -12.739367   1.000000
      3        -12.700170   1.000000
      4        -12.670237   1.000000
      5          1.001552  -0.000000
      6          1.450714  -0.000000
      7          2.737938  -0.000000
      8          3.648856   0.000000
 
 -0.3571429E+00  0.5000000E+00  0.2142857E+00  0.8746356E-02
      1        -28.585896   1.000000
      2        -12.732793   1.000000
      3        -12.708919   1.000000
      4        -12.671429   1.000000
      5          0.964865  -0.000000
      6          1.636108  -0.000000
      7          2.503001  -0.000000
      8          3.989553   0.000000
 
 -0.4285714E+00 -0.4285714E+00  0.2142857E+00  0.8746356E-02
      1        -28.585627   1.000000
      2        -12.731681   1.000000
      3        -12.716063   1.000000
      4        -12.671333   1.000000
      5          1.329885  -0.000000
      6          1.402277  -0.000000
      7          2.304310  -0.000000
      8          4.089693   0.000000
 
 -0.2857143E+00  0.2857143E+00  0.2857143E+00  0.2186589E-02
      1        -28.587662   1.000000
      2        -12.706554   1.000000
      3        -12.682853   1.000000
      4        -12.682853   1.000000
      5          0.013390   1.001723
      6          2.287830  -0.000000
      7          3.423061   0.000000
      8          3.423061   0.000000
 
 -0.3571429E+00  0.3571429E+00  0.2857143E+00  0.8746356E-02
      1        -28.586459   1.000000
      2        -12.719874   1.000000
      3        -12.692669   1.000000
      4        -12.686743   1.000000
      5          0.431920  -0.015356
      6          1.986478  -0.000000
      7          3.361533   0.000000
      8          3.424828   0.000000
 
 -0.4285714E+00  0.4285714E+00  0.2857143E+00  0.8746356E-02
      1        -28.585626   1.000000
      2        -12.732711   1.000000
      3        -12.699439   1.000000
      4        -12.685683   1.000000
      5          0.873616  -0.000000
      6          1.664799  -0.000000
      7          3.099140   0.000000
      8          3.410003   0.000000
 
 -0.3571429E+00  0.4285714E+00  0.2857143E+00  0.8746356E-02
      1        -28.585468   1.000000
      2        -12.726229   1.000000
      3        -12.704378   1.000000
      4        -12.690087   1.000000
      5          0.829348  -0.000000
      6          1.762757  -0.000000
      7          3.057256   0.000000
      8          3.655567   0.000000
 
  0.5000000E+00  0.5000000E+00  0.2857143E+00  0.4373178E-02
      1        -28.585330   1.000000
      2        -12.737516   1.000000
      3        -12.701843   1.000000
      4        -12.685044   1.000000
      5          1.271603  -0.000000
      6          1.322736  -0.000000
      7          2.968127   0.000000
      8          3.402228   0.000000
 
 -0.4285714E+00  0.5000000E+00  0.2857143E+00  0.1749271E-01
      1        -28.584918   1.000000
      2        -12.731148   1.000000
      3        -12.711696   1.000000
      4        -12.689649   1.000000
      5          1.204197  -0.000000
      6          1.529484  -0.000000
      7          2.790124  -0.000000
      8          3.738108   0.000000
 
 -0.4285714E+00 -0.4285714E+00  0.2857143E+00  0.2915452E-02
      1        -28.584667   1.000000
      2        -12.724010   1.000000
      3        -12.724010   1.000000
      4        -12.689680   1.000000
      5          1.420946  -0.000000
      6          1.420946  -0.000000
      7          2.614496  -0.000000
      8          4.087227   0.000000
 
 -0.3571429E+00  0.3571429E+00  0.3571429E+00  0.2186589E-02
      1        -28.585318   1.000000
      2        -12.717887   1.000000
      3        -12.702762   1.000000
      4        -12.702762   1.000000
      5          0.782942  -0.000000
      6          1.819225  -0.000000
      7          3.527358   0.000000
      8          3.527361   0.000000
 
 -0.4285714E+00  0.4285714E+00  0.3571429E+00  0.8746356E-02
      1        -28.584525   1.000000
      2        -12.725335   1.000000
      3        -12.709709   1.000000
      4        -12.704861   1.000000
      5          1.118152  -0.000000
      6          1.628269  -0.000000
      7          3.250753   0.000000
      8          3.583286   0.000000
 
  0.5000000E+00  0.5000000E+00  0.3571429E+00  0.4373178E-02
      1        -28.584239   1.000000
      2        -12.729447   1.000000
      3        -12.712184   1.000000
      4        -12.704128   1.000000
      5          1.347388  -0.000000
      6          1.463893  -0.000000
      7          3.100502   0.000000
      8          3.599995   0.000000
 
 -0.4285714E+00  0.5000000E+00  0.3571429E+00  0.8746356E-02
      1        -28.583999   1.000000
      2        -12.725403   1.000000
      3        -12.718695   1.000000
      4        -12.706387   1.000000
      5          1.342666  -0.000000
      6          1.501415  -0.000000
      7          3.132970   0.000000
      8          3.805142   0.000000
 
 -0.4285714E+00  0.4285714E+00  0.4285714E+00  0.2186589E-02
      1        -28.583759   1.000000
      2        -12.721443   1.000000
      3        -12.716792   1.000000
      4        -12.716792   1.000000
      5          1.306653  -0.000000
      6          1.534990  -0.000000
      7          3.579577   0.000000
      8          3.701678   0.000000
 
  0.5000000E+00  0.5000000E+00  0.4285714E+00  0.4373178E-02
      1        -28.583488   1.000000
      2        -12.723850   1.000000
      3        -12.719310   1.000000
      4        -12.717212   1.000000
      5          1.412949  -0.000000
      6          1.458351  -0.000000
      7          3.519034   0.000000
      8          3.743155   0.000000
 
  0.5000000E+00  0.5000000E+00  0.5000000E+00  0.3644315E-03
      1        -28.583215   1.000000
      2        -12.721856   1.000000
      3        -12.721856   1.000000
      4        -12.721856   1.000000
      5          1.439804  -0.000000
      6          1.439804  -0.000000
      7          3.795488   0.000000
      8          3.795488   0.000000
