   8   8   0   0
  0.1940683E+02  0.5374625E-09  0.5374625E-09  0.5374625E-09  0.5000000E-15
   1.0000000000000000E-004
  CAR 
 Ge diamond structure - EOS calculation  
     11.27721501     -9.81183371  301      5.37049850      1.00000000
     -9.812  0.0000E+00  0.0000E+00
     -9.742  0.0000E+00  0.0000E+00
     -9.671  0.0000E+00  0.0000E+00
     -9.601  0.0000E+00  0.0000E+00
     -9.531  0.0000E+00  0.0000E+00
     -9.460  0.0000E+00  0.0000E+00
     -9.390  0.0000E+00  0.0000E+00
     -9.320  0.0000E+00  0.0000E+00
     -9.249  0.0000E+00  0.0000E+00
     -9.179  0.0000E+00  0.0000E+00
     -9.109  0.1340E-13  0.9422E-15
     -9.039  0.4417E-08  0.3105E-09
     -8.968  0.3168E-04  0.2227E-05
     -8.898  0.5825E-02  0.4117E-03
     -8.828  0.6625E-01  0.5069E-02
     -8.757  0.2801E+00  0.2476E-01
     -8.687  0.5394E+00  0.6267E-01
     -8.617  0.4844E+00  0.9673E-01
     -8.546  0.4035E+00  0.1251E+00
     -8.476  0.9534E+00  0.1921E+00
     -8.406  0.1245E+01  0.2796E+00
     -8.336  0.5337E+00  0.3171E+00
     -8.265  0.4361E+00  0.3478E+00
     -8.195  0.1191E+01  0.4315E+00
     -8.125  0.1379E+01  0.5284E+00
     -8.054  0.1328E+01  0.6217E+00
     -7.984  0.9344E+00  0.6874E+00
     -7.914  0.9476E+00  0.7540E+00
     -7.844  0.2019E+01  0.8960E+00
     -7.773  0.1161E+01  0.9776E+00
     -7.703  0.2549E+00  0.9955E+00
     -7.633  0.1556E+01  0.1105E+01
     -7.562  0.2198E+01  0.1259E+01
     -7.492  0.1911E+01  0.1394E+01
     -7.422  0.1227E+01  0.1480E+01
     -7.351  0.2430E+01  0.1651E+01
     -7.281  0.1960E+01  0.1789E+01
     -7.211  0.4130E+00  0.1818E+01
     -7.141  0.1051E+01  0.1892E+01
     -7.070  0.1783E+01  0.2017E+01
     -7.000  0.3017E+01  0.2229E+01
     -6.930  0.2120E+01  0.2378E+01
     -6.859  0.2707E+01  0.2568E+01
     -6.789  0.1588E+01  0.2680E+01
     -6.719  0.2399E+01  0.2849E+01
     -6.648  0.2085E+01  0.2995E+01
     -6.578  0.2564E+01  0.3176E+01
     -6.508  0.2269E+01  0.3335E+01
     -6.438  0.3352E+01  0.3571E+01
     -6.367  0.2947E+01  0.3778E+01
     -6.297  0.1771E+01  0.3902E+01
     -6.227  0.2083E+01  0.4049E+01
     -6.156  0.3309E+01  0.4281E+01
     -6.086  0.5439E+01  0.4664E+01
     -6.016  0.3755E+01  0.4928E+01
     -5.946  0.2132E+01  0.5078E+01
     -5.875  0.2055E+01  0.5222E+01
     -5.805  0.3966E+01  0.5501E+01
     -5.735  0.4089E+01  0.5788E+01
     -5.664  0.1403E+01  0.5887E+01
     -5.594  0.9639E+00  0.5955E+01
     -5.524  0.2119E+01  0.6104E+01
     -5.453  0.1312E+01  0.6196E+01
     -5.383  0.8317E+00  0.6254E+01
     -5.313  0.3054E+01  0.6469E+01
     -5.243  0.2925E+01  0.6675E+01
     -5.172  0.4109E+01  0.6963E+01
     -5.102  0.3380E+01  0.7201E+01
     -5.032  0.2623E+01  0.7385E+01
     -4.961  0.8732E+00  0.7447E+01
     -4.891  0.1657E+00  0.7458E+01
     -4.821  0.1226E+01  0.7545E+01
     -4.750  0.6444E+00  0.7590E+01
     -4.680  0.5134E+00  0.7626E+01
     -4.610  0.7893E+00  0.7681E+01
     -4.540  0.6830E+00  0.7729E+01
     -4.469  0.7509E+00  0.7782E+01
     -4.399  0.5253E+00  0.7819E+01
     -4.329  0.9149E+00  0.7883E+01
     -4.258  0.1730E+01  0.8005E+01
     -4.188  0.1984E+01  0.8145E+01
     -4.118  0.1058E+01  0.8219E+01
     -4.047  0.1230E+00  0.8228E+01
     -3.977  0.7886E+00  0.8283E+01
     -3.907  0.4627E+00  0.8316E+01
     -3.837  0.6013E-01  0.8320E+01
     -3.766  0.7232E+00  0.8371E+01
     -3.696  0.7534E+00  0.8424E+01
     -3.626  0.4690E+00  0.8457E+01
     -3.555  0.7122E+00  0.8507E+01
     -3.485  0.6108E+00  0.8550E+01
     -3.415  0.7812E+00  0.8604E+01
     -3.345  0.4265E+01  0.8904E+01
     -3.274  0.6399E+01  0.9354E+01
     -3.204  0.5777E+01  0.9760E+01
     -3.134  0.2465E+01  0.9934E+01
     -3.063  0.3195E+01  0.1016E+02
     -2.993  0.5807E+01  0.1057E+02
     -2.923  0.5782E+01  0.1097E+02
     -2.852  0.1074E+01  0.1105E+02
     -2.782  0.4854E+00  0.1108E+02
     -2.712  0.2115E+01  0.1123E+02
     -2.642  0.3186E+01  0.1145E+02
     -2.571  0.5108E+01  0.1181E+02
     -2.501  0.2730E+01  0.1201E+02
     -2.431  0.7318E+00  0.1206E+02
     -2.360  0.2054E+01  0.1220E+02
     -2.290  0.1689E+01  0.1232E+02
     -2.220  0.1035E+01  0.1239E+02
     -2.149  0.1140E+01  0.1247E+02
     -2.079  0.3871E+01  0.1275E+02
     -2.009  0.5441E+01  0.1313E+02
     -1.939  0.8882E+00  0.1319E+02
     -1.868  0.4208E-01  0.1319E+02
     -1.798  0.6203E+00  0.1324E+02
     -1.728  0.7344E+00  0.1329E+02
     -1.657  0.4849E+00  0.1332E+02
     -1.587  0.4125E+00  0.1335E+02
     -1.517  0.1775E+01  0.1348E+02
     -1.447  0.9604E+00  0.1354E+02
     -1.376  0.3280E+01  0.1377E+02
     -1.306  0.2177E+01  0.1393E+02
     -1.236  0.8020E+00  0.1398E+02
     -1.165  0.1051E+00  0.1399E+02
     -1.095  0.7172E+00  0.1404E+02
     -1.025  0.1004E+01  0.1411E+02
     -0.954  0.1039E+01  0.1419E+02
     -0.884  0.9841E+00  0.1425E+02
     -0.814  0.2602E+00  0.1427E+02
     -0.744  0.5291E+00  0.1431E+02
     -0.673  0.2335E+01  0.1447E+02
     -0.603  0.2383E+01  0.1464E+02
     -0.533  0.3697E+00  0.1467E+02
     -0.462  0.2935E-02  0.1467E+02
     -0.392  0.5467E-01  0.1467E+02
     -0.322  0.7439E+00  0.1472E+02
     -0.251  0.5708E+00  0.1476E+02
     -0.181  0.5750E+00  0.1480E+02
     -0.111  0.1341E+01  0.1490E+02
     -0.041  0.1877E+01  0.1503E+02
      0.030  0.1398E+01  0.1513E+02
      0.100  0.2551E+01  0.1531E+02
      0.170  0.6840E+01  0.1579E+02
      0.241  0.6311E+01  0.1623E+02
      0.311  0.4770E+01  0.1657E+02
      0.381  0.2310E+01  0.1673E+02
      0.452  0.2625E+01  0.1692E+02
      0.522  0.3545E+01  0.1716E+02
      0.592  0.4808E+01  0.1750E+02
      0.662  0.3853E+01  0.1777E+02
      0.733  0.1292E+01  0.1786E+02
      0.803  0.2359E+01  0.1803E+02
      0.873  0.5474E+01  0.1841E+02
      0.944  0.4547E+01  0.1873E+02
      1.014  0.4417E+01  0.1904E+02
      1.084  0.5530E+01  0.1943E+02
      1.154  0.3269E+01  0.1966E+02
      1.225  0.1707E+01  0.1978E+02
      1.295  0.2392E+01  0.1995E+02
      1.365  0.3981E+01  0.2023E+02
      1.436  0.4839E+01  0.2057E+02
      1.506  0.6569E+01  0.2103E+02
      1.576  0.4217E+01  0.2133E+02
      1.647  0.4863E+01  0.2167E+02
      1.717  0.7117E+01  0.2217E+02
      1.787  0.5732E+01  0.2257E+02
      1.857  0.2758E+01  0.2277E+02
      1.928  0.3384E+01  0.2301E+02
      1.998  0.7316E+01  0.2352E+02
      2.068  0.4450E+01  0.2383E+02
      2.139  0.3907E+01  0.2411E+02
      2.209  0.5850E+01  0.2452E+02
      2.279  0.2894E+01  0.2472E+02
      2.350  0.3293E+01  0.2495E+02
      2.420  0.5828E+01  0.2536E+02
      2.490  0.6747E+01  0.2584E+02
      2.560  0.3615E+01  0.2609E+02
      2.631  0.2270E+01  0.2625E+02
      2.701  0.4501E+01  0.2657E+02
      2.771  0.3788E+01  0.2683E+02
      2.842  0.4748E+01  0.2717E+02
      2.912  0.6699E+01  0.2764E+02
      2.982  0.3451E+01  0.2788E+02
      3.052  0.3509E+01  0.2813E+02
      3.123  0.3658E+01  0.2839E+02
      3.193  0.3031E+01  0.2860E+02
      3.263  0.3770E+01  0.2886E+02
      3.334  0.1595E+01  0.2898E+02
      3.404  0.1964E+01  0.2911E+02
      3.474  0.5834E+01  0.2952E+02
      3.545  0.6775E+01  0.3000E+02
      3.615  0.3695E+01  0.3026E+02
      3.685  0.2221E+01  0.3042E+02
      3.755  0.2723E+01  0.3061E+02
      3.826  0.1407E+01  0.3071E+02
      3.896  0.1799E+00  0.3072E+02
      3.966  0.8170E+00  0.3078E+02
      4.037  0.1521E+01  0.3088E+02
      4.107  0.2435E+01  0.3106E+02
      4.177  0.3632E+01  0.3131E+02
      4.248  0.1678E+01  0.3143E+02
      4.318  0.1034E+00  0.3144E+02
      4.388  0.6759E+00  0.3148E+02
      4.458  0.1000E+01  0.3155E+02
      4.529  0.6516E+00  0.3160E+02
      4.599  0.1562E+01  0.3171E+02
      4.669  0.1047E+01  0.3178E+02
      4.740  0.1564E+00  0.3179E+02
      4.810  0.9691E+00  0.3186E+02
      4.880  0.9595E+00  0.3193E+02
      4.951  0.1710E+00  0.3194E+02
      5.021  0.3373E-02  0.3194E+02
      5.091  0.1165E+00  0.3195E+02
      5.161  0.4574E+00  0.3198E+02
      5.232  0.1801E+00  0.3199E+02
      5.302  0.7517E-01  0.3200E+02
      5.372  0.3165E-02  0.3200E+02
      5.443  0.7142E-02  0.3200E+02
      5.513  0.2420E+00  0.3202E+02
      5.583  0.3854E+00  0.3204E+02
      5.653  0.9168E-01  0.3205E+02
      5.724  0.3995E+00  0.3208E+02
      5.794  0.2945E+00  0.3210E+02
      5.864  0.9173E+00  0.3216E+02
      5.935  0.1722E+01  0.3229E+02
      6.005  0.2059E+01  0.3243E+02
      6.075  0.2238E+01  0.3259E+02
      6.146  0.1584E+01  0.3270E+02
      6.216  0.1359E+01  0.3279E+02
      6.286  0.1088E+01  0.3287E+02
      6.356  0.2457E+01  0.3304E+02
      6.427  0.4320E+01  0.3335E+02
      6.497  0.4006E+01  0.3363E+02
      6.567  0.2465E+01  0.3380E+02
      6.638  0.2661E+01  0.3399E+02
      6.708  0.1870E+01  0.3412E+02
      6.778  0.1768E+01  0.3424E+02
      6.849  0.3025E+01  0.3446E+02
      6.919  0.4101E+01  0.3475E+02
      6.989  0.7008E+01  0.3524E+02
      7.059  0.7080E+01  0.3574E+02
      7.130  0.6398E+01  0.3619E+02
      7.200  0.3646E+01  0.3644E+02
      7.270  0.2243E+01  0.3660E+02
      7.341  0.3322E+01  0.3683E+02
      7.411  0.6861E+01  0.3732E+02
      7.481  0.8455E+01  0.3791E+02
      7.551  0.6726E+01  0.3838E+02
      7.622  0.2881E+01  0.3859E+02
      7.692  0.1918E+01  0.3872E+02
      7.762  0.2794E+01  0.3892E+02
      7.833  0.3442E+01  0.3916E+02
      7.903  0.4637E+00  0.3919E+02
      7.973  0.5422E+00  0.3923E+02
      8.044  0.4584E+01  0.3955E+02
      8.114  0.5726E+01  0.3995E+02
      8.184  0.2439E+01  0.4013E+02
      8.254  0.3463E+00  0.4015E+02
      8.325  0.1096E+00  0.4016E+02
      8.395  0.1799E+01  0.4028E+02
      8.465  0.4311E+01  0.4059E+02
      8.536  0.1456E+01  0.4069E+02
      8.606  0.1436E+01  0.4079E+02
      8.676  0.3373E+01  0.4103E+02
      8.747  0.3892E+01  0.4130E+02
      8.817  0.2130E+01  0.4145E+02
      8.887  0.2320E+01  0.4161E+02
      8.957  0.2453E+01  0.4179E+02
      9.028  0.1749E+01  0.4191E+02
      9.098  0.5933E+00  0.4195E+02
      9.168  0.2898E-01  0.4195E+02
      9.239  0.9688E-04  0.4195E+02
      9.309  0.9227E-08  0.4195E+02
      9.379  0.1925E-13  0.4195E+02
      9.449  0.0000E+00  0.4195E+02
      9.520  0.4312E-14  0.4195E+02
      9.590  0.3016E-08  0.4195E+02
      9.660  0.4527E-04  0.4195E+02
      9.731  0.1636E-01  0.4195E+02
      9.801  0.1941E+00  0.4197E+02
      9.871  0.1199E+00  0.4198E+02
      9.942  0.3507E-01  0.4198E+02
     10.012  0.1127E+00  0.4199E+02
     10.082  0.2177E-01  0.4199E+02
     10.152  0.1575E-03  0.4199E+02
     10.223  0.5584E-03  0.4199E+02
     10.293  0.3859E-01  0.4199E+02
     10.363  0.1104E+00  0.4200E+02
     10.434  0.1706E-01  0.4200E+02
     10.504  0.9498E-04  0.4200E+02
     10.574  0.1325E-07  0.4200E+02
     10.645  0.4020E-13  0.4200E+02
     10.715  0.0000E+00  0.4200E+02
     10.785  0.0000E+00  0.4200E+02
     10.855  0.0000E+00  0.4200E+02
     10.926  0.0000E+00  0.4200E+02
     10.996  0.0000E+00  0.4200E+02
     11.066  0.0000E+00  0.4200E+02
     11.137  0.0000E+00  0.4200E+02
     11.207  0.0000E+00  0.4200E+02
     11.277  0.0000E+00  0.4200E+02
