    1    1    1    1
  0.1516486E+02  0.2700765E-09  0.2700764E-09  0.2700764E-09  0.5000000E-15
   1.0000000000000000E-004
  CAR 
 BCC Nb EOS calculation (scale=0.940)    
     11    680      9
 
  0.1262379E-14  0.1262379E-14  0.1262379E-14  0.4100209E-04
      1        -22.613270   1.000000
      2        -22.613268   1.000000
      3        -22.613264   1.000000
      4          0.287067   1.000000
      5          6.696061  -0.030661
      6          6.696071  -0.030665
      7          6.696081  -0.030668
      8         10.210923  -0.000000
      9         10.210931  -0.000000
 
  0.3448276E-01  0.1263512E-14  0.1262379E-14  0.4920251E-03
      1        -22.643545   1.000000
      2        -22.621924   1.000000
      3        -22.613635   1.000000
      4          0.348965   1.000000
      5          6.656881  -0.005786
      6          6.689304  -0.028118
      7          6.757069  -0.032791
      8         10.145701  -0.000000
      9         10.211430  -0.000000
 
  0.6896552E-01  0.1263403E-14  0.1262379E-14  0.4920251E-03
      1        -22.732366   1.000000
      2        -22.647463   1.000000
      3        -22.614750   1.000000
      4          0.530370   1.000000
      5          6.543179   0.257507
      6          6.664343  -0.012585
      7          6.938990  -0.002920
      8          9.974639  -0.000000
      9         10.214212  -0.000000
 
  0.1034483E+00  0.1262226E-14  0.1262379E-14  0.4920251E-03
      1        -22.873798   1.000000
      2        -22.688461   1.000000
      3        -22.616559   1.000000
      4          0.817680   1.000000
      5          6.365601   0.913975
      6          6.609702   0.065410
      7          7.238802  -0.000001
      8          9.760433  -0.000000
      9         10.222762  -0.000000
 
  0.1379310E+00  0.1267988E-14  0.1262379E-14  0.4920251E-03
      1        -23.058791   1.000000
      2        -22.742652   1.000000
      3        -22.618974   1.000000
      4          1.186473   1.000000
      5          6.139309   1.017761
      6          6.516737   0.359269
      7          7.651471  -0.000000
      8          9.577182  -0.000000
      9         10.242080  -0.000000
 
  0.1724138E+00  0.1263371E-14  0.1262379E-14  0.4920251E-03
      1        -23.276245   1.000000
      2        -22.807212   1.000000
      3        -22.621919   1.000000
      4          1.598158   1.000000
      5          5.881094   1.000089
      6          6.399632   0.820912
      7          8.169816  -0.000000
      8          9.480481  -0.000000
      9         10.277459  -0.000000
 
  0.2068966E+00  0.1253120E-14  0.1262379E-14  0.4920251E-03
      1        -23.514012   1.000000
      2        -22.878799   1.000000
      3        -22.625257   1.000000
      4          1.995047   1.000000
      5          5.607364   1.000000
      6          6.313156   1.001536
      7          8.784381  -0.000000
      8          9.489268  -0.000000
      9         10.333487  -0.000000
 
  0.2413793E+00  0.1231838E-14  0.1262379E-14  0.4920251E-03
      1        -23.759869   1.000000
      2        -22.953873   1.000000
      3        -22.628847   1.000000
      4          2.302326   1.000000
      5          5.332818   1.000000
      6          6.345938   0.954548
      7          9.482757  -0.000000
      8          9.590798  -0.000000
      9         10.413020  -0.000000
 
  0.2758621E+00  0.1224434E-14  0.1262379E-14  0.4920251E-03
      1        -24.002086   1.000000
      2        -23.028823   1.000000
      3        -22.632515   1.000000
      4          2.457378   1.000000
      5          5.069886   1.000000
      6          6.575282   0.151678
      7          9.757734  -0.000000
      8         10.248935  -0.000000
      9         10.516455  -0.000000
 
  0.3103448E+00  0.1258664E-14  0.1262379E-14  0.4920251E-03
      1        -24.230046   1.000000
      2        -23.100238   1.000000
      3        -22.636101   1.000000
      4          2.457204   1.000000
      5          4.828598   1.000000
      6          7.009288  -0.000630
      7          9.959272  -0.000000
      8         10.640817  -0.000000
      9         11.061390  -0.000000
 
  0.3448276E+00  0.1265138E-14  0.1262379E-14  0.4920251E-03
      1        -24.434442   1.000000
      2        -23.164970   1.000000
      3        -22.639421   1.000000
      4          2.355272   1.000000
      5          4.616914   1.000000
      6          7.587181  -0.000000
      7         10.163862  -0.000000
      8         10.779325  -0.000000
      9         11.890600   0.000000
 
  0.3793103E+00  0.1246703E-14  0.1262379E-14  0.4920251E-03
      1        -24.607423   1.000000
      2        -23.220237   1.000000
      3        -22.642311   1.000000
      4          2.213972   1.000000
      5          4.441013   1.000000
      6          8.227224  -0.000000
      7         10.338667  -0.000000
      8         10.921049  -0.000000
      9         12.694950   0.000000
 
  0.4137931E+00  0.1280932E-14  0.1262379E-14  0.4920251E-03
      1        -24.742642   1.000000
      2        -23.263749   1.000000
      3        -22.644628   1.000000
      4          2.078410   1.000000
      5          4.305407   1.000000
      6          8.853374  -0.000000
      7         10.449841  -0.000000
      8         11.050903  -0.000000
      9         13.415622   0.000000
 
  0.4482759E+00  0.1253956E-14  0.1262379E-14  0.4920251E-03
      1        -24.835429   1.000000
      2        -23.293754   1.000000
      3        -22.646248   1.000000
      4          1.975927   1.000000
      5          4.213295   1.000000
      6          9.394343  -0.000000
      7         10.469840  -0.000000
      8         11.151497  -0.000000
      9         13.974540   0.000000
 
  0.4827586E+00  0.1235522E-14  0.1262379E-14  0.4920251E-03
      1        -24.882616   1.000000
      2        -23.309058   1.000000
      3        -22.647074   1.000000
      4          1.921373   1.000000
      5          4.166748   1.000000
      6          9.757649  -0.000000
      7         10.410672  -0.000000
      8         11.206831  -0.000000
      9         14.285123   0.000000
 
  0.3448276E-01  0.3448276E-01  0.1262379E-14  0.9840502E-03
      1        -22.704422   1.000000
      2        -22.631125   1.000000
      3        -22.620979   1.000000
      4          0.470705   1.000000
      5          6.603557   0.078627
      6          6.641667   0.011610
      7          6.887271  -0.007451
      8         10.023533  -0.000000
      9         10.217131  -0.000000
 
  0.6896552E-01  0.3448276E-01  0.1262379E-14  0.1968100E-02
      1        -22.819639   1.000000
      2        -22.661605   1.000000
      3        -22.625105   1.000000
      4          0.705576   1.000000
      5          6.464048   0.579584
      6          6.588686   0.114557
      7          7.135879  -0.000020
      8          9.821021  -0.000000
      9         10.232971  -0.000000
 
  0.1034483E+00  0.3448276E-01  0.1262379E-14  0.1968100E-02
      1        -22.981777   1.000000
      2        -22.709709   1.000000
      3        -22.627774   1.000000
      4          1.035406   1.000000
      5          6.259900   1.033324
      6          6.511817   0.379251
      7          7.497895  -0.000000
      8          9.610386  -0.000000
      9         10.259826  -0.000000
 
  0.1379310E+00  0.3448276E-01  0.1262379E-14  0.1968100E-02
      1        -23.181288   1.000000
      2        -22.770512   1.000000
      3        -22.630741   1.000000
      4          1.430163   1.000000
      5          6.015036   1.002301
      6          6.401640   0.814547
      7          7.968567  -0.000000
      8          9.460168  -0.000000
      9         10.300452  -0.000000
 
  0.1724138E+00  0.3448276E-01  0.1262379E-14  0.1968100E-02
      1        -23.406817   1.000000
      2        -22.840448   1.000000
      3        -22.634101   1.000000
      4          1.843140   1.000000
      5          5.747318   1.000001
      6          6.288308   1.022118
      7          8.539131  -0.000000
      8          9.410747  -0.000000
      9         10.358106  -0.000000
 
  0.2068966E+00  0.3448276E-01  0.1262379E-14  0.1968100E-02
      1        -23.646331   1.000000
      2        -22.915855   1.000000
      3        -22.637757   1.000000
      4          2.206968   1.000000
      5          5.472507   1.000000
      6          6.244659   1.035279
      7          9.191062  -0.000000
      8          9.473180  -0.000000
      9         10.435189  -0.000000
 
  0.2413793E+00  0.3448276E-01  0.1262379E-14  0.1968100E-02
      1        -23.888041   1.000000
      2        -22.993020   1.000000
      3        -22.641572   1.000000
      4          2.445956   1.000000
      5          5.204064   1.000000
      6          6.361522   0.923191
      7          9.581733  -0.000000
      8          9.956016  -0.000000
      9         10.532272  -0.000000
 
  0.2758621E+00  0.3448276E-01  0.1262379E-14  0.1968100E-02
      1        -24.120910   1.000000
      2        -23.068309   1.000000
      3        -22.645373   1.000000
      4          2.520905   1.000000
      5          4.952980   1.000000
      6          6.688167  -0.027627
      7          9.779815  -0.000000
      8         10.647078  -0.000000
      9         10.744153  -0.000000
 
  0.3103448E+00  0.3448276E-01  0.1262379E-14  0.1968100E-02
      1        -24.335045   1.000000
      2        -23.138311   1.000000
      3        -22.648988   1.000000
      4          2.461536   1.000000
      5          4.727967   1.000000
      6          7.193191  -0.000003
      7          9.998123  -0.000000
      8         10.776009  -0.000000
      9         11.568576  -0.000000
 
  0.3448276E+00  0.3448276E-01  0.1262379E-14  0.1968100E-02
      1        -24.521942   1.000000
      2        -23.199990   1.000000
      3        -22.652242   1.000000
      4          2.332294   1.000000
      5          4.535741   1.000000
      6          7.797808  -0.000000
      7         10.206315  -0.000000
      8         10.914309  -0.000000
      9         12.390038   0.000000
 
  0.3793103E+00  0.3448276E-01  0.1262379E-14  0.1968100E-02
      1        -24.674612   1.000000
      2        -23.250755   1.000000
      3        -22.654964   1.000000
      4          2.188732   1.000000
      5          4.381408   1.000000
      6          8.420351  -0.000000
      7         10.363227  -0.000000
      8         11.059413  -0.000000
      9         13.158292   0.000000
 
  0.4137931E+00  0.3448276E-01  0.1262379E-14  0.1968100E-02
      1        -24.787581   1.000000
      2        -23.288530   1.000000
      3        -22.657016   1.000000
      4          2.066712   1.000000
      5          4.268668   1.000000
      6          8.987360  -0.000000
      7         10.431216  -0.000000
      8         11.201788  -0.000000
      9         13.805178   0.000000
 
  0.4482759E+00  0.3448276E-01  0.1262379E-14  0.1968100E-02
      1        -24.856909   1.000000
      2        -23.311803   1.000000
      3        -22.658293   1.000000
      4          1.986613   1.000000
      5          4.200056   1.000000
      6          9.422123  -0.000000
      7         10.407048  -0.000000
      8         11.312400  -0.000000
      9         14.246987   0.000000
 
  0.4827586E+00  0.3448276E-01  0.1262379E-14  0.9840502E-03
      1        -24.880273   1.000000
      2        -23.319661   1.000000
      3        -22.658728   1.000000
      4          1.958874   1.000000
      5          4.177027   1.000000
      6          9.603677  -0.000000
      7         10.367180  -0.000000
      8         11.354754  -0.000000
      9         14.405460   0.000000
 
  0.6896552E-01  0.6896552E-01  0.1262379E-14  0.9840502E-03
      1        -22.956277   1.000000
      2        -22.685364   1.000000
      3        -22.643241   1.000000
      4          0.984296   1.000000
      5          6.342175   0.961217
      6          6.455931   0.613174
      7          7.460888  -0.000000
      8          9.609157  -0.000000
      9         10.280657  -0.000000
 
  0.1034483E+00  0.6896552E-01  0.1262379E-14  0.1968100E-02
      1        -23.131973   1.000000
      2        -22.734220   1.000000
      3        -22.653229   1.000000
      4          1.345006   1.000000
      5          6.138375   1.017562
      6          6.325831   0.986269
      7          7.897192  -0.000000
      8          9.415216  -0.000000
      9         10.347719  -0.000000
 
  0.1379310E+00  0.6896552E-01  0.1262379E-14  0.1968100E-02
      1        -23.336931   1.000000
      2        -22.800453   1.000000
      3        -22.659151   1.000000
      4          1.752702   1.000000
      5          5.886597   1.000103
      6          6.192962   1.029814
      7          8.435523  -0.000000
      8          9.299865  -0.000000
      9         10.429276  -0.000000
 
  0.1724138E+00  0.6896552E-01  0.1262379E-14  0.1968100E-02
      1        -23.560463   1.000000
      2        -22.876625   1.000000
      3        -22.664123   1.000000
      4          2.153092   1.000000
      5          5.616612   1.000000
      6          6.090748   1.009050
      7          9.050588  -0.000000
      8          9.305037  -0.000000
      9         10.523471  -0.000000
 
  0.2068966E+00  0.6896552E-01  0.1262379E-14  0.1968100E-02
      1        -23.791529   1.000000
      2        -22.957638   1.000000
      3        -22.668844   1.000000
      4          2.470945   1.000000
      5          5.346642   1.000000
      6          6.098953   1.010264
      7          9.345340  -0.000000
      8          9.810457  -0.000000
      9         10.629131  -0.000000
 
  0.2413793E+00  0.6896552E-01  0.1262379E-14  0.1968100E-02
      1        -24.019355   1.000000
      2        -23.039062   1.000000
      3        -22.673414   1.000000
      4          2.636367   1.000000
      5          5.090580   1.000000
      6          6.296403   1.016664
      7          9.515237  -0.000000
      8         10.579908  -0.000000
      9         10.747598  -0.000000
 
  0.2758621E+00  0.6896552E-01  0.1262379E-14  0.1968100E-02
      1        -24.234007   1.000000
      2        -23.116882   1.000000
      3        -22.677743   1.000000
      4          2.639858   1.000000
      5          4.858143   1.000000
      6          6.694879  -0.030261
      7          9.731989  -0.000000
      8         10.860879  -0.000000
      9         11.408224  -0.000000
 
  0.3103448E+00  0.6896552E-01  0.1262379E-14  0.1968100E-02
      1        -24.426697   1.000000
      2        -23.187510   1.000000
      3        -22.681690   1.000000
      4          2.536615   1.000000
      5          4.655909   1.000000
      6          7.230236  -0.000001
      7          9.968113  -0.000000
      8         10.988214  -0.000000
      9         12.240848   0.000000
 
  0.3448276E+00  0.6896552E-01  0.1262379E-14  0.1968100E-02
      1        -24.589948   1.000000
      2        -23.247859   1.000000
      3        -22.685097   1.000000
      4          2.392759   1.000000
      5          4.488721   1.000000
      6          7.815387  -0.000000
      7         10.178536  -0.000000
      8         11.129723  -0.000000
      9         13.043468   0.000000
 
  0.3793103E+00  0.6896552E-01  0.1262379E-14  0.1968100E-02
      1        -24.717687   1.000000
      2        -23.295389   1.000000
      3        -22.687804   1.000000
      4          2.255089   1.000000
      5          4.360244   1.000000
      6          8.371931  -0.000000
      7         10.308838  -0.000000
      8         11.297119  -0.000000
      9         13.757567   0.000000
 
  0.4137931E+00  0.6896552E-01  0.1262379E-14  0.1968100E-02
      1        -24.805384   1.000000
      2        -23.328164   1.000000
      3        -22.689681   1.000000
      4          2.151286   1.000000
      5          4.273148   1.000000
      6          8.828978  -0.000000
      7         10.336712  -0.000000
      8         11.469013  -0.000000
      9         14.308009   0.000000
 
  0.4482759E+00  0.6896552E-01  0.1262379E-14  0.1968100E-02
      1        -24.850010   1.000000
      2        -23.344883   1.000000
      3        -22.690650   1.000000
      4          2.096141   1.000000
      5          4.229179   1.000000
      6          9.104114  -0.000000
      7         10.308027  -0.000000
      8         11.582015  -0.000000
      9         14.612553   0.000000
 
  0.1034483E+00  0.1034483E+00  0.1262379E-14  0.9840502E-03
      1        -23.312757   1.000000
      2        -22.777564   1.000000
      3        -22.677460   1.000000
      4          1.722787   1.000000
      5          5.984261   1.001192
      6          6.104185   1.011095
      7          8.412333  -0.000000
      8          9.250156  -0.000000
      9         10.462354  -0.000000
 
  0.1379310E+00  0.1034483E+00  0.1262379E-14  0.1968100E-02
      1        -23.514061   1.000000
      2        -22.844008   1.000000
      3        -22.692683   1.000000
      4          2.130104   1.000000
      5          5.760605   1.000002
      6          5.928929   1.000319
      7          9.021149  -0.000000
      8          9.172984  -0.000000
      9         10.588519  -0.000000
 
  0.1724138E+00  0.1034483E+00  0.1262379E-14  0.1968100E-02
      1        -23.726121   1.000000
      2        -22.924883   1.000000
      3        -22.702628   1.000000
      4          2.505654   1.000000
      5          5.491550   1.000000
      6          5.851832   1.000038
      7          9.172488  -0.000000
      8          9.738276  -0.000000
      9         10.719008  -0.000000
 
  0.2068966E+00  0.1034483E+00  0.1262379E-14  0.1968100E-02
      1        -23.939324   1.000000
      2        -23.011970   1.000000
      3        -22.710281   1.000000
      4          2.768107   1.000000
      5          5.228273   1.000000
      6          5.922369   1.000269
      7          9.278575  -0.000000
      8         10.504725  -0.000000
      9         10.855708  -0.000000
 
  0.2413793E+00  0.1034483E+00  0.1262379E-14  0.1968100E-02
      1        -24.144512   1.000000
      2        -23.099073   1.000000
      3        -22.716735   1.000000
      4          2.860955   1.000000
      5          4.990374   1.000000
      6          6.191492   1.029507
      7          9.458381  -0.000000
      8         10.949363  -0.000000
      9         11.360787  -0.000000
 
  0.2758621E+00  0.1034483E+00  0.1262379E-14  0.1968100E-02
      1        -24.333256   1.000000
      2        -23.181152   1.000000
      3        -22.722311   1.000000
      4          2.806579   1.000000
      5          4.784154   1.000000
      6          6.632529   0.024508
      7          9.687427  -0.000000
      8         11.074231  -0.000000
      9         12.204591   0.000000
 
  0.3103448E+00  0.1034483E+00  0.1262379E-14  0.1968100E-02
      1        -24.498159   1.000000
      2        -23.254023   1.000000
      3        -22.727044   1.000000
      4          2.675557   1.000000
      5          4.611840   1.000000
      6          7.161342  -0.000009
      7          9.927441  -0.000000
      8         11.197434  -0.000000
      9         13.042367   0.000000
 
  0.3448276E+00  0.1034483E+00  0.1262379E-14  0.1968100E-02
      1        -24.633012   1.000000
      2        -23.314270   1.000000
      3        -22.730878   1.000000
      4          2.529091   1.000000
      5          4.475245   1.000000
      6          7.692586  -0.000000
      7         10.121208  -0.000000
      8         11.346757  -0.000000
      9         13.819502   0.000000
 
  0.3793103E+00  0.1034483E+00  0.1262379E-14  0.1968100E-02
      1        -24.732905   1.000000
      2        -23.359213   1.000000
      3        -22.733721   1.000000
      4          2.404906   1.000000
      5          4.376166   1.000000
      6          8.155058  -0.000000
      7         10.218319  -0.000000
      8         11.530762  -0.000000
      9         14.469371   0.000000
 
  0.4137931E+00  0.1034483E+00  0.1262379E-14  0.1968100E-02
      1        -24.794260   1.000000
      2        -23.386942   1.000000
      3        -22.735465   1.000000
      4          2.323677   1.000000
      5          4.316085   1.000000
      6          8.481971  -0.000000
      7         10.229246  -0.000000
      8         11.698393  -0.000000
      9         14.911408   0.000000
 
  0.4482759E+00  0.1034483E+00  0.1262379E-14  0.9840502E-03
      1        -24.814942   1.000000
      2        -23.396311   1.000000
      3        -22.736049   1.000000
      4          2.295552   1.000000
      5          4.295951   1.000000
      6          8.603403  -0.000000
      7         10.219260  -0.000000
      8         11.767191  -0.000000
      9         15.069758   0.000000
 
  0.1379310E+00  0.1379310E+00  0.1262379E-14  0.9840502E-03
      1        -23.702885   1.000000
      2        -22.909217   1.000000
      3        -22.719823   1.000000
      4          2.521534   1.000000
      5          5.628715   1.000000
      6          5.675056   1.000000
      7          9.110245  -0.000000
      8          9.716149  -0.000000
      9         10.753955  -0.000000
 
  0.1724138E+00  0.1379310E+00  0.1262379E-14  0.1968100E-02
      1        -23.894717   1.000000
      2        -22.992798   1.000000
      3        -22.738452   1.000000
      4          2.860157   1.000000
      5          5.353949   1.000000
      6          5.651540   1.000000
      7          9.142631  -0.000000
      8         10.474803  -0.000000
      9         10.922105  -0.000000
 
  0.2068966E+00  0.1379310E+00  0.1262379E-14  0.1968100E-02
      1        -24.081636   1.000000
      2        -23.085631   1.000000
      3        -22.751578   1.000000
      4          3.063643   1.000000
      5          5.103958   1.000000
      6          5.786373   1.000005
      7          9.259041  -0.000000
      8         10.997046  -0.000000
      9         11.371787  -0.000000
 
  0.2413793E+00  0.1379310E+00  0.1262379E-14  0.1968100E-02
      1        -24.256421   1.000000
      2        -23.179325   1.000000
      3        -22.761490   1.000000
      4          3.095572   1.000000
      5          4.895448   1.000000
      6          6.103554   1.010992
      7          9.445211  -0.000000
      8         11.135843  -0.000000
      9         12.222676   0.000000
 
  0.2758621E+00  0.1379310E+00  0.1262379E-14  0.1968100E-02
      1        -24.412584   1.000000
      2        -23.267109   1.000000
      3        -22.769277   1.000000
      4          3.004208   1.000000
      5          4.726473   1.000000
      6          6.549001   0.236690
      7          9.675103  -0.000000
      8         11.243730  -0.000000
      9         13.097188   0.000000
 
  0.3103448E+00  0.1379310E+00  0.1262379E-14  0.1968100E-02
      1        -24.544528   1.000000
      2        -23.343598   1.000000
      3        -22.775381   1.000000
      4          2.863901   1.000000
      5          4.592845   1.000000
      6          7.034198  -0.000342
      7          9.903665  -0.000000
      8         11.357662  -0.000000
      9         13.938004   0.000000
 
  0.3448276E+00  0.1379310E+00  0.1262379E-14  0.1968100E-02
      1        -24.647660   1.000000
      2        -23.404591   1.000000
      3        -22.779954   1.000000
      4          2.727288   1.000000
      5          4.492616   1.000000
      6          7.482401  -0.000000
      7         10.070480  -0.000000
      8         11.507197  -0.000000
      9         14.686728   0.000000
 
  0.3793103E+00  0.1379310E+00  0.1262379E-14  0.1968100E-02
      1        -24.718410   1.000000
      2        -23.446966   1.000000
      3        -22.783018   1.000000
      4          2.623923   1.000000
      5          4.425526   1.000000
      6          7.831621  -0.000000
      7         10.143910  -0.000000
      8         11.681801  -0.000000
      9         15.267456   0.000000
 
  0.4137931E+00  0.1379310E+00  0.1262379E-14  0.1968100E-02
      1        -24.754396   1.000000
      2        -23.468671   1.000000
      3        -22.784563   1.000000
      4          2.569016   1.000000
      5          4.391843   1.000000
      6          8.026619  -0.000000
      7         10.156136  -0.000000
      8         11.806293   0.000000
      9         15.591790   0.000000
 
  0.1724138E+00  0.1724138E+00  0.1262379E-14  0.9840502E-03
      1        -24.058820   1.000000
      2        -23.080255   1.000000
      3        -22.765900   1.000000
      4          3.151046   1.000000
      5          5.160682   1.000000
      6          5.613843   1.000000
      7          9.186346  -0.000000
      8         11.009658  -0.000000
      9         11.383958  -0.000000
 
  0.2068966E+00  0.1724138E+00  0.1262379E-14  0.1968100E-02
      1        -24.212266   1.000000
      2        -23.179618   1.000000
      3        -22.785644   1.000000
      4          3.305471   1.000000
      5          4.961412   1.000000
      6          5.767982   1.000003
      7          9.305866  -0.000000
      8         11.165630  -0.000000
      9         12.245495   0.000000
 
  0.2413793E+00  0.1724138E+00  0.1262379E-14  0.1968100E-02
      1        -24.349965   1.000000
      2        -23.281287   1.000000
      3        -22.800016   1.000000
      4          3.305973   1.000000
      5          4.802198   1.000000
      6          6.079876   1.007605
      7          9.489932  -0.000000
      8         11.268760  -0.000000
      9         13.153199   0.000000
 
  0.2758621E+00  0.1724138E+00  0.1262379E-14  0.1968100E-02
      1        -24.467837   1.000000
      2        -23.376595   1.000000
      3        -22.810672   1.000000
      4          3.208393   1.000000
      5          4.684488   1.000000
      6          6.476044   0.529199
      7          9.711694  -0.000000
      8         11.353246  -0.000000
      9         14.052834   0.000000
 
  0.3103448E+00  0.1724138E+00  0.1262379E-14  0.1968100E-02
      1        -24.562653   1.000000
      2        -23.458355   1.000000
      3        -22.818496   1.000000
      4          3.080412   1.000000
      5          4.599302   1.000000
      6          6.874507  -0.009141
      7          9.922347  -0.000000
      8         11.451448  -0.000000
      9         14.895360   0.000000
 
  0.3448276E+00  0.1724138E+00  0.1262379E-14  0.1968100E-02
      1        -24.631991   1.000000
      2        -23.520890   1.000000
      3        -22.823907   1.000000
      4          2.966506   1.000000
      5          4.540656   1.000000
      6          7.210566  -0.000002
      7         10.066550  -0.000000
      8         11.586479  -0.000000
      9         15.614559   0.000000
 
  0.3793103E+00  0.1724138E+00  0.1262379E-14  0.1968100E-02
      1        -24.674239   1.000000
      2        -23.560074   1.000000
      3        -22.827106   1.000000
      4          2.890684   1.000000
      5          4.506058   1.000000
      6          7.435915  -0.000000
      7         10.129913  -0.000000
      8         11.724578  -0.000000
      9         16.118874   0.000000
 
  0.4137931E+00  0.1724138E+00  0.1262379E-14  0.9840502E-03
      1        -24.688447   1.000000
      2        -23.573420   1.000000
      3        -22.828171   1.000000
      4          2.864273   1.000000
      5          4.494584   1.000000
      6          7.515635  -0.000000
      7         10.144023  -0.000000
      8         11.784861  -0.000000
      9         16.304329   0.000000
 
  0.2068966E+00  0.2068966E+00  0.1262379E-14  0.9840502E-03
      1        -24.326687   1.000000
      2        -23.287652   1.000000
      3        -22.811171   1.000000
      4          3.440735   1.000000
      5          4.824230   1.000000
      6          5.894989   1.000130
      7          9.421977  -0.000000
      8         11.276503  -0.000000
      9         13.175721   0.000000
 
  0.2413793E+00  0.2068966E+00  0.1262379E-14  0.1968100E-02
      1        -24.421972   1.000000
      2        -23.399673   1.000000
      3        -22.829739   1.000000
      4          3.455450   1.000000
      5          4.726180   1.000000
      6          6.133357   1.016509
      7          9.599200  -0.000000
      8         11.348055  -0.000000
      9         14.120851   0.000000
 
  0.2758621E+00  0.2068966E+00  0.1262379E-14  0.1968100E-02
      1        -24.496722   1.000000
      2        -23.505239   1.000000
      3        -22.843114   1.000000
      4          3.388889   1.000000
      5          4.670438   1.000000
      6          6.417768   0.760238
      7          9.811179  -0.000000
      8         11.404566  -0.000000
      9         15.041925   0.000000
 
  0.3103448E+00  0.2068966E+00  0.1262379E-14  0.1968100E-02
      1        -24.550942   1.000000
      2        -23.594707   1.000000
      3        -22.852454   1.000000
      4          3.296347   1.000000
      5          4.642002   1.000000
      6          6.684227  -0.025778
      7         10.008639  -0.000000
      8         11.478718  -0.000000
      9         15.886921   0.000000
 
  0.3448276E+00  0.2068966E+00  0.1262379E-14  0.1968100E-02
      1        -24.585715   1.000000
      2        -23.659745   1.000000
      3        -22.858411   1.000000
      4          3.217410   1.000000
      5          4.628235   1.000000
      6          6.886088  -0.007597
      7         10.141715  -0.000000
      8         11.580714  -0.000000
      9         16.576013   0.000000
 
  0.3793103E+00  0.2068966E+00  0.1262379E-14  0.1968100E-02
      1        -24.602540   1.000000
      2        -23.694018   1.000000
      3        -22.861320   1.000000
      4          3.173433   1.000000
      5          4.622630   1.000000
      6          6.994225  -0.000897
      7         10.199877  -0.000000
      8         11.663474  -0.000000
      9         16.985549   0.000000
 
  0.2413793E+00  0.2413793E+00  0.1262379E-14  0.9840502E-03
      1        -24.471256   1.000000
      2        -23.524454   1.000000
      3        -22.851461   1.000000
      4          3.521561   1.000000
      5          4.693057   1.000000
      6          6.239296   1.035451
      7          9.769722  -0.000000
      8         11.387004  -0.000000
      9         15.094313   0.000000
 
  0.2758621E+00  0.2413793E+00  0.1262379E-14  0.1968100E-02
      1        -24.499042   1.000000
      2        -23.643699   1.000000
      3        -22.866784   1.000000
      4          3.516212   1.000000
      5          4.706550   1.000000
      6          6.357625   0.931603
      7          9.977802  -0.000000
      8         11.410612  -0.000000
      9         16.035795   0.000000
 
  0.3103448E+00  0.2413793E+00  0.1262379E-14  0.1968100E-02
      1        -24.509539   1.000000
      2        -23.744534   1.000000
      3        -22.876984   1.000000
      4          3.477547   1.000000
      5          4.743342   1.000000
      6          6.455965   0.613035
      7         10.174255  -0.000000
      8         11.445314  -0.000000
      9         16.888821   0.000000
 
  0.3448276E+00  0.2413793E+00  0.1262379E-14  0.1968100E-02
      1        -24.510008   1.000000
      2        -23.813373   1.000000
      3        -22.882837   1.000000
      4          3.440991   1.000000
      5          4.776670   1.000000
      6          6.517894   0.354611
      7         10.305915  -0.000000
      8         11.493317  -0.000000
      9         17.547782   0.000000
 
  0.3793103E+00  0.2413793E+00  0.1262379E-14  0.9840502E-03
      1        -24.508838   1.000000
      2        -23.838072   1.000000
      3        -22.884744   1.000000
      4          3.426739   1.000000
      5          4.789620   1.000000
      6          6.538650   0.274138
      7         10.350000  -0.000000
      8         11.518207  -0.000000
      9         17.816477   0.000000
 
  0.2758621E+00  0.2758621E+00  0.1262379E-14  0.9840502E-03
      1        -24.477580   1.000000
      2        -23.779737   1.000000
      3        -22.883075   1.000000
      4          3.579882   1.000000
      5          4.799888   1.000000
      6          6.279963   1.026608
      7         10.192369  -0.000000
      8         11.388818  -0.000000
      9         17.000256   0.000000
 
  0.3103448E+00  0.2758621E+00  0.1262379E-14  0.1968100E-02
      1        -24.440649   1.000000
      2        -23.897418   1.000000
      3        -22.893269   1.000000
      4          3.598402   1.000000
      5          4.919907   1.000000
      6          6.190417   1.029280
      7         10.404473  -0.000000
      8         11.356323  -0.000000
      9         17.875974   0.000000
 
  0.3448276E+00  0.2758621E+00  0.1262379E-14  0.1968100E-02
      1        -24.407909   1.000000
      2        -23.971853   1.000000
      3        -22.898173   1.000000
      4          3.599470   1.000000
      5          5.007727   1.000000
      6          6.123785   1.014593
      7         10.541552  -0.000000
      8         11.331029  -0.000000
      9         18.506536   0.000000
 
  0.3103448E+00  0.3103448E+00  0.1262379E-14  0.9840502E-03
      1        -24.351729   1.000000
      2        -24.039432   1.000000
      3        -22.902528   1.000000
      4          3.659491   1.000000
      5          5.151635   1.000000
      6          5.911220   1.000201
      7         10.654143  -0.000000
      8         11.220312  -0.000000
      9         18.801186   0.000000
 
  0.3448276E+00  0.3103448E+00  0.1262379E-14  0.9840502E-03
      1        -24.287727   1.000000
      2        -24.121578   1.000000
      3        -22.905535   1.000000
      4          3.677094   1.000000
      5          5.309982   1.000000
      6          5.738669   1.000001
      7         10.804590  -0.000000
      8         11.113977  -0.000000
      9         19.196208   0.000000
 
  0.3448276E-01  0.3448276E-01  0.3448276E-01  0.3280167E-03
      1        -22.803890   1.000000
      2        -22.632595   1.000000
      3        -22.632591   1.000000
      4          0.647274   1.000000
      5          6.519299   0.348973
      6          6.519312   0.348919
      7          7.130597  -0.000023
      8         10.053815  -0.000000
      9         10.053823  -0.000000
 
  0.6896552E-01  0.3448276E-01  0.3448276E-01  0.9840502E-03
      1        -22.945913   1.000000
      2        -22.667928   1.000000
      3        -22.634961   1.000000
      4          0.928179   1.000000
      5          6.331671   0.978034
      6          6.428904   0.719687
      7          7.471356  -0.000000
      8          9.846659  -0.000000
      9         10.099779  -0.000000
 
  0.1034483E+00  0.3448276E-01  0.3448276E-01  0.9840502E-03
      1        -23.124988   1.000000
      2        -22.721782   1.000000
      3        -22.638142   1.000000
      4          1.291594   1.000000
      5          6.097422   1.010029
      6          6.315778   0.998660
      7          7.913860  -0.000000
      8          9.664030  -0.000000
      9         10.158304  -0.000000
 
  0.1379310E+00  0.3448276E-01  0.3448276E-01  0.9840502E-03
      1        -23.332601   1.000000
      2        -22.789202   1.000000
      3        -22.641994   1.000000
      4          1.701947   1.000000
      5          5.835363   1.000023
      6          6.188046   1.028772
      7          8.454629  -0.000000
      8          9.559727  -0.000000
      9         10.228809  -0.000000
 
  0.1724138E+00  0.3448276E-01  0.3448276E-01  0.9840502E-03
      1        -23.558477   1.000000
      2        -22.865582   1.000000
      3        -22.646365   1.000000
      4          2.104052   1.000000
      5          5.562158   1.000000
      6          6.093628   1.009463
      7          9.078921  -0.000000
      8          9.562012  -0.000000
      9         10.312705  -0.000000
 
  0.2068966E+00  0.3448276E-01  0.3448276E-01  0.9840502E-03
      1        -23.791663   1.000000
      2        -22.946475   1.000000
      3        -22.651048   1.000000
      4          2.421724   1.000000
      5          5.291765   1.000000
      6          6.117593   1.013423
      7          9.581250  -0.000000
      8          9.856477  -0.000000
      9         10.412101  -0.000000
 
  0.2413793E+00  0.3448276E-01  0.3448276E-01  0.9840502E-03
      1        -24.021398   1.000000
      2        -23.027664   1.000000
      3        -22.655831   1.000000
      4          2.585688   1.000000
      5          5.035391   1.000000
      6          6.341031   0.963178
      7          9.757867  -0.000000
      8         10.527903  -0.000000
      9         10.606411  -0.000000
 
  0.2758621E+00  0.3448276E-01  0.3448276E-01  0.9840502E-03
      1        -24.237736   1.000000
      2        -23.105210   1.000000
      3        -22.660487   1.000000
      4          2.588482   1.000000
      5          4.801903   1.000000
      6          6.775893  -0.029192
      7          9.948024  -0.000000
      8         10.658489  -0.000000
      9         11.421184  -0.000000
 
  0.3103448E+00  0.3448276E-01  0.3448276E-01  0.9840502E-03
      1        -24.431866   1.000000
      2        -23.175579   1.000000
      3        -22.664788   1.000000
      4          2.485945   1.000000
      5          4.598180   1.000000
      6          7.359180  -0.000000
      7         10.142804  -0.000000
      8         10.798494  -0.000000
      9         12.248629   0.000000
 
  0.3448276E+00  0.3448276E-01  0.3448276E-01  0.9840502E-03
      1        -24.596295   1.000000
      2        -23.235704   1.000000
      3        -22.668523   1.000000
      4          2.343468   1.000000
      5          4.429506   1.000000
      6          8.005324  -0.000000
      7         10.312591  -0.000000
      8         10.938515  -0.000000
      9         13.044721   0.000000
 
  0.3793103E+00  0.3448276E-01  0.3448276E-01  0.9840502E-03
      1        -24.724931   1.000000
      2        -23.283057   1.000000
      3        -22.671513   1.000000
      4          2.207158   1.000000
      5          4.299802   1.000000
      6          8.633937  -0.000000
      7         10.426620  -0.000000
      8         11.065032  -0.000000
      9         13.751548   0.000000
 
  0.4137931E+00  0.3448276E-01  0.3448276E-01  0.9840502E-03
      1        -24.813237   1.000000
      2        -23.315711   1.000000
      3        -22.673604   1.000000
      4          2.104387   1.000000
      5          4.211861   1.000000
      6          9.165694  -0.000000
      7         10.462941  -0.000000
      8         11.162227  -0.000000
      9         14.295113   0.000000
 
  0.4482759E+00  0.3448276E-01  0.3448276E-01  0.9840502E-03
      1        -24.858166   1.000000
      2        -23.332367   1.000000
      3        -22.674666   1.000000
      4          2.049746   1.000000
      5          4.167442   1.000000
      6          9.499197  -0.000000
      7         10.438636  -0.000000
      8         11.215426  -0.000000
      9         14.595198   0.000000
 
 -0.3448276E-01  0.3448276E-01  0.3448276E-01  0.2460125E-03
      1        -22.656941   1.000000
      2        -22.630632   1.000000
      3        -22.630627   1.000000
      4          0.410580   1.000000
      5          6.684300  -0.025814
      6          6.684319  -0.025823
      7          6.751799  -0.033597
      8         10.012842  -0.000000
      9         10.279096  -0.000000
 
  0.6896552E-01  0.6896552E-01  0.3448276E-01  0.9840502E-03
      1        -23.106976   1.000000
      2        -22.689401   1.000000
      3        -22.655339   1.000000
      4          1.244701   1.000000
      5          6.164407   1.023403
      6          6.238657   1.035456
      7          7.905893  -0.000000
      8          9.753528  -0.000000
      9         10.092485  -0.000000
 
  0.1034483E+00  0.6896552E-01  0.3448276E-01  0.1968100E-02
      1        -23.295419   1.000000
      2        -22.742562   1.000000
      3        -22.665453   1.000000
      4          1.630674   1.000000
      5          5.925677   1.000293
      6          6.072882   1.006772
      7          8.436660  -0.000000
      8          9.622184  -0.000000
      9         10.179626  -0.000000
 
  0.1379310E+00  0.6896552E-01  0.3448276E-01  0.1968100E-02
      1        -23.502965   1.000000
      2        -22.814990   1.000000
      3        -22.672188   1.000000
      4          2.045935   1.000000
      5          5.658574   1.000000
      6          5.929731   1.000325
      7          9.053784  -0.000000
      8          9.561755  -0.000000
      9         10.289316  -0.000000
 
  0.1724138E+00  0.6896552E-01  0.3448276E-01  0.1968100E-02
      1        -23.720470   1.000000
      2        -22.897900   1.000000
      3        -22.678535   1.000000
      4          2.426186   1.000000
      5          5.388913   1.000000
      6          5.860785   1.000050
      7          9.540445  -0.000000
      8          9.800861  -0.000000
      9         10.408565  -0.000000
 
  0.2068966E+00  0.6896552E-01  0.3448276E-01  0.1968100E-02
      1        -23.938542   1.000000
      2        -22.985323   1.000000
      3        -22.684827   1.000000
      4          2.687433   1.000000
      5          5.130615   1.000000
      6          5.955058   1.000607
      7          9.658567  -0.000000
      8         10.534941  -0.000000
      9         10.554015  -0.000000
 
  0.2413793E+00  0.6896552E-01  0.3448276E-01  0.1968100E-02
      1        -24.148049   1.000000
      2        -23.072057   1.000000
      3        -22.690955   1.000000
      4          2.775506   1.000000
      5          4.893377   1.000000
      6          6.271961   1.029929
      7          9.816592  -0.000000
      8         10.667540  -0.000000
      9         11.370842  -0.000000
 
  0.2758621E+00  0.6896552E-01  0.3448276E-01  0.1968100E-02
      1        -24.340545   1.000000
      2        -23.153504   1.000000
      3        -22.696709   1.000000
      4          2.718021   1.000000
      5          4.683840   1.000000
      6          6.781249  -0.028029
      7         10.003696  -0.000000
      8         10.803274  -0.000000
      9         12.209121   0.000000
 
  0.3103448E+00  0.6896552E-01  0.3448276E-01  0.1968100E-02
      1        -24.508576   1.000000
      2        -23.225685   1.000000
      3        -22.701842   1.000000
      4          2.586732   1.000000
      5          4.506735   1.000000
      6          7.396309  -0.000000
      7         10.191095  -0.000000
      8         10.938435  -0.000000
      9         13.030979   0.000000
 
  0.3448276E+00  0.6896552E-01  0.3448276E-01  0.1968100E-02
      1        -24.645909   1.000000
      2        -23.285309   1.000000
      3        -22.706115   1.000000
      4          2.441448   1.000000
      5          4.365566   1.000000
      6          8.028243  -0.000000
      7         10.344800  -0.000000
      8         11.068996  -0.000000
      9         13.787084   0.000000
 
  0.3793103E+00  0.6896552E-01  0.3448276E-01  0.1968100E-02
      1        -24.747596   1.000000
      2        -23.329768   1.000000
      3        -22.709324   1.000000
      4          2.318666   1.000000
      5          4.262959   1.000000
      6          8.594620  -0.000000
      7         10.433803  -0.000000
      8         11.187986  -0.000000
      9         14.413551   0.000000
 
  0.4137931E+00  0.6896552E-01  0.3448276E-01  0.1968100E-02
      1        -24.810031   1.000000
      2        -23.357191   1.000000
      3        -22.711317   1.000000
      4          2.238429   1.000000
      5          4.200691   1.000000
      6          9.007396  -0.000000
      7         10.453517  -0.000000
      8         11.277292  -0.000000
      9         14.835536   0.000000
 
  0.4482759E+00  0.6896552E-01  0.3448276E-01  0.9840502E-03
      1        -24.831080   1.000000
      2        -23.366457   1.000000
      3        -22.711995   1.000000
      4          2.210693   1.000000
      5          4.179824   1.000000
      6          9.164782  -0.000000
      7         10.446957  -0.000000
      8         11.311283  -0.000000
      9         14.985672   0.000000
 
 -0.6896552E-01  0.6896552E-01  0.3448276E-01  0.9840502E-03
      1        -22.739089   1.000000
      2        -22.656229   1.000000
      3        -22.637568   1.000000
      4          0.590945   1.000000
      5          6.590806   0.109092
      6          6.664443  -0.012670
      7          6.914617  -0.004637
      8          9.787685  -0.000000
      9         10.334174  -0.000000
 
  0.1034483E+00  0.1034483E+00  0.3448276E-01  0.9840502E-03
      1        -23.484076   1.000000
      2        -22.786523   1.000000
      3        -22.692316   1.000000
      4          2.027377   1.000000
      5          5.739910   1.000001
      6          5.820740   1.000015
      7          9.055085  -0.000000
      8          9.543639  -0.000000
      9         10.296598  -0.000000
 
  0.1379310E+00  0.1034483E+00  0.3448276E-01  0.1968100E-02
      1        -23.682746   1.000000
      2        -22.857750   1.000000
      3        -22.709280   1.000000
      4          2.437140   1.000000
      5          5.499588   1.000000
      6          5.652329   1.000000
      7          9.509280  -0.000000
      8          9.762525  -0.000000
      9         10.442050  -0.000000
 
  0.1724138E+00  0.1034483E+00  0.3448276E-01  0.1968100E-02
      1        -23.883416   1.000000
      2        -22.945151   1.000000
      3        -22.721042   1.000000
      4          2.785587   1.000000
      5          5.237758   1.000000
      6          5.621876   1.000000
      7          9.552565  -0.000000
      8         10.536069  -0.000000
      9         10.591917  -0.000000
 
  0.2068966E+00  0.1034483E+00  0.3448276E-01  0.1968100E-02
      1        -24.078355   1.000000
      2        -23.039024   1.000000
      3        -22.730706   1.000000
      4          2.983201   1.000000
      5          4.995330   1.000000
      6          5.790682   1.000006
      7          9.663049  -0.000000
      8         10.736165  -0.000000
      9         11.364916  -0.000000
 
  0.2413793E+00  0.1034483E+00  0.3448276E-01  0.1968100E-02
      1        -24.260324   1.000000
      2        -23.132156   1.000000
      3        -22.739166   1.000000
      4          3.000663   1.000000
      5          4.782557   1.000000
      6          6.183336   1.027738
      7          9.825178  -0.000000
      8         10.872879  -0.000000
      9         12.221509   0.000000
 
  0.2758621E+00  0.1034483E+00  0.3448276E-01  0.1968100E-02
      1        -24.422750   1.000000
      2        -23.218671   1.000000
      3        -22.746565   1.000000
      4          2.898677   1.000000
      5          4.602454   1.000000
      6          6.729622  -0.035447
      7         10.015375  -0.000000
      8         10.999603  -0.000000
      9         13.074516   0.000000
 
  0.3103448E+00  0.1034483E+00  0.3448276E-01  0.1968100E-02
      1        -24.559895   1.000000
      2        -23.293702   1.000000
      3        -22.752796   1.000000
      4          2.753706   1.000000
      5          4.456420   1.000000
      6          7.330875  -0.000000
      7         10.201716  -0.000000
      8         11.118884  -0.000000
      9         13.881602   0.000000
 
  0.3448276E+00  0.1034483E+00  0.3448276E-01  0.1968100E-02
      1        -24.667027   1.000000
      2        -23.353369   1.000000
      3        -22.757679   1.000000
      4          2.615818   1.000000
      5          4.345636   1.000000
      6          7.899279  -0.000000
      7         10.344771  -0.000000
      8         11.237619  -0.000000
      9         14.587268   0.000000
 
  0.3793103E+00  0.1034483E+00  0.3448276E-01  0.1968100E-02
      1        -24.740511   1.000000
      2        -23.394763   1.000000
      3        -22.761042   1.000000
      4          2.512439   1.000000
      5          4.271136   1.000000
      6          8.353604  -0.000000
      7         10.417416  -0.000000
      8         11.351552  -0.000000
      9         15.122886   0.000000
 
  0.4137931E+00  0.1034483E+00  0.3448276E-01  0.1968100E-02
      1        -24.777876   1.000000
      2        -23.415944   1.000000
      3        -22.762763   1.000000
      4          2.457738   1.000000
      5          4.233689   1.000000
      6          8.612761  -0.000000
      7         10.434415  -0.000000
      8         11.427434  -0.000000
      9         15.416032   0.000000
 
 -0.1034483E+00  0.1034483E+00  0.3448276E-01  0.9840502E-03
      1        -22.878675   1.000000
      2        -22.697311   1.000000
      3        -22.639885   1.000000
      4          0.876682   1.000000
      5          6.416501   0.764700
      6          6.616884   0.051163
      7          7.212918  -0.000002
      8          9.536352  -0.000000
      9         10.376735  -0.000000
 
 -0.6896552E-01  0.1034483E+00  0.3448276E-01  0.9840502E-03
      1        -22.838625   1.000000
      2        -22.682871   1.000000
      3        -22.659256   1.000000
      4          0.822994   1.000000
      5          6.524952   0.326544
      6          6.605719   0.073867
      7          7.110346  -0.000043
      8          9.505183  -0.000000
      9         10.424432  -0.000000
 
  0.1379310E+00  0.1379310E+00  0.3448276E-01  0.9840502E-03
      1        -23.864048   1.000000
      2        -22.925612   1.000000
      3        -22.739992   1.000000
      4          2.827449   1.000000
      5          5.355088   1.000000
      6          5.418281   1.000000
      7          9.509810  -0.000000
      8         10.531893  -0.000000
      9         10.619463  -0.000000
 
  0.1724138E+00  0.1379310E+00  0.3448276E-01  0.1968100E-02
      1        -24.040017   1.000000
      2        -23.014563   1.000000
      3        -22.761619   1.000000
      4          3.133245   1.000000
      5          5.109156   1.000000
      6          5.437286   1.000000
      7          9.567001  -0.000000
      8         10.786445  -0.000000
      9         11.370592  -0.000000
 
  0.2068966E+00  0.1379310E+00  0.3448276E-01  0.1968100E-02
      1        -24.204627   1.000000
      2        -23.113859   1.000000
      3        -22.777462   1.000000
      4          3.266720   1.000000
      5          4.888916   1.000000
      6          5.675239   1.000000
      7          9.684577  -0.000000
      8         10.936962  -0.000000
      9         12.245975   0.000000
 
  0.2413793E+00  0.1379310E+00  0.3448276E-01  0.1968100E-02
      1        -24.352675   1.000000
      2        -23.213687   1.000000
      3        -22.789855   1.000000
      4          3.231316   1.000000
      5          4.707319   1.000000
      6          6.111661   1.012358
      7          9.849721  -0.000000
      8         11.064730  -0.000000
      9         13.131631   0.000000
 
  0.2758621E+00  0.1379310E+00  0.3448276E-01  0.1968100E-02
      1        -24.479787   1.000000
      2        -23.306121   1.000000
      3        -22.799770   1.000000
      4          3.108114   1.000000
      5          4.562355   1.000000
      6          6.650754   0.000631
      7         10.039714  -0.000000
      8         11.172490  -0.000000
      9         13.991158   0.000000
 
  0.3103448E+00  0.1379310E+00  0.3448276E-01  0.1968100E-02
      1        -24.582363   1.000000
      2        -23.384742   1.000000
      3        -22.807508   1.000000
      4          2.966904   1.000000
      5          4.451284   1.000000
      6          7.194909  -0.000003
      7         10.219598  -0.000000
      8         11.271931  -0.000000
      9         14.776988   0.000000
 
  0.3448276E+00  0.1379310E+00  0.3448276E-01  0.1968100E-02
      1        -24.657609   1.000000
      2        -23.444534   1.000000
      3        -22.813103   1.000000
      4          2.847048   1.000000
      5          4.372520   1.000000
      6          7.663110  -0.000000
      7         10.348399  -0.000000
      8         11.376311  -0.000000
      9         15.427449   0.000000
 
  0.3793103E+00  0.1379310E+00  0.3448276E-01  0.1968100E-02
      1        -24.703558   1.000000
      2        -23.481868   1.000000
      3        -22.816497   1.000000
      4          2.768817   1.000000
      5          4.325411   1.000000
      6          7.984000  -0.000000
      7         10.409086  -0.000000
      8         11.472149  -0.000000
      9         15.867624   0.000000
 
  0.4137931E+00  0.1379310E+00  0.3448276E-01  0.9840502E-03
      1        -24.719015   1.000000
      2        -23.494560   1.000000
      3        -22.817634   1.000000
      4          2.741768   1.000000
      5          4.309724   1.000000
      6          8.099187  -0.000000
      7         10.423276  -0.000000
      8         11.513152  -0.000000
      9         16.025131   0.000000
 
 -0.1379310E+00  0.1379310E+00  0.3448276E-01  0.9840502E-03
      1        -23.062118   1.000000
      2        -22.751665   1.000000
      3        -22.642173   1.000000
      4          1.243676   1.000000
      5          6.192379   1.029693
      6          6.529273   0.309696
      7          7.625481  -0.000000
      8          9.325092  -0.000000
      9         10.421698  -0.000000
 
 -0.1034483E+00  0.1379310E+00  0.3448276E-01  0.1968100E-02
      1        -22.993816   1.000000
      2        -22.728618   1.000000
      3        -22.668443   1.000000
      4          1.149013   1.000000
      5          6.351576   0.943902
      6          6.529941   0.307119
      7          7.458033  -0.000000
      8          9.234498  -0.000000
      9         10.504011  -0.000000
 
  0.1724138E+00  0.1724138E+00  0.3448276E-01  0.9840502E-03
      1        -24.184566   1.000000
      2        -23.105981   1.000000
      3        -22.793435   1.000000
      4          3.386317   1.000000
      5          4.964621   1.000000
      6          5.434519   1.000000
      7          9.632197  -0.000000
      8         10.961252  -0.000000
      9         12.257115   0.000000
 
  0.2068966E+00  0.1724138E+00  0.3448276E-01  0.1968100E-02
      1        -24.312732   1.000000
      2        -23.210833   1.000000
      3        -22.816889   1.000000
      4          3.475141   1.000000
      5          4.807632   1.000000
      6          5.677590   1.000000
      7          9.751673  -0.000000
      8         11.102727  -0.000000
      9         13.169116   0.000000
 
  0.2413793E+00  0.1724138E+00  0.3448276E-01  0.1968100E-02
      1        -24.421454   1.000000
      2        -23.318125   1.000000
      3        -22.834351   1.000000
      4          3.424887   1.000000
      5          4.674964   1.000000
      6          6.091189   1.009112
      7          9.915186  -0.000000
      8         11.209547  -0.000000
      9         14.075140   0.000000
 
  0.2758621E+00  0.1724138E+00  0.3448276E-01  0.1968100E-02
      1        -24.508840   1.000000
      2        -23.417699   1.000000
      3        -22.847419   1.000000
      4          3.312405   1.000000
      5          4.574049   1.000000
      6          6.565129   0.182681
      7         10.100083  -0.000000
      8         11.291310  -0.000000
      9         14.935756   0.000000
 
  0.3103448E+00  0.1724138E+00  0.3448276E-01  0.1968100E-02
      1        -24.574130   1.000000
      2        -23.500888   1.000000
      3        -22.856904   1.000000
      4          3.195130   1.000000
      5          4.501993   1.000000
      6          7.008364  -0.000644
      7         10.269269  -0.000000
      8         11.367378  -0.000000
      9         15.699012   0.000000
 
  0.3448276E+00  0.1724138E+00  0.3448276E-01  0.1968100E-02
      1        -24.617297   1.000000
      2        -23.560622   1.000000
      3        -22.863138   1.000000
      4          3.104358   1.000000
      5          4.455623   1.000000
      6          7.350392  -0.000000
      7         10.383965  -0.000000
      8         11.449296  -0.000000
      9         16.294303   0.000000
 
  0.3793103E+00  0.1724138E+00  0.3448276E-01  0.1968100E-02
      1        -24.638695   1.000000
      2        -23.591837   1.000000
      3        -22.866240   1.000000
      4          3.055678   1.000000
      5          4.432885   1.000000
      6          7.537168  -0.000000
      7         10.434068  -0.000000
      8         11.511468  -0.000000
      9         16.631113   0.000000
 
 -0.1724138E+00  0.1724138E+00  0.3448276E-01  0.9840502E-03
      1        -23.277962   1.000000
      2        -22.816385   1.000000
      3        -22.644755   1.000000
      4          1.653748   1.000000
      5          5.936174   1.000382
      6          6.410271   0.786174
      7          8.144233  -0.000000
      8          9.209920  -0.000000
      9         10.478040  -0.000000
 
 -0.1379310E+00  0.1724138E+00  0.3448276E-01  0.1968100E-02
      1        -23.188607   1.000000
      2        -22.789311   1.000000
      3        -22.672865   1.000000
      4          1.539660   1.000000
      5          6.118248   1.013544
      6          6.423278   0.740461
      7          7.924203  -0.000000
      8          9.041475  -0.000000
      9         10.584716  -0.000000
 
 -0.1034483E+00  0.1724138E+00  0.3448276E-01  0.9840502E-03
      1        -23.156202   1.000000
      2        -22.770857   1.000000
      3        -22.693786   1.000000
      4          1.501633   1.000000
      5          6.235056   1.035425
      6          6.368795   0.906465
      7          7.860731  -0.000000
      8          8.974737  -0.000000
      9         10.626047  -0.000000
 
  0.2068966E+00  0.2068966E+00  0.3448276E-01  0.9840502E-03
      1        -24.399835   1.000000
      2        -23.323267   1.000000
      3        -22.847015   1.000000
      4          3.561628   1.000000
      5          4.742306   1.000000
      6          5.844502   1.000031
      7          9.868835  -0.000000
      8         11.222456  -0.000000
      9         14.106300   0.000000
 
  0.2413793E+00  0.2068966E+00  0.3448276E-01  0.1968100E-02
      1        -24.464896   1.000000
      2        -23.440065   1.000000
      3        -22.869223   1.000000
      4          3.542773   1.000000
      5          4.690039   1.000000
      6          6.140760   1.018073
      7         10.027959  -0.000000
      8         11.299849  -0.000000
      9         15.025488   0.000000
 
  0.2758621E+00  0.2068966E+00  0.3448276E-01  0.1968100E-02
      1        -24.508900   1.000000
      2        -23.549152   1.000000
      3        -22.885224   1.000000
      4          3.473039   1.000000
      5          4.652251   1.000000
      6          6.478842   0.517376
      7         10.206740  -0.000000
      8         11.350953  -0.000000
      9         15.886539   0.000000
 
  0.3103448E+00  0.2068966E+00  0.3448276E-01  0.1968100E-02
      1        -24.534860   1.000000
      2        -23.638782   1.000000
      3        -22.896115   1.000000
      4          3.397904   1.000000
      5          4.627983   1.000000
      6          6.777895  -0.028762
      7         10.367035  -0.000000
      8         11.397654  -0.000000
      9         16.632671   0.000000
 
  0.3448276E+00  0.2068966E+00  0.3448276E-01  0.1968100E-02
      1        -24.547340   1.000000
      2        -23.698128   1.000000
      3        -22.902480   1.000000
      4          3.344145   1.000000
      5          4.614786   1.000000
      6          6.980327  -0.001228
      7         10.470540  -0.000000
      8         11.445795  -0.000000
      9         17.173801   0.000000
 
  0.3793103E+00  0.2068966E+00  0.3448276E-01  0.9840502E-03
      1        -24.550859   1.000000
      2        -23.718976   1.000000
      3        -22.904578   1.000000
      4          3.324898   1.000000
      5          4.610625   1.000000
      6          7.051646  -0.000218
      7         10.504307  -0.000000
      8         11.468839  -0.000000
      9         17.380441   0.000000
 
 -0.2068966E+00  0.2068966E+00  0.3448276E-01  0.9840502E-03
      1        -23.514098   1.000000
      2        -22.888135   1.000000
      3        -22.647626   1.000000
      4          2.050013   1.000000
      5          5.664336   1.000000
      6          6.311021   1.003771
      7          8.759438  -0.000000
      8          9.212008  -0.000000
      9         10.550228  -0.000000
 
 -0.1724138E+00  0.2068966E+00  0.3448276E-01  0.1968100E-02
      1        -23.410090   1.000000
      2        -22.859532   1.000000
      3        -22.676261   1.000000
      4          1.949608   1.000000
      5          5.856591   1.000044
      6          6.298188   1.015307
      7          8.492759  -0.000000
      8          8.971590  -0.000000
      9         10.672606  -0.000000
 
 -0.1379310E+00  0.2068966E+00  0.3448276E-01  0.1968100E-02
      1        -23.351645   1.000000
      2        -22.833455   1.000000
      3        -22.707586   1.000000
      4          1.901213   1.000000
      5          6.031585   1.003200
      6          6.210670   1.033085
      7          8.385714  -0.000000
      8          8.816506  -0.000000
      9         10.747463  -0.000000
 
  0.2413793E+00  0.2413793E+00  0.3448276E-01  0.9840502E-03
      1        -24.483570   1.000000
      2        -23.568844   1.000000
      3        -22.894904   1.000000
      4          3.580525   1.000000
      5          4.739533   1.000000
      6          6.251422   1.034699
      7         10.182990  -0.000000
      8         11.343695  -0.000000
      9         15.953441   0.000000
 
  0.2758621E+00  0.2413793E+00  0.3448276E-01  0.1968100E-02
      1        -24.481099   1.000000
      2        -23.691007   1.000000
      3        -22.912852   1.000000
      4          3.568508   1.000000
      5          4.797182   1.000000
      6          6.387324   0.857847
      7         10.359587  -0.000000
      8         11.358703  -0.000000
      9         16.821041   0.000000
 
  0.3103448E+00  0.2413793E+00  0.3448276E-01  0.1968100E-02
      1        -24.465704   1.000000
      2        -23.790553   1.000000
      3        -22.924242   1.000000
      4          3.541714   1.000000
      5          4.843218   1.000000
      6          6.504871   0.407856
      7         10.517841  -0.000000
      8         11.364301  -0.000000
      9         17.564144   0.000000
 
  0.3448276E+00  0.2413793E+00  0.3448276E-01  0.1968100E-02
      1        -24.451187   1.000000
      2        -23.848469   1.000000
      3        -22.929787   1.000000
      4          3.523097   1.000000
      5          4.868115   1.000000
      6          6.571480   0.163004
      7         10.611013  -0.000000
      8         11.369480  -0.000000
      9         18.046267   0.000000
 
 -0.2413793E+00  0.2413793E+00  0.3448276E-01  0.9840502E-03
      1        -23.758334   1.000000
      2        -22.963382   1.000000
      3        -22.650693   1.000000
      4          2.358052   1.000000
      5          5.391505   1.000000
      6          6.319718   0.994067
      7          9.319963  -0.000000
      8          9.458705  -0.000000
      9         10.639364  -0.000000
 
 -0.2068966E+00  0.2413793E+00  0.3448276E-01  0.1968100E-02
      1        -23.645875   1.000000
      2        -22.935337   1.000000
      3        -22.679384   1.000000
      4          2.313168   1.000000
      5          5.585212   1.000000
      6          6.222026   1.034578
      7          9.004057  -0.000000
      8          9.177160  -0.000000
      9         10.769730  -0.000000
 
 -0.1724138E+00  0.2413793E+00  0.3448276E-01  0.1968100E-02
      1        -23.567420   1.000000
      2        -22.908918   1.000000
      3        -22.715368   1.000000
      4          2.296201   1.000000
      5          5.770535   1.000003
      6          6.089417   1.008863
      7          8.774502  -0.000000
      8          9.026922  -0.000000
      9         10.869436  -0.000000
 
 -0.1379310E+00  0.2413793E+00  0.3448276E-01  0.9840502E-03
      1        -23.538949   1.000000
      2        -22.895595   1.000000
      3        -22.733908   1.000000
      4          2.292587   1.000000
      5          5.932263   1.000347
      6          5.944515   1.000470
      7          8.694214  -0.000000
      8          8.976770  -0.000000
      9         10.906368  -0.000000
 
  0.2758621E+00  0.2758621E+00  0.3448276E-01  0.9840502E-03
      1        -24.430155   1.000000
      2        -23.830100   1.000000
      3        -22.931445   1.000000
      4          3.609839   1.000000
      5          4.976497   1.000000
      6          6.287573   1.022558
      7         10.541320  -0.000000
      8         11.326435  -0.000000
      9         17.708235   0.000000
 
  0.3103448E+00  0.2758621E+00  0.3448276E-01  0.1968100E-02
      1        -24.369683   1.000000
      2        -23.946192   1.000000
      3        -22.942139   1.000000
      4          3.622363   1.000000
      5          5.133519   1.000000
      6          6.195029   1.030239
      7         10.709241  -0.000000
      8         11.271399  -0.000000
      9         18.476037   0.000000
 
  0.3448276E+00  0.2758621E+00  0.3448276E-01  0.9840502E-03
      1        -24.337176   1.000000
      2        -23.997676   1.000000
      3        -22.945626   1.000000
      4          3.624507   1.000000
      5          5.199199   1.000000
      6          6.153449   1.020886
      7         10.785878  -0.000000
      8         11.237712  -0.000000
      9         18.867139   0.000000
 
 -0.2758621E+00  0.2758621E+00  0.3448276E-01  0.9840502E-03
      1        -23.999028   1.000000
      2        -23.038535   1.000000
      3        -22.653837   1.000000
      4          2.514193   1.000000
      5          5.130043   1.000000
      6          6.514781   0.367180
      7          9.508280  -0.000000
      8         10.225935  -0.000000
      9         10.743665  -0.000000
 
 -0.2413793E+00  0.2758621E+00  0.3448276E-01  0.1968100E-02
      1        -23.884132   1.000000
      2        -23.012915   1.000000
      3        -22.682403   1.000000
      4          2.554441   1.000000
      5          5.319311   1.000000
      6          6.285689   1.023646
      7          9.176308  -0.000000
      8          9.904256  -0.000000
      9         10.875797  -0.000000
 
 -0.2068966E+00  0.2758621E+00  0.3448276E-01  0.1968100E-02
      1        -23.791770   1.000000
      2        -22.990270   1.000000
      3        -22.720730   1.000000
      4          2.614466   1.000000
      5          5.498839   1.000000
      6          6.055797   1.005032
      7          8.873069  -0.000000
      8          9.736864  -0.000000
      9         10.992499  -0.000000
 
 -0.1724138E+00  0.2758621E+00  0.3448276E-01  0.1968100E-02
      1        -23.739222   1.000000
      2        -22.974309   1.000000
      3        -22.750286   1.000000
      4          2.658499   1.000000
      5          5.638889   1.000000
      6          5.883899   1.000096
      7          8.694349  -0.000000
      8          9.665564  -0.000000
      9         11.059771  -0.000000
 
  0.3103448E+00  0.3103448E+00  0.3448276E-01  0.9840502E-03
      1        -24.255366   1.000000
      2        -24.091674   1.000000
      3        -22.950795   1.000000
      4          3.656213   1.000000
      5          5.452676   1.000000
      6          5.873071   1.000071
      7         10.907851  -0.000000
      8         11.131231  -0.000000
      9         19.113156   0.000000
 
 -0.3103448E+00  0.3103448E+00  0.3448276E-01  0.9840502E-03
      1        -24.225590   1.000000
      2        -23.110135   1.000000
      3        -22.656905   1.000000
      4          2.513743   1.000000
      5          4.890051   1.000000
      6          6.904502  -0.005558
      7          9.747551  -0.000000
      8         10.860749  -0.000000
      9         11.039727  -0.000000
 
 -0.2758621E+00  0.3103448E+00  0.3448276E-01  0.1968100E-02
      1        -24.113865   1.000000
      2        -23.088606   1.000000
      3        -22.685307   1.000000
      4          2.630889   1.000000
      5          5.070862   1.000000
      6          6.540970   0.265573
      7          9.415406  -0.000000
      8         10.693968  -0.000000
      9         10.995256  -0.000000
 
 -0.2413793E+00  0.3103448E+00  0.3448276E-01  0.1968100E-02
      1        -24.013688   1.000000
      2        -23.072396   1.000000
      3        -22.724932   1.000000
      4          2.784615   1.000000
      5          5.243738   1.000000
      6          6.179378   1.026849
      7          9.070293  -0.000000
      8         10.505269  -0.000000
      9         11.126490  -0.000000
 
 -0.2068966E+00  0.3103448E+00  0.3448276E-01  0.1968100E-02
      1        -23.942184   1.000000
      2        -23.061409   1.000000
      3        -22.760688   1.000000
      4          2.923837   1.000000
      5          5.364948   1.000000
      6          5.913938   1.000216
      7          8.809742  -0.000000
      8         10.414449  -0.000000
      9         11.220433  -0.000000
 
 -0.1724138E+00  0.3103448E+00  0.3448276E-01  0.9840502E-03
      1        -23.915911   1.000000
      2        -23.057287   1.000000
      3        -22.775395   1.000000
      4          2.982043   1.000000
      5          5.401704   1.000000
      6          5.822137   1.000015
      7          8.712383  -0.000000
      8         10.387440  -0.000000
      9         11.254345  -0.000000
 
 -0.3448276E+00  0.3448276E+00  0.3448276E-01  0.9840502E-03
      1        -24.428774   1.000000
      2        -23.175018   1.000000
      3        -22.659752   1.000000
      4          2.410161   1.000000
      5          4.679477   1.000000
      6          7.425890  -0.000000
      7         10.000675  -0.000000
      8         10.992959  -0.000000
      9         11.870528   0.000000
 
 -0.3103448E+00  0.3448276E+00  0.3448276E-01  0.1968100E-02
      1        -24.325248   1.000000
      2        -23.158990   1.000000
      3        -22.688024   1.000000
      4          2.569849   1.000000
      5          4.848517   1.000000
      6          6.957484  -0.002007
      7          9.695290  -0.000000
      8         11.101870  -0.000000
      9         11.541922  -0.000000
 
 -0.2758621E+00  0.3448276E+00  0.3448276E-01  0.1968100E-02
      1        -24.223195   1.000000
      2        -23.151014   1.000000
      3        -22.728450   1.000000
      4          2.790583   1.000000
      5          5.016612   1.000000
      6          6.477748   0.522001
      7          9.338660  -0.000000
      8         11.117521  -0.000000
      9         11.462919  -0.000000
 
 -0.2413793E+00  0.3448276E+00  0.3448276E-01  0.1968100E-02
      1        -24.138439   1.000000
      2        -23.149605   1.000000
      3        -22.767876   1.000000
      4          3.027790   1.000000
      5          5.134327   1.000000
      6          6.087397   1.008585
      7          9.021122  -0.000000
      8         11.055694  -0.000000
      9         11.533047  -0.000000
 
 -0.2068966E+00  0.3448276E+00  0.3448276E-01  0.1968100E-02
      1        -24.089164   1.000000
      2        -23.151145   1.000000
      3        -22.792154   1.000000
      4          3.196852   1.000000
      5          5.158687   1.000000
      6          5.890779   1.000116
      7          8.832685  -0.000000
      8         11.017566  -0.000000
      9         11.589639  -0.000000
 
 -0.3793103E+00  0.3793103E+00  0.3448276E-01  0.9840502E-03
      1        -24.600749   1.000000
      2        -23.230401   1.000000
      3        -22.662234   1.000000
      4          2.266751   1.000000
      5          4.504423   1.000000
      6          7.995450  -0.000000
      7         10.213203  -0.000000
      8         11.154088  -0.000000
      9         12.676720   0.000000
 
 -0.3448276E+00  0.3793103E+00  0.3448276E-01  0.1968100E-02
      1        -24.509816   1.000000
      2        -23.221007   1.000000
      3        -22.690442   1.000000
      4          2.436903   1.000000
      5          4.658709   1.000000
      6          7.456376  -0.000000
      7          9.960770  -0.000000
      8         11.262777  -0.000000
      9         12.365245   0.000000
 
 -0.3103448E+00  0.3793103E+00  0.3448276E-01  0.1968100E-02
      1        -24.411517   1.000000
      2        -23.222416   1.000000
      3        -22.731432   1.000000
      4          2.685126   1.000000
      5          4.821283   1.000000
      6          6.894437  -0.006611
      7          9.631026  -0.000000
      8         11.310915  -0.000000
      9         12.251155   0.000000
 
 -0.2758621E+00  0.3793103E+00  0.3448276E-01  0.1968100E-02
      1        -24.319515   1.000000
      2        -23.233169   1.000000
      3        -22.773174   1.000000
      4          2.980587   1.000000
      5          4.946345   1.000000
      6          6.399184   0.822318
      7          9.295062  -0.000000
      8         11.300174  -0.000000
      9         12.270458   0.000000
 
 -0.2413793E+00  0.3793103E+00  0.3448276E-01  0.1968100E-02
      1        -24.251717   1.000000
      2        -23.247248   1.000000
      3        -22.803495   1.000000
      4          3.255962   1.000000
      5          4.973290   1.000000
      6          6.077970   1.007370
      7          9.041421  -0.000000
      8         11.276949  -0.000000
      9         12.321107   0.000000
 
 -0.2068966E+00  0.3793103E+00  0.3448276E-01  0.9840502E-03
      1        -24.226331   1.000000
      2        -23.253975   1.000000
      3        -22.814411   1.000000
      4          3.380279   1.000000
      5          4.946510   1.000000
      6          5.980617   1.001099
      7          8.946236  -0.000000
      8         11.267177  -0.000000
      9         12.343597   0.000000
 
 -0.4137931E+00  0.4137931E+00  0.3448276E-01  0.9840502E-03
      1        -24.735204   1.000000
      2        -23.274004   1.000000
      3        -22.664221   1.000000
      4          2.129308   1.000000
      5          4.369459   1.000000
      6          8.539929  -0.000000
      7         10.325565  -0.000000
      8         11.354821  -0.000000
      9         13.399382   0.000000
 
 -0.3793103E+00  0.4137931E+00  0.3448276E-01  0.1968100E-02
      1        -24.660638   1.000000
      2        -23.272053   1.000000
      3        -22.692466   1.000000
      4          2.289451   1.000000
      5          4.506318   1.000000
      6          7.961371  -0.000000
      7         10.137041  -0.000000
      8         11.482178  -0.000000
      9         13.139324   0.000000
 
 -0.3448276E+00  0.4137931E+00  0.3448276E-01  0.1968100E-02
      1        -24.571217   1.000000
      2        -23.283447   1.000000
      3        -22.733895   1.000000
      4          2.536733   1.000000
      5          4.660438   1.000000
      6          7.350543  -0.000000
      7          9.873544  -0.000000
      8         11.507538  -0.000000
      9         13.063148   0.000000
 
 -0.3103448E+00  0.4137931E+00  0.3448276E-01  0.1968100E-02
      1        -24.478063   1.000000
      2        -23.307567   1.000000
      3        -22.777198   1.000000
      4          2.849708   1.000000
      5          4.793854   1.000000
      6          6.785214  -0.027144
      7          9.573320  -0.000000
      8         11.460361  -0.000000
      9         13.115147   0.000000
 
 -0.2758621E+00  0.4137931E+00  0.3448276E-01  0.1968100E-02
      1        -24.397235   1.000000
      2        -23.338101   1.000000
      3        -22.811414   1.000000
      4          3.183763   1.000000
      5          4.844977   1.000000
      6          6.355906   0.935191
      7          9.304241  -0.000000
      8         11.403683  -0.000000
      9         13.199726   0.000000
 
 -0.2413793E+00  0.4137931E+00  0.3448276E-01  0.1968100E-02
      1        -24.348727   1.000000
      2        -23.360642   1.000000
      3        -22.829708   1.000000
      4          3.436064   1.000000
      5          4.798463   1.000000
      6          6.144523   1.018892
      7          9.142816  -0.000000
      8         11.370391  -0.000000
      9         13.254920   0.000000
 
 -0.4482759E+00  0.4482759E+00  0.3448276E-01  0.9840502E-03
      1        -24.827461   1.000000
      2        -23.304071   1.000000
      3        -22.665608   1.000000
      4          2.025528   1.000000
      5          4.277782   1.000000
      6          8.995650  -0.000000
      7         10.323853  -0.000000
      8         11.558340  -0.000000
      9         13.960209   0.000000
 
 -0.4137931E+00  0.4482759E+00  0.3448276E-01  0.1968100E-02
      1        -24.772262   1.000000
      2        -23.310035   1.000000
      3        -22.693998   1.000000
      4          2.164355   1.000000
      5          4.394994   1.000000
      6          8.411729  -0.000000
      7         10.184139  -0.000000
      8         11.747908  -0.000000
      9         13.792791   0.000000
 
 -0.3793103E+00  0.4482759E+00  0.3448276E-01  0.1968100E-02
      1        -24.696266   1.000000
      2        -23.331517   1.000000
      3        -22.735802   1.000000
      4          2.394599   1.000000
      5          4.536921   1.000000
      6          7.781457  -0.000000
      7          9.996334  -0.000000
      8         11.773048  -0.000000
      9         13.795440   0.000000
 
 -0.3448276E+00  0.4482759E+00  0.3448276E-01  0.1968100E-02
      1        -24.607905   1.000000
      2        -23.369160   1.000000
      3        -22.780219   1.000000
      4          2.699942   1.000000
      5          4.673778   1.000000
      6          7.175887  -0.000006
      7          9.776393  -0.000000
      8         11.672134  -0.000000
      9         13.923508   0.000000
 
 -0.3103448E+00  0.4482759E+00  0.3448276E-01  0.1968100E-02
      1        -24.520320   1.000000
      2        -23.417694   1.000000
      3        -22.817027   1.000000
      4          3.049973   1.000000
      5          4.753939   1.000000
      6          6.667895  -0.015450
      7          9.557232  -0.000000
      8         11.543400  -0.000000
      9         14.079787   0.000000
 
 -0.2758621E+00  0.4482759E+00  0.3448276E-01  0.1968100E-02
      1        -24.452648   1.000000
      2        -23.461888   1.000000
      3        -22.840226   1.000000
      4          3.378926   1.000000
      5          4.728279   1.000000
      6          6.342394   0.960838
      7          9.389890  -0.000000
      8         11.450038  -0.000000
      9         14.195579   0.000000
 
 -0.2413793E+00  0.4482759E+00  0.3448276E-01  0.9840502E-03
      1        -24.426524   1.000000
      2        -23.480299   1.000000
      3        -22.848001   1.000000
      4          3.534353   1.000000
      5          4.675287   1.000000
      6          6.238040   1.035458
      7          9.326476  -0.000000
      8         11.416970  -0.000000
      9         14.237429   0.000000
 
 -0.4827586E+00  0.4827586E+00  0.3448276E-01  0.9840502E-03
      1        -24.874390   1.000000
      2        -23.319407   1.000000
      3        -22.666325   1.000000
      4          1.970314   1.000000
      5          4.231442   1.000000
      6          9.281957  -0.000000
      7         10.266343  -0.000000
      8         11.688578  -0.000000
      9         14.271978   0.000000
 
 -0.4482759E+00  0.4827586E+00  0.3448276E-01  0.1968100E-02
      1        -24.840772   1.000000
      2        -23.333434   1.000000
      3        -22.694948   1.000000
      4          2.082362   1.000000
      5          4.327225   1.000000
      6          8.745694  -0.000000
      7         10.142078  -0.000000
      8         11.973277   0.000000
      9         14.240049   0.000000
 
 -0.4137931E+00  0.4827586E+00  0.3448276E-01  0.1968100E-02
      1        -24.782151   1.000000
      2        -23.364669   1.000000
      3        -22.737107   1.000000
      4          2.287525   1.000000
      5          4.453145   1.000000
      6          8.132601  -0.000000
      7         10.001746  -0.000000
      8         12.054285   0.000000
      9         14.365289   0.000000
 
 -0.3793103E+00  0.4827586E+00  0.3448276E-01  0.1968100E-02
      1        -24.704168   1.000000
      2        -23.415132   1.000000
      3        -22.782332   1.000000
      4          2.572140   1.000000
      5          4.586511   1.000000
      6          7.516463  -0.000000
      7          9.858790  -0.000000
      8         11.943130   0.000000
      9         14.614239   0.000000
 
 -0.3448276E+00  0.4827586E+00  0.3448276E-01  0.1968100E-02
      1        -24.616599   1.000000
      2        -23.481370   1.000000
      3        -22.820921   1.000000
      4          2.913466   1.000000
      5          4.688076   1.000000
      6          6.959626  -0.001919
      7          9.727470  -0.000000
      8         11.747542  -0.000000
      9         14.886880   0.000000
 
 -0.3103448E+00  0.4827586E+00  0.3448276E-01  0.1968100E-02
      1        -24.535498   1.000000
      2        -23.549628   1.000000
      3        -22.847398   1.000000
      4          3.268612   1.000000
      5          4.706209   1.000000
      6          6.536491   0.282196
      7          9.623678  -0.000000
      8         11.565331  -0.000000
      9         15.104057   0.000000
 
 -0.2758621E+00  0.4827586E+00  0.3448276E-01  0.1968100E-02
      1        -24.484122   1.000000
      2        -23.595415   1.000000
      3        -22.860474   1.000000
      4          3.537733   1.000000
      5          4.642502   1.000000
      6          6.316771   0.997534
      7          9.565064  -0.000000
      8         11.459102  -0.000000
      9         15.222020   0.000000
 
 -0.4827586E+00 -0.4827586E+00  0.3448276E-01  0.9840502E-03
      1        -24.863868   1.000000
      2        -23.341335   1.000000
      3        -22.695267   1.000000
      4          2.053944   1.000000
      5          4.304474   1.000000
      6          8.876695  -0.000000
      7         10.106607  -0.000000
      8         12.061831   0.000000
      9         14.400693   0.000000
 
 -0.4482759E+00 -0.4827586E+00  0.3448276E-01  0.1968100E-02
      1        -24.825864   1.000000
      2        -23.381580   1.000000
      3        -22.737776   1.000000
      4          2.230666   1.000000
      5          4.410822   1.000000
      6          8.340185  -0.000000
      7          9.964243  -0.000000
      8         12.238080   0.000000
      9         14.682993   0.000000
 
 -0.4137931E+00 -0.4827586E+00  0.3448276E-01  0.1968100E-02
      1        -24.763346   1.000000
      2        -23.443508   1.000000
      3        -22.783597   1.000000
      4          2.488382   1.000000
      5          4.533413   1.000000
      6          7.756546  -0.000000
      7          9.856473  -0.000000
      8         12.185142   0.000000
      9         15.093637   0.000000
 
 -0.3793103E+00 -0.4827586E+00  0.3448276E-01  0.1968100E-02
      1        -24.682691   1.000000
      2        -23.525703   1.000000
      3        -22.823403   1.000000
      4          2.808507   1.000000
      5          4.643995   1.000000
      6          7.187693  -0.000004
      7          9.794785  -0.000000
      8         11.985965   0.000000
      9         15.532717   0.000000
 
 -0.3448276E+00 -0.4827586E+00  0.3448276E-01  0.1968100E-02
      1        -24.595562   1.000000
      2        -23.617279   1.000000
      3        -22.852078   1.000000
      4          3.160215   1.000000
      5          4.702796   1.000000
      6          6.697672  -0.031177
      7          9.780574  -0.000000
      8         11.739450  -0.000000
      9         15.907533   0.000000
 
 -0.3103448E+00 -0.4827586E+00  0.3448276E-01  0.1968100E-02
      1        -24.522497   1.000000
      2        -23.695159   1.000000
      3        -22.868721   1.000000
      4          3.480505   1.000000
      5          4.679258   1.000000
      6          6.363695   0.918334
      7          9.796915  -0.000000
      8         11.536149  -0.000000
      9         16.155847   0.000000
 
 -0.2758621E+00 -0.4827586E+00  0.3448276E-01  0.9840502E-03
      1        -24.492515   1.000000
      2        -23.727153   1.000000
      3        -22.874117   1.000000
      4          3.628747   1.000000
      5          4.637151   1.000000
      6          6.247204   1.035111
      7          9.809370  -0.000000
      8         11.456151  -0.000000
      9         16.242409   0.000000
 
 -0.4482759E+00 -0.4482759E+00  0.3448276E-01  0.9840502E-03
      1        -24.783301   1.000000
      2        -23.453098   1.000000
      3        -22.784023   1.000000
      4          2.459387   1.000000
      5          4.515581   1.000000
      6          7.845044  -0.000000
      7          9.843347  -0.000000
      8         12.282965   0.000000
      9         15.267774   0.000000
 
 -0.4137931E+00 -0.4482759E+00  0.3448276E-01  0.1968100E-02
      1        -24.716295   1.000000
      2        -23.548427   1.000000
      3        -22.824605   1.000000
      4          2.752417   1.000000
      5          4.621727   1.000000
      6          7.314723  -0.000000
      7          9.804516  -0.000000
      8         12.151975   0.000000
      9         15.904422   0.000000
 
 -0.3793103E+00 -0.4482759E+00  0.3448276E-01  0.1968100E-02
      1        -24.631921   1.000000
      2        -23.659923   1.000000
      3        -22.854735   1.000000
      4          3.085473   1.000000
      5          4.703917   1.000000
      6          6.804618  -0.022680
      7          9.850970  -0.000000
      8         11.916124   0.000000
      9         16.495568   0.000000
 
 -0.3448276E+00 -0.4482759E+00  0.3448276E-01  0.1968100E-02
      1        -24.544548   1.000000
      2        -23.769279   1.000000
      3        -22.873757   1.000000
      4          3.415059   1.000000
      5          4.735712   1.000000
      6          6.382985   0.869998
      7          9.959152  -0.000000
      8         11.652843  -0.000000
      9         16.953686   0.000000
 
 -0.3103448E+00 -0.4482759E+00  0.3448276E-01  0.1968100E-02
      1        -24.482516   1.000000
      2        -23.843656   1.000000
      3        -22.882803   1.000000
      4          3.649861   1.000000
      5          4.717538   1.000000
      6          6.137261   1.017326
      7         10.061499  -0.000000
      8         11.464368  -0.000000
      9         17.204486   0.000000
 
 -0.4137931E+00 -0.4137931E+00  0.3448276E-01  0.9840502E-03
      1        -24.644092   1.000000
      2        -23.674484   1.000000
      3        -22.855595   1.000000
      4          3.059154   1.000000
      5          4.704666   1.000000
      6          6.842254  -0.014566
      7          9.868055  -0.000000
      8         11.992121   0.000000
      9         16.719870   0.000000
 
 -0.3793103E+00 -0.4137931E+00  0.3448276E-01  0.1968100E-02
      1        -24.554131   1.000000
      2        -23.809013   1.000000
      3        -22.876153   1.000000
      4          3.375308   1.000000
      5          4.773522   1.000000
      6          6.387607   0.857039
      7         10.033821  -0.000000
      8         11.748341  -0.000000
      9         17.457577   0.000000
 
 -0.3448276E+00 -0.4137931E+00  0.3448276E-01  0.1968100E-02
      1        -24.464692   1.000000
      2        -23.927943   1.000000
      3        -22.887625   1.000000
      4          3.638885   1.000000
      5          4.824705   1.000000
      6          6.025713   1.002852
      7         10.244642  -0.000000
      8         11.488694  -0.000000
      9         18.000926   0.000000
 
 -0.3103448E+00 -0.4137931E+00  0.3448276E-01  0.9840502E-03
      1        -24.420983   1.000000
      2        -23.981957   1.000000
      3        -22.891293   1.000000
      4          3.748465   1.000000
      5          4.847059   1.000000
      6          5.877070   1.000079
      7         10.359349  -0.000000
      8         11.357527  -0.000000
      9         18.204776   0.000000
 
 -0.3793103E+00 -0.3793103E+00  0.3448276E-01  0.9840502E-03
      1        -24.455475   1.000000
      2        -23.959728   1.000000
      3        -22.889173   1.000000
      4          3.631252   1.000000
      5          4.875269   1.000000
      6          5.975755   1.000985
      7         10.309650  -0.000000
      8         11.503804  -0.000000
      9         18.360057   0.000000
 
 -0.3448276E+00 -0.3793103E+00  0.3448276E-01  0.1968100E-02
      1        -24.358507   1.000000
      2        -24.084152   1.000000
      3        -22.895278   1.000000
      4          3.785837   1.000000
      5          5.011345   1.000000
      6          5.652475   1.000000
      7         10.589594  -0.000000
      8         11.247681  -0.000000
      9         19.031156   0.000000
 
 -0.3448276E+00 -0.3448276E+00  0.3448276E-01  0.3280167E-03
      1        -24.229894   1.000000
      2        -24.229888   1.000000
      3        -22.897713   1.000000
      4          3.834583   1.000000
      5          5.299749   1.000000
      6          5.299754   1.000000
      7         10.939088  -0.000000
      8         10.939092  -0.000000
      9         19.246130   0.000000
 
  0.6896552E-01  0.6896552E-01  0.6896552E-01  0.3280167E-03
      1        -23.282182   1.000000
      2        -22.694819   1.000000
      3        -22.694814   1.000000
      4          1.589400   1.000000
      5          5.983004   1.001159
      6          5.983014   1.001160
      7          8.442753  -0.000000
      8          9.914918  -0.000000
      9          9.914926  -0.000000
 
  0.1034483E+00  0.6896552E-01  0.6896552E-01  0.9840502E-03
      1        -23.474511   1.000000
      2        -22.757235   1.000000
      3        -22.701360   1.000000
      4          1.992687   1.000000
      5          5.711944   1.000000
      6          5.802024   1.000008
      7          9.067168  -0.000000
      8          9.794250  -0.000000
      9         10.078753  -0.000000
 
  0.1379310E+00  0.6896552E-01  0.6896552E-01  0.9840502E-03
      1        -23.676344   1.000000
      2        -22.836791   1.000000
      3        -22.708730   1.000000
      4          2.408774   1.000000
      5          5.441795   1.000000
      6          5.656774   1.000000
      7          9.706024  -0.000000
      8          9.819256  -0.000000
      9         10.238863  -0.000000
 
  0.1724138E+00  0.6896552E-01  0.6896552E-01  0.9840502E-03
      1        -23.879893   1.000000
      2        -22.927141   1.000000
      3        -22.716611   1.000000
      4          2.760760   1.000000
      5          5.183956   1.000000
      6          5.625081   1.000000
      7          9.779619  -0.000000
      8         10.394647  -0.000000
      9         10.557977  -0.000000
 
  0.2068966E+00  0.6896552E-01  0.6896552E-01  0.9840502E-03
      1        -24.077472   1.000000
      2        -23.021942   1.000000
      3        -22.724640   1.000000
      4          2.956728   1.000000
      5          4.946392   1.000000
      6          5.803656   1.000009
      7          9.884074  -0.000000
      8         10.547528  -0.000000
      9         11.381551  -0.000000
 
  0.2413793E+00  0.6896552E-01  0.6896552E-01  0.9840502E-03
      1        -24.261811   1.000000
      2        -23.115159   1.000000
      3        -22.732431   1.000000
      4          2.969675   1.000000
      5          4.734813   1.000000
      6          6.220209   1.034380
      7         10.030453  -0.000000
      8         10.698436  -0.000000
      9         12.231848   0.000000
 
  0.2758621E+00  0.6896552E-01  0.6896552E-01  0.9840502E-03
      1        -24.426298   1.000000
      2        -23.201393   1.000000
      3        -22.739596   1.000000
      4          2.864217   1.000000
      5          4.553347   1.000000
      6          6.800952  -0.023528
      7         10.193348  -0.000000
      8         10.845507  -0.000000
      9         13.075637   0.000000
 
  0.3103448E+00  0.6896552E-01  0.6896552E-01  0.9840502E-03
      1        -24.565153   1.000000
      2        -23.276021   1.000000
      3        -22.745806   1.000000
      4          2.717539   1.000000
      5          4.405004   1.000000
      6          7.445977  -0.000000
      7         10.345376  -0.000000
      8         10.983274  -0.000000
      9         13.870006   0.000000
 
  0.3448276E+00  0.6896552E-01  0.6896552E-01  0.9840502E-03
      1        -24.673607   1.000000
      2        -23.335294   1.000000
      3        -22.750760   1.000000
      4          2.579009   1.000000
      5          4.291981   1.000000
      6          8.065711  -0.000000
      7         10.460731  -0.000000
      8         11.102499  -0.000000
      9         14.559816   0.000000
 
  0.3793103E+00  0.6896552E-01  0.6896552E-01  0.9840502E-03
      1        -24.747986   1.000000
      2        -23.376387   1.000000
      3        -22.754213   1.000000
      4          2.475484   1.000000
      5          4.215813   1.000000
      6          8.571643  -0.000000
      7         10.523200  -0.000000
      8         11.191625  -0.000000
      9         15.078915   0.000000
 
  0.4137931E+00  0.6896552E-01  0.6896552E-01  0.9840502E-03
      1        -24.785811   1.000000
      2        -23.397410   1.000000
      3        -22.755973   1.000000
      4          2.420749   1.000000
      5          4.177489   1.000000
      6          8.866181  -0.000000
      7         10.540554  -0.000000
      8         11.239625  -0.000000
      9         15.360727   0.000000
 
 -0.6896552E-01  0.6896552E-01  0.6896552E-01  0.2460125E-03
      1        -22.781283   1.000000
      2        -22.682026   1.000000
      3        -22.682020   1.000000
      4          0.768424   1.000000
      5          6.659782  -0.008558
      6          6.659799  -0.008574
      7          6.918140  -0.004348
      8          9.466722  -0.000000
      9         10.478280  -0.000000
 
  0.1034483E+00  0.1034483E+00  0.6896552E-01  0.9840502E-03
      1        -23.661471   1.000000
      2        -22.797342   1.000000
      3        -22.737652   1.000000
      4          2.405081   1.000000
      5          5.500380   1.000000
      6          5.542285   1.000000
      7          9.779791  -0.000000
      8          9.828985  -0.000000
      9         10.165854  -0.000000
 
  0.1379310E+00  0.1034483E+00  0.6896552E-01  0.1968100E-02
      1        -23.849208   1.000000
      2        -22.875354   1.000000
      3        -22.755707   1.000000
      4          2.816308   1.000000
      5          5.255563   1.000000
      6          5.387562   1.000000
      7          9.832575  -0.000000
      8         10.340489  -0.000000
      9         10.564901  -0.000000
 
  0.1724138E+00  0.1034483E+00  0.6896552E-01  0.1968100E-02
      1        -24.031167   1.000000
      2        -22.971141   1.000000
      3        -22.768365   1.000000
      4          3.132309   1.000000
      5          5.016145   1.000000
      6          5.401687   1.000000
      7          9.888870  -0.000000
      8         10.519749  -0.000000
      9         11.401203  -0.000000
 
  0.2068966E+00  0.1034483E+00  0.6896552E-01  0.1968100E-02
      1        -24.201393   1.000000
      2        -23.073152   1.000000
      3        -22.779541   1.000000
      4          3.255575   1.000000
      5          4.803474   1.000000
      6          5.666064   1.000000
      7          9.997337  -0.000000
      8         10.687551  -0.000000
      9         12.269797   0.000000
 
  0.2413793E+00  0.1034483E+00  0.6896552E-01  0.1968100E-02
      1        -24.354612   1.000000
      2        -23.173413   1.000000
      3        -22.789656   1.000000
      4          3.201667   1.000000
      5          4.621431   1.000000
      6          6.158567   1.022056
      7         10.140379  -0.000000
      8         10.841880  -0.000000
      9         13.141290   0.000000
 
  0.2758621E+00  0.1034483E+00  0.6896552E-01  0.1968100E-02
      1        -24.486307   1.000000
      2        -23.265189   1.000000
      3        -22.798526   1.000000
      4          3.064911   1.000000
      5          4.471344   1.000000
      6          6.768262  -0.030761
      7         10.294582  -0.000000
      8         10.980869  -0.000000
      9         13.977997   0.000000
 
  0.3103448E+00  0.1034483E+00  0.6896552E-01  0.1968100E-02
      1        -24.592690   1.000000
      2        -23.342749   1.000000
      3        -22.805845   1.000000
      4          2.916094   1.000000
      5          4.353931   1.000000
      6          7.392126  -0.000000
      7         10.433627  -0.000000
      8         11.102030  -0.000000
      9         14.731553   0.000000
 
  0.3448276E+00  0.1034483E+00  0.6896552E-01  0.1968100E-02
      1        -24.670811   1.000000
      2        -23.401504   1.000000
      3        -22.811311   1.000000
      4          2.792396   1.000000
      5          4.269694   1.000000
      6          7.941746  -0.000000
      7         10.533423  -0.000000
      8         11.201411  -0.000000
      9         15.342528   0.000000
 
  0.3793103E+00  0.1034483E+00  0.6896552E-01  0.1968100E-02
      1        -24.718552   1.000000
      2        -23.438108   1.000000
      3        -22.814695   1.000000
      4          2.712387   1.000000
      5          4.219000   1.000000
      6          8.328479  -0.000000
      7         10.584052  -0.000000
      8         11.270305  -0.000000
      9         15.746166   0.000000
 
  0.4137931E+00  0.1034483E+00  0.6896552E-01  0.9840502E-03
      1        -24.734600   1.000000
      2        -23.450533   1.000000
      3        -22.815840   1.000000
      4          2.684857   1.000000
      5          4.202083   1.000000
      6          8.469870  -0.000000
      7         10.597144  -0.000000
      8         11.295619  -0.000000
      9         15.888081   0.000000
 
 -0.1034483E+00  0.1034483E+00  0.6896552E-01  0.9840502E-03
      1        -22.900211   1.000000
      2        -22.723418   1.000000
      3        -22.701141   1.000000
      4          1.049550   1.000000
      5          6.550038   0.233053
      6          6.635080   0.020714
      7          7.156758  -0.000010
      8          9.126088  -0.000000
      9         10.597144  -0.000000
 
  0.1379310E+00  0.1379310E+00  0.6896552E-01  0.9840502E-03
      1        -24.015053   1.000000
      2        -22.944040   1.000000
      3        -22.793610   1.000000
      4          3.210848   1.000000
      5          5.116193   1.000000
      6          5.168813   1.000000
      7          9.878250  -0.000000
      8         10.523809  -0.000000
      9         11.409799  -0.000000
 
  0.1724138E+00  0.1379310E+00  0.6896552E-01  0.1968100E-02
      1        -24.168516   1.000000
      2        -23.039148   1.000000
      3        -22.818481   1.000000
      4          3.478904   1.000000
      5          4.903090   1.000000
      6          5.237851   1.000000
      7          9.952996  -0.000000
      8         10.710281  -0.000000
      9         12.295644   0.000000
 
  0.2068966E+00  0.1379310E+00  0.6896552E-01  0.1968100E-02
      1        -24.305348   1.000000
      2        -23.146070   1.000000
      3        -22.836447   1.000000
      4          3.531474   1.000000
      5          4.716552   1.000000
      6          5.580979   1.000000
      7         10.068075  -0.000000
      8         10.877075  -0.000000
      9         13.195172   0.000000
 
  0.2413793E+00  0.1379310E+00  0.6896552E-01  0.1968100E-02
      1        -24.422362   1.000000
      2        -23.252952   1.000000
      3        -22.850665   1.000000
      4          3.434813   1.000000
      5          4.565843   1.000000
      6          6.110409   1.012140
      7         10.212204  -0.000000
      8         11.018276  -0.000000
      9         14.075400   0.000000
 
  0.2758621E+00  0.1379310E+00  0.6896552E-01  0.1968100E-02
      1        -24.517370   1.000000
      2        -23.350507   1.000000
      3        -22.862049   1.000000
      4          3.291163   1.000000
      5          4.448579   1.000000
      6          6.700289  -0.031943
      7         10.364691  -0.000000
      8         11.133815  -0.000000
      9         14.894431   0.000000
 
  0.3103448E+00  0.1379310E+00  0.6896552E-01  0.1968100E-02
      1        -24.589128   1.000000
      2        -23.431048   1.000000
      3        -22.870735   1.000000
      4          3.156333   1.000000
      5          4.362397   1.000000
      6          7.255210  -0.000000
      7         10.498879  -0.000000
      8         11.227860  -0.000000
      9         15.599669   0.000000
 
  0.3448276E+00  0.1379310E+00  0.6896552E-01  0.1968100E-02
      1        -24.637071   1.000000
      2        -23.488424   1.000000
      3        -22.876633   1.000000
      4          3.056399   1.000000
      5          4.305718   1.000000
      6          7.692739  -0.000000
      7         10.590220  -0.000000
      8         11.302934  -0.000000
      9         16.128516   0.000000
 
  0.3793103E+00  0.1379310E+00  0.6896552E-01  0.1968100E-02
      1        -24.661010   1.000000
      2        -23.518247   1.000000
      3        -22.879624   1.000000
      4          3.003864   1.000000
      5          4.277585   1.000000
      6          7.937057  -0.000000
      7         10.631640  -0.000000
      8         11.348988  -0.000000
      9         16.415928   0.000000
 
 -0.1379310E+00  0.1379310E+00  0.6896552E-01  0.9840502E-03
      1        -23.074895   1.000000
      2        -22.778172   1.000000
      3        -22.707212   1.000000
      4          1.411033   1.000000
      5          6.343452   0.958993
      6          6.567268   0.175948
      7          7.557956  -0.000000
      8          8.841676  -0.000000
      9         10.702659  -0.000000
 
 -0.1034483E+00  0.1379310E+00  0.6896552E-01  0.9840502E-03
      1        -23.028181   1.000000
      2        -22.766706   1.000000
      3        -22.734686   1.000000
      4          1.368080   1.000000
      5          6.490266   0.469064
      6          6.571449   0.163098
      7          7.417141  -0.000000
      8          8.763775  -0.000000
      9         10.746466  -0.000000
 
  0.1724138E+00  0.1724138E+00  0.6896552E-01  0.9840502E-03
      1        -24.287739   1.000000
      2        -23.133272   1.000000
      3        -22.856918   1.000000
      4          3.687845   1.000000
      5          4.810774   1.000000
      6          5.278478   1.000000
      7         10.036719  -0.000000
      8         10.894893  -0.000000
      9         13.215667   0.000000
 
  0.2068966E+00  0.1724138E+00  0.6896552E-01  0.1968100E-02
      1        -24.386171   1.000000
      2        -23.243606   1.000000
      3        -22.884414   1.000000
      4          3.705210   1.000000
      5          4.693733   1.000000
      6          5.612759   1.000000
      7         10.154072  -0.000000
      8         11.048384  -0.000000
      9         14.132395   0.000000
 
  0.2413793E+00  0.1724138E+00  0.6896552E-01  0.1968100E-02
      1        -24.462727   1.000000
      2        -23.356739   1.000000
      3        -22.904513   1.000000
      4          3.613878   1.000000
      5          4.588082   1.000000
      6          6.100266   1.010468
      7         10.297199  -0.000000
      8         11.165217  -0.000000
      9         15.010800   0.000000
 
  0.2758621E+00  0.1724138E+00  0.6896552E-01  0.1968100E-02
      1        -24.517974   1.000000
      2        -23.460453   1.000000
      3        -22.919284   1.000000
      4          3.496376   1.000000
      5          4.507767   1.000000
      6          6.609586   0.065651
      7         10.446724  -0.000000
      8         11.250228  -0.000000
      9         15.807163   0.000000
 
  0.3103448E+00  0.1724138E+00  0.6896552E-01  0.1968100E-02
      1        -24.553947   1.000000
      2        -23.544051   1.000000
      3        -22.929587   1.000000
      4          3.394091   1.000000
      5          4.452717   1.000000
      6          7.051226  -0.000221
      7         10.574910  -0.000000
      8         11.314105  -0.000000
      9         16.465847   0.000000
 
  0.3448276E+00  0.1724138E+00  0.6896552E-01  0.1968100E-02
      1        -24.573652   1.000000
      2        -23.598493   1.000000
      3        -22.935716   1.000000
      4          3.326734   1.000000
      5          4.420777   1.000000
      6          7.352898  -0.000000
      7         10.656323  -0.000000
      8         11.361779  -0.000000
      9         16.915955   0.000000
 
  0.3793103E+00  0.1724138E+00  0.6896552E-01  0.9840502E-03
      1        -24.579847   1.000000
      2        -23.617421   1.000000
      3        -22.937754   1.000000
      4          3.303388   1.000000
      5          4.410325   1.000000
      6          7.460476  -0.000000
      7         10.682871  -0.000000
      8         11.381284  -0.000000
      9         17.079233   0.000000
 
 -0.1724138E+00  0.1724138E+00  0.6896552E-01  0.9840502E-03
      1        -23.284473   1.000000
      2        -22.843357   1.000000
      3        -22.710314   1.000000
      4          1.816152   1.000000
      5          6.096912   1.009952
      6          6.445521   0.655339
      7          8.073918  -0.000000
      8          8.683437  -0.000000
      9         10.804967  -0.000000
 
 -0.1379310E+00  0.1724138E+00  0.6896552E-01  0.1968100E-02
      1        -23.207911   1.000000
      2        -22.826025   1.000000
      3        -22.749091   1.000000
      4          1.750417   1.000000
      5          6.307816   1.006953
      6          6.469875   0.555193
      7          7.854595  -0.000000
      8          8.500437  -0.000000
      9         10.882093  -0.000000
 
  0.2068966E+00  0.2068966E+00  0.6896552E-01  0.9840502E-03
      1        -24.442545   1.000000
      2        -23.359178   1.000000
      3        -22.920396   1.000000
      4          3.744013   1.000000
      5          4.696400   1.000000
      6          5.815650   1.000013
      7         10.270008  -0.000000
      8         11.177503  -0.000000
      9         15.052940   0.000000
 
  0.2413793E+00  0.2068966E+00  0.6896552E-01  0.1968100E-02
      1        -24.475380   1.000000
      2        -23.480057   1.000000
      3        -22.946282   1.000000
      4          3.700785   1.000000
      5          4.686072   1.000000
      6          6.146429   1.019312
      7         10.410102  -0.000000
      8         11.262486  -0.000000
      9         15.923363   0.000000
 
  0.2758621E+00  0.2068966E+00  0.6896552E-01  0.1968100E-02
      1        -24.488256   1.000000
      2        -23.591806   1.000000
      3        -22.964316   1.000000
      4          3.633933   1.000000
      5          4.668519   1.000000
      6          6.500775   0.424904
      7         10.555650  -0.000000
      8         11.313081  -0.000000
      9         16.701306   0.000000
 
  0.3103448E+00  0.2068966E+00  0.6896552E-01  0.1968100E-02
      1        -24.488040   1.000000
      2        -23.679487   1.000000
      3        -22.975836   1.000000
      4          3.576230   1.000000
      5          4.654202   1.000000
      6          6.789353  -0.026204
      7         10.677162  -0.000000
      8         11.343765  -0.000000
      9         17.325743   0.000000
 
  0.3448276E+00  0.2068966E+00  0.6896552E-01  0.1968100E-02
      1        -24.484112   1.000000
      2        -23.728466   1.000000
      3        -22.981470   1.000000
      4          3.543944   1.000000
      5          4.646748   1.000000
      6          6.950165  -0.002334
      7         10.745131  -0.000000
      8         11.361578  -0.000000
      9         17.697653   0.000000
 
 -0.2068966E+00  0.2068966E+00  0.6896552E-01  0.9840502E-03
      1        -23.515073   1.000000
      2        -22.915638   1.000000
      3        -22.712551   1.000000
      4          2.210203   1.000000
      5          5.832290   1.000021
      6          6.307805   1.006964
      7          8.680921  -0.000000
      8          8.689162  -0.000000
      9         10.909232  -0.000000
 
 -0.1724138E+00  0.2068966E+00  0.6896552E-01  0.1968100E-02
      1        -23.418979   1.000000
      2        -22.896620   1.000000
      3        -22.755328   1.000000
      4          2.153757   1.000000
      5          6.063909   1.005807
      6          6.325789   0.986325
      7          8.381363  -0.000000
      8          8.434631  -0.000000
      9         11.010274  -0.000000
 
 -0.1379310E+00  0.2068966E+00  0.6896552E-01  0.9840502E-03
      1        -23.382449   1.000000
      2        -22.885383   1.000000
      3        -22.778637   1.000000
      4          2.136007   1.000000
      5          6.232606   1.035350
      6          6.252220   1.034601
      7          8.285092  -0.000000
      8          8.331181  -0.000000
      9         11.047057  -0.000000
 
  0.2413793E+00  0.2413793E+00  0.6896552E-01  0.9840502E-03
      1        -24.462517   1.000000
      2        -23.611425   1.000000
      3        -22.976272   1.000000
      4          3.715530   1.000000
      5          4.808482   1.000000
      6          6.247757   1.035066
      7         10.547285  -0.000000
      8         11.311308  -0.000000
      9         16.786158   0.000000
 
  0.2758621E+00  0.2413793E+00  0.6896552E-01  0.1968100E-02
      1        -24.430596   1.000000
      2        -23.735098   1.000000
      3        -22.996312   1.000000
      4          3.700058   1.000000
      5          4.906004   1.000000
      6          6.373645   0.894571
      7         10.691055  -0.000000
      8         11.323110  -0.000000
      9         17.561798   0.000000
 
  0.3103448E+00  0.2413793E+00  0.6896552E-01  0.1968100E-02
      1        -24.393739   1.000000
      2        -23.829834   1.000000
      3        -23.007823   1.000000
      4          3.682009   1.000000
      5          4.963471   1.000000
      6          6.475894   0.529831
      7         10.808175  -0.000000
      8         11.314786  -0.000000
      9         18.175444   0.000000
 
  0.3448276E+00  0.2413793E+00  0.6896552E-01  0.9840502E-03
      1        -24.376161   1.000000
      2        -23.867165   1.000000
      3        -23.011578   1.000000
      4          3.674681   1.000000
      5          4.982071   1.000000
      6          6.514799   0.367109
      7         10.855251  -0.000000
      8         11.307633  -0.000000
      9         18.443270   0.000000
 
 -0.2413793E+00  0.2413793E+00  0.6896552E-01  0.9840502E-03
      1        -23.754185   1.000000
      2        -22.991428   1.000000
      3        -22.714470   1.000000
      4          2.520320   1.000000
      5          5.565400   1.000000
      6          6.244144   1.035306
      7          8.817743  -0.000000
      8          9.389930  -0.000000
      9         11.016986  -0.000000
 
 -0.2068966E+00  0.2413793E+00  0.6896552E-01  0.1968100E-02
      1        -23.646281   1.000000
      2        -22.973132   1.000000
      3        -22.758701   1.000000
      4          2.516052   1.000000
      5          5.798718   1.000007
      6          6.188014   1.028765
      7          8.468555  -0.000000
      8          9.078160  -0.000000
      9         11.133950  -0.000000
 
 -0.1724138E+00  0.2413793E+00  0.6896552E-01  0.1968100E-02
      1        -23.582636   1.000000
      2        -22.959728   1.000000
      3        -22.794114   1.000000
      4          2.521016   1.000000
      5          5.962085   1.000717
      6          6.138876   1.017669
      7          8.239126  -0.000000
      8          8.938417  -0.000000
      9         11.199860  -0.000000
 
  0.2758621E+00  0.2758621E+00  0.6896552E-01  0.9840502E-03
      1        -24.351710   1.000000
      2        -23.875915   1.000000
      3        -23.016541   1.000000
      4          3.724458   1.000000
      5          5.156733   1.000000
      6          6.233933   1.035396
      7         10.838144  -0.000000
      8         11.288494  -0.000000
      9         18.360849   0.000000
 
  0.3103448E+00  0.2758621E+00  0.6896552E-01  0.1968100E-02
      1        -24.274780   1.000000
      2        -23.985331   1.000000
      3        -23.026321   1.000000
      4          3.731332   1.000000
      5          5.337592   1.000000
      6          6.119219   1.013725
      7         10.958073  -0.000000
      8         11.232083  -0.000000
      9         19.023180   0.000000
 
 -0.2758621E+00  0.2758621E+00  0.6896552E-01  0.9840502E-03
      1        -23.990163   1.000000
      2        -23.067105   1.000000
      3        -22.716239   1.000000
      4          2.679865   1.000000
      5          5.308938   1.000000
      6          6.341667   0.962091
      7          9.059462  -0.000000
      8         10.159672  -0.000000
      9         11.129546  -0.000000
 
 -0.2413793E+00  0.2758621E+00  0.6896552E-01  0.1968100E-02
      1        -23.877167   1.000000
      2        -23.051525   1.000000
      3        -22.760843   1.000000
      4          2.761883   1.000000
      5          5.537532   1.000000
      6          6.150815   1.020291
      7          8.676682  -0.000000
      8          9.816099  -0.000000
      9         11.256661  -0.000000
 
 -0.2068966E+00  0.2758621E+00  0.6896552E-01  0.1968100E-02
      1        -23.794416   1.000000
      2        -23.041695   1.000000
      3        -22.802214   1.000000
      4          2.839144   1.000000
      5          5.672471   1.000000
      6          6.060584   1.005479
      7          8.355031  -0.000000
      8          9.639793  -0.000000
      9         11.345113  -0.000000
 
 -0.1724138E+00  0.2758621E+00  0.6896552E-01  0.9840502E-03
      1        -23.763340   1.000000
      2        -23.038188   1.000000
      3        -22.819588   1.000000
      4          2.871155   1.000000
      5          5.688960   1.000000
      6          6.068377   1.006273
      7          8.224747  -0.000000
      8          9.586432  -0.000000
      9         11.376712  -0.000000
 
  0.3103448E+00  0.3103448E+00  0.6896552E-01  0.3280167E-03
      1        -24.136403   1.000000
      2        -24.136398   1.000000
      3        -23.032356   1.000000
      4          3.745420   1.000000
      5          5.732966   1.000001
      6          5.732972   1.000001
      7         11.106993  -0.000000
      8         11.106996  -0.000000
      9         18.968598   0.000000
 
 -0.3103448E+00  0.3103448E+00  0.6896552E-01  0.9840502E-03
      1        -24.212507   1.000000
      2        -23.139189   1.000000
      3        -22.717890   1.000000
      4          2.678621   1.000000
      5          5.073118   1.000000
      6          6.616933   0.051069
      7          9.365085  -0.000000
      8         10.976869  -0.000000
      9         11.255051  -0.000000
 
 -0.2758621E+00  0.3103448E+00  0.6896552E-01  0.1968100E-02
      1        -24.100432   1.000000
      2        -23.128033   1.000000
      3        -22.762367   1.000000
      4          2.841791   1.000000
      5          5.296295   1.000000
      6          6.279075   1.027023
      7          8.976950  -0.000000
      8         10.604949  -0.000000
      9         11.393369  -0.000000
 
 -0.2413793E+00  0.3103448E+00  0.6896552E-01  0.1968100E-02
      1        -24.005797   1.000000
      2        -23.125051   1.000000
      3        -22.806787   1.000000
      4          3.018137   1.000000
      5          5.425029   1.000000
      6          6.068500   1.006286
      7          8.597438  -0.000000
      8         10.393388  -0.000000
      9         11.503911  -0.000000
 
 -0.2068966E+00  0.3103448E+00  0.6896552E-01  0.1968100E-02
      1        -23.949758   1.000000
      2        -23.126641   1.000000
      3        -22.834482   1.000000
      4          3.140392   1.000000
      5          5.399459   1.000000
      6          6.057683   1.005204
      7          8.349959  -0.000000
      8         10.300570  -0.000000
      9         11.564475  -0.000000
 
 -0.3448276E+00  0.3448276E+00  0.6896552E-01  0.9840502E-03
      1        -24.412035   1.000000
      2        -23.204507   1.000000
      3        -22.719403   1.000000
      4          2.569737   1.000000
      5          4.865940   1.000000
      6          7.011937  -0.000591
      7          9.674439  -0.000000
      8         11.418827  -0.000000
      9         11.812009   0.000000
 
 -0.3103448E+00  0.3448276E+00  0.6896552E-01  0.1968100E-02
      1        -24.306221   1.000000
      2        -23.199172   1.000000
      3        -22.763530   1.000000
      4          2.777245   1.000000
      5          5.081837   1.000000
      6          6.558408   0.204507
      7          9.311956  -0.000000
      8         11.334007  -0.000000
      9         11.652051  -0.000000
 
 -0.2758621E+00  0.3448276E+00  0.6896552E-01  0.1968100E-02
      1        -24.206398   1.000000
      2        -23.205048   1.000000
      3        -22.809531   1.000000
      4          3.029551   1.000000
      5          5.225304   1.000000
      6          6.210365   1.033037
      7          8.917334  -0.000000
      8         11.088936  -0.000000
      9         11.777554  -0.000000
 
 -0.2413793E+00  0.3448276E+00  0.6896552E-01  0.1968100E-02
      1        -24.131893   1.000000
      2        -23.217267   1.000000
      3        -22.843165   1.000000
      4          3.264481   1.000000
      5          5.183724   1.000000
      6          6.103944   1.011056
      7          8.591685  -0.000000
      8         10.952170  -0.000000
      9         11.869241   0.000000
 
 -0.2068966E+00  0.3448276E+00  0.6896552E-01  0.9840502E-03
      1        -24.103681   1.000000
      2        -23.223870   1.000000
      3        -22.855253   1.000000
      4          3.369283   1.000000
      5          5.110770   1.000000
      6          6.118246   1.013544
      7          8.460774  -0.000000
      8         10.909378  -0.000000
      9         11.901572   0.000000
 
 -0.3793103E+00  0.3793103E+00  0.6896552E-01  0.9840502E-03
      1        -24.581007   1.000000
      2        -23.260276   1.000000
      3        -22.720720   1.000000
      4          2.419613   1.000000
      5          4.693570   1.000000
      6          7.450972  -0.000000
      7          9.902674  -0.000000
      8         11.661957  -0.000000
      9         12.623359   0.000000
 
 -0.3448276E+00  0.3793103E+00  0.6896552E-01  0.1968100E-02
      1        -24.486138   1.000000
      2        -23.261835   1.000000
      3        -22.764452   1.000000
      4          2.636137   1.000000
      5          4.898800   1.000000
      6          6.921444  -0.004089
      7          9.597749  -0.000000
      8         11.689196  -0.000000
      9         12.356342   0.000000
 
 -0.3103448E+00  0.3793103E+00  0.6896552E-01  0.1968100E-02
      1        -24.387304   1.000000
      2        -23.277782   1.000000
      3        -22.811244   1.000000
      4          2.919842   1.000000
      5          5.059278   1.000000
      6          6.467068   0.566963
      7          9.241996  -0.000000
      8         11.513197  -0.000000
      9         12.386984   0.000000
 
 -0.2758621E+00  0.3793103E+00  0.6896552E-01  0.1968100E-02
      1        -24.301038   1.000000
      2        -23.303614   1.000000
      3        -22.848339   1.000000
      4          3.230821   1.000000
      5          5.052169   1.000000
      6          6.225404   1.034898
      7          8.900932  -0.000000
      8         11.344997  -0.000000
      9         12.483609   0.000000
 
 -0.2413793E+00  0.3793103E+00  0.6896552E-01  0.1968100E-02
      1        -24.248856   1.000000
      2        -23.324762   1.000000
      3        -22.867989   1.000000
      4          3.472507   1.000000
      5          4.905544   1.000000
      6          6.199193   1.031065
      7          8.680704  -0.000000
      8         11.258311  -0.000000
      9         12.543708   0.000000
 
 -0.4137931E+00  0.4137931E+00  0.6896552E-01  0.9840502E-03
      1        -24.713174   1.000000
      2        -23.304182   1.000000
      3        -22.721777   1.000000
      4          2.276288   1.000000
      5          4.560560   1.000000
      6          7.873824  -0.000000
      7          9.989742  -0.000000
      8         11.989063   0.000000
      9         13.351734   0.000000
 
 -0.3793103E+00  0.4137931E+00  0.6896552E-01  0.1968100E-02
      1        -24.633268   1.000000
      2        -23.313400   1.000000
      3        -22.765172   1.000000
      4          2.480140   1.000000
      5          4.751592   1.000000
      6          7.302937  -0.000000
      7          9.752467  -0.000000
      8         12.031566   0.000000
      9         13.128277   0.000000
 
 -0.3448276E+00  0.4137931E+00  0.6896552E-01  0.1968100E-02
      1        -24.541024   1.000000
      2        -23.339962   1.000000
      3        -22.812334   1.000000
      4          2.762414   1.000000
      5          4.921342   1.000000
      6          6.778795  -0.028567
      7          9.478825  -0.000000
      8         11.836269   0.000000
      9         13.172231   0.000000
 
 -0.3103448E+00  0.4137931E+00  0.6896552E-01  0.1968100E-02
      1        -24.449775   1.000000
      2        -23.380675   1.000000
      3        -22.851468   1.000000
      4          3.098748   1.000000
      5          4.968602   1.000000
      6          6.412592   0.778268
      7          9.196105  -0.000000
      8         11.599972  -0.000000
      9         13.300979   0.000000
 
 -0.2758621E+00  0.4137931E+00  0.6896552E-01  0.1968100E-02
      1        -24.379140   1.000000
      2        -23.421044   1.000000
      3        -22.875744   1.000000
      4          3.433218   1.000000
      5          4.820532   1.000000
      6          6.285546   1.023727
      7          8.966653  -0.000000
      8         11.439175  -0.000000
      9         13.401330   0.000000
 
 -0.2413793E+00  0.4137931E+00  0.6896552E-01  0.9840502E-03
      1        -24.351800   1.000000
      2        -23.438510   1.000000
      3        -22.883763   1.000000
      4          3.604123   1.000000
      5          4.689349   1.000000
      6          6.278151   1.027441
      7          8.875288  -0.000000
      8         11.384006  -0.000000
      9         13.437531   0.000000
 
 -0.4482759E+00  0.4482759E+00  0.6896552E-01  0.9840502E-03
      1        -24.803873   1.000000
      2        -23.334453   1.000000
      3        -22.722510   1.000000
      4          2.168413   1.000000
      5          4.470188   1.000000
      6          8.228200  -0.000000
      7          9.958782  -0.000000
      8         12.317916   0.000000
      9         13.918018   0.000000
 
 -0.4137931E+00  0.4482759E+00  0.6896552E-01  0.1968100E-02
      1        -24.742223   1.000000
      2        -23.351767   1.000000
      3        -22.765690   1.000000
      4          2.348312   1.000000
      5          4.643847   1.000000
      6          7.651190  -0.000000
      7          9.766087  -0.000000
      8         12.419473   0.000000
      9         13.791934   0.000000
 
 -0.3793103E+00  0.4482759E+00  0.6896552E-01  0.1968100E-02
      1        -24.661586   1.000000
      2        -23.388943   1.000000
      3        -22.813033   1.000000
      4          2.611502   1.000000
      5          4.813556   1.000000
      6          7.089551  -0.000078
      7          9.572853  -0.000000
      8         12.213932   0.000000
      9         13.922948   0.000000
 
 -0.3448276E+00  0.4482759E+00  0.6896552E-01  0.1968100E-02
      1        -24.571945   1.000000
      2        -23.444542   1.000000
      3        -22.853353   1.000000
      4          2.941176   1.000000
      5          4.905179   1.000000
      6          6.629992   0.028431
      7          9.389967  -0.000000
      8         11.897772   0.000000
      9         14.137215   0.000000
 
 -0.3103448E+00  0.4482759E+00  0.6896552E-01  0.1968100E-02
      1        -24.489444   1.000000
      2        -23.505925   1.000000
      3        -22.880455   1.000000
      4          3.306198   1.000000
      5          4.818329   1.000000
      6          6.373109   0.895914
      7          9.236316  -0.000000
      8         11.626170  -0.000000
      9         14.313577   0.000000
 
 -0.2758621E+00  0.4482759E+00  0.6896552E-01  0.1968100E-02
      1        -24.437426   1.000000
      2        -23.548472   1.000000
      3        -22.893515   1.000000
      4          3.617141   1.000000
      5          4.608236   1.000000
      6          6.303876   1.010586
      7          9.143923  -0.000000
      8         11.474243  -0.000000
      9         14.408768   0.000000
 
 -0.4827586E+00  0.4827586E+00  0.6896552E-01  0.9840502E-03
      1        -24.850020   1.000000
      2        -23.349893   1.000000
      3        -22.722896   1.000000
      4          2.111117   1.000000
      5          4.424498   1.000000
      6          8.445086  -0.000000
      7          9.896046  -0.000000
      8         12.525838   0.000000
      9         14.233301   0.000000
 
 -0.4482759E+00  0.4827586E+00  0.6896552E-01  0.1968100E-02
      1        -24.809128   1.000000
      2        -23.375404   1.000000
      3        -22.766008   1.000000
      4          2.262214   1.000000
      5          4.578174   1.000000
      6          7.910549  -0.000000
      7          9.706778  -0.000000
      8         12.737518   0.000000
      9         14.250138   0.000000
 
 -0.4137931E+00  0.4827586E+00  0.6896552E-01  0.1968100E-02
      1        -24.744464   1.000000
      2        -23.422722   1.000000
      3        -22.813455   1.000000
      4          2.498071   1.000000
      5          4.739469   1.000000
      6          7.349455  -0.000000
      7          9.556572  -0.000000
      8         12.587352   0.000000
      9         14.524195   0.000000
 
 -0.3793103E+00  0.4827586E+00  0.6896552E-01  0.1968100E-02
      1        -24.662677   1.000000
      2        -23.492241   1.000000
      3        -22.854458   1.000000
      4          2.805594   1.000000
      5          4.856293   1.000000
      6          6.835156  -0.015973
      7          9.457348  -0.000000
      8         12.249876   0.000000
      9         14.880585   0.000000
 
 -0.3448276E+00  0.4827586E+00  0.6896552E-01  0.1968100E-02
      1        -24.575746   1.000000
      2        -23.574116   1.000000
      3        -22.883263   1.000000
      4          3.164739   1.000000
      5          4.843277   1.000000
      6          6.457902   0.605068
      7          9.412516  -0.000000
      8         11.887814   0.000000
      9         15.184153   0.000000
 
 -0.3103448E+00  0.4827586E+00  0.6896552E-01  0.1968100E-02
      1        -24.503953   1.000000
      2        -23.645356   1.000000
      3        -22.899431   1.000000
      4          3.531326   1.000000
      5          4.656862   1.000000
      6          6.277340   1.027798
      7          9.408550  -0.000000
      8         11.609600  -0.000000
      9         15.380247   0.000000
 
 -0.2758621E+00  0.4827586E+00  0.6896552E-01  0.9840502E-03
      1        -24.474872   1.000000
      2        -23.674775   1.000000
      3        -22.904546   1.000000
      4          3.737969   1.000000
      5          4.495659   1.000000
      6          6.235463   1.035434
      7          9.413860  -0.000000
      8         11.503564  -0.000000
      9         15.447514   0.000000
 
 -0.4827586E+00 -0.4827586E+00  0.6896552E-01  0.9840502E-03
      1        -24.831681   1.000000
      2        -23.383385   1.000000
      3        -22.766119   1.000000
      4          2.232440   1.000000
      5          4.556118   1.000000
      6          8.010590  -0.000000
      7          9.670114  -0.000000
      8         12.861394   0.000000
      9         14.415537   0.000000
 
 -0.4482759E+00 -0.4827586E+00  0.6896552E-01  0.1968100E-02
      1        -24.786652   1.000000
      2        -23.439953   1.000000
      3        -22.813646   1.000000
      4          2.437984   1.000000
      5          4.701751   1.000000
      6          7.503424  -0.000000
      7          9.513510  -0.000000
      8         12.824807   0.000000
      9         14.866403   0.000000
 
 -0.4137931E+00 -0.4827586E+00  0.6896552E-01  0.1968100E-02
      1        -24.718528   1.000000
      2        -23.521689   1.000000
      3        -22.855036   1.000000
      4          2.716693   1.000000
      5          4.824831   1.000000
      6          6.985009  -0.001106
      7          9.450565  -0.000000
      8         12.550106   0.000000
      9         15.415037   0.000000
 
 -0.3793103E+00 -0.4827586E+00  0.6896552E-01  0.1968100E-02
      1        -24.634995   1.000000
      2        -23.621713   1.000000
      3        -22.884828   1.000000
      4          3.053676   1.000000
      5          4.866358   1.000000
      6          6.529128   0.310258
      7          9.485790  -0.000000
      8         12.178765   0.000000
      9         15.910114   0.000000
 
 -0.3448276E+00 -0.4827586E+00  0.6896552E-01  0.1968100E-02
      1        -24.550893   1.000000
      2        -23.721173   1.000000
      3        -22.902880   1.000000
      4          3.423242   1.000000
      5          4.758989   1.000000
      6          6.221091   1.034478
      7          9.594466  -0.000000
      8         11.811704   0.000000
      9         16.273850   0.000000
 
 -0.3103448E+00 -0.4827586E+00  0.6896552E-01  0.1968100E-02
      1        -24.493152   1.000000
      2        -23.788149   1.000000
      3        -22.911149   1.000000
      4          3.748429   1.000000
      5          4.543563   1.000000
      6          6.089951   1.008937
      7          9.701224  -0.000000
      8         11.566264  -0.000000
      9         16.464583   0.000000
 
 -0.4482759E+00 -0.4482759E+00  0.6896552E-01  0.9840502E-03
      1        -24.737389   1.000000
      2        -23.531647   1.000000
      3        -22.855215   1.000000
      4          2.685937   1.000000
      5          4.813931   1.000000
      6          7.040684  -0.000290
      7          9.438370  -0.000000
      8         12.669377   0.000000
      9         15.614252   0.000000
 
 -0.4137931E+00 -0.4482759E+00  0.6896552E-01  0.1968100E-02
      1        -24.665117   1.000000
      2        -23.646149   1.000000
      3        -22.885533   1.000000
      4          2.994049   1.000000
      5          4.878681   1.000000
      6          6.570824   0.164993
      7          9.502421  -0.000000
      8         12.375785   0.000000
      9         16.346450   0.000000
 
 -0.3793103E+00 -0.4482759E+00  0.6896552E-01  0.1968100E-02
      1        -24.578605   1.000000
      2        -23.769507   1.000000
      3        -22.904665   1.000000
      4          3.344563   1.000000
      5          4.849411   1.000000
      6          6.165951   1.023760
      7          9.686734  -0.000000
      8         12.012451   0.000000
      9         16.963727   0.000000
 
 -0.3448276E+00 -0.4482759E+00  0.6896552E-01  0.1968100E-02
      1        -24.497333   1.000000
      2        -23.875914   1.000000
      3        -22.914844   1.000000
      4          3.697748   1.000000
      5          4.693797   1.000000
      6          5.910359   1.000197
      7          9.919699  -0.000000
      8         11.668576  -0.000000
      9         17.377613   0.000000
 
 -0.3103448E+00 -0.4482759E+00  0.6896552E-01  0.9840502E-03
      1        -24.460335   1.000000
      2        -23.921833   1.000000
      3        -22.917996   1.000000
      4          3.897579   1.000000
      5          4.552767   1.000000
      6          5.830724   1.000020
      7         10.041751  -0.000000
      8         11.509218  -0.000000
      9         17.522730   0.000000
 
 -0.4137931E+00 -0.4137931E+00  0.6896552E-01  0.9840502E-03
      1        -24.587739   1.000000
      2        -23.786116   1.000000
      3        -22.905214   1.000000
      4          3.316502   1.000000
      5          4.885285   1.000000
      6          6.142770   1.018508
      7          9.712263  -0.000000
      8         12.097884   0.000000
      9         17.241592   0.000000
 
 -0.3793103E+00 -0.4137931E+00  0.6896552E-01  0.1968100E-02
      1        -24.495692   1.000000
      2        -23.924790   1.000000
      3        -22.916485   1.000000
      4          3.658305   1.000000
      5          4.826806   1.000000
      6          5.770252   1.000003
      7         10.028269  -0.000000
      8         11.755783  -0.000000
      9         18.004861   0.000000
 
 -0.3448276E+00 -0.4137931E+00  0.6896552E-01  0.1968100E-02
      1        -24.416858   1.000000
      2        -24.028469   1.000000
      3        -22.921536   1.000000
      4          3.942383   1.000000
      5          4.705969   1.000000
      6          5.554512   1.000000
      7         10.324945  -0.000000
      8         11.452907  -0.000000
      9         18.465558   0.000000
 
 -0.3793103E+00 -0.3793103E+00  0.6896552E-01  0.9840502E-03
      1        -24.393011   1.000000
      2        -24.073795   1.000000
      3        -22.922624   1.000000
      4          3.945149   1.000000
      5          4.829002   1.000000
      6          5.399718   1.000000
      7         10.438904  -0.000000
      8         11.426161  -0.000000
      9         18.972490   0.000000
 
 -0.3448276E+00 -0.3793103E+00  0.6896552E-01  0.9840502E-03
      1        -24.316554   1.000000
      2        -24.166179   1.000000
      3        -22.924519   1.000000
      4          4.078311   1.000000
      5          4.859626   1.000000
      6          5.205506   1.000000
      7         10.725295  -0.000000
      8         11.172258  -0.000000
      9         19.326018   0.000000
 
  0.1034483E+00  0.1034483E+00  0.1034483E+00  0.3280167E-03
      1        -23.837767   1.000000
      2        -22.809513   1.000000
      3        -22.809508   1.000000
      4          2.831477   1.000000
      5          5.281567   1.000000
      6          5.281573   1.000000
      7         10.093144  -0.000000
      8         10.093152  -0.000000
      9         10.575899  -0.000000
 
  0.1379310E+00  0.1034483E+00  0.1034483E+00  0.9840502E-03
      1        -24.006783   1.000000
      2        -22.901939   1.000000
      3        -22.822474   1.000000
      4          3.247025   1.000000
      5          5.045399   1.000000
      6          5.139694   1.000000
      7         10.087602  -0.000000
      8         10.331262  -0.000000
      9         11.426920  -0.000000
 
  0.1724138E+00  0.1034483E+00  0.1034483E+00  0.9840502E-03
      1        -24.163289   1.000000
      2        -23.007629   1.000000
      3        -22.835633   1.000000
      4          3.524449   1.000000
      5          4.837298   1.000000
      6          5.200976   1.000000
      7         10.142581  -0.000000
      8         10.543266  -0.000000
      9         12.313520   0.000000
 
  0.2068966E+00  0.1034483E+00  0.1034483E+00  0.9840502E-03
      1        -24.303075   1.000000
      2        -23.118642   1.000000
      3        -22.848365   1.000000
      4          3.562286   1.000000
      5          4.658915   1.000000
      6          5.562862   1.000000
      7         10.242929  -0.000000
      8         10.731039  -0.000000
      9         13.209636   0.000000
 
  0.2413793E+00  0.1034483E+00  0.1034483E+00  0.9840502E-03
      1        -24.422885   1.000000
      2        -23.226831   1.000000
      3        -22.860071   1.000000
      4          3.446769   1.000000
      5          4.510776   1.000000
      6          6.126795   1.015182
      7         10.368073  -0.000000
      8         10.895895  -0.000000
      9         14.081570   0.000000
 
  0.2758621E+00  0.1034483E+00  0.1034483E+00  0.9840502E-03
      1        -24.520423   1.000000
      2        -23.324428   1.000000
      3        -22.870186   1.000000
      4          3.290828   1.000000
      5          4.392897   1.000000
      6          6.754459  -0.033204
      7         10.495284  -0.000000
      8         11.037166  -0.000000
      9         14.886332   0.000000
 
  0.3103448E+00  0.1034483E+00  0.1034483E+00  0.9840502E-03
      1        -24.594307   1.000000
      2        -23.404498   1.000000
      3        -22.878238   1.000000
      4          3.149010   1.000000
      5          4.304912   1.000000
      6          7.348431  -0.000000
      7         10.602813  -0.000000
      8         11.151227  -0.000000
      9         15.570664   0.000000
 
  0.3448276E+00  0.1034483E+00  0.1034483E+00  0.9840502E-03
      1        -24.643795   1.000000
      2        -23.461330   1.000000
      3        -22.883830   1.000000
      4          3.045366   1.000000
      5          4.246529   1.000000
      6          7.822039  -0.000000
      7         10.675208  -0.000000
      8         11.232449  -0.000000
      9         16.075102   0.000000
 
  0.3793103E+00  0.1034483E+00  0.1034483E+00  0.9840502E-03
      1        -24.668553   1.000000
      2        -23.490809   1.000000
      3        -22.886692   1.000000
      4          2.991241   1.000000
      5          4.217425   1.000000
      6          8.089567  -0.000000
      7         10.708855  -0.000000
      8         11.274957  -0.000000
      9         16.344472   0.000000
 
 -0.1034483E+00  0.1034483E+00  0.1034483E+00  0.2460125E-03
      1        -22.968019   1.000000
      2        -22.765314   1.000000
      3        -22.765308   1.000000
      4          1.323477   1.000000
      5          6.650709   0.000681
      6          6.650724   0.000664
      7          7.192476  -0.000003
      8          8.681365  -0.000000
      9         10.790811  -0.000000
 
  0.1379310E+00  0.1379310E+00  0.1034483E+00  0.9840502E-03
      1        -24.150161   1.000000
      2        -22.963623   1.000000
      3        -22.876797   1.000000
      4          3.662837   1.000000
      5          4.913130   1.000000
      6          4.930363   1.000000
      7         10.206596  -0.000000
      8         10.480673  -0.000000
      9         12.330515   0.000000
 
  0.1724138E+00  0.1379310E+00  0.1034483E+00  0.1968100E-02
      1        -24.275369   1.000000
      2        -23.067143   1.000000
      3        -22.903556   1.000000
      4          3.886659   1.000000
      5          4.733032   1.000000
      6          5.058744   1.000000
      7         10.287124  -0.000000
      8         10.684379  -0.000000
      9         13.251404   0.000000
 
  0.2068966E+00  0.1379310E+00  0.1034483E+00  0.1968100E-02
      1        -24.379811   1.000000
      2        -23.183926   1.000000
      3        -22.921976   1.000000
      4          3.840754   1.000000
      5          4.584268   1.000000
      6          5.512831   1.000000
      7         10.390674  -0.000000
      8         10.867853  -0.000000
      9         14.159801   0.000000
 
  0.2413793E+00  0.1379310E+00  0.1034483E+00  0.1968100E-02
      1        -24.462342   1.000000
      2        -23.299189   1.000000
      3        -22.936877   1.000000
      4          3.693571   1.000000
      5          4.468032   1.000000
      6          6.101991   1.010741
      7         10.510111  -0.000000
      8         11.021139  -0.000000
      9         15.018076   0.000000
 
  0.2758621E+00  0.1379310E+00  0.1034483E+00  0.1968100E-02
      1        -24.523263   1.000000
      2        -23.402427   1.000000
      3        -22.948808   1.000000
      4          3.542632   1.000000
      5          4.381003   1.000000
      6          6.696166  -0.030696
      7         10.626790  -0.000000
      8         11.143074  -0.000000
      9         15.779329   0.000000
 
  0.3103448E+00  0.1379310E+00  0.1034483E+00  0.1968100E-02
      1        -24.564112   1.000000
      2        -23.484378   1.000000
      3        -22.957609   1.000000
      4          3.421687   1.000000
      5          4.320613   1.000000
      6          7.210775  -0.000002
      7         10.721156  -0.000000
      8         11.233455  -0.000000
      9         16.388274   0.000000
 
  0.3448276E+00  0.1379310E+00  0.1034483E+00  0.1968100E-02
      1        -24.587209   1.000000
      2        -23.537210   1.000000
      3        -22.963013   1.000000
      4          3.344940   1.000000
      5          4.285113   1.000000
      6          7.566387  -0.000000
      7         10.779653  -0.000000
      8         11.290609  -0.000000
      9         16.786967   0.000000
 
  0.3793103E+00  0.1379310E+00  0.1034483E+00  0.9840502E-03
      1        -24.594630   1.000000
      2        -23.555481   1.000000
      3        -22.964839   1.000000
      4          3.318736   1.000000
      5          4.273393   1.000000
      6          7.694537  -0.000000
      7         10.798822  -0.000000
      8         11.310495  -0.000000
      9         16.926636   0.000000
 
 -0.1379310E+00  0.1379310E+00  0.1034483E+00  0.9840502E-03
      1        -23.109028   1.000000
      2        -22.820692   1.000000
      3        -22.797167   1.000000
      4          1.675836   1.000000
      5          6.553243   0.221949
      6          6.629044   0.029937
      7          7.494034  -0.000000
      8          8.294333  -0.000000
      9         10.959371  -0.000000
 
  0.1724138E+00  0.1724138E+00  0.1034483E+00  0.9840502E-03
      1        -24.364558   1.000000
      2        -23.160839   1.000000
      3        -22.952341   1.000000
      4          4.040452   1.000000
      5          4.695068   1.000000
      6          5.151845   1.000000
      7         10.389750  -0.000000
      8         10.866529  -0.000000
      9         14.188780   0.000000
 
  0.2068966E+00  0.1724138E+00  0.1034483E+00  0.1968100E-02
      1        -24.429763   1.000000
      2        -23.277076   1.000000
      3        -22.983556   1.000000
      4          3.982085   1.000000
      5          4.613881   1.000000
      6          5.575290   1.000000
      7         10.500167  -0.000000
      8         11.027867  -0.000000
      9         15.093837   0.000000
 
  0.2413793E+00  0.1724138E+00  0.1034483E+00  0.1968100E-02
      1        -24.471972   1.000000
      2        -23.396921   1.000000
      3        -23.005057   1.000000
      4          3.865291   1.000000
      5          4.534760   1.000000
      6          6.100104   1.010443
      7         10.619739  -0.000000
      8         11.153037  -0.000000
      9         15.927603   0.000000
 
  0.2758621E+00  0.1724138E+00  0.1034483E+00  0.1968100E-02
      1        -24.494460   1.000000
      2        -23.504967   1.000000
      3        -23.020247   1.000000
      4          3.754074   1.000000
      5          4.476624   1.000000
      6          6.598999   0.089046
      7         10.733367  -0.000000
      8         11.242426  -0.000000
      9         16.642764   0.000000
 
  0.3103448E+00  0.1724138E+00  0.1034483E+00  0.1968100E-02
      1        -24.502974   1.000000
      2        -23.587600   1.000000
      3        -23.030178   1.000000
      4          3.671512   1.000000
      5          4.439685   1.000000
      6          6.991449  -0.000956
      7         10.821422  -0.000000
      8         11.301032  -0.000000
      9         17.183227   0.000000
 
  0.3448276E+00  0.1724138E+00  0.1034483E+00  0.1968100E-02
      1        -24.504589   1.000000
      2        -23.632780   1.000000
      3        -23.035119   1.000000
      4          3.628068   1.000000
      5          4.421895   1.000000
      6          7.209404  -0.000002
      7         10.868472  -0.000000
      8         11.331381  -0.000000
      9         17.483369   0.000000
 
 -0.1724138E+00  0.1724138E+00  0.1034483E+00  0.9840502E-03
      1        -23.300971   1.000000
      2        -22.886646   1.000000
      3        -22.808775   1.000000
      4          2.072055   1.000000
      5          6.345374   0.955569
      6          6.514989   0.366338
      7          7.981866  -0.000000
      8          8.075771  -0.000000
      9         11.110263  -0.000000
 
 -0.1379310E+00  0.1724138E+00  0.1034483E+00  0.9840502E-03
      1        -23.251621   1.000000
      2        -22.879062   1.000000
      3        -22.840525   1.000000
      4          2.045543   1.000000
      5          6.525337   0.325031
      6          6.548194   0.239536
      7          7.814215  -0.000000
      8          7.931845  -0.000000
      9         11.146436  -0.000000
 
  0.2068966E+00  0.2068966E+00  0.1034483E+00  0.9840502E-03
      1        -24.453121   1.000000
      2        -23.393709   1.000000
      3        -23.027105   1.000000
      4          3.978201   1.000000
      5          4.680263   1.000000
      6          5.800719   1.000008
      7         10.612580  -0.000000
      8         11.159407  -0.000000
      9         15.981401   0.000000
 
  0.2413793E+00  0.2068966E+00  0.1034483E+00  0.1968100E-02
      1        -24.452705   1.000000
      2        -23.518090   1.000000
      3        -23.056345   1.000000
      4          3.923156   1.000000
      5          4.707230   1.000000
      6          6.134501   1.016746
      7         10.731293  -0.000000
      8         11.249462  -0.000000
      9         16.787114   0.000000
 
  0.2758621E+00  0.2068966E+00  0.1034483E+00  0.1968100E-02
      1        -24.435330   1.000000
      2        -23.631703   1.000000
      3        -23.075328   1.000000
      4          3.866524   1.000000
      5          4.709719   1.000000
      6          6.464742   0.576689
      7         10.842464  -0.000000
      8         11.302024  -0.000000
      9         17.467623   0.000000
 
  0.3103448E+00  0.2068966E+00  0.1034483E+00  0.1968100E-02
      1        -24.413335   1.000000
      2        -23.714364   1.000000
      3        -23.086165   1.000000
      4          3.827187   1.000000
      5          4.706715   1.000000
      6          6.701614  -0.032298
      7         10.923939  -0.000000
      8         11.327245  -0.000000
      9         17.959851   0.000000
 
  0.3448276E+00  0.2068966E+00  0.1034483E+00  0.9840502E-03
      1        -24.403068   1.000000
      2        -23.745323   1.000000
      3        -23.089707   1.000000
      4          3.813263   1.000000
      5          4.705206   1.000000
      6          6.787439  -0.026640
      7         10.954138  -0.000000
      8         11.334449  -0.000000
      9         18.154305   0.000000
 
 -0.2068966E+00  0.2068966E+00  0.1034483E+00  0.9840502E-03
      1        -23.519536   1.000000
      2        -22.959757   1.000000
      3        -22.813194   1.000000
      4          2.461144   1.000000
      5          6.100946   1.010575
      6          6.310312   1.004493
      7          8.085261  -0.000000
      8          8.588163  -0.000000
      9         11.248457  -0.000000
 
 -0.1724138E+00  0.2068966E+00  0.1034483E+00  0.1968100E-02
      1        -23.439510   1.000000
      2        -22.949575   1.000000
      3        -22.859832   1.000000
      4          2.437590   1.000000
      5          6.312470   1.002264
      6          6.408937   0.790664
      7          7.799916  -0.000000
      8          8.329852  -0.000000
      9         11.312381  -0.000000
 
  0.2413793E+00  0.2413793E+00  0.1034483E+00  0.9840502E-03
      1        -24.408511   1.000000
      2        -23.650261   1.000000
      3        -23.091076   1.000000
      4          3.921906   1.000000
      5          4.891220   1.000000
      6          6.206653   1.032428
      7         10.848682  -0.000000
      8         11.301056  -0.000000
      9         17.571874   0.000000
 
  0.2758621E+00  0.2413793E+00  0.1034483E+00  0.1968100E-02
      1        -24.349305   1.000000
      2        -23.773811   1.000000
      3        -23.112373   1.000000
      4          3.907258   1.000000
      5          5.021570   1.000000
      6          6.293673   1.018630
      7         10.958555  -0.000000
      8         11.314052  -0.000000
      9         18.244249   0.000000
 
  0.3103448E+00  0.2413793E+00  0.1034483E+00  0.1968100E-02
      1        -24.299543   1.000000
      2        -23.857448   1.000000
      3        -23.122511   1.000000
      4          3.896944   1.000000
      5          5.084740   1.000000
      6          6.353516   0.940058
      7         11.032488  -0.000000
      8         11.306211  -0.000000
      9         18.922198   0.000000
 
 -0.2413793E+00  0.2413793E+00  0.1034483E+00  0.9840502E-03
      1        -23.748913   1.000000
      2        -23.036402   1.000000
      3        -22.814815   1.000000
      4          2.773703   1.000000
      5          5.847637   1.000034
      6          6.125010   1.014831
      7          8.279208  -0.000000
      8          9.286847  -0.000000
      9         11.377936  -0.000000
 
 -0.2068966E+00  0.2413793E+00  0.1034483E+00  0.1968100E-02
      1        -23.650730   1.000000
      2        -23.027073   1.000000
      3        -22.867654   1.000000
      4          2.795653   1.000000
      5          6.017288   1.002409
      6          6.226608   1.034996
      7          7.912222  -0.000000
      8          8.971614  -0.000000
      9         11.461574  -0.000000
 
 -0.1724138E+00  0.2413793E+00  0.1034483E+00  0.9840502E-03
      1        -23.612326   1.000000
      2        -23.023852   1.000000
      3        -22.890895   1.000000
      4          2.805932   1.000000
      5          6.022064   1.002652
      6          6.355845   0.935318
      7          7.737730  -0.000000
      8          8.870330  -0.000000
      9         11.491326  -0.000000
 
  0.2758621E+00  0.2758621E+00  0.1034483E+00  0.9840502E-03
      1        -24.245119   1.000000
      2        -23.915215   1.000000
      3        -23.133321   1.000000
      4          3.919931   1.000000
      5          5.327734   1.000000
      6          6.097525   1.010045
      7         11.070961  -0.000000
      8         11.283721  -0.000000
      9         18.928913   0.000000
 
  0.3103448E+00  0.2758621E+00  0.1034483E+00  0.9840502E-03
      1        -24.171688   1.000000
      2        -24.001672   1.000000
      3        -23.140077   1.000000
      4          3.922729   1.000000
      5          5.493671   1.000000
      6          5.972232   1.000908
      7         11.136911  -0.000000
      8         11.246386  -0.000000
      9         18.896903   0.000000
 
 -0.2758621E+00  0.2758621E+00  0.1034483E+00  0.9840502E-03
      1        -23.976523   1.000000
      2        -23.112910   1.000000
      3        -22.815195   1.000000
      4          2.939144   1.000000
      5          5.601401   1.000000
      6          6.076774   1.007226
      7          8.589790  -0.000000
      8         10.058080  -0.000000
      9         11.507978  -0.000000
 
 -0.2413793E+00  0.2758621E+00  0.1034483E+00  0.1968100E-02
      1        -23.869080   1.000000
      2        -23.106632   1.000000
      3        -22.870545   1.000000
      4          3.047533   1.000000
      5          5.753657   1.000002
      6          6.063841   1.005801
      7          8.185943  -0.000000
      8          9.701553  -0.000000
      9         11.603957  -0.000000
 
 -0.2068966E+00  0.2758621E+00  0.1034483E+00  0.1968100E-02
      1        -23.803323   1.000000
      2        -23.107215   1.000000
      3        -22.906260   1.000000
      4          3.120712   1.000000
      5          5.677611   1.000000
      6          6.279040   1.027039
      7          7.877115  -0.000000
      8          9.535903  -0.000000
      9         11.656910  -0.000000
 
 -0.3103448E+00  0.3103448E+00  0.1034483E+00  0.9840502E-03
      1        -24.191652   1.000000
      2        -23.185792   1.000000
      3        -22.815009   1.000000
      4          2.936703   1.000000
      5          5.373561   1.000000
      6          6.205388   1.032209
      7          8.951197  -0.000000
      8         10.879046  -0.000000
      9         11.663125  -0.000000
 
 -0.2758621E+00  0.3103448E+00  0.1034483E+00  0.1968100E-02
      1        -24.081994   1.000000
      2        -23.184277   1.000000
      3        -22.871116   1.000000
      4          3.133630   1.000000
      5          5.557840   1.000000
      6          6.003946   1.001827
      7          8.544735  -0.000000
      8         10.485290  -0.000000
      9         11.768138  -0.000000
 
 -0.2413793E+00  0.3103448E+00  0.1034483E+00  0.1968100E-02
      1        -23.998276   1.000000
      2        -23.192672   1.000000
      3        -22.913308   1.000000
      4          3.312780   1.000000
      5          5.410597   1.000000
      6          6.188913   1.028959
      7          8.162966  -0.000000
      8         10.262992  -0.000000
      9         11.842107   0.000000
 
 -0.2068966E+00  0.3103448E+00  0.1034483E+00  0.9840502E-03
      1        -23.965968   1.000000
      2        -23.198786   1.000000
      3        -22.928469   1.000000
      4          3.389781   1.000000
      5          5.314078   1.000000
      6          6.323131   0.989814
      7          7.987113  -0.000000
      8         10.193044  -0.000000
      9         11.868212   0.000000
 
 -0.3448276E+00  0.3448276E+00  0.1034483E+00  0.9840502E-03
      1        -24.385059   1.000000
      2        -23.251819   1.000000
      3        -22.814591   1.000000
      4          2.817807   1.000000
      5          5.172667   1.000000
      6          6.465720   0.572605
      7          9.278593  -0.000000
      8         11.719955  -0.000000
      9         11.891074   0.000000
 
 -0.3103448E+00  0.3448276E+00  0.1034483E+00  0.1968100E-02
      1        -24.279161   1.000000
      2        -23.256466   1.000000
      3        -22.870605   1.000000
      4          3.063121   1.000000
      5          5.389829   1.000000
      6          6.105574   1.011323
      7          8.907656  -0.000000
      8         11.263404  -0.000000
      9         12.029068   0.000000
 
 -0.2758621E+00  0.3448276E+00  0.1034483E+00  0.1968100E-02
      1        -24.185588   1.000000
      2        -23.274857   1.000000
      3        -22.916099   1.000000
      4          3.334477   1.000000
      5          5.272800   1.000000
      6          6.132015   1.016233
      7          8.520480  -0.000000
      8         10.959762  -0.000000
      9         12.137895   0.000000
 
 -0.2413793E+00  0.3448276E+00  0.1034483E+00  0.1968100E-02
      1        -24.128074   1.000000
      2        -23.293726   1.000000
      3        -22.940054   1.000000
      4          3.544316   1.000000
      5          5.038383   1.000000
      6          6.324516   0.988015
      7          8.237133  -0.000000
      8         10.814583  -0.000000
      9         12.195048   0.000000
 
 -0.3793103E+00  0.3793103E+00  0.1034483E+00  0.9840502E-03
      1        -24.549045   1.000000
      2        -23.308187   1.000000
      3        -22.814125   1.000000
      4          2.655026   1.000000
      5          5.005108   1.000000
      6          6.787587  -0.026607
      7          9.481868  -0.000000
      8         12.238955   0.000000
      9         12.538755   0.000000
 
 -0.3448276E+00  0.3793103E+00  0.1034483E+00  0.1968100E-02
      1        -24.452050   1.000000
      2        -23.320063   1.000000
      3        -22.869663   1.000000
      4          2.907472   1.000000
      5          5.235225   1.000000
      6          6.328141   0.983105
      7          9.179143  -0.000000
      8         11.916015   0.000000
      9         12.529669   0.000000
 
 -0.3103448E+00  0.3793103E+00  0.1034483E+00  0.1968100E-02
      1        -24.355734   1.000000
      2        -23.349583   1.000000
      3        -22.916719   1.000000
      4          3.216961   1.000000
      5          5.222471   1.000000
      6          6.151843   1.020523
      7          8.854352  -0.000000
      8         11.514848  -0.000000
      9         12.679346   0.000000
 
 -0.2758621E+00  0.3793103E+00  0.1034483E+00  0.1968100E-02
      1        -24.280515   1.000000
      2        -23.384680   1.000000
      3        -22.945624   1.000000
      4          3.535531   1.000000
      5          4.921908   1.000000
      6          6.293267   1.018912
      7          8.565789  -0.000000
      8         11.266040  -0.000000
      9         12.776273   0.000000
 
 -0.2413793E+00  0.3793103E+00  0.1034483E+00  0.9840502E-03
      1        -24.251177   1.000000
      2        -23.401083   1.000000
      3        -22.954956   1.000000
      4          3.705950   1.000000
      5          4.734307   1.000000
      6          6.391169   0.846696
      7          8.440101  -0.000000
      8         11.183055  -0.000000
      9         12.809328   0.000000
 
 -0.4137931E+00  0.4137931E+00  0.1034483E+00  0.9840502E-03
      1        -24.677434   1.000000
      2        -23.352559   1.000000
      3        -22.813718   1.000000
      4          2.500898   1.000000
      5          4.875631   1.000000
      6          7.113955  -0.000038
      7          9.529800  -0.000000
      8         12.686603   0.000000
      9         13.275839   0.000000
 
 -0.3793103E+00  0.4137931E+00  0.1034483E+00  0.1968100E-02
      1        -24.593681   1.000000
      2        -23.372395   1.000000
      3        -22.868650   1.000000
      4          2.736525   1.000000
      5          5.104505   1.000000
      6          6.599454   0.087981
      7          9.296876  -0.000000
      8         12.453808   0.000000
      9         13.229378   0.000000
 
 -0.3448276E+00  0.4137931E+00  0.1034483E+00  0.1968100E-02
      1        -24.500959   1.000000
      2        -23.413448   1.000000
      3        -22.916318   1.000000
      4          3.042751   1.000000
      5          5.186659   1.000000
      6          6.259392   1.033428
      7          9.071487  -0.000000
      8         11.984803   0.000000
      9         13.423055   0.000000
 
 -0.3103448E+00  0.4137931E+00  0.1034483E+00  0.1968100E-02
      1        -24.415647   1.000000
      2        -23.466010   1.000000
      3        -22.947906   1.000000
      4          3.397739   1.000000
      5          4.944353   1.000000
      6          6.255235   1.034175
      7          8.869708  -0.000000
      8         11.610013  -0.000000
      9         13.574476   0.000000
 
 -0.2758621E+00  0.4137931E+00  0.1034483E+00  0.1968100E-02
      1        -24.361693   1.000000
      2        -23.505131   1.000000
      3        -22.962646   1.000000
      4          3.729763   1.000000
      5          4.598169   1.000000
      6          6.363276   0.919280
      7          8.738167  -0.000000
      8         11.406194  -0.000000
      9         13.653126   0.000000
 
 -0.4482759E+00  0.4482759E+00  0.1034483E+00  0.9840502E-03
      1        -24.765596   1.000000
      2        -23.383152   1.000000
      3        -22.813431   1.000000
      4          2.385536   1.000000
      5          4.787556   1.000000
      6          7.393541  -0.000000
      7          9.473667  -0.000000
      8         13.122911   0.000000
      9         13.850558   0.000000
 
 -0.4137931E+00  0.4482759E+00  0.1034483E+00  0.1968100E-02
      1        -24.698678   1.000000
      2        -23.411326   1.000000
      3        -22.867795   1.000000
      4          2.593308   1.000000
      5          5.006383   1.000000
      6          6.861731  -0.011092
      7          9.281759  -0.000000
      8         12.964090   0.000000
      9         13.896210   0.000000
 
 -0.3793103E+00  0.4482759E+00  0.1034483E+00  0.1968100E-02
      1        -24.615190   1.000000
      2        -23.463739   1.000000
      3        -22.915571   1.000000
      4          2.876363   1.000000
      5          5.143977   1.000000
      6          6.418321   0.758279
      7          9.142648  -0.000000
      8         12.469903   0.000000
      9         14.193676   0.000000
 
 -0.3448276E+00  0.4482759E+00  0.1034483E+00  0.1968100E-02
      1        -24.527230   1.000000
      2        -23.533451   1.000000
      3        -22.948507   1.000000
      4          3.222452   1.000000
      5          5.021827   1.000000
      6          6.230786   1.035267
      7          9.062095  -0.000000
      8         11.987858   0.000000
      9         14.440434   0.000000
 
 -0.3103448E+00  0.4482759E+00  0.1034483E+00  0.1968100E-02
      1        -24.455080   1.000000
      2        -23.597865   1.000000
      3        -22.966237   1.000000
      4          3.606865   1.000000
      5          4.658832   1.000000
      6          6.261771   1.032914
      7          9.032452  -0.000000
      8         11.633602  -0.000000
      9         14.594026   0.000000
 
 -0.2758621E+00  0.4482759E+00  0.1034483E+00  0.9840502E-03
      1        -24.425983   1.000000
      2        -23.625076   1.000000
      3        -22.971667   1.000000
      4          3.874627   1.000000
      5          4.379811   1.000000
      6          6.296988   1.016225
      7          9.028411  -0.000000
      8         11.500890  -0.000000
      9         14.645788   0.000000
 
 -0.4827586E+00  0.4827586E+00  0.1034483E+00  0.9840502E-03
      1        -24.810446   1.000000
      2        -23.398752   1.000000
      3        -22.813270   1.000000
      4          2.324516   1.000000
      5          4.742993   1.000000
      6          7.563738  -0.000000
      7          9.405525  -0.000000
      8         13.397697   0.000000
      9         14.171398   0.000000
 
 -0.4482759E+00  0.4827586E+00  0.1034483E+00  0.1968100E-02
      1        -24.763210   1.000000
      2        -23.435309   1.000000
      3        -22.867235   1.000000
      4          2.500363   1.000000
      5          4.945822   1.000000
      6          7.059758  -0.000176
      7          9.213151  -0.000000
      8         13.361244   0.000000
      9         14.376703   0.000000
 
 -0.4137931E+00  0.4827586E+00  0.1034483E+00  0.1968100E-02
      1        -24.693868   1.000000
      2        -23.498414   1.000000
      3        -22.914875   1.000000
      4          2.752265   1.000000
      5          5.105644   1.000000
      6          6.572565   0.159736
      7          9.118977  -0.000000
      8         12.916546   0.000000
      9         14.845278   0.000000
 
 -0.3793103E+00  0.4827586E+00  0.1034483E+00  0.1968100E-02
      1        -24.610391   1.000000
      2        -23.583826   1.000000
      3        -22.948388   1.000000
      4          3.071537   1.000000
      5          5.096104   1.000000
      6          6.226911   1.035019
      7          9.133536  -0.000000
      8         12.404105   0.000000
      9         15.248712   0.000000
 
 -0.3448276E+00  0.4827586E+00  0.1034483E+00  0.1968100E-02
      1        -24.527889   1.000000
      2        -23.672962   1.000000
      3        -22.967653   1.000000
      4          3.446270   1.000000
      5          4.815792   1.000000
      6          6.118081   1.013513
      7          9.236038  -0.000000
      8         11.934853   0.000000
      9         15.529461   0.000000
 
 -0.3103448E+00  0.4827586E+00  0.1034483E+00  0.1968100E-02
      1        -24.472292   1.000000
      2        -23.733821   1.000000
      3        -22.976052   1.000000
      4          3.841920   1.000000
      5          4.413823   1.000000
      6          6.118992   1.013682
      7          9.345292  -0.000000
      8         11.633396  -0.000000
      9         15.671757   0.000000
 
 -0.4827586E+00 -0.4827586E+00  0.1034483E+00  0.9840502E-03
      1        -24.784974   1.000000
      2        -23.443406   1.000000
      3        -22.867043   1.000000
      4          2.468331   1.000000
      5          4.925373   1.000000
      6          7.135543  -0.000020
      7          9.177029  -0.000000
      8         13.514041   0.000000
      9         14.554275   0.000000
 
 -0.4482759E+00 -0.4827586E+00  0.1034483E+00  0.1968100E-02
      1        -24.733940   1.000000
      2        -23.516097   1.000000
      3        -22.914479   1.000000
      4          2.686918   1.000000
      5          5.083596   1.000000
      6          6.668196  -0.015682
      7          9.079468  -0.000000
      8         13.192909   0.000000
      9         15.232656   0.000000
 
 -0.4137931E+00 -0.4827586E+00  0.1034483E+00  0.1968100E-02
      1        -24.661690   1.000000
      2        -23.614925   1.000000
      3        -22.948114   1.000000
      4          2.973327   1.000000
      5          5.143670   1.000000
      6          6.235660   1.035437
      7          9.138270  -0.000000
      8         12.746487   0.000000
      9         15.859997   0.000000
 
 -0.3793103E+00 -0.4827586E+00  0.1034483E+00  0.1968100E-02
      1        -24.577705   1.000000
      2        -23.725678   1.000000
      3        -22.968058   1.000000
      4          3.319642   1.000000
      5          4.990129   1.000000
      6          5.963341   1.000739
      7          9.336033  -0.000000
      8         12.258406   0.000000
      9         16.348636   0.000000
 
 -0.3448276E+00 -0.4827586E+00  0.1034483E+00  0.1968100E-02
      1        -24.501728   1.000000
      2        -23.821370   1.000000
      3        -22.977945   1.000000
      4          3.713384   1.000000
      5          4.625261   1.000000
      6          5.875159   1.000075
      7          9.589982  -0.000000
      8         11.829354   0.000000
      9         16.653983   0.000000
 
 -0.3103448E+00 -0.4827586E+00  0.1034483E+00  0.9840502E-03
      1        -24.468477   1.000000
      2        -23.861821   1.000000
      3        -22.980884   1.000000
      4          4.052059   1.000000
      5          4.279550   1.000000
      6          5.859897   1.000048
      7          9.721161  -0.000000
      8         11.640111  -0.000000
      9         16.756935   0.000000
 
 -0.4482759E+00 -0.4482759E+00  0.1034483E+00  0.9840502E-03
      1        -24.679032   1.000000
      2        -23.625437   1.000000
      3        -22.947988   1.000000
      4          2.939519   1.000000
      5          5.159476   1.000000
      6          6.241286   1.035415
      7          9.132567  -0.000000
      8         12.880841   0.000000
      9         16.097619   0.000000
 
 -0.4137931E+00 -0.4482759E+00  0.1034483E+00  0.1968100E-02
      1        -24.602998   1.000000
      2        -23.752840   1.000000
      3        -22.968106   1.000000
      4          3.252286   1.000000
      5          5.118634   1.000000
      6          5.846613   1.000033
      7          9.370225  -0.000000
      8         12.474328   0.000000
      9         16.872359   0.000000
 
 -0.3793103E+00 -0.4482759E+00  0.1034483E+00  0.1968100E-02
      1        -24.517110   1.000000
      2        -23.878636   1.000000
      3        -22.978628   1.000000
      4          3.617674   1.000000
      5          4.874224   1.000000
      6          5.612688   1.000000
      7          9.725305  -0.000000
      8         12.026502   0.000000
      9         17.463679   0.000000
 
 -0.3448276E+00 -0.4482759E+00  0.1034483E+00  0.1968100E-02
      1        -24.449627   1.000000
      2        -23.967811   1.000000
      3        -22.983003   1.000000
      4          4.019342   1.000000
      5          4.479653   1.000000
      6          5.538593   1.000000
      7         10.043436  -0.000000
      8         11.668639  -0.000000
      9         17.779600   0.000000
 
 -0.4137931E+00 -0.4137931E+00  0.1034483E+00  0.9840502E-03
      1        -24.521731   1.000000
      2        -23.898633   1.000000
      3        -22.978790   1.000000
      4          3.584044   1.000000
      5          5.030345   1.000000
      6          5.451789   1.000000
      7          9.766150  -0.000000
      8         12.111318   0.000000
      9         17.819946   0.000000
 
 -0.3793103E+00 -0.4137931E+00  0.1034483E+00  0.1968100E-02
      1        -24.430364   1.000000
      2        -24.031950   1.000000
      3        -22.983765   1.000000
      4          3.960176   1.000000
      5          4.780444   1.000000
      6          5.211093   1.000000
      7         10.222468  -0.000000
      8         11.702114  -0.000000
      9         18.566640   0.000000
 
 -0.3448276E+00 -0.4137931E+00  0.1034483E+00  0.9840502E-03
      1        -24.377413   1.000000
      2        -24.099420   1.000000
      3        -22.985190   1.000000
      4          4.313487   1.000000
      5          4.436087   1.000000
      6          5.160026   1.000000
      7         10.489477  -0.000000
      8         11.455319  -0.000000
      9         18.843526   0.000000
 
 -0.3793103E+00 -0.3793103E+00  0.1034483E+00  0.9840502E-03
      1        -24.324132   1.000000
      2        -24.172963   1.000000
      3        -22.985784   1.000000
      4          4.331273   1.000000
      5          4.696384   1.000000
      6          4.835849   1.000000
      7         10.733996  -0.000000
      8         11.299460  -0.000000
      9         19.442079   0.000000
 
  0.1379310E+00  0.1379310E+00  0.1379310E+00  0.3280167E-03
      1        -24.265154   1.000000
      2        -22.983442   1.000000
      3        -22.983437   1.000000
      4          4.136108   1.000000
      5          4.744887   1.000000
      6          4.744891   1.000000
      7         10.490511  -0.000000
      8         10.490518  -0.000000
      9         13.273304   0.000000
 
  0.1724138E+00  0.1379310E+00  0.1379310E+00  0.9840502E-03
      1        -24.357319   1.000000
      2        -23.105582   1.000000
      3        -23.002569   1.000000
      4          4.297748   1.000000
      5          4.609212   1.000000
      6          4.936704   1.000000
      7         10.545138  -0.000000
      8         10.729565  -0.000000
      9         14.211718   0.000000
 
  0.2068966E+00  0.1379310E+00  0.1379310E+00  0.9840502E-03
      1        -24.425654   1.000000
      2        -23.233960   1.000000
      3        -23.020122   1.000000
      4          4.141840   1.000000
      5          4.503130   1.000000
      6          5.496134   1.000000
      7         10.629829  -0.000000
      8         10.925546  -0.000000
      9         15.112543   0.000000
 
  0.2413793E+00  0.1379310E+00  0.1379310E+00  0.9840502E-03
      1        -24.471116   1.000000
      2        -23.358242   1.000000
      3        -23.035274   1.000000
      4          3.972705   1.000000
      5          4.423382   1.000000
      6          6.091842   1.009205
      7         10.726357  -0.000000
      8         11.080915  -0.000000
      9         15.934198   0.000000
 
  0.2758621E+00  0.1379310E+00  0.1379310E+00  0.9840502E-03
      1        -24.496851   1.000000
      2        -23.467249   1.000000
      3        -23.047309   1.000000
      4          3.833580   1.000000
      5          4.366832   1.000000
      6          6.638134   0.016370
      7         10.815981  -0.000000
      8         11.197455  -0.000000
      9         16.626972   0.000000
 
  0.3103448E+00  0.1379310E+00  0.1379310E+00  0.9840502E-03
      1        -24.508188   1.000000
      2        -23.549344   1.000000
      3        -23.055657   1.000000
      4          3.736218   1.000000
      5          4.330791   1.000000
      6          7.065050  -0.000153
      7         10.883030  -0.000000
      8         11.275589  -0.000000
      9         17.136790   0.000000
 
  0.3448276E+00  0.1379310E+00  0.1379310E+00  0.9840502E-03
      1        -24.511528   1.000000
      2        -23.593821   1.000000
      3        -23.059926   1.000000
      4          3.686310   1.000000
      5          4.313318   1.000000
      6          7.302555  -0.000000
      7         10.918124  -0.000000
      8         11.314931  -0.000000
      9         17.411455   0.000000
 
 -0.1379310E+00  0.1379310E+00  0.1379310E+00  0.2460125E-03
      1        -23.191914   1.000000
      2        -22.876923   1.000000
      3        -22.876917   1.000000
      4          2.016059   1.000000
      5          6.692904  -0.029551
      6          6.692916  -0.029556
      7          7.570195  -0.000000
      8          7.767374  -0.000000
      9         11.182311  -0.000000
 
  0.1724138E+00  0.1724138E+00  0.1379310E+00  0.9840502E-03
      1        -24.412810   1.000000
      2        -23.187395   1.000000
      3        -23.073373   1.000000
      4          4.385511   1.000000
      5          4.612334   1.000000
      6          5.100239   1.000000
      7         10.685276  -0.000000
      8         10.878144  -0.000000
      9         15.147847   0.000000
 
  0.2068966E+00  0.1724138E+00  0.1379310E+00  0.1968100E-02
      1        -24.442288   1.000000
      2        -23.311903   1.000000
      3        -23.105884   1.000000
      4          4.274694   1.000000
      5          4.561056   1.000000
      6          5.579505   1.000000
      7         10.780535  -0.000000
      8         11.045144  -0.000000
      9         16.024670   0.000000
 
  0.2413793E+00  0.1724138E+00  0.1379310E+00  0.1968100E-02
      1        -24.448790   1.000000
      2        -23.440799   1.000000
      3        -23.126069   1.000000
      4          4.162710   1.000000
      5          4.506890   1.000000
      6          6.086869   1.008513
      7         10.871768  -0.000000
      8         11.176526  -0.000000
      9         16.799878   0.000000
 
  0.2758621E+00  0.1724138E+00  0.1379310E+00  0.1968100E-02
      1        -24.439011   1.000000
      2        -23.553784   1.000000
      3        -23.139846   1.000000
      4          4.072848   1.000000
      5          4.470775   1.000000
      6          6.526055   0.322218
      7         10.950483  -0.000000
      8         11.267833  -0.000000
      9         17.425623   0.000000
 
  0.3103448E+00  0.1724138E+00  0.1379310E+00  0.1968100E-02
      1        -24.423982   1.000000
      2        -23.633160   1.000000
      3        -23.148076   1.000000
      4          4.015423   1.000000
      5          4.450917   1.000000
      6          6.827653  -0.017534
      7         11.003556  -0.000000
      8         11.321394  -0.000000
      9         17.850247   0.000000
 
  0.3448276E+00  0.1724138E+00  0.1379310E+00  0.9840502E-03
      1        -24.416790   1.000000
      2        -23.662192   1.000000
      3        -23.150829   1.000000
      4          3.995711   1.000000
      5          4.444621   1.000000
      6          6.935721  -0.003114
      7         11.022168  -0.000000
      8         11.339107  -0.000000
      9         18.008384   0.000000
 
 -0.1724138E+00  0.1724138E+00  0.1379310E+00  0.9840502E-03
      1        -23.340496   1.000000
      2        -22.943879   1.000000
      3        -22.919992   1.000000
      4          2.398771   1.000000
      5          6.629636   0.028993
      6          6.633518   0.023019
      7          7.439690  -0.000000
      8          7.926800  -0.000000
      9         11.374993  -0.000000
 
  0.2068966E+00  0.2068966E+00  0.1379310E+00  0.9840502E-03
      1        -24.431282   1.000000
      2        -23.425258   1.000000
      3        -23.160746   1.000000
      4          4.242969   1.000000
      5          4.686209   1.000000
      6          5.798198   1.000007
      7         10.889117  -0.000000
      8         11.170030  -0.000000
      9         16.863441   0.000000
 
  0.2413793E+00  0.2068966E+00  0.1379310E+00  0.1968100E-02
      1        -24.397596   1.000000
      2        -23.553156   1.000000
      3        -23.192357   1.000000
      4          4.195277   1.000000
      5          4.745146   1.000000
      6          6.093336   1.009421
      7         10.983554  -0.000000
      8         11.262487  -0.000000
      9         17.591771   0.000000
 
  0.2758621E+00  0.2068966E+00  0.1379310E+00  0.1968100E-02
      1        -24.352180   1.000000
      2        -23.668207   1.000000
      3        -23.210494   1.000000
      4          4.158254   1.000000
      5          4.765436   1.000000
      6          6.358919   0.928851
      7         11.059690  -0.000000
      8         11.317887  -0.000000
      9         18.167867   0.000000
 
  0.3103448E+00  0.2068966E+00  0.1379310E+00  0.1968100E-02
      1        -24.316439   1.000000
      2        -23.740545   1.000000
      3        -23.218992   1.000000
      4          4.138405   1.000000
      5          4.771424   1.000000
      6          6.513541   0.372218
      7         11.103509  -0.000000
      8         11.342400  -0.000000
      9         18.539753   0.000000
 
 -0.2068966E+00  0.2068966E+00  0.1379310E+00  0.9840502E-03
      1        -23.533461   1.000000
      2        -23.018055   1.000000
      3        -22.937116   1.000000
      4          2.777794   1.000000
      5          6.313242   1.001444
      6          6.445893   0.653852
      7          7.503435  -0.000000
      8          8.486600  -0.000000
      9         11.541723  -0.000000
 
 -0.1724138E+00  0.2068966E+00  0.1379310E+00  0.9840502E-03
      1        -23.483931   1.000000
      2        -23.014971   1.000000
      3        -22.970620   1.000000
      4          2.773380   1.000000
      5          6.398784   0.823569
      6          6.656444  -0.005353
      7          7.264203  -0.000000
      8          8.300347  -0.000000
      9         11.570210  -0.000000
 
  0.2413793E+00  0.2413793E+00  0.1379310E+00  0.9840502E-03
      1        -24.323201   1.000000
      2        -23.683597   1.000000
      3        -23.232922   1.000000
      4          4.187785   1.000000
      5          4.977303   1.000000
      6          6.112829   1.012564
      7         11.080386  -0.000000
      8         11.313877  -0.000000
      9         18.280819   0.000000
 
  0.2758621E+00  0.2413793E+00  0.1379310E+00  0.1968100E-02
      1        -24.240700   1.000000
      2        -23.804965   1.000000
      3        -23.254353   1.000000
      4          4.179040   1.000000
      5          5.130437   1.000000
      6          6.137106   1.017293
      7         11.156453  -0.000000
      8         11.330520  -0.000000
      9         18.788364   0.000000
 
  0.3103448E+00  0.2413793E+00  0.1379310E+00  0.9840502E-03
      1        -24.196053   1.000000
      2        -23.863410   1.000000
      3        -23.261059   1.000000
      4          4.175747   1.000000
      5          5.182675   1.000000
      6          6.148615   1.019798
      7         11.188599  -0.000000
      8         11.330079  -0.000000
      9         18.891859   0.000000
 
 -0.2413793E+00  0.2413793E+00  0.1379310E+00  0.9840502E-03
      1        -23.745605   1.000000
      2        -23.095809   1.000000
      3        -22.942749   1.000000
      4          3.090305   1.000000
      5          5.959634   1.000677
      6          6.224078   1.034780
      7          7.786688  -0.000000
      8          9.168397  -0.000000
      9         11.690353  -0.000000
 
 -0.2068966E+00  0.2413793E+00  0.1379310E+00  0.1968100E-02
      1        -23.665550   1.000000
      2        -23.093806   1.000000
      3        -22.993480   1.000000
      4          3.120313   1.000000
      5          5.974516   1.000957
      6          6.548476   0.238540
      7          7.438790  -0.000000
      8          8.879583  -0.000000
      9         11.738345  -0.000000
 
  0.2758621E+00  0.2758621E+00  0.1379310E+00  0.9840502E-03
      1        -24.114793   1.000000
      2        -23.946241   1.000000
      3        -23.274686   1.000000
      4          4.185161   1.000000
      5          5.475026   1.000000
      6          5.875750   1.000076
      7         11.236504  -0.000000
      8         11.306427  -0.000000
      9         18.780822   0.000000
 
 -0.2758621E+00  0.2758621E+00  0.1379310E+00  0.9840502E-03
      1        -23.960047   1.000000
      2        -23.173431   1.000000
      3        -22.943395   1.000000
      4          3.263540   1.000000
      5          5.744644   1.000001
      6          5.997801   1.001603
      7          8.162275  -0.000000
      8          9.934417  -0.000000
      9         11.840631   0.000000
 
 -0.2413793E+00  0.2758621E+00  0.1379310E+00  0.1968100E-02
      1        -23.863369   1.000000
      2        -23.174930   1.000000
      3        -23.002053   1.000000
      4          3.375958   1.000000
      5          5.604309   1.000000
      6          6.375675   0.889415
      7          7.774321  -0.000000
      8          9.581540  -0.000000
      9         11.897367   0.000000
 
 -0.2068966E+00  0.2758621E+00  0.1379310E+00  0.9840502E-03
      1        -23.824625   1.000000
      2        -23.179933   1.000000
      3        -23.023598   1.000000
      4          3.421585   1.000000
      5          5.543978   1.000000
      6          6.597331   0.092990
      7          7.552904  -0.000000
      8          9.463489  -0.000000
      9         11.917920   0.000000
 
 -0.3103448E+00  0.3103448E+00  0.1379310E+00  0.9840502E-03
      1        -24.164510   1.000000
      2        -23.247351   1.000000
      3        -22.941819   1.000000
      4          3.259275   1.000000
      5          5.727577   1.000001
      6          5.784054   1.000005
      7          8.552933  -0.000000
      8         10.756322  -0.000000
      9         12.034809   0.000000
 
 -0.2758621E+00  0.3103448E+00  0.1379310E+00  0.1968100E-02
      1        -24.060869   1.000000
      2        -23.254090   1.000000
      3        -23.003846   1.000000
      4          3.471189   1.000000
      5          5.398057   1.000000
      6          6.195411   1.030317
      7          8.169550  -0.000000
      8         10.351444  -0.000000
      9         12.090331   0.000000
 
 -0.2413793E+00  0.3103448E+00  0.1379310E+00  0.1968100E-02
      1        -23.995271   1.000000
      2        -23.269065   1.000000
      3        -23.037130   1.000000
      4          3.626323   1.000000
      5          5.179930   1.000000
      6          6.539183   0.272162
      7          7.839906  -0.000000
      8         10.143072  -0.000000
      9         12.125179   0.000000
 
 -0.3448276E+00  0.3448276E+00  0.1379310E+00  0.9840502E-03
      1        -24.349218   1.000000
      2        -23.314310   1.000000
      3        -22.939372   1.000000
      4          3.123302   1.000000
      5          5.593515   1.000000
      6          5.872209   1.000069
      7          8.867835  -0.000000
      8         11.602153  -0.000000
      9         12.335969   0.000000
 
 -0.3103448E+00  0.3448276E+00  0.1379310E+00  0.1968100E-02
      1        -24.245929   1.000000
      2        -23.327657   1.000000
      3        -23.002463   1.000000
      4          3.390568   1.000000
      5          5.377695   1.000000
      6          6.040065   1.003766
      7          8.534758  -0.000000
      8         11.136207  -0.000000
      9         12.395837   0.000000
 
 -0.2758621E+00  0.3448276E+00  0.1379310E+00  0.1968100E-02
      1        -24.163784   1.000000
      2        -23.354735   1.000000
      3        -23.041928   1.000000
      4          3.665347   1.000000
      5          4.988176   1.000000
      6          6.419259   0.754943
      7          8.209686  -0.000000
      8         10.820387  -0.000000
      9         12.452672   0.000000
 
 -0.2413793E+00  0.3448276E+00  0.1379310E+00  0.9840502E-03
      1        -24.131146   1.000000
      2        -23.369827   1.000000
      3        -23.054353   1.000000
      4          3.810381   1.000000
      5          4.803491   1.000000
      6          6.601667   0.082884
      7          8.046982  -0.000000
      8         10.711885  -0.000000
      9         12.473294   0.000000
 
 -0.3793103E+00  0.3793103E+00  0.1379310E+00  0.9840502E-03
      1        -24.506262   1.000000
      2        -23.371450   1.000000
      3        -22.936797   1.000000
      4          2.939370   1.000000
      5          5.433600   1.000000
      6          6.100693   1.010535
      7          9.033495  -0.000000
      8         12.429040   0.000000
      9         12.786418   0.000000
 
 -0.3448276E+00  0.3793103E+00  0.1379310E+00  0.1968100E-02
      1        -24.409270   1.000000
      2        -23.392439   1.000000
      3        -22.999779   1.000000
      4          3.209893   1.000000
      5          5.450451   1.000000
      6          5.950151   1.000540
      7          8.780291  -0.000000
      8         11.879943   0.000000
      9         12.895677   0.000000
 
 -0.3103448E+00  0.3793103E+00  0.1379310E+00  0.1968100E-02
      1        -24.319273   1.000000
      2        -23.432461   1.000000
      3        -23.042285   1.000000
      4          3.531908   1.000000
      5          4.997489   1.000000
      6          6.282766   1.025222
      7          8.542684  -0.000000
      8         11.422842  -0.000000
      9         13.001827   0.000000
 
 -0.2758621E+00  0.3793103E+00  0.1379310E+00  0.1968100E-02
      1        -24.261678   1.000000
      2        -23.467531   1.000000
      3        -23.061489   1.000000
      4          3.849220   1.000000
      5          4.597022   1.000000
      6          6.535252   0.286855
      7          8.371668  -0.000000
      8         11.171060  -0.000000
      9         13.056962   0.000000
 
 -0.4137931E+00  0.4137931E+00  0.1379310E+00  0.9840502E-03
      1        -24.629452   1.000000
      2        -23.416423   1.000000
      3        -22.934556   1.000000
      4          2.767915   1.000000
      5          5.309556   1.000000
      6          6.349262   0.948368
      7          9.048905  -0.000000
      8         13.176478   0.000000
      9         13.346710   0.000000
 
 -0.3793103E+00  0.4137931E+00  0.1379310E+00  0.1968100E-02
      1        -24.543612   1.000000
      2        -23.445727   1.000000
      3        -22.996879   1.000000
      4          3.014945   1.000000
      5          5.483016   1.000000
      6          5.984670   1.001203
      7          8.869412  -0.000000
      8         12.563039   0.000000
      9         13.564903   0.000000
 
 -0.3448276E+00  0.4137931E+00  0.1379310E+00  0.1968100E-02
      1        -24.453252   1.000000
      2        -23.498771   1.000000
      3        -23.040620   1.000000
      4          3.326908   1.000000
      5          5.121011   1.000000
      6          6.151775   1.020508
      7          8.750347  -0.000000
      8         11.982303   0.000000
      9         13.748887   0.000000
 
 -0.3103448E+00  0.4137931E+00  0.1379310E+00  0.1968100E-02
      1        -24.378969   1.000000
      2        -23.555262   1.000000
      3        -23.063313   1.000000
      4          3.691950   1.000000
      5          4.640093   1.000000
      6          6.386742   0.859503
      7          8.690631  -0.000000
      8         11.561283  -0.000000
      9         13.859468   0.000000
 
 -0.2758621E+00  0.4137931E+00  0.1379310E+00  0.9840502E-03
      1        -24.348880   1.000000
      2        -23.580471   1.000000
      3        -23.069955   1.000000
      4          3.998143   1.000000
      5          4.291086   1.000000
      6          6.480423   0.510690
      7          8.674976  -0.000000
      8         11.403642  -0.000000
      9         13.896207   0.000000
 
 -0.4482759E+00  0.4482759E+00  0.1379310E+00  0.9840502E-03
      1        -24.714141   1.000000
      2        -23.447426   1.000000
      3        -22.932916   1.000000
      4          2.641084   1.000000
      5          5.224990   1.000000
      6          6.565874   0.180326
      7          8.979883  -0.000000
      8         13.761791   0.000000
      9         13.889442   0.000000
 
 -0.4137931E+00  0.4482759E+00  0.1379310E+00  0.1968100E-02
      1        -24.643428   1.000000
      2        -23.485363   1.000000
      3        -22.994424   1.000000
      4          2.854584   1.000000
      5          5.452315   1.000000
      6          6.113911   1.012756
      7          8.842728  -0.000000
      8         13.171199   0.000000
      9         14.257397   0.000000
 
 -0.3793103E+00  0.4482759E+00  0.1379310E+00  0.1968100E-02
      1        -24.559234   1.000000
      2        -23.550916   1.000000
      3        -23.038382   1.000000
      4          3.135662   1.000000
      5          5.277952   1.000000
      6          6.036075   1.003490
      7          8.821628  -0.000000
      8         12.541926   0.000000
      9         14.561342   0.000000
 
 -0.3448276E+00  0.4482759E+00  0.1379310E+00  0.1968100E-02
      1        -24.476673   1.000000
      2        -23.628090   1.000000
      3        -23.062645   1.000000
      4          3.479000   1.000000
      5          4.810745   1.000000
      6          6.194745   1.030181
      7          8.906440  -0.000000
      8         11.986947   0.000000
      9         14.762993   0.000000
 
 -0.3103448E+00  0.4482759E+00  0.1379310E+00  0.1968100E-02
      1        -24.421427   1.000000
      2        -23.683446   1.000000
      3        -23.072573   1.000000
      4          3.877659   1.000000
      5          4.330557   1.000000
      6          6.295209   1.017540
      7          9.014192  -0.000000
      8         11.636358  -0.000000
      9         14.862792   0.000000
 
 -0.4827586E+00  0.4827586E+00  0.1379310E+00  0.9840502E-03
      1        -24.757237   1.000000
      2        -23.463237   1.000000
      3        -22.932063   1.000000
      4          2.574490   1.000000
      5          5.182158   1.000000
      6          6.696448  -0.030788
      7          8.913103  -0.000000
      8         14.089768   0.000000
      9         14.236430   0.000000
 
 -0.4482759E+00  0.4827586E+00  0.1379310E+00  0.1968100E-02
      1        -24.704866   1.000000
      2        -23.509773   1.000000
      3        -22.992805   1.000000
      4          2.751808   1.000000
      5          5.416337   1.000000
      6          6.236276   1.035447
      7          8.778573  -0.000000
      8         13.617598   0.000000
      9         14.799178   0.000000
 
 -0.4137931E+00  0.4827586E+00  0.1379310E+00  0.1968100E-02
      1        -24.632487   1.000000
      2        -23.586837   1.000000
      3        -23.036471   1.000000
      4          2.996055   1.000000
      5          5.423802   1.000000
      6          5.940460   1.000426
      7          8.811740  -0.000000
      8         13.036936   0.000000
      9         15.290042   0.000000
 
 -0.3793103E+00  0.4827586E+00  0.1379310E+00  0.1968100E-02
      1        -24.549939   1.000000
      2        -23.682502   1.000000
      3        -23.061174   1.000000
      4          3.303078   1.000000
      5          5.025659   1.000000
      6          5.978014   1.001036
      7          9.007637  -0.000000
      8         12.440949   0.000000
      9         15.646561   0.000000
 
 -0.3448276E+00  0.4827586E+00  0.1379310E+00  0.1968100E-02
      1        -24.476869   1.000000
      2        -23.768351   1.000000
      3        -23.072477   1.000000
      4          3.667370   1.000000
      5          4.549799   1.000000
      6          6.039130   1.003699
      7          9.276464  -0.000000
      8         11.937197   0.000000
      9         15.859047   0.000000
 
 -0.3103448E+00  0.4827586E+00  0.1379310E+00  0.9840502E-03
      1        -24.445544   1.000000
      2        -23.804795   1.000000
      3        -23.075613   1.000000
      4          4.035913   1.000000
      5          4.140099   1.000000
      6          6.059285   1.005355
      7          9.416517  -0.000000
      8         11.720749  -0.000000
      9         15.929131   0.000000
 
 -0.4827586E+00 -0.4827586E+00  0.1379310E+00  0.9840502E-03
      1        -24.725612   1.000000
      2        -23.518015   1.000000
      3        -22.992238   1.000000
      4          2.716605   1.000000
      5          5.402338   1.000000
      6          6.285059   1.023997
      7          8.747507  -0.000000
      8         13.784746   0.000000
      9         15.010989   0.000000
 
 -0.4482759E+00 -0.4827586E+00  0.1379310E+00  0.1968100E-02
      1        -24.669870   1.000000
      2        -23.605145   1.000000
      3        -23.035394   1.000000
      4          2.923447   1.000000
      5          5.521024   1.000000
      6          5.876237   1.000077
      7          8.786769  -0.000000
      8         13.337394   0.000000
      9         15.750296   0.000000
 
 -0.4137931E+00 -0.4827586E+00  0.1379310E+00  0.1968100E-02
      1        -24.595281   1.000000
      2        -23.716094   1.000000
      3        -23.059924   1.000000
      4          3.191767   1.000000
      5          5.259134   1.000000
      6          5.746504   1.000001
      7          9.039015  -0.000000
      8         12.808243   0.000000
      9         16.357070   0.000000
 
 -0.3793103E+00 -0.4827586E+00  0.1379310E+00  0.1968100E-02
      1        -24.514028   1.000000
      2        -23.828812   1.000000
      3        -23.071531   1.000000
      4          3.516563   1.000000
      5          4.802523   1.000000
      6          5.753627   1.000002
      7          9.426219  -0.000000
      8         12.261225   0.000000
      9         16.777872   0.000000
 
 -0.3448276E+00 -0.4827586E+00  0.1379310E+00  0.1968100E-02
      1        -24.453396   1.000000
      2        -23.907413   1.000000
      3        -23.075868   1.000000
      4          3.881366   1.000000
      5          4.360798   1.000000
      6          5.753805   1.000002
      7          9.766502  -0.000000
      8         11.849458   0.000000
      9         16.987852   0.000000
 
 -0.4482759E+00 -0.4482759E+00  0.1379310E+00  0.9840502E-03
      1        -24.610627   1.000000
      2        -23.727450   1.000000
      3        -23.059458   1.000000
      4          3.153909   1.000000
      5          5.471253   1.000000
      6          5.535421   1.000000
      7          9.044123  -0.000000
      8         12.951615   0.000000
      9         16.650989   0.000000
 
 -0.4137931E+00 -0.4482759E+00  0.1379310E+00  0.1968100E-02
      1        -24.532612   1.000000
      2        -23.860265   1.000000
      3        -23.070813   1.000000
      4          3.439530   1.000000
      5          5.050181   1.000000
      6          5.486225   1.000000
      7          9.487813  -0.000000
      8         12.479278   0.000000
      9         17.416579   0.000000
 
 -0.3793103E+00 -0.4482759E+00  0.1379310E+00  0.1968100E-02
      1        -24.451336   1.000000
      2        -23.978333   1.000000
      3        -23.075333   1.000000
      4          3.770544   1.000000
      5          4.624250   1.000000
      6          5.441062   1.000000
      7          9.982870  -0.000000
      8         11.992011   0.000000
      9         17.925632   0.000000
 
 -0.3448276E+00 -0.4482759E+00  0.1379310E+00  0.9840502E-03
      1        -24.409888   1.000000
      2        -24.032708   1.000000
      3        -23.076473   1.000000
      4          4.043110   1.000000
      5          4.318059   1.000000
      6          5.423356   1.000000
      7         10.248974  -0.000000
      8         11.732232  -0.000000
      9         18.095298   0.000000
 
 -0.4137931E+00 -0.4137931E+00  0.1379310E+00  0.9840502E-03
      1        -24.448879   1.000000
      2        -24.004167   1.000000
      3        -23.075038   1.000000
      4          3.733045   1.000000
      5          4.791004   1.000000
      6          5.255935   1.000000
      7         10.052618  -0.000000
      8         12.057300   0.000000
      9         18.400156   0.000000
 
 -0.3793103E+00 -0.4137931E+00  0.1379310E+00  0.1968100E-02
      1        -24.363069   1.000000
      2        -24.121775   1.000000
      3        -23.076318   1.000000
      4          4.047843   1.000000
      5          4.478477   1.000000
      6          5.142468   1.000000
      7         10.579764  -0.000000
      8         11.619871  -0.000000
      9         19.053693   0.000000
 
 -0.3793103E+00 -0.3793103E+00  0.1379310E+00  0.3280167E-03
      1        -24.251863   1.000000
      2        -24.251857   1.000000
      3        -23.076453   1.000000
      4          4.302496   1.000000
      5          4.302499   1.000000
      6          5.004365   1.000000
      7         11.142014  -0.000000
      8         11.142017  -0.000000
      9         19.481576   0.000000
 
  0.1724138E+00  0.1724138E+00  0.1724138E+00  0.3280167E-03
      1        -24.432097   1.000000
      2        -23.211703   1.000000
      3        -23.211698   1.000000
      4          4.556822   1.000000
      5          4.556824   1.000000
      6          5.270941   1.000000
      7         10.921906  -0.000000
      8         10.921910  -0.000000
      9         16.062030   0.000000
 
  0.2068966E+00  0.1724138E+00  0.1724138E+00  0.9840502E-03
      1        -24.424236   1.000000
      2        -23.357190   1.000000
      3        -23.232649   1.000000
      4          4.522313   1.000000
      5          4.537439   1.000000
      6          5.652913   1.000000
      7         10.984397  -0.000000
      8         11.102043  -0.000000
      9         16.894274   0.000000
 
  0.2413793E+00  0.1724138E+00  0.1724138E+00  0.9840502E-03
      1        -24.394449   1.000000
      2        -23.497240   1.000000
      3        -23.249251   1.000000
      4          4.475314   1.000000
      5          4.502834   1.000000
      6          6.058753   1.005304
      7         11.049811  -0.000000
      8         11.230423  -0.000000
      9         17.601905   0.000000
 
  0.2758621E+00  0.1724138E+00  0.1724138E+00  0.9840502E-03
      1        -24.353801   1.000000
      2        -23.614862   1.000000
      3        -23.260764   1.000000
      4          4.422366   1.000000
      5          4.493131   1.000000
      6          6.386566   0.860004
      7         11.103070  -0.000000
      8         11.312319  -0.000000
      9         18.142318   0.000000
 
  0.3103448E+00  0.1724138E+00  0.1724138E+00  0.9840502E-03
      1        -24.322316   1.000000
      2        -23.685917   1.000000
      3        -23.266660   1.000000
      4          4.393426   1.000000
      5          4.489317   1.000000
      6          6.570195   0.166909
      7         11.132667  -0.000000
      8         11.352050  -0.000000
      9         18.484939   0.000000
 
 -0.1724138E+00  0.1724138E+00  0.1724138E+00  0.2460125E-03
      1        -23.426227   1.000000
      2        -23.011969   1.000000
      3        -23.011961   1.000000
      4          2.763724   1.000000
      5          6.809390  -0.021584
      6          6.820539  -0.019076
      7          6.820549  -0.019073
      8          8.044340  -0.000000
      9         11.598230  -0.000000
 
  0.2068966E+00  0.2068966E+00  0.1724138E+00  0.9840502E-03
      1        -24.378517   1.000000
      2        -23.452373   1.000000
      3        -23.313040   1.000000
      4          4.506319   1.000000
      5          4.705677   1.000000
      6          5.812058   1.000011
      7         11.098464  -0.000000
      8         11.202543  -0.000000
      9         17.666698   0.000000
 
  0.2413793E+00  0.2068966E+00  0.1724138E+00  0.1968100E-02
      1        -24.312236   1.000000
      2        -23.586171   1.000000
      3        -23.343922   1.000000
      4          4.493446   1.000000
      5          4.793524   1.000000
      6          6.014882   1.002293
      7         11.166043  -0.000000
      8         11.295102  -0.000000
      9         18.297096   0.000000
 
  0.2758621E+00  0.2068966E+00  0.1724138E+00  0.1968100E-02
      1        -24.242600   1.000000
      2        -23.703030   1.000000
      3        -23.358067   1.000000
      4          4.486012   1.000000
      5          4.830165   1.000000
      6          6.179922   1.026972
      7         11.210098  -0.000000
      8         11.350111  -0.000000
      9         18.727531   0.000000
 
  0.3103448E+00  0.2068966E+00  0.1724138E+00  0.9840502E-03
      1        -24.208503   1.000000
      2        -23.753611   1.000000
      3        -23.362457   1.000000
      4          4.483520   1.000000
      5          4.839967   1.000000
      6          6.242669   1.035371
      7         11.225875  -0.000000
      8         11.367890  -0.000000
      9         18.868649   0.000000
 
 -0.2068966E+00  0.2068966E+00  0.1724138E+00  0.9840502E-03
      1        -23.569428   1.000000
      2        -23.087427   1.000000
      3        -23.063671   1.000000
      4          3.124335   1.000000
      5          6.224880   1.034852
      6          6.807677  -0.021976
      7          7.085356  -0.000087
      8          8.449359  -0.000000
      9         11.783804  -0.000000
 
  0.2413793E+00  0.2413793E+00  0.1724138E+00  0.9840502E-03
      1        -24.209599   1.000000
      2        -23.709971   1.000000
      3        -23.394056   1.000000
      4          4.495962   1.000000
      5          5.055472   1.000000
      6          5.958579   1.000660
      7         11.243302  -0.000000
      8         11.342041  -0.000000
      9         18.741325   0.000000
 
  0.2758621E+00  0.2413793E+00  0.1724138E+00  0.1968100E-02
      1        -24.111084   1.000000
      2        -23.825397   1.000000
      3        -23.413914   1.000000
      4          4.498132   1.000000
      5          5.217389   1.000000
      6          5.909497   1.000192
      7         11.287703  -0.000000
      8         11.360974  -0.000000
      9         18.718836   0.000000
 
 -0.2413793E+00  0.2413793E+00  0.1724138E+00  0.9840502E-03
      1        -23.750344   1.000000
      2        -23.166503   1.000000
      3        -23.084858   1.000000
      4          3.427750   1.000000
      5          5.722862   1.000001
      6          6.665726  -0.013728
      7          7.433820  -0.000000
      8          9.067858  -0.000000
      9         11.944473   0.000000
 
 -0.2068966E+00  0.2413793E+00  0.1724138E+00  0.9840502E-03
      1        -23.702054   1.000000
      2        -23.168236   1.000000
      3        -23.118476   1.000000
      4          3.447617   1.000000
      5          5.761827   1.000002
      6          6.899225  -0.006092
      7          7.207930  -0.000002
      8          8.867800  -0.000000
      9         11.961891   0.000000
 
  0.2758621E+00  0.2758621E+00  0.1724138E+00  0.3280167E-03
      1        -23.967690   1.000000
      2        -23.967685   1.000000
      3        -23.430951   1.000000
      4          4.502497   1.000000
      5          5.583821   1.000000
      6          5.583825   1.000000
      7         11.339183  -0.000000
      8         11.339184  -0.000000
      9         18.636292   0.000000
 
 -0.2758621E+00  0.2758621E+00  0.1724138E+00  0.9840502E-03
      1        -23.944065   1.000000
      2        -23.245427   1.000000
      3        -23.090844   1.000000
      4          3.606608   1.000000
      5          5.367646   1.000000
      6          6.481123   0.507726
      7          7.835606  -0.000000
      8          9.808990  -0.000000
      9         12.111795   0.000000
 
 -0.2413793E+00  0.2758621E+00  0.1724138E+00  0.1968100E-02
      1        -23.866280   1.000000
      2        -23.252063   1.000000
      3        -23.142763   1.000000
      4          3.694814   1.000000
      5          5.306544   1.000000
      6          6.829129  -0.017222
      7          7.522373  -0.000000
      8          9.492627  -0.000000
      9         12.131291   0.000000
 
 -0.3103448E+00  0.3103448E+00  0.1724138E+00  0.9840502E-03
      1        -24.133367   1.000000
      2        -23.320534   1.000000
      3        -23.089951   1.000000
      4          3.598305   1.000000
      5          5.227366   1.000000
      6          6.292803   1.019230
      7          8.224488  -0.000000
      8         10.622565  -0.000000
      9         12.344148   0.000000
 
 -0.2758621E+00  0.3103448E+00  0.1724138E+00  0.1968100E-02
      1        -24.040757   1.000000
      2        -23.333362   1.000000
      3        -23.150770   1.000000
      4          3.798075   1.000000
      5          4.994325   1.000000
      6          6.681200  -0.024196
      7          7.913449  -0.000000
      8         10.226966  -0.000000
      9         12.348541   0.000000
 
 -0.2413793E+00  0.3103448E+00  0.1724138E+00  0.9840502E-03
      1        -24.002718   1.000000
      2        -23.346318   1.000000
      3        -23.169609   1.000000
      4          3.893367   1.000000
      5          4.882446   1.000000
      6          6.909230  -0.005111
      7          7.725701  -0.000000
      8         10.081108  -0.000000
      9         12.353686   0.000000
 
 -0.3448276E+00  0.3448276E+00  0.1724138E+00  0.9840502E-03
      1        -24.306461   1.000000
      2        -23.388563   1.000000
      3        -23.086175   1.000000
      4          3.433057   1.000000
      5          5.282995   1.000000
      6          6.119306   1.013741
      7          8.513984  -0.000000
      8         11.468870  -0.000000
      9         12.713727   0.000000
 
 -0.3103448E+00  0.3448276E+00  0.1724138E+00  0.1968100E-02
      1        -24.209210   1.000000
      2        -23.408689   1.000000
      3        -23.150764   1.000000
      4          3.698025   1.000000
      5          4.911857   1.000000
      6          6.517096   0.357821
      7          8.265532  -0.000000
      8         11.002051  -0.000000
      9         12.698204   0.000000
 
 -0.2758621E+00  0.3448276E+00  0.1724138E+00  0.1968100E-02
      1        -24.145346   1.000000
      2        -23.437572   1.000000
      3        -23.179795   1.000000
      4          3.956371   1.000000
      5          4.589180   1.000000
      6          6.833085  -0.016397
      7          8.067676  -0.000000
      8         10.714617  -0.000000
      9         12.707261   0.000000
 
 -0.3793103E+00  0.3793103E+00  0.1724138E+00  0.9840502E-03
      1        -24.454594   1.000000
      2        -23.446622   1.000000
      3        -23.081574   1.000000
      4          3.215935   1.000000
      5          5.437750   1.000000
      6          5.971224   1.000888
      7          8.650307  -0.000000
      8         12.302113   0.000000
      9         13.255853   0.000000
 
 -0.3448276E+00  0.3793103E+00  0.1724138E+00  0.1968100E-02
      1        -24.360150   1.000000
      2        -23.474911   1.000000
      3        -23.147231   1.000000
      4          3.474591   1.000000
      5          4.998493   1.000000
      6          6.359485   0.927635
      7          8.493468  -0.000000
      8         11.770437  -0.000000
      9         13.245627   0.000000
 
 -0.3103448E+00  0.3793103E+00  0.1724138E+00  0.1968100E-02
      1        -24.281361   1.000000
      2        -23.519974   1.000000
      3        -23.181485   1.000000
      4          3.784811   1.000000
      5          4.566040   1.000000
      6          6.680591  -0.023860
      7          8.402566  -0.000000
      8         11.321463  -0.000000
      9         13.279813   0.000000
 
 -0.2758621E+00  0.3793103E+00  0.1724138E+00  0.9840502E-03
      1        -24.249010   1.000000
      2        -23.543202   1.000000
      3        -23.190951   1.000000
      4          4.080472   1.000000
      5          4.228390   1.000000
      6          6.807945  -0.021915
      7          8.373978  -0.000000
      8         11.145785  -0.000000
      9         13.294372   0.000000
 
 -0.4137931E+00  0.4137931E+00  0.1724138E+00  0.9840502E-03
      1        -24.571232   1.000000
      2        -23.492309   1.000000
      3        -23.077319   1.000000
      4          3.019969   1.000000
      5          5.617113   1.000000
      6          5.855300   1.000042
      7          8.652212  -0.000000
      8         13.059841   0.000000
      9         13.921249   0.000000
 
 -0.3793103E+00  0.4137931E+00  0.1724138E+00  0.1968100E-02
      1        -24.485338   1.000000
      2        -23.529334   1.000000
      3        -23.142688   1.000000
      4          3.245392   1.000000
      5          5.146607   1.000000
      6          6.218515   1.034181
      7          8.576918  -0.000000
      8         12.503298   0.000000
      9         13.963273   0.000000
 
 -0.3448276E+00  0.4137931E+00  0.1724138E+00  0.1968100E-02
      1        -24.400873   1.000000
      2        -23.589932   1.000000
      3        -23.179222   1.000000
      4          3.527696   1.000000
      5          4.687480   1.000000
      6          6.502701   0.416872
      7          8.626369  -0.000000
      8         11.916901   0.000000
      9         14.054263   0.000000
 
 -0.3103448E+00  0.4137931E+00  0.1724138E+00  0.1968100E-02
      1        -24.344029   1.000000
      2        -23.639614   1.000000
      3        -23.193262   1.000000
      4          3.859294   1.000000
      5          4.264729   1.000000
      6          6.648724   0.002930
      7          8.726123  -0.000000
      8         11.533735  -0.000000
      9         14.105888   0.000000
 
 -0.4482759E+00  0.4482759E+00  0.1724138E+00  0.9840502E-03
      1        -24.651599   1.000000
      2        -23.523800   1.000000
      3        -23.074148   1.000000
      4          2.878155   1.000000
      5          5.772835   1.000003
      6          5.775832   1.000003
      7          8.588148  -0.000000
      8         13.656782   0.000000
      9         14.574884   0.000000
 
 -0.4137931E+00  0.4482759E+00  0.1724138E+00  0.1968100E-02
      1        -24.578818   1.000000
      2        -23.569791   1.000000
      3        -23.138595   1.000000
      4          3.063910   1.000000
      5          5.300853   1.000000
      6          6.099649   1.010372
      7          8.562379  -0.000000
      8         13.152815   0.000000
      9         14.732356   0.000000
 
 -0.3793103E+00  0.4482759E+00  0.1724138E+00  0.1968100E-02
      1        -24.496496   1.000000
      2        -23.644757   1.000000
      3        -23.175703   1.000000
      4          3.306198   1.000000
      5          4.840599   1.000000
      6          6.323535   0.989295
      7          8.726616  -0.000000
      8         12.512828   0.000000
      9         14.923347   0.000000
 
 -0.3448276E+00  0.4482759E+00  0.1724138E+00  0.1968100E-02
      1        -24.424147   1.000000
      2        -23.720256   1.000000
      3        -23.191585   1.000000
      4          3.595648   1.000000
      5          4.414784   1.000000
      6          6.434033   0.700276
      7          8.997384  -0.000000
      8         11.960177   0.000000
      9         15.045283   0.000000
 
 -0.3103448E+00  0.4482759E+00  0.1724138E+00  0.9840502E-03
      1        -24.393327   1.000000
      2        -23.753541   1.000000
      3        -23.195706   1.000000
      4          3.828376   1.000000
      5          4.135679   1.000000
      6          6.464362   0.578274
      7          9.144500  -0.000000
      8         11.723059  -0.000000
      9         15.086124   0.000000
 
 -0.4827586E+00  0.4827586E+00  0.1724138E+00  0.9840502E-03
      1        -24.692537   1.000000
      2        -23.539859   1.000000
      3        -23.072464   1.000000
      4          2.804556   1.000000
      5          5.735465   1.000001
      6          5.864729   1.000056
      7          8.532121  -0.000000
      8         13.992956   0.000000
      9         15.007017   0.000000
 
 -0.4482759E+00  0.4827586E+00  0.1724138E+00  0.1968100E-02
      1        -24.636503   1.000000
      2        -23.594705   1.000000
      3        -23.135830   1.000000
      4          2.950043   1.000000
      5          5.424828   1.000000
      6          6.010794   1.002108
      7          8.518039  -0.000000
      8         13.620924   0.000000
      9         15.373766   0.000000
 
 -0.4137931E+00  0.4827586E+00  0.1724138E+00  0.1968100E-02
      1        -24.563022   1.000000
      2        -23.682434   1.000000
      3        -23.172575   1.000000
      4          3.151192   1.000000
      5          4.985637   1.000000
      6          6.165214   1.023590
      7          8.749818  -0.000000
      8         13.033447   0.000000
      9         15.746137   0.000000
 
 -0.3793103E+00  0.4827586E+00  0.1724138E+00  0.1968100E-02
      1        -24.484692   1.000000
      2        -23.780742   1.000000
      3        -23.188773   1.000000
      4          3.401195   1.000000
      5          4.567445   1.000000
      6          6.216143   1.033879
      7          9.152382  -0.000000
      8         12.416554   0.000000
      9         16.002764   0.000000
 
 -0.3448276E+00  0.4827586E+00  0.1724138E+00  0.1968100E-02
      1        -24.427775   1.000000
      2        -23.850969   1.000000
      3        -23.194248   1.000000
      4          3.663688   1.000000
      5          4.217843   1.000000
      6          6.223002   1.034677
      7          9.511356  -0.000000
      8         11.961915   0.000000
      9         16.128841   0.000000
 
 -0.4827586E+00 -0.4827586E+00  0.1724138E+00  0.9840502E-03
      1        -24.655999   1.000000
      2        -23.603118   1.000000
      3        -23.134868   1.000000
      4          2.911402   1.000000
      5          5.475701   1.000000
      6          5.974357   1.000954
      7          8.496728  -0.000000
      8         13.794387   0.000000
      9         15.639202   0.000000
 
 -0.4482759E+00 -0.4827586E+00  0.1724138E+00  0.1968100E-02
      1        -24.597126   1.000000
      2        -23.701615   1.000000
      3        -23.170787   1.000000
      4          3.072098   1.000000
      5          5.081483   1.000000
      6          6.063832   1.005800
      7          8.747152  -0.000000
      8         13.347336   0.000000
      9         16.304294   0.000000
 
 -0.4137931E+00 -0.4827586E+00  0.1724138E+00  0.1968100E-02
      1        -24.522325   1.000000
      2        -23.818151   1.000000
      3        -23.186492   1.000000
      4          3.282754   1.000000
      5          4.693971   1.000000
      6          6.043623   1.004026
      7          9.221009  -0.000000
      8         12.788261   0.000000
      9         16.826370   0.000000
 
 -0.3793103E+00 -0.4827586E+00  0.1724138E+00  0.1968100E-02
      1        -24.448208   1.000000
      2        -23.922781   1.000000
      3        -23.191905   1.000000
      4          3.526772   1.000000
      5          4.338785   1.000000
      6          5.997974   1.001609
      7          9.747920  -0.000000
      8         12.233863   0.000000
      9         17.138791   0.000000
 
 -0.3448276E+00 -0.4827586E+00  0.1724138E+00  0.9840502E-03
      1        -24.412826   1.000000
      2        -23.969189   1.000000
      3        -23.193096   1.000000
      4          3.691951   1.000000
      5          4.135572   1.000000
      6          5.977878   1.001033
      7         10.019614  -0.000000
      8         11.956202   0.000000
      9         17.238914   0.000000
 
 -0.4482759E+00 -0.4482759E+00  0.1724138E+00  0.9840502E-03
      1        -24.535072   1.000000
      2        -23.830806   1.000000
      3        -23.185629   1.000000
      4          3.242988   1.000000
      5          4.746395   1.000000
      6          5.974824   1.000964
      7          9.239320  -0.000000
      8         12.934052   0.000000
      9         17.198005   0.000000
 
 -0.4137931E+00 -0.4482759E+00  0.1724138E+00  0.1968100E-02
      1        -24.457210   1.000000
      2        -23.961174   1.000000
      3        -23.190360   1.000000
      4          3.454968   1.000000
      5          4.425148   1.000000
      6          5.856356   1.000044
      7          9.854504  -0.000000
      8         12.426252   0.000000
      9         17.916011   0.000000
 
 -0.3793103E+00 -0.4482759E+00  0.1724138E+00  0.1968100E-02
      1        -24.387185   1.000000
      2        -24.059592   1.000000
      3        -23.191337   1.000000
      4          3.671662   1.000000
      5          4.153327   1.000000
      6          5.782515   1.000004
      7         10.390294  -0.000000
      8         11.957564   0.000000
      9         18.287867   0.000000
 
 -0.4137931E+00 -0.4137931E+00  0.1724138E+00  0.9840502E-03
      1        -24.372390   1.000000
      2        -24.096444   1.000000
      3        -23.190593   1.000000
      4          3.656525   1.000000
      5          4.175927   1.000000
      6          5.706416   1.000000
      7         10.525740  -0.000000
      8         11.960973   0.000000
      9         18.933891   0.000000
 
 -0.3793103E+00 -0.4137931E+00  0.1724138E+00  0.9840502E-03
      1        -24.306681   1.000000
      2        -24.179543   1.000000
      3        -23.190346   1.000000
      4          3.813872   1.000000
      5          4.004769   1.000000
      6          5.650455   1.000000
      7         10.971551  -0.000000
      8         11.590794  -0.000000
      9         19.343685   0.000000
 
  0.2068966E+00  0.2068966E+00  0.2068966E+00  0.3280167E-03
      1        -24.298656   1.000000
      2        -23.473849   1.000000
      3        -23.473843   1.000000
      4          4.730055   1.000000
      5          4.730056   1.000000
      6          5.846711   1.000033
      7         11.244978  -0.000000
      8         11.244980  -0.000000
      9         18.338394   0.000000
 
  0.2413793E+00  0.2068966E+00  0.2068966E+00  0.9840502E-03
      1        -24.200786   1.000000
      2        -23.628858   1.000000
      3        -23.488720   1.000000
      4          4.751444   1.000000
      5          4.883343   1.000000
      6          5.895734   1.000133
      7         11.283538  -0.000000
      8         11.336130  -0.000000
      9         18.722109   0.000000
 
  0.2758621E+00  0.2068966E+00  0.2068966E+00  0.9840502E-03
      1        -24.113037   1.000000
      2        -23.746138   1.000000
      3        -23.496329   1.000000
      4          4.763786   1.000000
      5          4.957342   1.000000
      6          5.933580   1.000358
      7         11.306269  -0.000000
      8         11.379391  -0.000000
      9         18.699822   0.000000
 
 -0.2068966E+00  0.2068966E+00  0.2068966E+00  0.2460125E-03
      1        -23.647043   1.000000
      2        -23.164287   1.000000
      3        -23.164278   1.000000
      4          3.457434   1.000000
      5          5.865439   1.000057
      6          7.061196  -0.000169
      7          7.061204  -0.000169
      8          8.605140  -0.000000
      9         11.978286   0.000000
 
  0.2413793E+00  0.2413793E+00  0.2068966E+00  0.9840502E-03
      1        -24.072090   1.000000
      2        -23.728206   1.000000
      3        -23.565852   1.000000
      4          4.825139   1.000000
      5          5.114970   1.000000
      6          5.744575   1.000001
      7         11.344257  -0.000000
      8         11.372495  -0.000000
      9         18.642278   0.000000
 
  0.2758621E+00  0.2413793E+00  0.2068966E+00  0.9840502E-03
      1        -23.978624   1.000000
      2        -23.822886   1.000000
      3        -23.580891   1.000000
      4          4.839048   1.000000
      5          5.258299   1.000000
      6          5.641824   1.000000
      7         11.362043  -0.000000
      8         11.387414  -0.000000
      9         18.563842   0.000000
 
 -0.2413793E+00  0.2413793E+00  0.2068966E+00  0.9840502E-03
      1        -23.774773   1.000000
      2        -23.244789   1.000000
      3        -23.221354   1.000000
      4          3.733060   1.000000
      5          5.385933   1.000000
      6          7.109327  -0.000044
      7          7.312368  -0.000000
      8          9.051249  -0.000000
      9         12.143601   0.000000
 
 -0.2758621E+00  0.2758621E+00  0.2068966E+00  0.9840502E-03
      1        -23.934435   1.000000
      2        -23.325101   1.000000
      3        -23.244289   1.000000
      4          3.902752   1.000000
      5          4.965403   1.000000
      6          7.019742  -0.000490
      7          7.673066  -0.000000
      8          9.715263  -0.000000
      9         12.322772   0.000000
 
 -0.2413793E+00  0.2758621E+00  0.2068966E+00  0.9840502E-03
      1        -23.888169   1.000000
      2        -23.331718   1.000000
      3        -23.276984   1.000000
      4          3.943831   1.000000
      5          4.947946   1.000000
      6          7.252981  -0.000000
      7          7.510461  -0.000000
      8          9.502839  -0.000000
      9         12.318479   0.000000
 
 -0.3103448E+00  0.3103448E+00  0.2068966E+00  0.9840502E-03
      1        -24.101689   1.000000
      2        -23.401542   1.000000
      3        -23.249301   1.000000
      4          3.881446   1.000000
      5          4.737542   1.000000
      6          6.881096  -0.008237
      7          8.034808  -0.000000
      8         10.497323  -0.000000
      9         12.586659   0.000000
 
 -0.2758621E+00  0.3103448E+00  0.2068966E+00  0.1968100E-02
      1        -24.027699   1.000000
      2        -23.416922   1.000000
      3        -23.300130   1.000000
      4          4.039476   1.000000
      5          4.571997   1.000000
      6          7.215283  -0.000001
      7          7.847029  -0.000000
      8         10.149965  -0.000000
      9         12.553270   0.000000
 
 -0.3448276E+00  0.3448276E+00  0.2068966E+00  0.9840502E-03
      1        -24.259418   1.000000
      2        -23.470763   1.000000
      3        -23.246305   1.000000
      4          3.663360   1.000000
      5          4.737848   1.000000
      6          6.736906  -0.035164
      7          8.302514  -0.000000
      8         11.333030  -0.000000
      9         13.011618   0.000000
 
 -0.3103448E+00  0.3448276E+00  0.2068966E+00  0.1968100E-02
      1        -24.172832   1.000000
      2        -23.494825   1.000000
      3        -23.306091   1.000000
      4          3.890339   1.000000
      5          4.444040   1.000000
      6          7.096629  -0.000063
      7          8.184256  -0.000000
      8         10.888234  -0.000000
      9         12.935966   0.000000
 
 -0.2758621E+00  0.3448276E+00  0.2068966E+00  0.9840502E-03
      1        -24.136128   1.000000
      2        -23.515103   1.000000
      3        -23.321721   1.000000
      4          4.120762   1.000000
      5          4.188435   1.000000
      6          7.252342  -0.000000
      7          8.143657  -0.000000
      8         10.697633  -0.000000
      9         12.919373   0.000000
 
 -0.3793103E+00  0.3793103E+00  0.2068966E+00  0.9840502E-03
      1        -24.396505   1.000000
      2        -23.529818   1.000000
      3        -23.240392   1.000000
      4          3.400901   1.000000
      5          4.831752   1.000000
      6          6.607505   0.070026
      7          8.430873  -0.000000
      8         12.167192   0.000000
      9         13.628071   0.000000
 
 -0.3448276E+00  0.3793103E+00  0.2068966E+00  0.1968100E-02
      1        -24.307730   1.000000
      2        -23.562915   1.000000
      3        -23.303763   1.000000
      4          3.600333   1.000000
      5          4.495384   1.000000
      6          6.959766  -0.001913
      7          8.417071  -0.000000
      8         11.652460  -0.000000
      9         13.525863   0.000000
 
 -0.3103448E+00  0.3793103E+00  0.2068966E+00  0.1968100E-02
      1        -24.246657   1.000000
      2        -23.604613   1.000000
      3        -23.327440   1.000000
      4          3.826895   1.000000
      5          4.194562   1.000000
      6          7.146113  -0.000014
      7          8.496402  -0.000000
      8         11.267175  -0.000000
      9         13.504788   0.000000
 
 -0.4137931E+00  0.4137931E+00  0.2068966E+00  0.9840502E-03
      1        -24.505300   1.000000
      2        -23.576292   1.000000
      3        -23.234277   1.000000
      4          3.178609   1.000000
      5          4.939927   1.000000
      6          6.503632   0.412998
      7          8.444140  -0.000000
      8         12.932998   0.000000
      9         14.385083   0.000000
 
 -0.3793103E+00  0.4137931E+00  0.2068966E+00  0.1968100E-02
      1        -24.421707   1.000000
      2        -23.618722   1.000000
      3        -23.298343   1.000000
      4          3.338880   1.000000
      5          4.574421   1.000000
      6          6.830543  -0.016925
      7          8.523664  -0.000000
      8         12.399685   0.000000
      9         14.298198   0.000000
 
 -0.3448276E+00  0.4137931E+00  0.2068966E+00  0.1968100E-02
      1        -24.347666   1.000000
      2        -23.680186   1.000000
      3        -23.325756   1.000000
      4          3.531661   1.000000
      5          4.251221   1.000000
      6          6.991364  -0.000958
      7          8.768435  -0.000000
      8         11.852161   0.000000
      9         14.301295   0.000000
 
 -0.3103448E+00  0.4137931E+00  0.2068966E+00  0.9840502E-03
      1        -24.315828   1.000000
      2        -23.710608   1.000000
      3        -23.332271   1.000000
      4          3.661952   1.000000
      5          4.076366   1.000000
      6          7.031336  -0.000367
      7          8.918860  -0.000000
      8         11.606605  -0.000000
      9         14.308152   0.000000
 
 -0.4482759E+00  0.4482759E+00  0.2068966E+00  0.9840502E-03
      1        -24.580587   1.000000
      2        -23.608319   1.000000
      3        -23.229500   1.000000
      4          3.023052   1.000000
      5          5.030190   1.000000
      6          6.431498   0.709924
      7          8.403369  -0.000000
      8         13.541255   0.000000
      9         15.149526   0.000000
 
 -0.4137931E+00  0.4482759E+00  0.2068966E+00  0.1968100E-02
      1        -24.507693   1.000000
      2        -23.660154   1.000000
      3        -23.292843   1.000000
      4          3.143219   1.000000
      5          4.647858   1.000000
      6          6.724505  -0.035412
      7          8.543271  -0.000000
      8         13.066410   0.000000
      9         15.150370   0.000000
 
 -0.3793103E+00  0.4482759E+00  0.2068966E+00  0.1968100E-02
      1        -24.430405   1.000000
      2        -23.739054   1.000000
      3        -23.321388   1.000000
      4          3.303291   1.000000
      5          4.304770   1.000000
      6          6.837516  -0.015497
      7          8.922820  -0.000000
      8         12.448522   0.000000
      9         15.220049   0.000000
 
 -0.3448276E+00  0.4482759E+00  0.2068966E+00  0.1968100E-02
      1        -24.374613   1.000000
      2        -23.801618   1.000000
      3        -23.330268   1.000000
      4          3.462525   1.000000
      5          4.051658   1.000000
      6          6.858710  -0.011591
      7          9.291822  -0.000000
      8         11.974591   0.000000
      9         15.266322   0.000000
 
 -0.4827586E+00  0.4827586E+00  0.2068966E+00  0.9840502E-03
      1        -24.619051   1.000000
      2        -23.624652   1.000000
      3        -23.226911   1.000000
      4          2.943606   1.000000
      5          5.081733   1.000000
      6          6.394624   0.836374
      7          8.366317  -0.000000
      8         13.886065   0.000000
      9         15.681571   0.000000
 
 -0.4482759E+00  0.4827586E+00  0.2068966E+00  0.1968100E-02
      1        -24.561042   1.000000
      2        -23.685653   1.000000
      3        -23.288960   1.000000
      4          3.023372   1.000000
      5          4.700220   1.000000
      6          6.654094  -0.002962
      7          8.529589  -0.000000
      8         13.547075   0.000000
      9         15.903698   0.000000
 
 -0.4137931E+00  0.4827586E+00  0.2068966E+00  0.1968100E-02
      1        -24.488739   1.000000
      2        -23.779328   1.000000
      3        -23.317137   1.000000
      4          3.148240   1.000000
      5          4.349754   1.000000
      6          6.715147  -0.034776
      7          8.990496  -0.000000
      8         12.973998   0.000000
      9         16.133799   0.000000
 
 -0.3793103E+00  0.4827586E+00  0.2068966E+00  0.1968100E-02
      1        -24.418965   1.000000
      2        -23.871014   1.000000
      3        -23.326255   1.000000
      4          3.299906   1.000000
      5          4.058712   1.000000
      6          6.695368  -0.030429
      7          9.536254  -0.000000
      8         12.382766   0.000000
      9         16.280141   0.000000
 
 -0.3448276E+00  0.4827586E+00  0.2068966E+00  0.9840502E-03
      1        -24.386667   1.000000
      2        -23.912017   1.000000
      3        -23.328083   1.000000
      4          3.391938   1.000000
      5          3.919581   1.000000
      6          6.680954  -0.024061
      7          9.814795  -0.000000
      8         12.091906   0.000000
      9         16.328397   0.000000
 
 -0.4827586E+00 -0.4827586E+00  0.2068966E+00  0.9840502E-03
      1        -24.579097   1.000000
      2        -23.694262   1.000000
      3        -23.287567   1.000000
      4          2.983076   1.000000
      5          4.719378   1.000000
      6          6.629267   0.029581
      7          8.520644  -0.000000
      8         13.725293   0.000000
      9         16.236925   0.000000
 
 -0.4482759E+00 -0.4827586E+00  0.2068966E+00  0.1968100E-02
      1        -24.518852   1.000000
      2        -23.799784   1.000000
      3        -23.314651   1.000000
      4          3.069943   1.000000
      5          4.376220   1.000000
      6          6.647094   0.004839
      7          9.012649  -0.000000
      8         13.292544   0.000000
      9         16.805930   0.000000
 
 -0.4137931E+00 -0.4827586E+00  0.2068966E+00  0.1968100E-02
      1        -24.446429   1.000000
      2        -23.914408   1.000000
      3        -23.322910   1.000000
      4          3.197363   1.000000
      5          4.072323   1.000000
      6          6.580996   0.135313
      7          9.659662  -0.000000
      8         12.728887   0.000000
      9         17.212167   0.000000
 
 -0.3793103E+00 -0.4827586E+00  0.2068966E+00  0.1968100E-02
      1        -24.386078   1.000000
      2        -23.999123   1.000000
      3        -23.324473   1.000000
      4          3.328447   1.000000
      5          3.851422   1.000000
      6          6.530292   0.305765
      7         10.205685  -0.000000
      8         12.232528   0.000000
      9         17.402396   0.000000
 
 -0.4482759E+00 -0.4482759E+00  0.2068966E+00  0.9840502E-03
      1        -24.455724   1.000000
      2        -23.929175   1.000000
      3        -23.321649   1.000000
      4          3.162517   1.000000
      5          4.078600   1.000000
      6          6.539986   0.269195
      7          9.695831  -0.000000
      8         12.867508   0.000000
      9         17.682555   0.000000
 
 -0.4137931E+00 -0.4482759E+00  0.2068966E+00  0.1968100E-02
      1        -24.380671   1.000000
      2        -24.049163   1.000000
      3        -23.322083   1.000000
      4          3.290320   1.000000
      5          3.825773   1.000000
      6          6.445632   0.654894
      7         10.402169  -0.000000
      8         12.345956   0.000000
      9         18.321288   0.000000
 
 -0.3793103E+00 -0.4482759E+00  0.2068966E+00  0.9840502E-03
      1        -24.334981   1.000000
      2        -24.110650   1.000000
      3        -23.321702   1.000000
      4          3.381402   1.000000
      5          3.692728   1.000000
      6          6.410206   0.786391
      7         10.803442  -0.000000
      8         12.010138   0.000000
      9         18.519776   0.000000
 
 -0.4137931E+00 -0.4137931E+00  0.2068966E+00  0.9840502E-03
      1        -24.295749   1.000000
      2        -24.170505   1.000000
      3        -23.320516   1.000000
      4          3.420627   1.000000
      5          3.618759   1.000000
      6          6.366948   0.910840
      7         11.108528  -0.000000
      8         11.843257   0.000000
      9         19.405937   0.000000
 
  0.2413793E+00  0.2413793E+00  0.2413793E+00  0.3280167E-03
      1        -23.918353   1.000000
      2        -23.737518   1.000000
      3        -23.737512   1.000000
      4          5.147155   1.000000
      5          5.147157   1.000000
      6          5.484159   1.000000
      7         11.391877  -0.000000
      8         11.391878  -0.000000
      9         18.508226   0.000000
 
 -0.2413793E+00  0.2413793E+00  0.2413793E+00  0.2460125E-03
      1        -23.836114   1.000000
      2        -23.326763   1.000000
      3        -23.326754   1.000000
      4          3.960397   1.000000
      5          4.973901   1.000000
      6          7.433870  -0.000000
      7          7.433875  -0.000000
      8          9.239041  -0.000000
      9         12.311180   0.000000
 
 -0.2758621E+00  0.2758621E+00  0.2413793E+00  0.9840502E-03
      1        -23.941869   1.000000
      2        -23.408537   1.000000
      3        -23.385614   1.000000
      4          4.086833   1.000000
      5          4.556682   1.000000
      6          7.548582  -0.000000
      7          7.718656  -0.000000
      8          9.717128  -0.000000
      9         12.498732   0.000000
 
 -0.3103448E+00  0.3103448E+00  0.2413793E+00  0.9840502E-03
      1        -24.075043   1.000000
      2        -23.486345   1.000000
      3        -23.407540   1.000000
      4          4.012104   1.000000
      5          4.299473   1.000000
      6          7.515858  -0.000000
      7          8.047210  -0.000000
      8         10.411890  -0.000000
      9         12.784110   0.000000
 
 -0.2758621E+00  0.3103448E+00  0.2413793E+00  0.9840502E-03
      1        -24.031252   1.000000
      2        -23.497643   1.000000
      3        -23.438542   1.000000
      4          4.134929   1.000000
      5          4.166941   1.000000
      6          7.715267  -0.000000
      7          7.998796  -0.000000
      8         10.186607  -0.000000
      9         12.743159   0.000000
 
 -0.3448276E+00  0.3448276E+00  0.2413793E+00  0.9840502E-03
      1        -24.211681   1.000000
      2        -23.556784   1.000000
      3        -23.410122   1.000000
      4          3.698966   1.000000
      5          4.292670   1.000000
      6          7.426572  -0.000000
      7          8.310705  -0.000000
      8         11.211931  -0.000000
      9         13.244743   0.000000
 
 -0.3103448E+00  0.3448276E+00  0.2413793E+00  0.1968100E-02
      1        -24.142617   1.000000
      2        -23.580428   1.000000
      3        -23.458047   1.000000
      4          3.803614   1.000000
      5          4.129930   1.000000
      6          7.702195  -0.000000
      7          8.337551  -0.000000
      8         10.832759  -0.000000
      9         13.140100   0.000000
 
 -0.3793103E+00  0.3793103E+00  0.2413793E+00  0.9840502E-03
      1        -24.334973   1.000000
      2        -23.616864   1.000000
      3        -23.404729   1.000000
      4          3.404149   1.000000
      5          4.313332   1.000000
      6          7.328338  -0.000000
      7          8.457946  -0.000000
      8         12.035166   0.000000
      9         13.910180   0.000000
 
 -0.3448276E+00  0.3793103E+00  0.2413793E+00  0.1968100E-02
      1        -24.255987   1.000000
      2        -23.651445   1.000000
      3        -23.460688   1.000000
      4          3.489922   1.000000
      5          4.101480   1.000000
      6          7.618838  -0.000000
      7          8.606064  -0.000000
      8         11.557690  -0.000000
      9         13.749160   0.000000
 
 -0.3103448E+00  0.3793103E+00  0.2413793E+00  0.9840502E-03
      1        -24.221047   1.000000
      2        -23.678245   1.000000
      3        -23.472880   1.000000
      4          3.540438   1.000000
      5          4.007680   1.000000
      6          7.684728  -0.000000
      7          8.750199  -0.000000
      8         11.319352  -0.000000
      9         13.709311   0.000000
 
 -0.4137931E+00  0.4137931E+00  0.2413793E+00  0.9840502E-03
      1        -24.434625   1.000000
      2        -23.664121   1.000000
      3        -23.397317   1.000000
      4          3.173466   1.000000
      5          4.333011   1.000000
      6          7.243099  -0.000001
      7          8.505061  -0.000000
      8         12.803627   0.000000
      9         14.735196   0.000000
 
 -0.3793103E+00  0.4137931E+00  0.2413793E+00  0.1968100E-02
      1        -24.356154   1.000000
      2        -23.709142   1.000000
      3        -23.456001   1.000000
      4          3.236750   1.000000
      5          4.070474   1.000000
      6          7.521523  -0.000000
      7          8.761913  -0.000000
      8         12.293680   0.000000
      9         14.554447   0.000000
 
 -0.3448276E+00  0.4137931E+00  0.2413793E+00  0.1968100E-02
      1        -24.298629   1.000000
      2        -23.762096   1.000000
      3        -23.473735   1.000000
      4          3.302526   1.000000
      5          3.902457   1.000000
      6          7.584864  -0.000000
      7          9.118674  -0.000000
      8         11.841637   0.000000
      9         14.500980   0.000000
 
 -0.4482759E+00  0.4482759E+00  0.2413793E+00  0.9840502E-03
      1        -24.504206   1.000000
      2        -23.696686   1.000000
      3        -23.391018   1.000000
      4          3.016472   1.000000
      5          4.348805   1.000000
      6          7.181747  -0.000005
      7          8.499832  -0.000000
      8         13.421268   0.000000
      9         15.597508   0.000000
 
 -0.4137931E+00  0.4482759E+00  0.2413793E+00  0.1968100E-02
      1        -24.433373   1.000000
      2        -23.751800   1.000000
      3        -23.449649   1.000000
      4          3.051632   1.000000
      5          4.045961   1.000000
      6          7.437243  -0.000000
      7          8.829186  -0.000000
      8         12.962436   0.000000
      9         15.469337   0.000000
 
 -0.3793103E+00  0.4482759E+00  0.2413793E+00  0.1968100E-02
      1        -24.365180   1.000000
      2        -23.827247   1.000000
      3        -23.469240   1.000000
      4          3.113391   1.000000
      5          3.819131   1.000000
      6          7.474354  -0.000000
      7          9.361935  -0.000000
      8         12.394346   0.000000
      9         15.443362   0.000000
 
 -0.3448276E+00  0.4482759E+00  0.2413793E+00  0.9840502E-03
      1        -24.333768   1.000000
      2        -23.864096   1.000000
      3        -23.472967   1.000000
      4          3.150586   1.000000
      5          3.726221   1.000000
      6          7.470687  -0.000000
      7          9.645111  -0.000000
      8         12.103953   0.000000
      9         15.442138   0.000000
 
 -0.4827586E+00  0.4827586E+00  0.2413793E+00  0.9840502E-03
      1        -24.539920   1.000000
      2        -23.713292   1.000000
      3        -23.387515   1.000000
      4          2.937191   1.000000
      5          4.357818   1.000000
      6          7.149843  -0.000013
      7          8.485503  -0.000000
      8         13.774512   0.000000
      9         16.238517   0.000000
 
 -0.4482759E+00  0.4827586E+00  0.2413793E+00  0.1968100E-02
      1        -24.481814   1.000000
      2        -23.778000   1.000000
      3        -23.444779   1.000000
      4          2.939041   1.000000
      5          4.030989   1.000000
      6          7.381093  -0.000000
      7          8.849574  -0.000000
      8         13.449718   0.000000
      9         16.326631   0.000000
 
 -0.4137931E+00  0.4827586E+00  0.2413793E+00  0.1968100E-02
      1        -24.413400   1.000000
      2        -23.871629   1.000000
      3        -23.464119   1.000000
      4          2.983171   1.000000
      5          3.762201   1.000000
      6          7.386311  -0.000000
      7          9.490316  -0.000000
      8         12.897988   0.000000
      9         16.424278   0.000000
 
 -0.3793103E+00  0.4827586E+00  0.2413793E+00  0.1968100E-02
      1        -24.358325   1.000000
      2        -23.945547   1.000000
      3        -23.468166   1.000000
      4          3.039822   1.000000
      5          3.590970   1.000000
      6          7.357848  -0.000000
      7         10.043154  -0.000000
      8         12.394949   0.000000
      9         16.478710   0.000000
 
 -0.4827586E+00 -0.4827586E+00  0.2413793E+00  0.9840502E-03
      1        -24.498293   1.000000
      2        -23.786837   1.000000
      3        -23.442993   1.000000
      4          2.901265   1.000000
      5          4.026053   1.000000
      6          7.361451  -0.000000
      7          8.852996  -0.000000
      8         13.631517   0.000000
      9         16.738052   0.000000
 
 -0.4482759E+00 -0.4827586E+00  0.2413793E+00  0.1968100E-02
      1        -24.438604   1.000000
      2        -23.894088   1.000000
      3        -23.460955   1.000000
      4          2.916955   1.000000
      5          3.733484   1.000000
      6          7.338257  -0.000000
      7          9.542166  -0.000000
      8         13.209754   0.000000
      9         17.210233   0.000000
 
 -0.4137931E+00 -0.4827586E+00  0.2413793E+00  0.1968100E-02
      1        -24.371950   1.000000
      2        -23.998473   1.000000
      3        -23.463831   1.000000
      4          2.972757   1.000000
      5          3.506622   1.000000
      6          7.280093  -0.000000
      7         10.266396  -0.000000
      8         12.663700   0.000000
      9         17.491303   0.000000
 
 -0.3793103E+00 -0.4827586E+00  0.2413793E+00  0.9840502E-03
      1        -24.335734   1.000000
      2        -24.048519   1.000000
      3        -23.463725   1.000000
      4          3.014513   1.000000
      5          3.407054   1.000000
      6          7.255982  -0.000000
      7         10.650177  -0.000000
      8         12.339446   0.000000
      9         17.572853   0.000000
 
 -0.4482759E+00 -0.4482759E+00  0.2413793E+00  0.9840502E-03
      1        -24.376174   1.000000
      2        -24.016921   1.000000
      3        -23.462168   1.000000
      4          2.950314   1.000000
      5          3.478009   1.000000
      6          7.252638  -0.000000
      7         10.335008  -0.000000
      8         12.777529   0.000000
      9         18.073495   0.000000
 
 -0.4137931E+00 -0.4482759E+00  0.2413793E+00  0.1968100E-02
      1        -24.308131   1.000000
      2        -24.117977   1.000000
      3        -23.460595   1.000000
      4          3.021870   1.000000
      5          3.292976   1.000000
      6          7.199419  -0.000002
      7         11.034953  -0.000000
      8         12.270832   0.000000
      9         18.603020   0.000000
 
 -0.4137931E+00 -0.4137931E+00  0.2413793E+00  0.3280167E-03
      1        -24.222666   1.000000
      2        -24.222660   1.000000
      3        -23.459094   1.000000
      4          3.129642   1.000000
      5          3.129643   1.000000
      6          7.170368  -0.000007
      7         11.720407  -0.000000
      8         11.720411  -0.000000
      9         19.572489   0.000000
 
 -0.2758621E+00  0.2758621E+00  0.2758621E+00  0.2460125E-03
      1        -23.982255   1.000000
      2        -23.491732   1.000000
      3        -23.491723   1.000000
      4          4.137820   1.000000
      5          4.160294   1.000000
      6          7.949341  -0.000000
      7          7.949343  -0.000000
      8          9.927706  -0.000000
      9         12.693847   0.000000
 
 -0.3103448E+00  0.3103448E+00  0.2758621E+00  0.9840502E-03
      1        -24.063265   1.000000
      2        -23.570883   1.000000
      3        -23.548520   1.000000
      4          3.793593   1.000000
      5          4.090489   1.000000
      6          8.131847  -0.000000
      7          8.266385  -0.000000
      8         10.425939  -0.000000
      9         12.986511   0.000000
 
 -0.3448276E+00  0.3448276E+00  0.2758621E+00  0.9840502E-03
      1        -24.168456   1.000000
      2        -23.642496   1.000000
      3        -23.566753   1.000000
      4          3.470914   1.000000
      5          3.996016   1.000000
      6          8.155000  -0.000000
      7          8.554813  -0.000000
      8         11.132883  -0.000000
      9         13.454868   0.000000
 
 -0.3103448E+00  0.3448276E+00  0.2758621E+00  0.9840502E-03
      1        -24.127477   1.000000
      2        -23.658097   1.000000
      3        -23.595461   1.000000
      4          3.466505   1.000000
      5          3.957536   1.000000
      6          8.306080  -0.000000
      7          8.646056  -0.000000
      8         10.896347  -0.000000
      9         13.369950   0.000000
 
 -0.3793103E+00  0.3793103E+00  0.2758621E+00  0.9840502E-03
      1        -24.273699   1.000000
      2        -23.703575   1.000000
      3        -23.565868   1.000000
      4          3.202905   1.000000
      5          3.892190   1.000000
      6          8.113507  -0.000000
      7          8.748192  -0.000000
      8         11.919938   0.000000
      9         14.134303   0.000000
 
 -0.3448276E+00  0.3793103E+00  0.2758621E+00  0.1968100E-02
      1        -24.210563   1.000000
      2        -23.734724   1.000000
      3        -23.609231   1.000000
      4          3.192527   1.000000
      5          3.793465   1.000000
      6          8.318507  -0.000000
      7          9.000439  -0.000000
      8         11.522874  -0.000000
      9         13.960650   0.000000
 
 -0.4137931E+00  0.4137931E+00  0.2758621E+00  0.9840502E-03
      1        -24.362577   1.000000
      2        -23.751619   1.000000
      3        -23.558467   1.000000
      4          2.996822   1.000000
      5          3.801496   1.000000
      6          8.058715  -0.000000
      7          8.845974  -0.000000
      8         12.680017   0.000000
      9         14.991777   0.000000
 
 -0.3793103E+00  0.4137931E+00  0.2758621E+00  0.1968100E-02
      1        -24.292779   1.000000
      2        -23.795567   1.000000
      3        -23.608052   1.000000
      4          2.976674   1.000000
      5          3.637150   1.000000
      6          8.276024  -0.000000
      7          9.239144  -0.000000
      8         12.211286   0.000000
      9         14.760135   0.000000
 
 -0.3448276E+00  0.4137931E+00  0.2758621E+00  0.9840502E-03
      1        -24.259838   1.000000
      2        -23.827892   1.000000
      3        -23.616704   1.000000
      4          2.973837   1.000000
      5          3.577699   1.000000
      6          8.293987  -0.000000
      7          9.518483  -0.000000
      8         11.942857   0.000000
      9         14.698409   0.000000
 
 -0.4482759E+00  0.4482759E+00  0.2758621E+00  0.9840502E-03
      1        -24.425923   1.000000
      2        -23.784720   1.000000
      3        -23.551019   1.000000
      4          2.857233   1.000000
      5          3.736056   1.000000
      6          8.013766  -0.000000
      7          8.882303  -0.000000
      8         13.302879   0.000000
      9         15.922411   0.000000
 
 -0.4137931E+00  0.4482759E+00  0.2758621E+00  0.1968100E-02
      1        -24.359594   1.000000
      2        -23.840006   1.000000
      3        -23.601850   1.000000
      4          2.821637   1.000000
      5          3.512043   1.000000
      6          8.224444  -0.000000
      7          9.369728  -0.000000
      8         12.862509   0.000000
      9         15.699979   0.000000
 
 -0.3793103E+00  0.4482759E+00  0.2758621E+00  0.1968100E-02
      1        -24.306148   1.000000
      2        -23.902359   1.000000
      3        -23.613360   1.000000
      4          2.816045   1.000000
      5          3.385448   1.000000
      6          8.231841  -0.000000
      7          9.913465  -0.000000
      8         12.395710   0.000000
      9         15.620036   0.000000
 
 -0.4827586E+00  0.4827586E+00  0.2758621E+00  0.9840502E-03
      1        -24.458690   1.000000
      2        -23.801593   1.000000
      3        -23.546627   1.000000
      4          2.786842   1.000000
      5          3.702010   1.000000
      6          7.989172  -0.000000
      7          8.891149  -0.000000
      8         13.663655   0.000000
      9         16.667183   0.000000
 
 -0.4482759E+00  0.4827586E+00  0.2758621E+00  0.1968100E-02
      1        -24.402515   1.000000
      2        -23.867145   1.000000
      3        -23.596287   1.000000
      4          2.728501   1.000000
      5          3.432047   1.000000
      6          8.186455  -0.000000
      7          9.428608  -0.000000
      8         13.348190   0.000000
      9         16.632300   0.000000
 
 -0.4137931E+00  0.4827586E+00  0.2758621E+00  0.1968100E-02
      1        -24.341356   1.000000
      2        -23.953421   1.000000
      3        -23.607677   1.000000
      4          2.716442   1.000000
      5          3.241692   1.000000
      6          8.175510  -0.000000
      7         10.145745  -0.000000
      8         12.834450   0.000000
      9         16.626062   0.000000
 
 -0.3793103E+00  0.4827586E+00  0.2758621E+00  0.9840502E-03
      1        -24.309596   1.000000
      2        -23.996397   1.000000
      3        -23.608840   1.000000
      4          2.720929   1.000000
      5          3.168888   1.000000
      6          8.161799  -0.000000
      7         10.521523  -0.000000
      8         12.524827   0.000000
      9         16.626581   0.000000
 
 -0.4827586E+00 -0.4827586E+00  0.2758621E+00  0.9840502E-03
      1        -24.417274   1.000000
      2        -23.876278   1.000000
      3        -23.594164   1.000000
      4          2.697446   1.000000
      5          3.404587   1.000000
      6          8.172732  -0.000000
      7          9.444853  -0.000000
      8         13.531596   0.000000
      9         17.123366   0.000000
 
 -0.4482759E+00 -0.4827586E+00  0.2758621E+00  0.1968100E-02
      1        -24.360260   1.000000
      2        -23.979307   1.000000
      3        -23.603916   1.000000
      4          2.669271   1.000000
      5          3.164414   1.000000
      6          8.143542  -0.000000
      7         10.246032  -0.000000
      8         13.119471   0.000000
      9         17.503754   0.000000
 
 -0.4137931E+00 -0.4827586E+00  0.2758621E+00  0.1968100E-02
      1        -24.304555   1.000000
      2        -24.063686   1.000000
      3        -23.603730   1.000000
      4          2.683010   1.000000
      5          3.013662   1.000000
      6          8.109992  -0.000000
      7         10.931110  -0.000000
      8         12.631783   0.000000
      9         17.670554   0.000000
 
 -0.4482759E+00 -0.4482759E+00  0.2758621E+00  0.9840502E-03
      1        -24.300230   1.000000
      2        -24.089310   1.000000
      3        -23.601668   1.000000
      4          2.677820   1.000000
      5          2.953537   1.000000
      6          8.091373  -0.000000
      7         11.071850  -0.000000
      8         12.680815   0.000000
      9         18.362397   0.000000
 
 -0.4137931E+00 -0.4482759E+00  0.2758621E+00  0.9840502E-03
      1        -24.250506   1.000000
      2        -24.156727   1.000000
      3        -23.600100   1.000000
      4          2.717188   1.000000
      5          2.845748   1.000000
      6          8.071410  -0.000000
      7         11.604914  -0.000000
      8         12.281569   0.000000
      9         18.745876   0.000000
 
 -0.3103448E+00  0.3103448E+00  0.3103448E+00  0.2460125E-03
      1        -24.081610   1.000000
      2        -23.651278   1.000000
      3        -23.651268   1.000000
      4          3.441671   1.000000
      5          3.939500   1.000000
      6          8.610849  -0.000000
      7          8.610850  -0.000000
      8         10.646542  -0.000000
      9         13.267543   0.000000
 
 -0.3448276E+00  0.3448276E+00  0.3103448E+00  0.9840502E-03
      1        -24.138652   1.000000
      2        -23.723998   1.000000
      3        -23.702338   1.000000
      4          3.136635   1.000000
      5          3.736455   1.000000
      6          8.857757  -0.000000
      7          8.962204  -0.000000
      8         11.149295  -0.000000
      9         13.706753   0.000000
 
 -0.3793103E+00  0.3793103E+00  0.3103448E+00  0.9840502E-03
      1        -24.217481   1.000000
      2        -23.786012   1.000000
      3        -23.714605   1.000000
      4          2.893761   1.000000
      5          3.523599   1.000000
      6          8.930410  -0.000000
      7          9.233942  -0.000000
      8         11.843287   0.000000
      9         14.353511   0.000000
 
 -0.3448276E+00  0.3793103E+00  0.3103448E+00  0.9840502E-03
      1        -24.179734   1.000000
      2        -23.805385   1.000000
      3        -23.740421   1.000000
      4          2.866016   1.000000
      5          3.485011   1.000000
      6          9.045360  -0.000000
      7          9.440397  -0.000000
      8         11.602150  -0.000000
      9         14.229246   0.000000
 
 -0.4137931E+00  0.4137931E+00  0.3103448E+00  0.9840502E-03
      1        -24.292955   1.000000
      2        -23.834783   1.000000
      3        -23.710124   1.000000
      4          2.715516   1.000000
      5          3.335596   1.000000
      6          8.930084  -0.000000
      7          9.402855  -0.000000
      8         12.572093   0.000000
      9         15.195243   0.000000
 
 -0.3793103E+00  0.4137931E+00  0.3103448E+00  0.1968100E-02
      1        -24.236939   1.000000
      2        -23.872342   1.000000
      3        -23.747282   1.000000
      4          2.663533   1.000000
      5          3.243937   1.000000
      6          9.086915  -0.000000
      7          9.824355  -0.000000
      8         12.184243   0.000000
      9         14.967663   0.000000
 
 -0.4482759E+00  0.4482759E+00  0.3103448E+00  0.9840502E-03
      1        -24.349392   1.000000
      2        -23.868386   1.000000
      3        -23.702228   1.000000
      4          2.600214   1.000000
      5          3.196450   1.000000
      6          8.911555  -0.000000
      7          9.490004  -0.000000
      8         13.192088   0.000000
      9         16.148192   0.000000
 
 -0.4137931E+00  0.4482759E+00  0.3103448E+00  0.1968100E-02
      1        -24.290524   1.000000
      2        -23.920001   1.000000
      3        -23.742928   1.000000
      4          2.528903   1.000000
      5          3.044305   1.000000
      6          9.081723  -0.000000
      7         10.057900  -0.000000
      8         12.784260   0.000000
      9         15.878581   0.000000
 
 -0.3793103E+00  0.4482759E+00  0.3103448E+00  0.9840502E-03
      1        -24.259713   1.000000
      2        -23.956994   1.000000
      3        -23.748048   1.000000
      4          2.506726   1.000000
      5          2.991203   1.000000
      6          9.084555  -0.000000
      7         10.424705  -0.000000
      8         12.508033   0.000000
      9         15.800725   0.000000
 
 -0.4827586E+00  0.4827586E+00  0.3103448E+00  0.9840502E-03
      1        -24.379187   1.000000
      2        -23.885514   1.000000
      3        -23.697096   1.000000
      4          2.544158   1.000000
      5          3.122426   1.000000
      6          8.898019  -0.000000
      7          9.524845  -0.000000
      8         13.558519   0.000000
      9         16.971867   0.000000
 
 -0.4482759E+00  0.4827586E+00  0.3103448E+00  0.1968100E-02
      1        -24.327076   1.000000
      2        -23.948687   1.000000
      3        -23.737157   1.000000
      4          2.455693   1.000000
      5          2.910672   1.000000
      6          9.067401  -0.000000
      7         10.173873  -0.000000
      8         13.253758   0.000000
      9         16.837407   0.000000
 
 -0.4137931E+00  0.4827586E+00  0.3103448E+00  0.1968100E-02
      1        -24.278061   1.000000
      2        -24.018456   1.000000
      3        -23.742458   1.000000
      4          2.420601   1.000000
      5          2.792874   1.000000
      6          9.061233  -0.000000
      7         10.839615  -0.000000
      8         12.818624   0.000000
      9         16.771176   0.000000
 
 -0.4827586E+00 -0.4827586E+00  0.3103448E+00  0.9840502E-03
      1        -24.339894   1.000000
      2        -23.958280   1.000000
      3        -23.734752   1.000000
      4          2.433267   1.000000
      5          2.863120   1.000000
      6          9.060993  -0.000000
      7         10.208077  -0.000000
      8         13.435171   0.000000
      9         17.396104   0.000000
 
 -0.4482759E+00 -0.4827586E+00  0.3103448E+00  0.1968100E-02
      1        -24.287866   1.000000
      2        -24.050647   1.000000
      3        -23.738180   1.000000
      4          2.390812   1.000000
      5          2.677283   1.000000
      6          9.044625  -0.000000
      7         11.035151  -0.000000
      8         13.036363   0.000000
      9         17.695122   0.000000
 
 -0.4137931E+00 -0.4827586E+00  0.3103448E+00  0.9840502E-03
      1        -24.252916   1.000000
      2        -24.101334   1.000000
      3        -23.737176   1.000000
      4          2.388539   1.000000
      5          2.602461   1.000000
      6          9.033176  -0.000000
      7         11.506152  -0.000000
      8         12.708379   0.000000
      9         17.772537   0.000000
 
 -0.4482759E+00 -0.4482759E+00  0.3103448E+00  0.9840502E-03
      1        -24.231710   1.000000
      2        -24.142618   1.000000
      3        -23.734823   1.000000
      4          2.402963   1.000000
      5          2.512866   1.000000
      6          9.022067  -0.000000
      7         11.826333   0.000000
      8         12.588832   0.000000
      9         18.559420   0.000000
 
 -0.3448276E+00  0.3448276E+00  0.3448276E+00  0.2460125E-03
      1        -24.137227   1.000000
      2        -23.797730   1.000000
      3        -23.797719   1.000000
      4          2.829774   1.000000
      5          3.453557   1.000000
      6          9.414007  -0.000000
      7          9.414009  -0.000000
      8         11.363117  -0.000000
      9         14.078445   0.000000
 
 -0.3793103E+00  0.3793103E+00  0.3448276E+00  0.9840502E-03
      1        -24.174039   1.000000
      2        -23.860574   1.000000
      3        -23.839752   1.000000
      4          2.586265   1.000000
      5          3.171891   1.000000
      6          9.716346  -0.000000
      7          9.803972  -0.000000
      8         11.849770   0.000000
      9         14.637023   0.000000
 
 -0.4137931E+00  0.4137931E+00  0.3448276E+00  0.9840502E-03
      1        -24.230063   1.000000
      2        -23.909999   1.000000
      3        -23.844892   1.000000
      4          2.414721   1.000000
      5          2.922789   1.000000
      6          9.825271  -0.000000
      7         10.078079  -0.000000
      8         12.494624   0.000000
      9         15.400809   0.000000
 
 -0.3793103E+00  0.4137931E+00  0.3448276E+00  0.9840502E-03
      1        -24.196227   1.000000
      2        -23.932456   1.000000
      3        -23.866920   1.000000
      4          2.376374   1.000000
      5          2.881799   1.000000
      6          9.922993  -0.000000
      7         10.364685  -0.000000
      8         12.260034   0.000000
      9         15.246989   0.000000
 
 -0.4482759E+00  0.4482759E+00  0.3448276E+00  0.9840502E-03
      1        -24.278492   1.000000
      2        -23.944049   1.000000
      3        -23.838196   1.000000
      4          2.313104   1.000000
      5          2.732578   1.000000
      6          9.853205  -0.000000
      7         10.237887  -0.000000
      8         13.094963   0.000000
      9         16.314519   0.000000
 
 -0.4137931E+00  0.4482759E+00  0.3448276E+00  0.1968100E-02
      1        -24.231180   1.000000
      2        -23.986641   1.000000
      3        -23.867288   1.000000
      4          2.242095   1.000000
      5          2.640666   1.000000
      6          9.987984  -0.000000
      7         10.774507  -0.000000
      8         12.752171   0.000000
      9         16.057120   0.000000
 
 -0.4827586E+00  0.4827586E+00  0.3448276E+00  0.9840502E-03
      1        -24.305262   1.000000
      2        -23.961406   1.000000
      3        -23.832566   1.000000
      4          2.270152   1.000000
      5          2.626452   1.000000
      6          9.857258  -0.000000
      7         10.308538  -0.000000
      8         13.463670   0.000000
      9         17.171191   0.000000
 
 -0.4482759E+00  0.4827586E+00  0.3448276E+00  0.1968100E-02
      1        -24.259497   1.000000
      2        -24.018426   1.000000
      3        -23.861990   1.000000
      4          2.178235   1.000000
      5          2.472661   1.000000
      6         10.006462  -0.000000
      7         10.992279  -0.000000
      8         13.176687   0.000000
      9         16.974572   0.000000
 
 -0.4137931E+00  0.4827586E+00  0.3448276E+00  0.9840502E-03
      1        -24.230555   1.000000
      2        -24.059466   1.000000
      3        -23.863656   1.000000
      4          2.149524   1.000000
      5          2.418549   1.000000
      6         10.008330  -0.000000
      7         11.430992  -0.000000
      8         12.908224   0.000000
      9         16.905348   0.000000
 
 -0.4827586E+00 -0.4827586E+00  0.3448276E+00  0.9840502E-03
      1        -24.270052   1.000000
      2        -24.028919   1.000000
      3        -23.859445   1.000000
      4          2.163564   1.000000
      5          2.408994   1.000000
      6         10.009711  -0.000000
      7         11.058084  -0.000000
      8         13.348706   0.000000
      9         17.573568   0.000000
 
 -0.4482759E+00 -0.4827586E+00  0.3448276E+00  0.1968100E-02
      1        -24.225970   1.000000
      2        -24.103455   1.000000
      3        -23.859062   1.000000
      4          2.128017   1.000000
      5          2.279497   1.000000
      6         10.009569  -0.000000
      7         11.819200   0.000000
      8         12.978324   0.000000
      9         17.804677   0.000000
 
 -0.4482759E+00 -0.4482759E+00  0.3448276E+00  0.3280167E-03
      1        -24.174087   1.000000
      2        -24.174080   1.000000
      3        -23.856624   1.000000
      4          2.162677   1.000000
      5          2.162678   1.000000
      6         10.006668  -0.000000
      7         12.509740   0.000000
      8         12.509746   0.000000
      9         18.680785   0.000000
 
 -0.3793103E+00  0.3793103E+00  0.3793103E+00  0.2460125E-03
      1        -24.157774   1.000000
      2        -23.924135   1.000000
      3        -23.924124   1.000000
      4          2.332608   1.000000
      5          2.844883   1.000000
      6         10.344359  -0.000000
      7         10.344363  -0.000000
      8         12.035875   0.000000
      9         15.059919   0.000000
 
 -0.4137931E+00  0.4137931E+00  0.3793103E+00  0.9840502E-03
      1        -24.180037   1.000000
      2        -23.974105   1.000000
      3        -23.954457   1.000000
      4          2.151835   1.000000
      5          2.563145   1.000000
      6         10.683716  -0.000000
      7         10.767620  -0.000000
      8         12.479715   0.000000
      9         15.675067   0.000000
 
 -0.4482759E+00  0.4482759E+00  0.3793103E+00  0.9840502E-03
      1        -24.217051   1.000000
      2        -24.008530   1.000000
      3        -23.953184   1.000000
      4          2.048115   1.000000
      5          2.346961   1.000000
      6         10.805245  -0.000000
      7         11.038188  -0.000000
      8         13.019130   0.000000
      9         16.470921   0.000000
 
 -0.4137931E+00  0.4482759E+00  0.3793103E+00  0.9840502E-03
      1        -24.188346   1.000000
      2        -24.033346   1.000000
      3        -23.970113   1.000000
      4          2.004356   1.000000
      5          2.304585   1.000000
      6         10.899581  -0.000000
      7         11.384074  -0.000000
      8         12.808431   0.000000
      9         16.299765   0.000000
 
 -0.4827586E+00  0.4827586E+00  0.3793103E+00  0.9840502E-03
      1        -24.240692   1.000000
      2        -24.026076   1.000000
      3        -23.947582   1.000000
      4          2.011324   1.000000
      5          2.220599   1.000000
      6         10.839495  -0.000000
      7         11.164936  -0.000000
      8         13.383066   0.000000
      9         17.293041   0.000000
 
 -0.4482759E+00  0.4827586E+00  0.3793103E+00  0.1968100E-02
      1        -24.204206   1.000000
      2        -24.071993   1.000000
      3        -23.966549   1.000000
      4          1.936012   1.000000
      5          2.122736   1.000000
      6         10.968682  -0.000000
      7         11.786253  -0.000000
      8         13.132825   0.000000
      9         17.085378   0.000000
 
 -0.4827586E+00 -0.4827586E+00  0.3793103E+00  0.9840502E-03
      1        -24.211307   1.000000
      2        -24.084625   1.000000
      3        -23.963917   1.000000
      4          1.925747   1.000000
      5          2.048543   1.000000
      6         10.985549  -0.000000
      7         11.915029   0.000000
      8         13.276848   0.000000
      9         17.679231   0.000000
 
 -0.4482759E+00 -0.4827586E+00  0.3793103E+00  0.9840502E-03
      1        -24.182151   1.000000
      2        -24.130515   1.000000
      3        -23.962542   1.000000
      4          1.908461   1.000000
      5          1.978965   1.000000
      6         10.994868  -0.000000
      7         12.449371   0.000000
      8         13.003798   0.000000
      9         17.846330   0.000000
 
 -0.4137931E+00  0.4137931E+00  0.4137931E+00  0.2460125E-03
      1        -24.155693   1.000000
      2        -24.024513   1.000000
      3        -24.024501   1.000000
      4          1.955706   1.000000
      5          2.266050   1.000000
      6         11.368149  -0.000000
      7         11.368155  -0.000000
      8         12.614503   0.000000
      9         16.086825   0.000000
 
 -0.4482759E+00  0.4482759E+00  0.4137931E+00  0.9840502E-03
      1        -24.169332   1.000000
      2        -24.059217   1.000000
      3        -24.041739   1.000000
      4          1.838362   1.000000
      5          2.043198   1.000000
      6         11.705441  -0.000000
      7         11.795567  -0.000000
      8         12.980489   0.000000
      9         16.675258   0.000000
 
 -0.4827586E+00  0.4827586E+00  0.4137931E+00  0.9840502E-03
      1        -24.188890   1.000000
      2        -24.076907   1.000000
      3        -24.037745   1.000000
      4          1.797907   1.000000
      5          1.910367   1.000000
      6         11.799025  -0.000000
      7         12.010926   0.000000
      8         13.320020   0.000000
      9         17.368885   0.000000
 
 -0.4482759E+00  0.4827586E+00  0.4137931E+00  0.9840502E-03
      1        -24.167160   1.000000
      2        -24.103328   1.000000
      3        -24.047701   1.000000
      4          1.754265   1.000000
      5          1.864422   1.000000
      6         11.894738   0.000000
      7         12.411630   0.000000
      8         13.161908   0.000000
      9         17.219176   0.000000
 
 -0.4827586E+00 -0.4827586E+00  0.4137931E+00  0.9840502E-03
      1        -24.166874   1.000000
      2        -24.122268   1.000000
      3        -24.045187   1.000000
      4          1.742931   1.000000
      5          1.787103   1.000000
      6         11.931256   0.000000
      7         12.678784   0.000000
      8         13.223126   0.000000
      9         17.736305   0.000000
 
 -0.4482759E+00  0.4482759E+00  0.4482759E+00  0.2460125E-03
      1        -24.144450   1.000000
      2        -24.094126   1.000000
      3        -24.094114   1.000000
      4          1.702574   1.000000
      5          1.825575   1.000000
      6         12.398793   0.000000
      7         12.398802   0.000000
      8         13.043815   0.000000
      9         16.988449   0.000000
 
 -0.4827586E+00  0.4827586E+00  0.4482759E+00  0.9840502E-03
      1        -24.152720   1.000000
      2        -24.111910   1.000000
      3        -24.099641   1.000000
      4          1.648635   1.000000
      5          1.699742   1.000000
      6         12.645899   0.000000
      7         12.735707   0.000000
      8         13.277815   0.000000
      9         17.434191   0.000000
 
 -0.4827586E+00 -0.4827586E+00  0.4482759E+00  0.3280167E-03
      1        -24.139157   1.000000
      2        -24.139150   1.000000
      3        -24.101429   1.000000
      4          1.628642   1.000000
      5          1.628643   1.000000
      6         12.739572   0.000000
      7         13.189950   0.000000
      8         13.189956   0.000000
      9         17.762946   0.000000
 
 -0.4827586E+00  0.4827586E+00  0.4827586E+00  0.2460125E-03
      1        -24.135518   1.000000
      2        -24.129755   1.000000
      3        -24.129742   1.000000
      4          1.575521   1.000000
      5          1.589805   1.000000
      6         13.178727   0.000000
      7         13.178738   0.000000
      8         13.273814   0.000000
      9         17.539959   0.000000
