[1775718033.561631] [d01:4166079:f]        vfs_fuse.c:281  UCX  ERROR inotify_add_watch(/tmp) failed: No space left on device
 running    1 mpi-ranks, with    2 threads/rank, on    1 nodes
 distrk:  each k-point on    1 cores,    1 groups
 distr:  one band on    1 cores,    1 groups
 OpenACC runtime initialized ...    1 GPUs detected
 vasp.6.4.2 20Jul23 (build Mar  2 2025 11:04:54) complex                         
 POSCAR found type information on POSCAR Mo
 POSCAR found :  1 types and       1 ions
 scaLAPACK will be used selectively (only on CPU)
 LDA part: xc-table for Pade appr. of Perdew
 -----------------------------------------------------------------------------
|                                                                             |
|           W    W    AA    RRRRR   N    N  II  N    N   GGGG   !!!           |
|           W    W   A  A   R    R  NN   N  II  NN   N  G    G  !!!           |
|           W    W  A    A  R    R  N N  N  II  N N  N  G       !!!           |
|           W WW W  AAAAAA  RRRRR   N  N N  II  N  N N  G  GGG   !            |
|           WW  WW  A    A  R   R   N   NN  II  N   NN  G    G                |
|           W    W  A    A  R    R  N    N  II  N    N   GGGG   !!!           |
|                                                                             |
|     The requested file  could not be found or opened for reading            |
|     k-point information. Automatic k-point generation is used as a          |
|     fallback, which may lead to unwanted results.                           |
|                                                                             |
 -----------------------------------------------------------------------------

 POSCAR, INCAR and KPOINTS ok, starting setup
 FFT: planning ... GRIDC
 FFT: planning ... GRID_SOFT
 FFT: planning ... GRID
 WAVECAR not read
 entering main loop
       N       E                     dE             d eps       ncg     rms          rms(c)
DAV:   1     0.745560086731E+01    0.74556E+01   -0.27275E+03  3619   0.648E+02
DAV:   2    -0.113943361489E+02   -0.18850E+02   -0.18242E+02  4235   0.131E+02
DAV:   3    -0.116071053968E+02   -0.21277E+00   -0.21262E+00  4417   0.160E+01
DAV:   4    -0.116072646368E+02   -0.15924E-03   -0.15924E-03  5726   0.377E-01
DAV:   5    -0.116072646625E+02   -0.25700E-07   -0.26486E-07  4508   0.266E-03    0.151E+01
DAV:   6    -0.110873246051E+02    0.51994E+00   -0.58469E-01  4480   0.613E+00    0.611E+00
DAV:   7    -0.109279888447E+02    0.15934E+00   -0.42303E-01  4746   0.501E+00    0.695E-01
DAV:   8    -0.109238919016E+02    0.40969E-02   -0.18958E-03  4018   0.402E-01    0.145E-01
DAV:   9    -0.109237031043E+02    0.18880E-03   -0.18485E-04  5173   0.940E-02    0.221E-02
DAV:  10    -0.109237013433E+02    0.17610E-05   -0.54907E-06  4648   0.194E-02    0.102E-02
DAV:  11    -0.109237007538E+02    0.58944E-06   -0.39243E-07  2737   0.618E-03
   1 F= -.10923701E+02 E0= -.10923667E+02  d E =-.100255E-03
Warning: ieee_invalid is signaling
Warning: ieee_divide_by_zero is signaling
Warning: ieee_underflow is signaling
Warning: ieee_inexact is signaling
FORTRAN STOP
