 vasp.6.4.2 20Jul23 (build Mar  2 2025 11:04:54) complex                         
 executed on              LinuxNV date 2026.04.07  10:12:20
 running    1 mpi-ranks, with    2 threads/rank, on    1 nodes
 distrk:  each k-point on    1 cores,    1 groups
 distr:  one band on NCORE=   1 cores,    1 groups
 OpenACC runtime initialized ...    1 GPUs detected


--------------------------------------------------------------------------------------------------------


 INCAR:
   SYSTEM = static single-point for EOS (Ba)
   PREC = Accurate
   ENCUT = 350
   KSPACING = 0.12
   KGAMMA = .TRUE.
   ISMEAR = 1
   SIGMA = 0.2
   EDIFF = 1E-6
   NSW = 0
   ISIF = 2
   IBRION = -1
   LWAVE = .FALSE.
   LCHARG = .FALSE.
   LREAL = .FALSE.

 POTCAR:    PAW_PBE Ba_sv 06Sep2000               
 POTCAR:    PAW_PBE Ba_sv 06Sep2000               
   SHA256 =  db99e82e473f9273fc04f241d4a23dc413358649e2d1724098d22351b75b003b Ba_sv/POTCAR          
   COPYR  = (c) Copyright 06Sep2000 Georg Kresse                                                    
   COPYR  = This file is part of the software VASP. Any use, copying, and all other rights are regul
   COPYR  = If you do not have a valid VASP license, you may not use, copy or distribute this file. 
   VRHFIN =Ba: 5s5p6s                                                                               
   LEXCH  = PE                                                                                      
   EATOM  =   700.8560 eV,   51.5115 Ry                                                             
                                                                                                    
   TITEL  = PAW_PBE Ba_sv 06Sep2000                                                                 
   LULTRA =        F    use ultrasoft PP ?                                                          
   IUNSCR =        1    unscreen: 0-lin 1-nonlin 2-no                                               
   RPACOR =    2.400    partial core radius                                                         
   POMASS =  137.327; ZVAL   =   10.000    mass and valenz                                          
   RCORE  =    2.800    outmost cutoff radius                                                       
   RWIGS  =    3.740; RWIGS  =    1.979    wigner-seitz radius (au A)                               
   ENMAX  =  187.181; ENMIN  =  140.386 eV                                                          
   RCLOC  =    2.516    cutoff for local pot                                                        
   LCOR   =        T    correct aug charges                                                         
   LPAW   =        T    paw PP                                                                      
   EAUG   =  351.165                                                                                
   DEXC   =    0.000                                                                                
   RMAX   =    2.865    core radius for proj-oper                                                   
   RAUG   =    1.300    factor for augmentation sphere                                              
   RDEP   =    2.976    radius for radial grids                                                     
   RDEPT  =    2.289    core radius for aug-charge                                                  
                                                                                                    
   Atomic configuration                                                                             
   13 entries                                                                                       
     n  l   j            E        occ.                                                              
     1  0  0.50    -37249.5946   2.0000                                                             
     2  0  0.50     -5887.1925   2.0000                                                             
     2  1  1.50     -5278.3977   6.0000                                                             
     3  0  0.50     -1242.7293   2.0000                                                             
     3  1  1.50     -1047.6609   6.0000                                                             
     3  2  2.50      -764.6158  10.0000                                                             
     4  0  0.50      -243.8228   2.0000                                                             
     4  1  1.50      -180.9218   6.0000                                                             
     4  2  2.50       -89.6477  10.0000                                                             
     5  0  0.50       -33.6549   2.0000                                                             
     6  0  0.50        -3.2247   1.9900                                                             
     5  1  1.50       -18.7193   6.0000                                                             
     5  2  2.50        -2.0115   0.0100                                                             
   Description                                                                                      
     l       E           TYP  RCUT    TYP  RCUT                                                     
     0    -33.6549039     23  2.800                                                                 
     0     -3.2246942     23  2.800                                                                 
     1    -18.7193050     23  2.700                                                                 
     1     27.2116520     23  2.700                                                                 
     2     -2.0115002     23  2.700                                                                 
     2      0.3057420     23  2.700                                                                 
  local pseudopotential read in
  partial core-charges read in
  partial kinetic energy density read in
  atomic valenz-charges read in
  non local Contribution for L=            0  read in
    real space projection operators read in
  non local Contribution for L=            0  read in
    real space projection operators read in
  non local Contribution for L=            1  read in
    real space projection operators read in
  non local Contribution for L=            1  read in
    real space projection operators read in
  non local Contribution for L=            2  read in
    real space projection operators read in
  non local Contribution for L=            2  read in
    real space projection operators read in
    PAW grid and wavefunctions read in
 
   number of l-projection  operators is LMAX  =            6
   number of lm-projection operators is LMMAX =           18
 
  PAW_PBE Ba_sv 06Sep2000               :
 energy of atom  1       EATOM= -700.8560
 kinetic energy error for atom=    0.0023 (will be added to EATOM!!)
 
 
 POSCAR: Ba
  positions in direct lattice
  No initial velocities read in
 exchange correlation table for  LEXCH =        8
   RHO(1)=    0.500       N(1)  =     2000
   RHO(2)=  100.500       N(2)  =     4000
 


--------------------------------------------------------------------------------------------------------


 ion  position               nearest neighbor table
   1  0.000  0.000  0.000-   2 4.61   2 4.61   2 4.61   2 4.61   2 4.61   2 4.61   2 4.61   2 4.61

   2  0.500  0.500  0.500-   1 4.61   1 4.61   1 4.61   1 4.61   1 4.61   1 4.61   1 4.61   1 4.61

 
  LATTYP: Found a simple cubic cell.
 ALAT       =     5.3252364800
  
  Lattice vectors:
  
 A1 = (   5.3252364800,   0.0000000000,   0.0000000000)
 A2 = (   0.0000000000,   5.3252364800,   0.0000000000)
 A3 = (   0.0000000000,   0.0000000000,   5.3252364800)


Analysis of symmetry for initial positions (statically):
=====================================================================
 Subroutine PRICEL returns following result:
 
  LATTYP: Found a body centered cubic cell.
 ALAT       =     5.3252364800
  
  Lattice vectors:
  
 A1 = (   2.6626182400,   2.6626182400,  -2.6626182400)
 A2 = (  -2.6626182400,   2.6626182400,   2.6626182400)
 A3 = (   2.6626182400,  -2.6626182400,   2.6626182400)
 
   2 primitive cells build up your supercell.
 

 Routine SETGRP: Setting up the symmetry group for a 
 simple cubic supercell.


 Subroutine GETGRP returns: Found 48 space group operations
 (whereof 48 operations were pure point group operations)
 out of a pool of 48 trial point group operations.


The static configuration has the point symmetry O_h .


Analysis of symmetry for dynamics (positions and initial velocities):
=====================================================================
 Subroutine PRICEL returns following result:
 
  LATTYP: Found a body centered cubic cell.
 ALAT       =     5.3252364800
  
  Lattice vectors:
  
 A1 = (   2.6626182400,   2.6626182400,  -2.6626182400)
 A2 = (  -2.6626182400,   2.6626182400,   2.6626182400)
 A3 = (   2.6626182400,  -2.6626182400,   2.6626182400)
 
   2 primitive cells build up your supercell.
 

 Routine SETGRP: Setting up the symmetry group for a 
 simple cubic supercell.


 Subroutine GETGRP returns: Found 48 space group operations
 (whereof 48 operations were pure point group operations)
 out of a pool of 48 trial point group operations.


The dynamic configuration has the point symmetry O_h .


 Subroutine INISYM returns: Found 48 space group operations
 (whereof 48 operations are pure point group operations),
 and found     2 'primitive' translations


----------------------------------------------------------------------------------------

                                     Primitive cell                                     

  volume of cell :      75.5069

  direct lattice vectors                    reciprocal lattice vectors
     2.662618240  2.662618240 -2.662618240     0.187785088  0.187785088 -0.000000000
    -2.662618240  2.662618240  2.662618240    -0.000000000  0.187785088  0.187785088
     2.662618240 -2.662618240  2.662618240     0.187785088 -0.000000000  0.187785088

  length of vectors
     4.611790073  4.611790073  4.611790073     0.265568218  0.265568218  0.265568218

  position of ions in fractional coordinates (direct lattice)
     0.000000000  0.000000000  0.000000000

  ion indices of the primitive-cell ions
   primitive index   ion index
                 1           1

----------------------------------------------------------------------------------------

 
 -----------------------------------------------------------------------------
|                                                                             |
|           W    W    AA    RRRRR   N    N  II  N    N   GGGG   !!!           |
|           W    W   A  A   R    R  NN   N  II  NN   N  G    G  !!!           |
|           W    W  A    A  R    R  N N  N  II  N N  N  G       !!!           |
|           W WW W  AAAAAA  RRRRR   N  N N  II  N  N N  G  GGG   !            |
|           WW  WW  A    A  R   R   N   NN  II  N   NN  G    G                |
|           W    W  A    A  R    R  N    N  II  N    N   GGGG   !!!           |
|                                                                             |
|     The requested file  could not be found or opened for reading            |
|     k-point information. Automatic k-point generation is used as a          |
|     fallback, which may lead to unwanted results.                           |
|                                                                             |
 -----------------------------------------------------------------------------

 

Automatic generation of k-mesh.
 Grid dimensions derived from KSPACING:
 generate k-points for:   10   10   10

 Generating k-lattice:

  Cartesian coordinates                     Fractional coordinates (reciprocal lattice)
     0.018778509  0.000000000  0.000000000     0.100000000  0.000000000  0.000000000
     0.000000000  0.018778509  0.000000000     0.000000000  0.100000000  0.000000000
     0.000000000  0.000000000  0.018778509     0.000000000  0.000000000  0.100000000

  Length of vectors
     0.018778509  0.018778509  0.018778509

  Shift w.r.t. Gamma in fractional coordinates (k-lattice)
     0.000000000  0.000000000  0.000000000

 
 Subroutine IBZKPT returns following result:
 ===========================================
 
 Found     56 irreducible k-points:
 
 Following reciprocal coordinates:
            Coordinates               Weight
  0.000000  0.000000  0.000000      1.000000
  0.100000  0.000000  0.000000      6.000000
  0.200000  0.000000  0.000000      6.000000
  0.300000  0.000000  0.000000      6.000000
  0.400000  0.000000  0.000000      6.000000
  0.500000  0.000000  0.000000      3.000000
  0.100000  0.100000  0.000000     12.000000
  0.200000  0.100000  0.000000     24.000000
  0.300000  0.100000  0.000000     24.000000
  0.400000  0.100000  0.000000     24.000000
  0.500000  0.100000  0.000000     12.000000
  0.200000  0.200000  0.000000     12.000000
  0.300000  0.200000  0.000000     24.000000
  0.400000  0.200000  0.000000     24.000000
  0.500000  0.200000  0.000000     12.000000
  0.300000  0.300000  0.000000     12.000000
  0.400000  0.300000  0.000000     24.000000
  0.500000  0.300000  0.000000     12.000000
  0.400000  0.400000  0.000000     12.000000
  0.500000  0.400000  0.000000     12.000000
  0.500000  0.500000  0.000000      3.000000
  0.100000  0.100000  0.100000      8.000000
  0.200000  0.100000  0.100000     24.000000
  0.300000  0.100000  0.100000     24.000000
  0.400000  0.100000  0.100000     24.000000
  0.500000  0.100000  0.100000     12.000000
  0.200000  0.200000  0.100000     24.000000
  0.300000  0.200000  0.100000     48.000000
  0.400000  0.200000  0.100000     48.000000
  0.500000  0.200000  0.100000     24.000000
  0.300000  0.300000  0.100000     24.000000
  0.400000  0.300000  0.100000     48.000000
  0.500000  0.300000  0.100000     24.000000
  0.400000  0.400000  0.100000     24.000000
  0.500000  0.400000  0.100000     24.000000
  0.500000  0.500000  0.100000      6.000000
  0.200000  0.200000  0.200000      8.000000
  0.300000  0.200000  0.200000     24.000000
  0.400000  0.200000  0.200000     24.000000
  0.500000  0.200000  0.200000     12.000000
  0.300000  0.300000  0.200000     24.000000
  0.400000  0.300000  0.200000     48.000000
  0.500000  0.300000  0.200000     24.000000
  0.400000  0.400000  0.200000     24.000000
  0.500000  0.400000  0.200000     24.000000
  0.500000  0.500000  0.200000      6.000000
  0.300000  0.300000  0.300000      8.000000
  0.400000  0.300000  0.300000     24.000000
  0.500000  0.300000  0.300000     12.000000
  0.400000  0.400000  0.300000     24.000000
  0.500000  0.400000  0.300000     24.000000
  0.500000  0.500000  0.300000      6.000000
  0.400000  0.400000  0.400000      8.000000
  0.500000  0.400000  0.400000     12.000000
  0.500000  0.500000  0.400000      6.000000
  0.500000  0.500000  0.500000      1.000000
 
 Following cartesian coordinates:
            Coordinates               Weight
  0.000000  0.000000  0.000000      1.000000
  0.019905  0.000000  0.000000      6.000000
  0.039810  0.000000  0.000000      6.000000
  0.059716  0.000000  0.000000      6.000000
  0.079621  0.000000  0.000000      6.000000
  0.099526  0.000000  0.000000      3.000000
  0.019905  0.019905  0.000000     12.000000
  0.039810  0.019905  0.000000     24.000000
  0.059716  0.019905  0.000000     24.000000
  0.079621  0.019905  0.000000     24.000000
  0.099526  0.019905  0.000000     12.000000
  0.039810  0.039810  0.000000     12.000000
  0.059716  0.039810  0.000000     24.000000
  0.079621  0.039810  0.000000     24.000000
  0.099526  0.039810  0.000000     12.000000
  0.059716  0.059716  0.000000     12.000000
  0.079621  0.059716  0.000000     24.000000
  0.099526  0.059716  0.000000     12.000000
  0.079621  0.079621  0.000000     12.000000
  0.099526  0.079621  0.000000     12.000000
  0.099526  0.099526  0.000000      3.000000
  0.019905  0.019905  0.019905      8.000000
  0.039810  0.019905  0.019905     24.000000
  0.059716  0.019905  0.019905     24.000000
  0.079621  0.019905  0.019905     24.000000
  0.099526  0.019905  0.019905     12.000000
  0.039810  0.039810  0.019905     24.000000
  0.059716  0.039810  0.019905     48.000000
  0.079621  0.039810  0.019905     48.000000
  0.099526  0.039810  0.019905     24.000000
  0.059716  0.059716  0.019905     24.000000
  0.079621  0.059716  0.019905     48.000000
  0.099526  0.059716  0.019905     24.000000
  0.079621  0.079621  0.019905     24.000000
  0.099526  0.079621  0.019905     24.000000
  0.099526  0.099526  0.019905      6.000000
  0.039810  0.039810  0.039810      8.000000
  0.059716  0.039810  0.039810     24.000000
  0.079621  0.039810  0.039810     24.000000
  0.099526  0.039810  0.039810     12.000000
  0.059716  0.059716  0.039810     24.000000
  0.079621  0.059716  0.039810     48.000000
  0.099526  0.059716  0.039810     24.000000
  0.079621  0.079621  0.039810     24.000000
  0.099526  0.079621  0.039810     24.000000
  0.099526  0.099526  0.039810      6.000000
  0.059716  0.059716  0.059716      8.000000
  0.079621  0.059716  0.059716     24.000000
  0.099526  0.059716  0.059716     12.000000
  0.079621  0.079621  0.059716     24.000000
  0.099526  0.079621  0.059716     24.000000
  0.099526  0.099526  0.059716      6.000000
  0.079621  0.079621  0.079621      8.000000
  0.099526  0.079621  0.079621     12.000000
  0.099526  0.099526  0.079621      6.000000
  0.099526  0.099526  0.099526      1.000000
 


--------------------------------------------------------------------------------------------------------




 Dimension of arrays:
   k-points           NKPTS =     56   k-points in BZ     NKDIM =     56   number of bands    NBANDS=     14
   number of dos      NEDOS =    301   number of ions     NIONS =      2
   non local maximal  LDIM  =      6   non local SUM 2l+1 LMDIM =     18
   total plane-waves  NPLWV =  32768
   max r-space proj   IRMAX =      1   max aug-charges    IRDMAX=  13781
   dimension x,y,z NGX =    32 NGY =   32 NGZ =   32
   dimension x,y,z NGXF=    64 NGYF=   64 NGZF=   64
   support grid    NGXF=    64 NGYF=   64 NGZF=   64
   ions per type =               2
   NGX,Y,Z   is equivalent  to a cutoff of   9.99,  9.99,  9.99 a.u.
   NGXF,Y,Z  is equivalent  to a cutoff of  19.98, 19.98, 19.98 a.u.

 SYSTEM =  static single-point for EOS (Ba)        
 POSCAR =  Ba                                      

 Startparameter for this run:
   NWRITE =      2    write-flag & timer
   PREC   = accura    normal or accurate (medium, high low for compatibility)
   ISTART =      0    job   : 0-new  1-cont  2-samecut
   ICHARG =      2    charge: 1-file 2-atom 10-const
   ISPIN  =      1    spin polarized calculation?
   LNONCOLLINEAR =      F non collinear calculations
   LSORBIT =      F    spin-orbit coupling
   INIWAV =      1    electr: 0-lowe 1-rand  2-diag
   LASPH  =      F    aspherical Exc in radial PAW
 Electronic Relaxation 1
   ENCUT  =  350.0 eV  25.72 Ry    5.07 a.u.   8.12  8.12  8.12*2*pi/ulx,y,z
   ENINI  =  350.0     initial cutoff
   ENAUG  =  351.2 eV  augmentation charge cutoff
   NELM   =     60;   NELMIN=  2; NELMDL= -5     # of ELM steps 
   EDIFF  = 0.1E-05   stopping-criterion for ELM
   LREAL  =      F    real-space projection
   NLSPLINE    = F    spline interpolate recip. space projectors
   LCOMPAT=      F    compatible to vasp.4.4
   GGA_COMPAT  = T    GGA compatible to vasp.4.4-vasp.4.6
   LMAXPAW     = -100 max onsite density
   LMAXMIX     =    2 max onsite mixed and CHGCAR
   VOSKOWN=      0    Vosko Wilk Nusair interpolation
   ROPT   =    0.00000
 Ionic relaxation
   EDIFFG = 0.1E-04   stopping-criterion for IOM
   NSW    =      0    number of steps for IOM
   NBLOCK =      1;   KBLOCK =      1    inner block; outer block 
   IBRION =     -1    ionic relax: 0-MD 1-quasi-New 2-CG
   NFREE  =      0    steps in history (QN), initial steepest desc. (CG)
   ISIF   =      2    stress and relaxation
   IWAVPR =     10    prediction:  0-non 1-charg 2-wave 3-comb
   ISYM   =      2    0-nonsym 1-usesym 2-fastsym
   LCORR  =      T    Harris-Foulkes like correction to forces

   POTIM  = 0.5000    time-step for ionic-motion
   TEIN   =    0.0    initial temperature
   TEBEG  =    0.0;   TEEND  =   0.0 temperature during run
   SMASS  =  -3.00    Nose mass-parameter (am)
   estimated Nose-frequenzy (Omega)   =  0.10E-29 period in steps = 0.13E+47 mass=  -0.648E-27a.u.
   SCALEE = 1.0000    scale energy and forces
   NPACO  =    256;   APACO  = 10.0  distance and # of slots for P.C.
   PSTRESS=    0.0 pullay stress

  Mass of Ions in am
   POMASS = 137.33
  Ionic Valenz
   ZVAL   =  10.00
  Atomic Wigner-Seitz radii
   RWIGS  =  -1.00
  virtual crystal weights 
   VCA    =   1.00
   NELECT =      20.0000    total number of electrons
   NUPDOWN=      -1.0000    fix difference up-down

 DOS related values:
   EMIN   =  10.00;   EMAX   =-10.00  energy-range for DOS
   EFERMI =   0.00;   METHOD = LEGACY      
   ISMEAR =     1;   SIGMA  =   0.20  broadening in eV -4-tet -1-fermi 0-gaus

 Electronic relaxation 2 (details)
   IALGO  =     38    algorithm
   LDIAG  =      T    sub-space diagonalisation (order eigenvalues)
   LSUBROT=      F    optimize rotation matrix (better conditioning)
   TURBO    =      0    0=normal 1=particle mesh
   IRESTART =      0    0=no restart 2=restart with 2 vectors
   NREBOOT  =      0    no. of reboots
   NMIN     =      0    reboot dimension
   EREF     =   0.00    reference energy to select bands
   IMIX   =      4    mixing-type and parameters
     AMIX     =   0.40;   BMIX     =  1.00
     AMIX_MAG =   1.60;   BMIX_MAG =  1.00
     AMIN     =   0.10
     WC   =   100.;   INIMIX=   1;  MIXPRE=   1;  MAXMIX= -45

 Intra band minimization:
   WEIMIN = 0.0000     energy-eigenvalue tresh-hold
   EBREAK =  0.18E-07  absolut break condition
   DEPER  =   0.30     relativ break condition  

   TIME   =   0.40     timestep for ELM

  volume/ion in A,a.u.               =      75.51       509.55
  Fermi-wavevector in a.u.,A,eV,Ry     =   0.834474  1.576926  9.474365  0.696346
  Thomas-Fermi vector in A             =   1.947871
 
 Write flags
   LWAVE        =      F    write WAVECAR
   LDOWNSAMPLE  =      F    k-point downsampling of WAVECAR
   LCHARG       =      F    write CHGCAR
   LVTOT        =      F    write LOCPOT, total local potential
   LVHAR        =      F    write LOCPOT, Hartree potential only
   LELF         =      F    write electronic localiz. function (ELF)
   LORBIT       =      0    0 simple, 1 ext, 2 COOP (PROOUT), +10 PAW based schemes


 Dipole corrections
   LMONO  =      F    monopole corrections only (constant potential shift)
   LDIPOL =      F    correct potential (dipole corrections)
   IDIPOL =      0    1-x, 2-y, 3-z, 4-all directions 
   EPSILON=  1.0000000 bulk dielectric constant

 Exchange correlation treatment:
   GGA     =    --    GGA type
   LEXCH   =     8    internal setting for exchange type
   LIBXC   =     F    Libxc                    
   VOSKOWN =     0    Vosko Wilk Nusair interpolation
   LHFCALC =     F    Hartree Fock is set to
   LHFONE  =     F    Hartree Fock one center treatment
   AEXX    =    0.0000 exact exchange contribution

 Linear response parameters
   LEPSILON=     F    determine dielectric tensor
   LRPA    =     F    only Hartree local field effects (RPA)
   LNABLA  =     F    use nabla operator in PAW spheres
   LVEL    =     F    velocity operator in full k-point grid
   CSHIFT  =0.1000    complex shift for real part using Kramers Kronig
   OMEGAMAX=  -1.0    maximum frequency
   DEG_THRESHOLD= 0.2000000E-02 threshold for treating states as degnerate
   RTIME   =   -0.100 relaxation time in fs
  (WPLASMAI=    0.000 imaginary part of plasma frequency in eV, 0.658/RTIME)
   DFIELD  = 0.0000000 0.0000000 0.0000000 field for delta impulse in time
 
  Optional k-point grid parameters
   LKPOINTS_OPT  =     F    use optional k-point grid
   KPOINTS_OPT_MODE=     1    mode for optional k-point grid
 
 Orbital magnetization related:
   ORBITALMAG=     F  switch on orbital magnetization
   LCHIMAG   =     F  perturbation theory with respect to B field
   DQ        =  0.001000  dq finite difference perturbation B field
   LLRAUG    =     F  two centre corrections for induced B field
   LBONE     =     F  B-component reconstruction in AE one-centre
   LVGVCALC  =     T  calculate vGv susceptibility
   LVGVAPPL  =     F  apply vGv susceptibility instead of pGv for G=0

 Random number generation:
   RANDOM_GENERATOR = DEFAULT
   PCG_SEED         = not used


--------------------------------------------------------------------------------------------------------


 Static calculation
 charge density and potential will be updated during run
 non-spin polarized calculation
 Variant of blocked Davidson
 Davidson routine will perform the subspace rotation
 perform sub-space diagonalisation
    after iterative eigenvector-optimisation
 modified Broyden-mixing scheme, WC =      100.0
 initial mixing is a Kerker type mixing with AMIX =  0.4000 and BMIX =      1.0000
 Hartree-type preconditioning will be used
 using additional bands             4
 reciprocal scheme for non local part
 use partial core corrections
 calculate Harris-corrections to forces 
   (improved forces if not selfconsistent)
 use gradient corrections 
 use of overlap-Matrix (Vanderbilt PP)
 Methfessel and Paxton  Order N= 1 SIGMA  =   0.20


--------------------------------------------------------------------------------------------------------


  energy-cutoff  :      350.00
  volume of cell :      151.01
      direct lattice vectors                 reciprocal lattice vectors
     5.325236480  0.000000000  0.000000000     0.187785088  0.000000000  0.000000000
     0.000000000  5.325236480  0.000000000     0.000000000  0.187785088  0.000000000
     0.000000000  0.000000000  5.325236480     0.000000000  0.000000000  0.187785088

  length of vectors
     5.325236480  5.325236480  5.325236480     0.187785088  0.187785088  0.187785088


 
 k-points in units of 2pi/SCALE and weight: read from INCAR                         
   0.00000000  0.00000000  0.00000000       0.001
   0.01990522  0.00000000  0.00000000       0.006
   0.03981044  0.00000000  0.00000000       0.006
   0.05971566  0.00000000  0.00000000       0.006
   0.07962088  0.00000000  0.00000000       0.006
   0.09952610  0.00000000  0.00000000       0.003
   0.01990522  0.01990522  0.00000000       0.012
   0.03981044  0.01990522  0.00000000       0.024
   0.05971566  0.01990522  0.00000000       0.024
   0.07962088  0.01990522  0.00000000       0.024
   0.09952610  0.01990522  0.00000000       0.012
   0.03981044  0.03981044  0.00000000       0.012
   0.05971566  0.03981044  0.00000000       0.024
   0.07962088  0.03981044  0.00000000       0.024
   0.09952610  0.03981044  0.00000000       0.012
   0.05971566  0.05971566  0.00000000       0.012
   0.07962088  0.05971566  0.00000000       0.024
   0.09952610  0.05971566  0.00000000       0.012
   0.07962088  0.07962088  0.00000000       0.012
   0.09952610  0.07962088  0.00000000       0.012
   0.09952610  0.09952610  0.00000000       0.003
   0.01990522  0.01990522  0.01990522       0.008
   0.03981044  0.01990522  0.01990522       0.024
   0.05971566  0.01990522  0.01990522       0.024
   0.07962088  0.01990522  0.01990522       0.024
   0.09952610  0.01990522  0.01990522       0.012
   0.03981044  0.03981044  0.01990522       0.024
   0.05971566  0.03981044  0.01990522       0.048
   0.07962088  0.03981044  0.01990522       0.048
   0.09952610  0.03981044  0.01990522       0.024
   0.05971566  0.05971566  0.01990522       0.024
   0.07962088  0.05971566  0.01990522       0.048
   0.09952610  0.05971566  0.01990522       0.024
   0.07962088  0.07962088  0.01990522       0.024
   0.09952610  0.07962088  0.01990522       0.024
   0.09952610  0.09952610  0.01990522       0.006
   0.03981044  0.03981044  0.03981044       0.008
   0.05971566  0.03981044  0.03981044       0.024
   0.07962088  0.03981044  0.03981044       0.024
   0.09952610  0.03981044  0.03981044       0.012
   0.05971566  0.05971566  0.03981044       0.024
   0.07962088  0.05971566  0.03981044       0.048
   0.09952610  0.05971566  0.03981044       0.024
   0.07962088  0.07962088  0.03981044       0.024
   0.09952610  0.07962088  0.03981044       0.024
   0.09952610  0.09952610  0.03981044       0.006
   0.05971566  0.05971566  0.05971566       0.008
   0.07962088  0.05971566  0.05971566       0.024
   0.09952610  0.05971566  0.05971566       0.012
   0.07962088  0.07962088  0.05971566       0.024
   0.09952610  0.07962088  0.05971566       0.024
   0.09952610  0.09952610  0.05971566       0.006
   0.07962088  0.07962088  0.07962088       0.008
   0.09952610  0.07962088  0.07962088       0.012
   0.09952610  0.09952610  0.07962088       0.006
   0.09952610  0.09952610  0.09952610       0.001
 
 k-points in reciprocal lattice and weights: read from INCAR                         
   0.00000000  0.00000000  0.00000000       0.001
   0.10000000  0.00000000  0.00000000       0.006
   0.20000000  0.00000000  0.00000000       0.006
   0.30000000  0.00000000  0.00000000       0.006
   0.40000000  0.00000000  0.00000000       0.006
   0.50000000  0.00000000  0.00000000       0.003
   0.10000000  0.10000000  0.00000000       0.012
   0.20000000  0.10000000  0.00000000       0.024
   0.30000000  0.10000000  0.00000000       0.024
   0.40000000  0.10000000  0.00000000       0.024
   0.50000000  0.10000000  0.00000000       0.012
   0.20000000  0.20000000  0.00000000       0.012
   0.30000000  0.20000000  0.00000000       0.024
   0.40000000  0.20000000  0.00000000       0.024
   0.50000000  0.20000000  0.00000000       0.012
   0.30000000  0.30000000  0.00000000       0.012
   0.40000000  0.30000000  0.00000000       0.024
   0.50000000  0.30000000  0.00000000       0.012
   0.40000000  0.40000000  0.00000000       0.012
   0.50000000  0.40000000  0.00000000       0.012
   0.50000000  0.50000000  0.00000000       0.003
   0.10000000  0.10000000  0.10000000       0.008
   0.20000000  0.10000000  0.10000000       0.024
   0.30000000  0.10000000  0.10000000       0.024
   0.40000000  0.10000000  0.10000000       0.024
   0.50000000  0.10000000  0.10000000       0.012
   0.20000000  0.20000000  0.10000000       0.024
   0.30000000  0.20000000  0.10000000       0.048
   0.40000000  0.20000000  0.10000000       0.048
   0.50000000  0.20000000  0.10000000       0.024
   0.30000000  0.30000000  0.10000000       0.024
   0.40000000  0.30000000  0.10000000       0.048
   0.50000000  0.30000000  0.10000000       0.024
   0.40000000  0.40000000  0.10000000       0.024
   0.50000000  0.40000000  0.10000000       0.024
   0.50000000  0.50000000  0.10000000       0.006
   0.20000000  0.20000000  0.20000000       0.008
   0.30000000  0.20000000  0.20000000       0.024
   0.40000000  0.20000000  0.20000000       0.024
   0.50000000  0.20000000  0.20000000       0.012
   0.30000000  0.30000000  0.20000000       0.024
   0.40000000  0.30000000  0.20000000       0.048
   0.50000000  0.30000000  0.20000000       0.024
   0.40000000  0.40000000  0.20000000       0.024
   0.50000000  0.40000000  0.20000000       0.024
   0.50000000  0.50000000  0.20000000       0.006
   0.30000000  0.30000000  0.30000000       0.008
   0.40000000  0.30000000  0.30000000       0.024
   0.50000000  0.30000000  0.30000000       0.012
   0.40000000  0.40000000  0.30000000       0.024
   0.50000000  0.40000000  0.30000000       0.024
   0.50000000  0.50000000  0.30000000       0.006
   0.40000000  0.40000000  0.40000000       0.008
   0.50000000  0.40000000  0.40000000       0.012
   0.50000000  0.50000000  0.40000000       0.006
   0.50000000  0.50000000  0.50000000       0.001
 
 position of ions in fractional coordinates (direct lattice) 
   0.00000000  0.00000000  0.00000000
   0.50000000  0.50000000  0.50000000
 
 position of ions in cartesian coordinates  (Angst):
   0.00000000  0.00000000  0.00000000
   2.66261824  2.66261824  2.66261824
 


--------------------------------------------------------------------------------------------------------


 k-point   1 :   0.0000 0.0000 0.0000  plane waves:    2205
 k-point   2 :   0.1000 0.0000 0.0000  plane waves:    2233
 k-point   3 :   0.2000 0.0000 0.0000  plane waves:    2252
 k-point   4 :   0.3000 0.0000 0.0000  plane waves:    2252
 k-point   5 :   0.4000 0.0000 0.0000  plane waves:    2256
 k-point   6 :   0.5000 0.0000 0.0000  plane waves:    2240
 k-point   7 :   0.1000 0.1000 0.0000  plane waves:    2229
 k-point   8 :   0.2000 0.1000 0.0000  plane waves:    2244
 k-point   9 :   0.3000 0.1000 0.0000  plane waves:    2253
 k-point  10 :   0.4000 0.1000 0.0000  plane waves:    2248
 k-point  11 :   0.5000 0.1000 0.0000  plane waves:    2236
 k-point  12 :   0.2000 0.2000 0.0000  plane waves:    2243
 k-point  13 :   0.3000 0.2000 0.0000  plane waves:    2249
 k-point  14 :   0.4000 0.2000 0.0000  plane waves:    2237
 k-point  15 :   0.5000 0.2000 0.0000  plane waves:    2242
 k-point  16 :   0.3000 0.3000 0.0000  plane waves:    2248
 k-point  17 :   0.4000 0.3000 0.0000  plane waves:    2232
 k-point  18 :   0.5000 0.3000 0.0000  plane waves:    2234
 k-point  19 :   0.4000 0.4000 0.0000  plane waves:    2232
 k-point  20 :   0.5000 0.4000 0.0000  plane waves:    2232
 k-point  21 :   0.5000 0.5000 0.0000  plane waves:    2216
 k-point  22 :   0.1000 0.1000 0.1000  plane waves:    2235
 k-point  23 :   0.2000 0.1000 0.1000  plane waves:    2239
 k-point  24 :   0.3000 0.1000 0.1000  plane waves:    2233
 k-point  25 :   0.4000 0.1000 0.1000  plane waves:    2245
 k-point  26 :   0.5000 0.1000 0.1000  plane waves:    2248
 k-point  27 :   0.2000 0.2000 0.1000  plane waves:    2253
 k-point  28 :   0.3000 0.2000 0.1000  plane waves:    2243
 k-point  29 :   0.4000 0.2000 0.1000  plane waves:    2235
 k-point  30 :   0.5000 0.2000 0.1000  plane waves:    2242
 k-point  31 :   0.3000 0.3000 0.1000  plane waves:    2249
 k-point  32 :   0.4000 0.3000 0.1000  plane waves:    2237
 k-point  33 :   0.5000 0.3000 0.1000  plane waves:    2250
 k-point  34 :   0.4000 0.4000 0.1000  plane waves:    2245
 k-point  35 :   0.5000 0.4000 0.1000  plane waves:    2240
 k-point  36 :   0.5000 0.5000 0.1000  plane waves:    2224
 k-point  37 :   0.2000 0.2000 0.2000  plane waves:    2244
 k-point  38 :   0.3000 0.2000 0.2000  plane waves:    2248
 k-point  39 :   0.4000 0.2000 0.2000  plane waves:    2240
 k-point  40 :   0.5000 0.2000 0.2000  plane waves:    2242
 k-point  41 :   0.3000 0.3000 0.2000  plane waves:    2240
 k-point  42 :   0.4000 0.3000 0.2000  plane waves:    2246
 k-point  43 :   0.5000 0.3000 0.2000  plane waves:    2252
 k-point  44 :   0.4000 0.4000 0.2000  plane waves:    2264
 k-point  45 :   0.5000 0.4000 0.2000  plane waves:    2254
 k-point  46 :   0.5000 0.5000 0.2000  plane waves:    2252
 k-point  47 :   0.3000 0.3000 0.3000  plane waves:    2256
 k-point  48 :   0.4000 0.3000 0.3000  plane waves:    2251
 k-point  49 :   0.5000 0.3000 0.3000  plane waves:    2246
 k-point  50 :   0.4000 0.4000 0.3000  plane waves:    2257
 k-point  51 :   0.5000 0.4000 0.3000  plane waves:    2268
 k-point  52 :   0.5000 0.5000 0.3000  plane waves:    2284
 k-point  53 :   0.4000 0.4000 0.4000  plane waves:    2257
 k-point  54 :   0.5000 0.4000 0.4000  plane waves:    2268
 k-point  55 :   0.5000 0.5000 0.4000  plane waves:    2268
 k-point  56 :   0.5000 0.5000 0.5000  plane waves:    2272

 maximum and minimum number of plane-waves per node :      2284     2205

 maximum number of plane-waves:      2284
 maximum index in each direction: 
   IXMAX=    8   IYMAX=    8   IZMAX=    8
   IXMIN=   -8   IYMIN=   -8   IZMIN=   -8


 serial   3D FFT for wavefunctions
 parallel 3D FFT for charge:
    minimum data exchange during FFTs selected (reduces bandwidth)


 total amount of memory used by VASP MPI-rank0   101000. kBytes
=======================================================================

   base      :      30000. kBytes
   nonl-proj :      18491. kBytes
   fftplans  :       9204. kBytes
   grid      :      14172. kBytes
   one-center:         31. kBytes
   wavefun   :      29102. kBytes
 
     INWAV:  cpu time      0.0000: real time      0.0000
 Broyden mixing: mesh for mixing (old mesh)
   NGX = 17   NGY = 17   NGZ = 17
  (NGX  = 64   NGY  = 64   NGZ  = 64)
  gives a total of   4913 points

 initial charge density was supplied:
 charge density of overlapping atoms calculated
 number of electron      20.0000000 magnetization 
 keeping initial charge density in first step


--------------------------------------------------------------------------------------------------------


 Maximum index for augmentation-charges         13205 (set IRDMAX)


--------------------------------------------------------------------------------------------------------


 First call to EWALD:  gamma=   0.333
 Maximum number of real-space cells 3x 3x 3
 Maximum number of reciprocal cells 3x 3x 3

    FEWALD:  cpu time      0.0009: real time      0.0006


--------------------------------------- Ionic step        1  -------------------------------------------




--------------------------------------- Iteration      1(   1)  ---------------------------------------


    POTLOK:  cpu time      0.0208: real time      0.0206
    SETDIJ:  cpu time      0.0064: real time      0.0032
     EDDAV:  cpu time      1.1670: real time      1.1666
       DOS:  cpu time      0.0014: real time      0.0014
    --------------------------------------------
      LOOP:  cpu time      1.1956: real time      1.1918

 eigenvalue-minimisations  :  1568
 total energy-change (2. order) : 0.1305693E+03  (-0.6465756E+03)
 number of electron      20.0000000 magnetization 
 augmentation part       20.0000000 magnetization 

 Free energy of the ion-electron system (eV)
  ---------------------------------------------------
  alpha Z        PSCENC =        69.51001674
  Ewald energy   TEWEN  =      -984.07249356
  -Hartree energ DENC   =      -273.18888588
  -exchange      EXHF   =         0.00000000
  -V(xc)+E(xc)   XCENC  =        48.16633965
  PAW double counting   =      1034.69261413    -1029.43834999
  entropy T*S    EENTRO =         0.00363372
  eigenvalues    EBANDS =      -136.81100471
  atomic energy  EATOM  =      1401.70739034
  Solvation  Ediel_sol  =         0.00000000
  ---------------------------------------------------
  free energy    TOTEN  =       130.56926044 eV

  energy without entropy =      130.56562672  energy(sigma->0) =      130.56804920


--------------------------------------------------------------------------------------------------------




--------------------------------------- Iteration      1(   2)  ---------------------------------------


     EDDAV:  cpu time      1.4537: real time      1.4539
       DOS:  cpu time      0.0015: real time      0.0015
    --------------------------------------------
      LOOP:  cpu time      1.4552: real time      1.4554

 eigenvalue-minimisations  :  2414
 total energy-change (2. order) :-0.1250695E+03  (-0.1232286E+03)
 number of electron      20.0000000 magnetization 
 augmentation part       20.0000000 magnetization 

 Free energy of the ion-electron system (eV)
  ---------------------------------------------------
  alpha Z        PSCENC =        69.51001674
  Ewald energy   TEWEN  =      -984.07249356
  -Hartree energ DENC   =      -273.18888588
  -exchange      EXHF   =         0.00000000
  -V(xc)+E(xc)   XCENC  =        48.16633965
  PAW double counting   =      1034.69261413    -1029.43834999
  entropy T*S    EENTRO =         0.00352943
  eigenvalues    EBANDS =      -261.88042773
  atomic energy  EATOM  =      1401.70739034
  Solvation  Ediel_sol  =         0.00000000
  ---------------------------------------------------
  free energy    TOTEN  =         5.49973313 eV

  energy without entropy =        5.49620370  energy(sigma->0) =        5.49855665


--------------------------------------------------------------------------------------------------------




--------------------------------------- Iteration      1(   3)  ---------------------------------------


     EDDAV:  cpu time      1.3164: real time      1.3167
       DOS:  cpu time      0.0016: real time      0.0016
    --------------------------------------------
      LOOP:  cpu time      1.3180: real time      1.3183

 eigenvalue-minimisations  :  2144
 total energy-change (2. order) :-0.8939240E+01  (-0.8845389E+01)
 number of electron      20.0000000 magnetization 
 augmentation part       20.0000000 magnetization 

 Free energy of the ion-electron system (eV)
  ---------------------------------------------------
  alpha Z        PSCENC =        69.51001674
  Ewald energy   TEWEN  =      -984.07249356
  -Hartree energ DENC   =      -273.18888588
  -exchange      EXHF   =         0.00000000
  -V(xc)+E(xc)   XCENC  =        48.16633965
  PAW double counting   =      1034.69261413    -1029.43834999
  entropy T*S    EENTRO =         0.00379202
  eigenvalues    EBANDS =      -270.81993061
  atomic energy  EATOM  =      1401.70739034
  Solvation  Ediel_sol  =         0.00000000
  ---------------------------------------------------
  free energy    TOTEN  =        -3.43950716 eV

  energy without entropy =       -3.44329918  energy(sigma->0) =       -3.44077117


--------------------------------------------------------------------------------------------------------




--------------------------------------- Iteration      1(   4)  ---------------------------------------


     EDDAV:  cpu time      1.3915: real time      1.3919
       DOS:  cpu time      0.0016: real time      0.0016
    --------------------------------------------
      LOOP:  cpu time      1.3930: real time      1.3935

 eigenvalue-minimisations  :  2332
 total energy-change (2. order) :-0.2666489E+00  (-0.2665551E+00)
 number of electron      20.0000000 magnetization 
 augmentation part       20.0000000 magnetization 

 Free energy of the ion-electron system (eV)
  ---------------------------------------------------
  alpha Z        PSCENC =        69.51001674
  Ewald energy   TEWEN  =      -984.07249356
  -Hartree energ DENC   =      -273.18888588
  -exchange      EXHF   =         0.00000000
  -V(xc)+E(xc)   XCENC  =        48.16633965
  PAW double counting   =      1034.69261413    -1029.43834999
  entropy T*S    EENTRO =         0.00473877
  eigenvalues    EBANDS =      -271.08752623
  atomic energy  EATOM  =      1401.70739034
  Solvation  Ediel_sol  =         0.00000000
  ---------------------------------------------------
  free energy    TOTEN  =        -3.70615603 eV

  energy without entropy =       -3.71089480  energy(sigma->0) =       -3.70773562


--------------------------------------------------------------------------------------------------------




--------------------------------------- Iteration      1(   5)  ---------------------------------------


     EDDAV:  cpu time      1.2771: real time      1.2774
       DOS:  cpu time      0.0015: real time      0.0015
    CHARGE:  cpu time      0.1189: real time      0.1167
    MIXING:  cpu time      0.0031: real time      0.0020
    --------------------------------------------
      LOOP:  cpu time      1.4006: real time      1.3976

 eigenvalue-minimisations  :  2082
 total energy-change (2. order) :-0.2358565E-02  (-0.2358013E-02)
 number of electron      20.0000016 magnetization 
 augmentation part       -3.6658423 magnetization 

 Broyden mixing:
  rms(total) = 0.19659E+00    rms(broyden)= 0.19658E+00
  rms(prec ) = 0.26937E+00
  weight for this iteration     100.00

 Free energy of the ion-electron system (eV)
  ---------------------------------------------------
  alpha Z        PSCENC =        69.51001674
  Ewald energy   TEWEN  =      -984.07249356
  -Hartree energ DENC   =      -273.18888588
  -exchange      EXHF   =         0.00000000
  -V(xc)+E(xc)   XCENC  =        48.16633965
  PAW double counting   =      1034.69261413    -1029.43834999
  entropy T*S    EENTRO =         0.00479956
  eigenvalues    EBANDS =      -271.08994559
  atomic energy  EATOM  =      1401.70739034
  Solvation  Ediel_sol  =         0.00000000
  ---------------------------------------------------
  free energy    TOTEN  =        -3.70851460 eV

  energy without entropy =       -3.71331416  energy(sigma->0) =       -3.71011445


--------------------------------------------------------------------------------------------------------




--------------------------------------- Iteration      1(   6)  ---------------------------------------


    POTLOK:  cpu time      0.0066: real time      0.0055
    SETDIJ:  cpu time      0.0074: real time      0.0037
     EDDAV:  cpu time      1.1728: real time      1.1722
       DOS:  cpu time      0.0016: real time      0.0016
    CHARGE:  cpu time      0.1156: real time      0.1134
    MIXING:  cpu time      0.0035: real time      0.0022
    --------------------------------------------
      LOOP:  cpu time      1.3074: real time      1.2986

 eigenvalue-minimisations  :  1880
 total energy-change (2. order) :-0.4571583E-02  (-0.5626988E-03)
 number of electron      20.0000016 magnetization 
 augmentation part       -3.6675018 magnetization 

 Broyden mixing:
  rms(total) = 0.11812E+00    rms(broyden)= 0.11812E+00
  rms(prec ) = 0.16359E+00
  weight for this iteration     100.00

 eigenvalues of (default mixing * dielectric matrix)
  average eigenvalue GAMMA=   2.4955
  2.4955

 Free energy of the ion-electron system (eV)
  ---------------------------------------------------
  alpha Z        PSCENC =        69.51001674
  Ewald energy   TEWEN  =      -984.07249356
  -Hartree energ DENC   =      -272.73422005
  -exchange      EXHF   =         0.00000000
  -V(xc)+E(xc)   XCENC  =        48.23952088
  PAW double counting   =      1056.50275391    -1052.29576582
  entropy T*S    EENTRO =         0.00470778
  eigenvalues    EBANDS =      -270.57499640
  atomic energy  EATOM  =      1401.70739034
  Solvation  Ediel_sol  =         0.00000000
  ---------------------------------------------------
  free energy    TOTEN  =        -3.71308618 eV

  energy without entropy =       -3.71779396  energy(sigma->0) =       -3.71465544


--------------------------------------------------------------------------------------------------------




--------------------------------------- Iteration      1(   7)  ---------------------------------------


    POTLOK:  cpu time      0.0066: real time      0.0056
    SETDIJ:  cpu time      0.0058: real time      0.0029
     EDDAV:  cpu time      1.0917: real time      1.0910
       DOS:  cpu time      0.0016: real time      0.0016
    CHARGE:  cpu time      0.1138: real time      0.1117
    MIXING:  cpu time      0.0037: real time      0.0023
    --------------------------------------------
      LOOP:  cpu time      1.2232: real time      1.2150

 eigenvalue-minimisations  :  1730
 total energy-change (2. order) :-0.4472514E-02  (-0.1202361E-02)
 number of electron      20.0000016 magnetization 
 augmentation part       -3.6681631 magnetization 

 Broyden mixing:
  rms(total) = 0.57979E-02    rms(broyden)= 0.57890E-02
  rms(prec ) = 0.13038E-01
  weight for this iteration     100.00

 eigenvalues of (default mixing * dielectric matrix)
  average eigenvalue GAMMA=   2.1284
  1.6614  2.5954

 Free energy of the ion-electron system (eV)
  ---------------------------------------------------
  alpha Z        PSCENC =        69.51001674
  Ewald energy   TEWEN  =      -984.07249356
  -Hartree energ DENC   =      -271.88522795
  -exchange      EXHF   =         0.00000000
  -V(xc)+E(xc)   XCENC  =        48.36233720
  PAW double counting   =      1089.39462193    -1086.73280117
  entropy T*S    EENTRO =         0.00454984
  eigenvalues    EBANDS =      -270.00595208
  atomic energy  EATOM  =      1401.70739034
  Solvation  Ediel_sol  =         0.00000000
  ---------------------------------------------------
  free energy    TOTEN  =        -3.71755870 eV

  energy without entropy =       -3.72210854  energy(sigma->0) =       -3.71907531


--------------------------------------------------------------------------------------------------------




--------------------------------------- Iteration      1(   8)  ---------------------------------------


    POTLOK:  cpu time      0.0062: real time      0.0051
    SETDIJ:  cpu time      0.0052: real time      0.0026
     EDDAV:  cpu time      1.4642: real time      1.4637
       DOS:  cpu time      0.0016: real time      0.0016
    CHARGE:  cpu time      0.1157: real time      0.1136
    MIXING:  cpu time      0.0036: real time      0.0023
    --------------------------------------------
      LOOP:  cpu time      1.5965: real time      1.5889

 eigenvalue-minimisations  :  2472
 total energy-change (2. order) :-0.2752660E-03  (-0.7940883E-04)
 number of electron      20.0000016 magnetization 
 augmentation part       -3.6715567 magnetization 

 Broyden mixing:
  rms(total) = 0.35096E-02    rms(broyden)= 0.35084E-02
  rms(prec ) = 0.59605E-02
  weight for this iteration     100.00

 eigenvalues of (default mixing * dielectric matrix)
  average eigenvalue GAMMA=   2.0045
  1.0365  2.4886  2.4886

 Free energy of the ion-electron system (eV)
  ---------------------------------------------------
  alpha Z        PSCENC =        69.51001674
  Ewald energy   TEWEN  =      -984.07249356
  -Hartree energ DENC   =      -271.62302603
  -exchange      EXHF   =         0.00000000
  -V(xc)+E(xc)   XCENC  =        48.35515818
  PAW double counting   =      1088.67076458    -1086.01368089
  entropy T*S    EENTRO =         0.00452271
  eigenvalues    EBANDS =      -270.25648604
  atomic energy  EATOM  =      1401.70739034
  Solvation  Ediel_sol  =         0.00000000
  ---------------------------------------------------
  free energy    TOTEN  =        -3.71783396 eV

  energy without entropy =       -3.72235667  energy(sigma->0) =       -3.71934153


--------------------------------------------------------------------------------------------------------




--------------------------------------- Iteration      1(   9)  ---------------------------------------


    POTLOK:  cpu time      0.0066: real time      0.0056
    SETDIJ:  cpu time      0.0058: real time      0.0029
     EDDAV:  cpu time      1.2189: real time      1.2183
       DOS:  cpu time      0.0015: real time      0.0015
    CHARGE:  cpu time      0.1135: real time      0.1114
    MIXING:  cpu time      0.0035: real time      0.0022
    --------------------------------------------
      LOOP:  cpu time      1.3500: real time      1.3420

 eigenvalue-minimisations  :  1976
 total energy-change (2. order) :-0.2721287E-04  (-0.3061575E-05)
 number of electron      20.0000016 magnetization 
 augmentation part       -3.6721223 magnetization 

 Broyden mixing:
  rms(total) = 0.11217E-02    rms(broyden)= 0.11216E-02
  rms(prec ) = 0.24441E-02
  weight for this iteration     100.00

 eigenvalues of (default mixing * dielectric matrix)
  average eigenvalue GAMMA=   2.1200
  1.0467  3.0939  2.4316  1.9077

 Free energy of the ion-electron system (eV)
  ---------------------------------------------------
  alpha Z        PSCENC =        69.51001674
  Ewald energy   TEWEN  =      -984.07249356
  -Hartree energ DENC   =      -271.63080897
  -exchange      EXHF   =         0.00000000
  -V(xc)+E(xc)   XCENC  =        48.35138791
  PAW double counting   =      1087.58614056    -1084.88019376
  entropy T*S    EENTRO =         0.00451594
  eigenvalues    EBANDS =      -270.29381638
  atomic energy  EATOM  =      1401.70739034
  Solvation  Ediel_sol  =         0.00000000
  ---------------------------------------------------
  free energy    TOTEN  =        -3.71786118 eV

  energy without entropy =       -3.72237712  energy(sigma->0) =       -3.71936649


--------------------------------------------------------------------------------------------------------




--------------------------------------- Iteration      1(  10)  ---------------------------------------


    POTLOK:  cpu time      0.0062: real time      0.0051
    SETDIJ:  cpu time      0.0053: real time      0.0027
     EDDAV:  cpu time      1.1517: real time      1.1510
       DOS:  cpu time      0.0015: real time      0.0015
    CHARGE:  cpu time      0.1137: real time      0.1115
    MIXING:  cpu time      0.0036: real time      0.0023
    --------------------------------------------
      LOOP:  cpu time      1.2820: real time      1.2742

 eigenvalue-minimisations  :  1844
 total energy-change (2. order) :-0.9870163E-05  (-0.1643434E-05)
 number of electron      20.0000016 magnetization 
 augmentation part       -3.6719414 magnetization 

 Broyden mixing:
  rms(total) = 0.13537E-03    rms(broyden)= 0.13530E-03
  rms(prec ) = 0.20581E-03
  weight for this iteration     100.00

 eigenvalues of (default mixing * dielectric matrix)
  average eigenvalue GAMMA=   2.0355
  3.2734  1.0149  2.3452  2.0582  1.4857

 Free energy of the ion-electron system (eV)
  ---------------------------------------------------
  alpha Z        PSCENC =        69.51001674
  Ewald energy   TEWEN  =      -984.07249356
  -Hartree energ DENC   =      -271.65462880
  -exchange      EXHF   =         0.00000000
  -V(xc)+E(xc)   XCENC  =        48.35397609
  PAW double counting   =      1087.99255710    -1085.29061882
  entropy T*S    EENTRO =         0.00450504
  eigenvalues    EBANDS =      -270.26857518
  atomic energy  EATOM  =      1401.70739034
  Solvation  Ediel_sol  =         0.00000000
  ---------------------------------------------------
  free energy    TOTEN  =        -3.71787105 eV

  energy without entropy =       -3.72237608  energy(sigma->0) =       -3.71937273


--------------------------------------------------------------------------------------------------------




--------------------------------------- Iteration      1(  11)  ---------------------------------------


    POTLOK:  cpu time      0.0063: real time      0.0052
    SETDIJ:  cpu time      0.0052: real time      0.0026
     EDDAV:  cpu time      0.8287: real time      0.8279
       DOS:  cpu time      0.0015: real time      0.0015
    --------------------------------------------
      LOOP:  cpu time      0.8416: real time      0.8372

 eigenvalue-minimisations  :  1144
 total energy-change (2. order) : 0.1202625E-06  (-0.6182352E-07)
 number of electron      20.0000016 magnetization 
 augmentation part       -3.6719414 magnetization 

 Free energy of the ion-electron system (eV)
  ---------------------------------------------------
  alpha Z        PSCENC =        69.51001674
  Ewald energy   TEWEN  =      -984.07249356
  -Hartree energ DENC   =      -271.65274056
  -exchange      EXHF   =         0.00000000
  -V(xc)+E(xc)   XCENC  =        48.35397671
  PAW double counting   =      1088.06327667    -1085.36244900
  entropy T*S    EENTRO =         0.00450424
  eigenvalues    EBANDS =      -270.26935250
  atomic energy  EATOM  =      1401.70739034
  Solvation  Ediel_sol  =         0.00000000
  ---------------------------------------------------
  free energy    TOTEN  =        -3.71787093 eV

  energy without entropy =       -3.72237517  energy(sigma->0) =       -3.71937234


--------------------------------------------------------------------------------------------------------




 average (electrostatic) potential at core
  the test charge radii are     1.2192
  (the norm of the test charge is              1.0000)
       1 -40.3683       2 -40.3683
 
 
 
 E-fermi :   1.0971     XC(G=0):  -6.8573     alpha+bet : -5.6527

 Fermi energy:         1.0970668083

 k-point     1 :       0.0000    0.0000    0.0000
  band No.  band energies     occupation 
      1     -28.1288      2.00000
      2     -28.0953      2.00000
      3     -13.3275      2.00000
      4     -13.3275      2.00000
      5     -13.3275      2.00000
      6     -13.1491      2.00000
      7     -13.1491      2.00000
      8     -13.1491      2.00000
      9      -1.5404      2.00000
     10       0.7650      2.04060
     11       0.7650      2.04060
     12       2.7113     -0.00000
     13       2.7113     -0.00000
     14       2.7113     -0.00000

 k-point     2 :       0.1000    0.0000    0.0000
  band No.  band energies     occupation 
      1     -28.1278      2.00000
      2     -28.0960      2.00000
      3     -13.3271      2.00000
      4     -13.3229      2.00000
      5     -13.3229      2.00000
      6     -13.1577      2.00000
      7     -13.1533      2.00000
      8     -13.1533      2.00000
      9      -1.4636      2.00000
     10       0.8005      2.05683
     11       0.8108      2.06116
     12       2.6862     -0.00000
     13       2.6862     -0.00000
     14       2.7507     -0.00000

 k-point     3 :       0.2000    0.0000    0.0000
  band No.  band energies     occupation 
      1     -28.1252      2.00000
      2     -28.0982      2.00000
      3     -13.3248      2.00000
      4     -13.3097      2.00000
      5     -13.3097      2.00000
      6     -13.1813      2.00000
      7     -13.1654      2.00000
      8     -13.1654      2.00000
      9      -1.2397      2.00000
     10       0.8600      2.07041
     11       0.9478      1.94996
     12       2.6313     -0.00000
     13       2.6313     -0.00000
     14       2.8680     -0.00000

 k-point     4 :       0.3000    0.0000    0.0000
  band No.  band energies     occupation 
      1     -28.1212      2.00000
      2     -28.1015      2.00000
      3     -13.3181      2.00000
      4     -13.2894      2.00000
      5     -13.2894      2.00000
      6     -13.2143      2.00000
      7     -13.1845      2.00000
      8     -13.1845      2.00000
      9      -0.8872      2.00000
     10       0.8043      2.05844
     11       1.1739      0.40016
     12       2.5913     -0.00000
     13       2.5913     -0.00000
     14       2.8271     -0.00000

 k-point     5 :       0.4000    0.0000    0.0000
  band No.  band energies     occupation 
      1     -28.1163      2.00000
      2     -28.1059      2.00000
      3     -13.3040      2.00000
      4     -13.2640      2.00000
      5     -13.2640      2.00000
      6     -13.2496      2.00000
      7     -13.2088      2.00000
      8     -13.2088      2.00000
      9      -0.4378      2.00000
     10       0.5154      2.00031
     11       1.4850     -0.01934
     12       2.3292     -0.00000
     13       2.6081     -0.00000
     14       2.6082     -0.00000

 k-point     6 :       0.5000    0.0000    0.0000
  band No.  band energies     occupation 
      1     -28.1110      2.00000
      2     -28.1110      2.00000
      3     -13.2808      2.00000
      4     -13.2808      2.00000
      5     -13.2362      2.00000
      6     -13.2362      2.00000
      7     -13.2362      2.00000
      8     -13.2362      2.00000
      9       0.0583      2.00000
     10       0.0583      2.00000
     11       1.8742     -0.00000
     12       1.8742     -0.00000
     13       2.7107     -0.00000
     14       2.7107     -0.00000

 k-point     7 :       0.1000    0.1000    0.0000
  band No.  band energies     occupation 
      1     -28.1270      2.00000
      2     -28.0967      2.00000
      3     -13.3344      2.00000
      4     -13.3185      2.00000
      5     -13.3110      2.00000
      6     -13.1740      2.00000
      7     -13.1572      2.00000
      8     -13.1492      2.00000
      9      -1.3884      2.00000
     10       0.8457      2.07061
     11       0.8462      2.07066
     12       2.5921     -0.00000
     13       2.6398     -0.00000
     14       2.8642     -0.00000

 k-point     8 :       0.2000    0.1000    0.0000
  band No.  band energies     occupation 
      1     -28.1244      2.00000
      2     -28.0987      2.00000
      3     -13.3385      2.00000
      4     -13.3059      2.00000
      5     -13.2926      2.00000
      6     -13.2029      2.00000
      7     -13.1687      2.00000
      8     -13.1545      2.00000
      9      -1.1693      2.00000
     10       0.9054      2.04052
     11       0.9771      1.83989
     12       2.4926     -0.00000
     13       2.5278     -0.00000
     14       3.0398     -0.00000

 k-point     9 :       0.3000    0.1000    0.0000
  band No.  band energies     occupation 
      1     -28.1206      2.00000
      2     -28.1019      2.00000
      3     -13.3360      2.00000
      4     -13.2865      2.00000
      5     -13.2697      2.00000
      6     -13.2381      2.00000
      7     -13.1867      2.00000
      8     -13.1692      2.00000
      9      -0.8250      2.00000
     10       0.8430      2.07031
     11       1.1883      0.30958
     12       2.3737     -0.00000
     13       2.4328     -0.00000
     14       2.9763     -0.00000

 k-point    10 :       0.4000    0.1000    0.0000
  band No.  band energies     occupation 
      1     -28.1159      2.00000
      2     -28.1061      2.00000
      3     -13.3248      2.00000
      4     -13.2736      2.00000
      5     -13.2623      2.00000
      6     -13.2435      2.00000
      7     -13.2098      2.00000
      8     -13.1906      2.00000
      9      -0.3872      2.00000
     10       0.5469      2.00070
     11       1.4709     -0.02383
     12       2.1337     -0.00000
     13       2.4398     -0.00000
     14       2.7296     -0.00000

 k-point    11 :       0.5000    0.1000    0.0000
  band No.  band energies     occupation 
      1     -28.1109      2.00000
      2     -28.1109      2.00000
      3     -13.3037      2.00000
      4     -13.3037      2.00000
      5     -13.2358      2.00000
      6     -13.2358      2.00000
      7     -13.2163      2.00000
      8     -13.2163      2.00000
      9       0.0960      2.00000
     10       0.0960      2.00000
     11       1.8037     -0.00001
     12       1.8037     -0.00001
     13       2.5347     -0.00000
     14       2.5347     -0.00000

 k-point    12 :       0.2000    0.2000    0.0000
  band No.  band energies     occupation 
      1     -28.1222      2.00000
      2     -28.1004      2.00000
      3     -13.3524      2.00000
      4     -13.2950      2.00000
      5     -13.2674      2.00000
      6     -13.2382      2.00000
      7     -13.1782      2.00000
      8     -13.1493      2.00000
      9      -0.9649      2.00000
     10       0.9740      1.85351
     11       1.0741      1.19257
     12       2.3215     -0.00000
     13       2.3331     -0.00000
     14       2.8479     -0.00000

 k-point    13 :       0.3000    0.2000    0.0000
  band No.  band energies     occupation 
      1     -28.1189      2.00000
      2     -28.1030      2.00000
      3     -13.3588      2.00000
      4     -13.2783      2.00000
      5     -13.2765      2.00000
      6     -13.2406      2.00000
      7     -13.1933      2.00000
      8     -13.1544      2.00000
      9      -0.6474      2.00000
     10       0.8886      2.05797
     11       1.2530      0.03076
     12       2.1347     -0.00000
     13       2.2081     -0.00000
     14       2.6735     -0.00000

 k-point    14 :       0.4000    0.2000    0.0000
  band No.  band energies     occupation 
      1     -28.1149      2.00000
      2     -28.1065      2.00000
      3     -13.3548      2.00000
      4     -13.3118      2.00000
      5     -13.2574      2.00000
      6     -13.2138      2.00000
      7     -13.2128      2.00000
      8     -13.1683      2.00000
      9      -0.2498      2.00000
     10       0.5940      2.00216
     11       1.4746     -0.02260
     12       1.9336     -0.00000
     13       2.1762     -0.00000
     14       2.4062     -0.00000

 k-point    15 :       0.5000    0.2000    0.0000
  band No.  band energies     occupation 
      1     -28.1106      2.00000
      2     -28.1106      2.00000
      3     -13.3390      2.00000
      4     -13.3390      2.00000
      5     -13.2349      2.00000
      6     -13.2349      2.00000
      7     -13.1890      2.00000
      8     -13.1890      2.00000
      9       0.1838      2.00000
     10       0.1838      2.00000
     11       1.7111     -0.00013
     12       1.7111     -0.00013
     13       2.2401     -0.00000
     14       2.2401     -0.00000

 k-point    16 :       0.3000    0.3000    0.0000
  band No.  band energies     occupation 
      1     -28.1164      2.00000
      2     -28.1049      2.00000
      3     -13.3745      2.00000
      4     -13.3153      2.00000
      5     -13.2657      2.00000
      6     -13.2125      2.00000
      7     -13.2039      2.00000
      8     -13.1494      2.00000
      9      -0.3810      2.00000
     10       0.7938      2.05383
     11       1.4041     -0.05210
     12       1.9603     -0.00000
     13       2.0434     -0.00000
     14       2.3549     -0.00000

 k-point    17 :       0.4000    0.3000    0.0000
  band No.  band energies     occupation 
      1     -28.1134      2.00000
      2     -28.1073      2.00000
      3     -13.3790      2.00000
      4     -13.3481      2.00000
      5     -13.2502      2.00000
      6     -13.2178      2.00000
      7     -13.1875      2.00000
      8     -13.1542      2.00000
      9      -0.0644      2.00000
     10       0.5619      2.00102
     11       1.5784     -0.00348
     12       1.8367     -0.00000
     13       1.9674     -0.00000
     14       2.1228     -0.00000

 k-point    18 :       0.5000    0.3000    0.0000
  band No.  band energies     occupation 
      1     -28.1103      2.00000
      2     -28.1103      2.00000
      3     -13.3702      2.00000
      4     -13.3702      2.00000
      5     -13.2337      2.00000
      6     -13.2337      2.00000
      7     -13.1674      2.00000
      8     -13.1674      2.00000
      9       0.2616      2.00000
     10       0.2616      2.00000
     11       1.7224     -0.00009
     12       1.7224     -0.00009
     13       1.9925     -0.00000
     14       1.9925     -0.00000

 k-point    19 :       0.4000    0.4000    0.0000
  band No.  band energies     occupation 
      1     -28.1117      2.00000
      2     -28.1085      2.00000
      3     -13.3922      2.00000
      4     -13.3760      2.00000
      5     -13.2416      2.00000
      6     -13.2245      2.00000
      7     -13.1671      2.00000
      8     -13.1495      2.00000
      9       0.1242      2.00000
     10       0.4453      2.00004
     11       1.7356     -0.00006
     12       1.8286     -0.00000
     13       1.8491     -0.00000
     14       1.9271     -0.00000

 k-point    20 :       0.5000    0.4000    0.0000
  band No.  band energies     occupation 
      1     -28.1100      2.00000
      2     -28.1100      2.00000
      3     -13.3914      2.00000
      4     -13.3914      2.00000
      5     -13.2327      2.00000
      6     -13.2327      2.00000
      7     -13.1540      2.00000
      8     -13.1540      2.00000
      9       0.2940      2.00000
     10       0.2940      2.00000
     11       1.8254     -0.00000
     12       1.8254     -0.00000
     13       1.8345     -0.00000
     14       1.8345     -0.00000

 k-point    21 :       0.5000    0.5000    0.0000
  band No.  band energies     occupation 
      1     -28.1099      2.00000
      2     -28.1099      2.00000
      3     -13.3989      2.00000
      4     -13.3989      2.00000
      5     -13.2324      2.00000
      6     -13.2324      2.00000
      7     -13.1495      2.00000
      8     -13.1495      2.00000
      9       0.2992      2.00000
     10       0.2992      2.00000
     11       1.7805     -0.00001
     12       1.7805     -0.00001
     13       1.8885     -0.00000
     14       1.8885     -0.00000

 k-point    22 :       0.1000    0.1000    0.1000
  band No.  band energies     occupation 
      1     -28.1261      2.00000
      2     -28.0974      2.00000
      3     -13.3296      2.00000
      4     -13.3296      2.00000
      5     -13.2962      2.00000
      6     -13.1889      2.00000
      7     -13.1535      2.00000
      8     -13.1535      2.00000
      9      -1.3145      2.00000
     10       0.8865      2.05955
     11       0.8865      2.05955
     12       2.5446     -0.00000
     13       2.5446     -0.00000
     14       2.9778     -0.00000

 k-point    23 :       0.2000    0.1000    0.1000
  band No.  band energies     occupation 
      1     -28.1237      2.00000
      2     -28.0992      2.00000
      3     -13.3388      2.00000
      4     -13.3160      2.00000
      5     -13.2754      2.00000
      6     -13.2183      2.00000
      7     -13.1661      2.00000
      8     -13.1552      2.00000
      9      -1.0992      2.00000
     10       0.9545      1.92839
     11       1.0071      1.68249
     12       2.4181     -0.00000
     13       2.4210     -0.00000
     14       2.7967     -0.00000

 k-point    24 :       0.3000    0.1000    0.1000
  band No.  band energies     occupation 
      1     -28.1200      2.00000
      2     -28.1023      2.00000
      3     -13.3409      2.00000
      4     -13.2949      2.00000
      5     -13.2532      2.00000
      6     -13.2521      2.00000
      7     -13.1859      2.00000
      8     -13.1652      2.00000
      9      -0.7619      2.00000
     10       0.8898      2.05697
     11       1.2015      0.23579
     12       2.2484     -0.00000
     13       2.3415     -0.00000
     14       2.5551     -0.00000

 k-point    25 :       0.4000    0.1000    0.1000
  band No.  band energies     occupation 
      1     -28.1155      2.00000
      2     -28.1062      2.00000
      3     -13.3335      2.00000
      4     -13.2874      2.00000
      5     -13.2685      2.00000
      6     -13.2276      2.00000
      7     -13.2113      2.00000
      8     -13.1821      2.00000
      9      -0.3341      2.00000
     10       0.5850      2.00176
     11       1.4566     -0.02903
     12       2.0240     -0.00000
     13       2.3376     -0.00000
     14       2.4787     -0.00000

 k-point    26 :       0.5000    0.1000    0.1000
  band No.  band energies     occupation 
      1     -28.1108      2.00000
      2     -28.1108      2.00000
      3     -13.3153      2.00000
      4     -13.3153      2.00000
      5     -13.2397      2.00000
      6     -13.2397      2.00000
      7     -13.2036      2.00000
      8     -13.2036      2.00000
      9       0.1382      2.00000
     10       0.1382      2.00000
     11       1.7460     -0.00004
     12       1.7460     -0.00004
     13       2.4003     -0.00000
     14       2.4003     -0.00000

 k-point    27 :       0.2000    0.2000    0.1000
  band No.  band energies     occupation 
      1     -28.1216      2.00000
      2     -28.1008      2.00000
      3     -13.3472      2.00000
      4     -13.3109      2.00000
      5     -13.2514      2.00000
      6     -13.2494      2.00000
      7     -13.1740      2.00000
      8     -13.1540      2.00000
      9      -0.8964      2.00000
     10       1.0376      1.47970
     11       1.1001      0.97433
     12       2.2507     -0.00000
     13       2.2583     -0.00000
     14       2.3890     -0.00000

 k-point    28 :       0.3000    0.2000    0.1000
  band No.  band energies     occupation 
      1     -28.1184      2.00000
      2     -28.1033      2.00000
      3     -13.3550      2.00000
      4     -13.2923      2.00000
      5     -13.2845      2.00000
      6     -13.2272      2.00000
      7     -13.1913      2.00000
      8     -13.1577      2.00000
      9      -0.5821      2.00000
     10       0.9571      1.91952
     11       1.2612      0.00977
     12       2.0596     -0.00000
     13       2.1488     -0.00000
     14       2.2180     -0.00000

 k-point    29 :       0.4000    0.2000    0.1000
  band No.  band energies     occupation 
      1     -28.1146      2.00000
      2     -28.1066      2.00000
      3     -13.3538      2.00000
      4     -13.3168      2.00000
      5     -13.2677      2.00000
      6     -13.2143      2.00000
      7     -13.2044      2.00000
      8     -13.1681      2.00000
      9      -0.1896      2.00000
     10       0.6502      2.00698
     11       1.4558     -0.02936
     12       1.8648     -0.00000
     13       2.1198     -0.00000
     14       2.2062     -0.00000

 k-point    30 :       0.5000    0.2000    0.1000
  band No.  band energies     occupation 
      1     -28.1105      2.00000
      2     -28.1105      2.00000
      3     -13.3409      2.00000
      4     -13.3409      2.00000
      5     -13.2407      2.00000
      6     -13.2407      2.00000
      7     -13.1842      2.00000
      8     -13.1842      2.00000
      9       0.2386      2.00000
     10       0.2386      2.00000
     11       1.6630     -0.00047
     12       1.6630     -0.00047
     13       2.1592     -0.00000
     14       2.1592     -0.00000

 k-point    31 :       0.3000    0.3000    0.1000
  band No.  band energies     occupation 
      1     -28.1160      2.00000
      2     -28.1050      2.00000
      3     -13.3688      2.00000
      4     -13.3186      2.00000
      5     -13.2786      2.00000
      6     -13.2039      2.00000
      7     -13.2030      2.00000
      8     -13.1547      2.00000
      9      -0.3129      2.00000
     10       0.8696      2.06827
     11       1.4068     -0.05089
     12       1.9079     -0.00000
     13       1.9879     -0.00000
     14       2.0546     -0.00000

 k-point    32 :       0.4000    0.3000    0.1000
  band No.  band energies     occupation 
      1     -28.1131      2.00000
      2     -28.1074      2.00000
      3     -13.3740      2.00000
      4     -13.3478      2.00000
      5     -13.2596      2.00000
      6     -13.2194      2.00000
      7     -13.1839      2.00000
      8     -13.1584      2.00000
      9       0.0055      2.00000
     10       0.6334      2.00501
     11       1.5567     -0.00544
     12       1.7823     -0.00001
     13       1.9247     -0.00000
     14       1.9924     -0.00000

 k-point    33 :       0.5000    0.3000    0.1000
  band No.  band energies     occupation 
      1     -28.1102      2.00000
      2     -28.1102      2.00000
      3     -13.3671      2.00000
      4     -13.3671      2.00000
      5     -13.2390      2.00000
      6     -13.2390      2.00000
      7     -13.1685      2.00000
      8     -13.1685      2.00000
      9       0.3316      2.00000
     10       0.3316      2.00000
     11       1.6733     -0.00036
     12       1.6733     -0.00036
     13       1.9423     -0.00000
     14       1.9423     -0.00000

 k-point    34 :       0.4000    0.4000    0.1000
  band No.  band energies     occupation 
      1     -28.1115      2.00000
      2     -28.1085      2.00000
      3     -13.3861      2.00000
      4     -13.3725      2.00000
      5     -13.2485      2.00000
      6     -13.2271      2.00000
      7     -13.1685      2.00000
      8     -13.1553      2.00000
      9       0.2014      2.00000
     10       0.5223      2.00037
     11       1.7108     -0.00013
     12       1.7849     -0.00001
     13       1.8061     -0.00001
     14       1.8500     -0.00000

 k-point    35 :       0.5000    0.4000    0.1000
  band No.  band energies     occupation 
      1     -28.1099      2.00000
      2     -28.1099      2.00000
      3     -13.3859      2.00000
      4     -13.3859      2.00000
      5     -13.2371      2.00000
      6     -13.2371      2.00000
      7     -13.1587      2.00000
      8     -13.1587      2.00000
      9       0.3730      2.00000
     10       0.3730      2.00000
     11       1.7651     -0.00002
     12       1.7651     -0.00002
     13       1.8110     -0.00001
     14       1.8110     -0.00001

 k-point    36 :       0.5000    0.5000    0.1000
  band No.  band energies     occupation 
      1     -28.1098      2.00000
      2     -28.1098      2.00000
      3     -13.3927      2.00000
      4     -13.3927      2.00000
      5     -13.2363      2.00000
      6     -13.2363      2.00000
      7     -13.1555      2.00000
      8     -13.1555      2.00000
      9       0.3806      2.00000
     10       0.3806      2.00000
     11       1.7427     -0.00005
     12       1.7427     -0.00005
     13       1.8486     -0.00000
     14       1.8486     -0.00000

 k-point    37 :       0.2000    0.2000    0.2000
  band No.  band energies     occupation 
      1     -28.1198      2.00000
      2     -28.1021      2.00000
      3     -13.3323      2.00000
      4     -13.3323      2.00000
      5     -13.2749      2.00000
      6     -13.2283      2.00000
      7     -13.1679      2.00000
      8     -13.1679      2.00000
      9      -0.6989      2.00000
     10       1.1746      0.39515
     11       1.1746      0.39515
     12       1.9514     -0.00000
     13       2.1041     -0.00000
     14       2.1041     -0.00000

 k-point    38 :       0.3000    0.2000    0.2000
  band No.  band energies     occupation 
      1     -28.1170      2.00000
      2     -28.1042      2.00000
      3     -13.3480      2.00000
      4     -13.3093      2.00000
      5     -13.3042      2.00000
      6     -13.2073      2.00000
      7     -13.1898      2.00000
      8     -13.1657      2.00000
      9      -0.3961      2.00000
     10       1.1147      0.85156
     11       1.2880     -0.03954
     12       1.8243     -0.00000
     13       1.9199     -0.00000
     14       2.0005     -0.00000

 k-point    39 :       0.4000    0.2000    0.2000
  band No.  band energies     occupation 
      1     -28.1137      2.00000
      2     -28.1069      2.00000
      3     -13.3539      2.00000
      4     -13.3303      2.00000
      5     -13.2805      2.00000
      6     -13.2176      2.00000
      7     -13.1899      2.00000
      8     -13.1687      2.00000
      9      -0.0240      2.00000
     10       0.7750      2.04518
     11       1.4265     -0.04181
     12       1.7420     -0.00005
     13       1.9501     -0.00000
     14       1.9729     -0.00000

 k-point    40 :       0.5000    0.2000    0.2000
  band No.  band energies     occupation 
      1     -28.1102      2.00000
      2     -28.1102      2.00000
      3     -13.3478      2.00000
      4     -13.3478      2.00000
      5     -13.2489      2.00000
      6     -13.2489      2.00000
      7     -13.1769      2.00000
      8     -13.1769      2.00000
      9       0.3774      2.00000
     10       0.3774      2.00000
     11       1.5786     -0.00347
     12       1.5786     -0.00347
     13       1.9908     -0.00000
     14       1.9908     -0.00000

 k-point    41 :       0.3000    0.3000    0.2000
  band No.  band energies     occupation 
      1     -28.1149      2.00000
      2     -28.1056      2.00000
      3     -13.3524      2.00000
      4     -13.3276      2.00000
      5     -13.3032      2.00000
      6     -13.2000      2.00000
      7     -13.1908      2.00000
      8     -13.1702      2.00000
      9      -0.1199      2.00000
     10       1.0779      1.16157
     11       1.4138     -0.04763
     12       1.6679     -0.00041
     13       1.7959     -0.00001
     14       1.8547     -0.00000

 k-point    42 :       0.4000    0.3000    0.2000
  band No.  band energies     occupation 
      1     -28.1124      2.00000
      2     -28.1075      2.00000
      3     -13.3603      2.00000
      4     -13.3477      2.00000
      5     -13.2794      2.00000
      6     -13.2227      2.00000
      7     -13.1794      2.00000
      8     -13.1707      2.00000
      9       0.2010      2.00000
     10       0.8244      2.06606
     11       1.4945     -0.01666
     12       1.6690     -0.00040
     13       1.7759     -0.00002
     14       1.8127     -0.00001

 k-point    43 :       0.5000    0.3000    0.2000
  band No.  band energies     occupation 
      1     -28.1099      2.00000
      2     -28.1099      2.00000
      3     -13.3594      2.00000
      4     -13.3594      2.00000
      5     -13.2508      2.00000
      6     -13.2508      2.00000
      7     -13.1730      2.00000
      8     -13.1730      2.00000
      9       0.5225      2.00037
     10       0.5225      2.00037
     11       1.5671     -0.00441
     12       1.5671     -0.00441
     13       1.8258     -0.00000
     14       1.8258     -0.00000

 k-point    44 :       0.4000    0.4000    0.2000
  band No.  band energies     occupation 
      1     -28.1110      2.00000
      2     -28.1084      2.00000
      3     -13.3685      2.00000
      4     -13.3627      2.00000
      5     -13.2659      2.00000
      6     -13.2326      2.00000
      7     -13.1741      2.00000
      8     -13.1721      2.00000
      9       0.4208      2.00002
     10       0.7376      2.02908
     11       1.6460     -0.00073
     12       1.6786     -0.00031
     13       1.6862     -0.00025
     14       1.7023     -0.00016

 k-point    45 :       0.5000    0.4000    0.2000
  band No.  band energies     occupation 
      1     -28.1096      2.00000
      2     -28.1096      2.00000
      3     -13.3703      2.00000
      4     -13.3703      2.00000
      5     -13.2482      2.00000
      6     -13.2482      2.00000
      7     -13.1725      2.00000
      8     -13.1725      2.00000
      9       0.5972      2.00232
     10       0.5972      2.00232
     11       1.6482     -0.00069
     12       1.6482     -0.00069
     13       1.7246     -0.00008
     14       1.7246     -0.00008

 k-point    46 :       0.5000    0.5000    0.2000
  band No.  band energies     occupation 
      1     -28.1095      2.00000
      2     -28.1095      2.00000
      3     -13.3746      2.00000
      4     -13.3746      2.00000
      5     -13.2464      2.00000
      6     -13.2464      2.00000
      7     -13.1728      2.00000
      8     -13.1728      2.00000
      9       0.6131      2.00329
     10       0.6131      2.00329
     11       1.6514     -0.00063
     12       1.6514     -0.00063
     13       1.7481     -0.00004
     14       1.7481     -0.00004

 k-point    47 :       0.3000    0.3000    0.3000
  band No.  band energies     occupation 
      1     -28.1133      2.00000
      2     -28.1065      2.00000
      3     -13.3393      2.00000
      4     -13.3270      2.00000
      5     -13.3270      2.00000
      6     -13.1946      2.00000
      7     -13.1946      2.00000
      8     -13.1824      2.00000
      9       0.1622      2.00000
     10       1.2702     -0.00999
     11       1.4253     -0.04233
     12       1.4253     -0.04233
     13       1.7043     -0.00015
     14       1.7043     -0.00015

 k-point    48 :       0.4000    0.3000    0.3000
  band No.  band energies     occupation 
      1     -28.1114      2.00000
      2     -28.1079      2.00000
      3     -13.3488      2.00000
      4     -13.3440      2.00000
      5     -13.2952      2.00000
      6     -13.2255      2.00000
      7     -13.1880      2.00000
      8     -13.1798      2.00000
      9       0.4749      2.00010
     10       1.0259      1.56174
     11       1.4478     -0.03257
     12       1.5789     -0.00344
     13       1.6252     -0.00121
     14       1.6824     -0.00028

 k-point    49 :       0.5000    0.3000    0.3000
  band No.  band energies     occupation 
      1     -28.1095      2.00000
      2     -28.1095      2.00000
      3     -13.3512      2.00000
      4     -13.3512      2.00000
      5     -13.2602      2.00000
      6     -13.2602      2.00000
      7     -13.1823      2.00000
      8     -13.1823      2.00000
      9       0.7634      2.03989
     10       0.7634      2.03989
     11       1.4945     -0.01667
     12       1.4945     -0.01667
     13       1.7009     -0.00017
     14       1.7009     -0.00017

 k-point    50 :       0.4000    0.4000    0.3000
  band No.  band energies     occupation 
      1     -28.1103      2.00000
      2     -28.1084      2.00000
      3     -13.3497      2.00000
      4     -13.3412      2.00000
      5     -13.2872      2.00000
      6     -13.2361      2.00000
      7     -13.1985      2.00000
      8     -13.1855      2.00000
      9       0.7398      2.02992
     10       1.0313      1.52460
     11       1.5375     -0.00789
     12       1.5648     -0.00461
     13       1.5662     -0.00449
     14       1.5889     -0.00278

 k-point    51 :       0.5000    0.4000    0.3000
  band No.  band energies     occupation 
      1     -28.1093      2.00000
      2     -28.1093      2.00000
      3     -13.3472      2.00000
      4     -13.3472      2.00000
      5     -13.2611      2.00000
      6     -13.2611      2.00000
      7     -13.1939      2.00000
      8     -13.1939      2.00000
      9       0.9202      2.01722
     10       0.9202      2.01722
     11       1.5329     -0.00860
     12       1.5329     -0.00860
     13       1.6175     -0.00145
     14       1.6175     -0.00145

 k-point    52 :       0.5000    0.5000    0.3000
  band No.  band energies     occupation 
      1     -28.1092      2.00000
      2     -28.1092      2.00000
      3     -13.3466      2.00000
      4     -13.3466      2.00000
      5     -13.2589      2.00000
      6     -13.2589      2.00000
      7     -13.2000      2.00000
      8     -13.2000      2.00000
      9       0.9555      1.92520
     10       0.9555      1.92520
     11       1.5535     -0.00580
     12       1.5535     -0.00580
     13       1.6288     -0.00111
     14       1.6288     -0.00111

 k-point    53 :       0.4000    0.4000    0.4000
  band No.  band energies     occupation 
      1     -28.1096      2.00000
      2     -28.1086      2.00000
      3     -13.3363      2.00000
      4     -13.3070      2.00000
      5     -13.3070      2.00000
      6     -13.2319      2.00000
      7     -13.2319      2.00000
      8     -13.2018      2.00000
      9       1.0590      1.31597
     10       1.2358      0.08457
     11       1.5016     -0.01484
     12       1.5016     -0.01484
     13       1.5071     -0.01355
     14       1.5071     -0.01355

 k-point    54 :       0.5000    0.4000    0.4000
  band No.  band energies     occupation 
      1     -28.1090      2.00000
      2     -28.1090      2.00000
      3     -13.3230      2.00000
      4     -13.3230      2.00000
      5     -13.2693      2.00000
      6     -13.2693      2.00000
      7     -13.2191      2.00000
      8     -13.2191      2.00000
      9       1.2226      0.13599
     10       1.2226      0.13599
     11       1.4774     -0.02167
     12       1.4774     -0.02167
     13       1.5359     -0.00813
     14       1.5359     -0.00813

 k-point    55 :       0.5000    0.5000    0.4000
  band No.  band energies     occupation 
      1     -28.1089      2.00000
      2     -28.1089      2.00000
      3     -13.3115      2.00000
      4     -13.3115      2.00000
      5     -13.2690      2.00000
      6     -13.2690      2.00000
      7     -13.2344      2.00000
      8     -13.2344      2.00000
      9       1.3105     -0.06156
     10       1.3105     -0.06156
     11       1.4891     -0.01816
     12       1.4891     -0.01816
     13       1.5305     -0.00898
     14       1.5305     -0.00898

 k-point    56 :       0.5000    0.5000    0.5000
  band No.  band energies     occupation 
      1     -28.1088      2.00000
      2     -28.1088      2.00000
      3     -13.2728      2.00000
      4     -13.2728      2.00000
      5     -13.2728      2.00000
      6     -13.2728      2.00000
      7     -13.2728      2.00000
      8     -13.2728      2.00000
      9       1.4800     -0.02085
     10       1.4800     -0.02085
     11       1.4800     -0.02085
     12       1.4800     -0.02085
     13       1.4800     -0.02085
     14       1.4800     -0.02085


--------------------------------------------------------------------------------------------------------


 soft charge-density along one line, spin component            1
         0         1         2         3         4         5         6         7         8         9
 total charge-density along one line
 
 pseudopotential strength for first ion, spin component:            1
  3.997  -7.526  -0.000  -0.000   0.000  -0.000  -0.000   0.000
 -7.526   2.354   0.000   0.000  -0.000  -0.000  -0.000   0.000
 -0.000   0.000  -7.070   0.000  -0.000   5.127   0.000  -0.000
 -0.000   0.000   0.000  -7.070   0.000   0.000   5.127   0.000
  0.000  -0.000  -0.000   0.000  -7.070  -0.000   0.000   5.127
 -0.000  -0.000   5.127   0.000  -0.000   5.819  -0.000   0.000
 -0.000  -0.000   0.000   5.127   0.000  -0.000   5.819  -0.000
  0.000   0.000  -0.000   0.000   5.127   0.000  -0.000   5.819
 -0.000   0.000   0.000  -0.000  -0.000   0.000  -0.000  -0.000
  0.000  -0.000  -0.000  -0.000  -0.000  -0.000  -0.000  -0.000
  0.000  -0.000   0.000  -0.000  -0.000   0.000  -0.000  -0.000
  0.000  -0.000  -0.000   0.000  -0.000  -0.000   0.000  -0.000
 -0.000   0.000   0.000  -0.000   0.000   0.000  -0.000   0.000
 -0.000   0.000   0.000  -0.000  -0.000   0.000  -0.000  -0.000
  0.000  -0.000  -0.000  -0.000  -0.000  -0.000  -0.000  -0.000
  0.000  -0.000   0.000  -0.000  -0.000   0.000  -0.000  -0.000
  0.000  -0.000  -0.000   0.000  -0.000  -0.000   0.000  -0.000
 -0.000   0.000   0.000  -0.000   0.000   0.000  -0.000   0.000
 total augmentation occupancy for first ion, spin component:            1
  1.999  -0.013   0.000   0.000   0.000   0.000   0.000   0.000  -0.000   0.000   0.000   0.000  -0.000  -0.000   0.000   0.000
 -0.013   0.963   0.000   0.000   0.000  -0.000  -0.000  -0.000  -0.000  -0.000  -0.000  -0.000  -0.000   0.000  -0.000  -0.000
  0.000  -0.000   1.997   0.000   0.000  -0.000  -0.000  -0.000  -0.000  -0.000   0.000  -0.000   0.000  -0.000   0.000   0.000
  0.000  -0.000   0.000   1.997  -0.000  -0.000  -0.000  -0.000   0.000   0.000  -0.000   0.000  -0.000  -0.000   0.000   0.000
  0.000  -0.000   0.000  -0.000   1.997   0.000   0.000  -0.000   0.000   0.000   0.000   0.000  -0.000   0.000   0.000   0.000
 -0.000   0.000  -0.000  -0.000   0.000   0.004  -0.000  -0.000  -0.000  -0.000   0.000  -0.000   0.000  -0.000  -0.000   0.000
 -0.000   0.000  -0.000  -0.000  -0.000  -0.000   0.004   0.000   0.000  -0.000   0.000  -0.000   0.000   0.000   0.000  -0.000
 -0.000   0.000  -0.000  -0.000  -0.000  -0.000   0.000   0.004   0.000  -0.000   0.000  -0.000   0.000   0.000   0.000   0.000
  0.000  -0.000  -0.000   0.000  -0.000  -0.000   0.000   0.000   0.342   0.000  -0.000  -0.000   0.000  -0.127   0.000   0.000
  0.000  -0.000   0.000   0.000   0.000   0.000   0.000  -0.000  -0.000   0.342  -0.000  -0.000  -0.000   0.000  -0.127   0.000
  0.000   0.000   0.000   0.000   0.000  -0.000  -0.000   0.000  -0.000  -0.000   0.594  -0.000   0.000  -0.000  -0.000  -0.213
  0.000  -0.000  -0.000   0.000   0.000   0.000   0.000   0.000  -0.000  -0.000  -0.000   0.342  -0.000  -0.000  -0.000  -0.000
 -0.000   0.000  -0.000  -0.000   0.000   0.000  -0.000   0.000   0.000  -0.000   0.000  -0.000   0.594   0.000  -0.000  -0.000
  0.000   0.000  -0.000  -0.000   0.000  -0.000   0.000   0.000  -0.127   0.000  -0.000  -0.000  -0.000   0.047   0.000   0.000
  0.000   0.000   0.000   0.000  -0.000   0.000   0.000  -0.000   0.000  -0.127  -0.000  -0.000  -0.000   0.000   0.047  -0.000
 -0.000  -0.000   0.000  -0.000   0.000   0.000   0.000   0.000   0.000   0.000  -0.213  -0.000  -0.000   0.000  -0.000   0.077
  0.000  -0.000   0.000  -0.000   0.000  -0.000   0.000  -0.000   0.000  -0.000  -0.000  -0.127   0.000   0.000  -0.000   0.000
  0.000  -0.000  -0.000  -0.000   0.000   0.000  -0.000   0.000  -0.000   0.000  -0.000  -0.000  -0.213   0.000   0.000   0.000


------------------------ aborting loop because EDIFF is reached ----------------------------------------


 -----------------------------------------------------------------------------
|                                                                             |
|               ----> ADVICE to this user running VASP <----                  |
|                                                                             |
|     Your highest band is occupied at some k-points! Unless you are          |
|     performing a calculation for an insulator or semiconductor, without     |
|     unoccupied bands, you have included TOO FEW BANDS!! Please increase     |
|     the parameter NBANDS in file INCAR to ensure that the highest band      |
|     is unoccupied at all k-points. It is always recommended to include      |
|     a few unoccupied bands to accelerate the convergence of                 |
|     molecular-dynamics runs (even for insulators or semiconductors),        |
|     since the presence of unoccupied bands improves wavefunction            |
|     prediction and helps to suppress 'band-crossings'.                      |
|                                                                             |
 -----------------------------------------------------------------------------

    CHARGE:  cpu time      0.1268: real time      0.1241
    FORLOC:  cpu time      0.0023: real time      0.0023
    FORNL :  cpu time      0.5005: real time      0.4920
    STRESS:  cpu time      2.3850: real time      2.2576
    FORCOR:  cpu time      0.0071: real time      0.0060
    FORHAR:  cpu time      0.0017: real time      0.0016
    MIXING:  cpu time      0.0041: real time      0.0025
    OFIELD:  cpu time      0.0000: real time      0.0000

  FORCE on cell =-STRESS in cart. coord.  units (eV):
  Direction    XX          YY          ZZ          XY          YZ          ZX
  --------------------------------------------------------------------------------------
  Alpha Z    69.51002    69.51002    69.51002
  Ewald    -328.02414  -328.02414  -328.02414     0.00000     0.00000     0.00000
  Hartree    90.55036    90.55036    90.55036    -0.00000    -0.00000    -0.00000
  E(xc)     -64.56368   -64.56368   -64.56368     0.00000    -0.00000    -0.00000
  Local      48.25856    48.25856    48.25856     0.00000     0.00000    -0.00000
  n-local   -73.15554   -76.90014   -81.66649     0.15315    -0.16471     0.04226
  augment   -18.85402   -18.85402   -18.85402     0.00000     0.00000     0.00000
  Kinetic   276.23400   276.88435   284.64303     0.05023     1.83924     0.34580
  Fock        0.00000     0.00000     0.00000     0.00000     0.00000     0.00000
  -------------------------------------------------------------------------------------
  Total      -1.10982    -1.10982    -1.10982    -0.00000    -0.00000     0.00000
  in kB     -11.77461   -11.77461   -11.77461    -0.00000    -0.00000     0.00000
  external pressure =      -11.77 kB  Pullay stress =        0.00 kB


 VOLUME and BASIS-vectors are now :
 -----------------------------------------------------------------------------
  energy-cutoff  :      350.00
  volume of cell :      151.01
      direct lattice vectors                 reciprocal lattice vectors
     5.325236480  0.000000000  0.000000000     0.187785088  0.000000000  0.000000000
     0.000000000  5.325236480  0.000000000     0.000000000  0.187785088  0.000000000
     0.000000000  0.000000000  5.325236480     0.000000000  0.000000000  0.187785088

  length of vectors
     5.325236480  5.325236480  5.325236480     0.187785088  0.187785088  0.187785088


 FORCES acting on ions
    electron-ion (+dipol)            ewald-force                    non-local-force                 convergence-correction
 -----------------------------------------------------------------------------------------------
   0.317E-15 -.332E-15 0.158E-14   0.537E-15 -.187E-14 -.127E-14   -.242E-23 -.165E-23 -.165E-23   -.141E-13 -.209E-13 -.106E-13
   0.466E-13 0.119E-12 -.842E-12   -.111E-14 0.131E-14 0.153E-14   0.215E-23 -.165E-23 -.165E-23   -.148E-13 -.967E-14 0.123E-13
 -----------------------------------------------------------------------------------------------
   0.469E-13 0.118E-12 -.840E-12   -.575E-15 -.560E-15 0.263E-15   -.271E-24 -.331E-23 -.331E-23   -.289E-13 -.306E-13 0.172E-14
 
 
 POSITION                                       TOTAL-FORCE (eV/Angst)
 -----------------------------------------------------------------------------------
      0.00000      0.00000      0.00000         0.000000      0.000000      0.000000
      2.66262      2.66262      2.66262        -0.000000     -0.000000     -0.000000
 -----------------------------------------------------------------------------------
    total drift:                                0.000000      0.000000     -0.000000


--------------------------------------------------------------------------------------------------------



  FREE ENERGIE OF THE ION-ELECTRON SYSTEM (eV)
  ---------------------------------------------------
  free  energy   TOTEN  =        -3.71787093 eV

  energy  without entropy=       -3.72237517  energy(sigma->0) =       -3.71937234
 


--------------------------------------------------------------------------------------------------------


    POTLOK:  cpu time      0.0144: real time      0.0103


--------------------------------------------------------------------------------------------------------


     LOOP+:  cpu time     17.4480: real time     17.2479
    4ORBIT:  cpu time      0.0000: real time      0.0000

 total amount of memory used by VASP MPI-rank0   101000. kBytes
=======================================================================

   base      :      30000. kBytes
   nonl-proj :      18491. kBytes
   fftplans  :       9204. kBytes
   grid      :      14172. kBytes
   one-center:         31. kBytes
   wavefun   :      29102. kBytes
 
  
  
 General timing and accounting informations for this job:
 ========================================================
  
                  Total CPU time used (sec):       18.719
                            User time (sec):       17.906
                          System time (sec):        0.813
                         Elapsed time (sec):       18.425
  
                   Maximum memory used (kb):     1580184.
                   Average memory used (kb):          N/A
  
                          Minor page faults:       402056
                          Major page faults:            0
                 Voluntary context switches:        15850
