<?xml version="1.0" encoding="ISO-8859-1"?>
<modeling>
 <generator>
  <i name="program" type="string">vasp </i>
  <i name="version" type="string">6.4.2  </i>
  <i name="subversion" type="string">20Jul23 (build Mar  2 2025 11:04:54) complex                          parallel </i>
  <i name="platform" type="string">LinuxNV </i>
  <i name="date" type="string">2026 04 09 </i>
  <i name="time" type="string">15:00:37 </i>
 </generator>
 <incar>
  <i type="string" name="SYSTEM">Mo_EOS_scale_0.960</i>
  <i type="string" name="PREC">Accurate</i>
  <i type="int" name="IBRION">    -1</i>
  <i name="EDIFF">      0.00000100</i>
  <i type="int" name="NSW">     0</i>
  <i type="int" name="ISIF">     2</i>
  <i name="ENCUT">    450.00000000</i>
  <i type="int" name="ISMEAR">     1</i>
  <i name="SIGMA">      0.20000000</i>
  <i name="KSPACING">      0.15000000</i>
  <i type="logical" name="KGAMMA"> T  </i>
  <i type="logical" name="LWAVE"> F  </i>
  <i type="logical" name="LCHARG"> F  </i>
 </incar>
 <primitive_cell>
  <structure name="primitive_cell" >
   <crystal>
    <varray name="basis" >
     <v>       2.48289504       0.00000000      -0.87783648 </v>
     <v>      -1.24144800       2.15025024      -0.87783648 </v>
     <v>       0.00000000       0.00000000       2.63350848 </v>
    </varray>
    <i name="volume">     14.05989531 </i>
    <varray name="rec_basis" >
     <v>       0.40275565       0.23253116      -0.00000000 </v>
     <v>      -0.00000000       0.46506215       0.00000000 </v>
     <v>       0.13425193       0.23253119       0.37972158 </v>
    </varray>
   </crystal>
   <varray name="positions" >
    <v>       0.00000000       0.00000000       0.00000000 </v>
   </varray>
  </structure>
  <varray name="primitive_index" >
   <v type="int" >        1 </v>
  </varray>
 </primitive_cell>
 <kpoints>
  <generation param="Gamma">
   <v type="int" name="divisions">      20       20       20 </v>
   <v name="usershift">      0.00000000       0.00000000       0.00000000 </v>
   <v name="genvec1">      0.05000000       0.00000000       0.00000000 </v>
   <v name="genvec2">      0.00000000       0.05000000       0.00000000 </v>
   <v name="genvec3">      0.00000000       0.00000000       0.05000000 </v>
   <v name="shift">      0.00000000       0.00000000       0.00000000 </v>
  </generation>
  <varray name="kpointlist" >
   <v>       0.00000000       0.00000000       0.00000000 </v>
   <v>       0.05000000       0.00000000       0.00000000 </v>
   <v>       0.10000000       0.00000000       0.00000000 </v>
   <v>       0.15000000       0.00000000       0.00000000 </v>
   <v>       0.20000000       0.00000000       0.00000000 </v>
   <v>       0.25000000       0.00000000       0.00000000 </v>
   <v>       0.30000000       0.00000000       0.00000000 </v>
   <v>       0.35000000       0.00000000       0.00000000 </v>
   <v>       0.40000000       0.00000000       0.00000000 </v>
   <v>       0.45000000       0.00000000       0.00000000 </v>
   <v>       0.50000000       0.00000000       0.00000000 </v>
   <v>       0.05000000       0.05000000       0.00000000 </v>
   <v>       0.10000000       0.05000000       0.00000000 </v>
   <v>       0.15000000       0.05000000       0.00000000 </v>
   <v>       0.20000000       0.05000000       0.00000000 </v>
   <v>       0.25000000       0.05000000       0.00000000 </v>
   <v>       0.30000000       0.05000000       0.00000000 </v>
   <v>       0.35000000       0.05000000       0.00000000 </v>
   <v>       0.40000000       0.05000000       0.00000000 </v>
   <v>       0.45000000       0.05000000       0.00000000 </v>
   <v>       0.10000000       0.10000000       0.00000000 </v>
   <v>       0.15000000       0.10000000       0.00000000 </v>
   <v>       0.20000000       0.10000000       0.00000000 </v>
   <v>       0.25000000       0.10000000       0.00000000 </v>
   <v>       0.30000000       0.10000000       0.00000000 </v>
   <v>       0.35000000       0.10000000       0.00000000 </v>
   <v>       0.40000000       0.10000000       0.00000000 </v>
   <v>       0.45000000       0.10000000       0.00000000 </v>
   <v>       0.15000000       0.15000000       0.00000000 </v>
   <v>       0.20000000       0.15000000       0.00000000 </v>
   <v>       0.25000000       0.15000000       0.00000000 </v>
   <v>       0.30000000       0.15000000       0.00000000 </v>
   <v>       0.35000000       0.15000000       0.00000000 </v>
   <v>       0.40000000       0.15000000       0.00000000 </v>
   <v>       0.20000000       0.20000000       0.00000000 </v>
   <v>       0.25000000       0.20000000       0.00000000 </v>
   <v>       0.30000000       0.20000000       0.00000000 </v>
   <v>       0.35000000       0.20000000       0.00000000 </v>
   <v>       0.40000000       0.20000000       0.00000000 </v>
   <v>       0.25000000       0.25000000       0.00000000 </v>
   <v>       0.30000000       0.25000000       0.00000000 </v>
   <v>       0.35000000       0.25000000       0.00000000 </v>
   <v>       0.30000000       0.30000000       0.00000000 </v>
   <v>       0.35000000       0.30000000       0.00000000 </v>
   <v>       0.05000000       0.05000000       0.05000000 </v>
   <v>       0.10000000       0.05000000       0.05000000 </v>
   <v>       0.15000000       0.05000000       0.05000000 </v>
   <v>       0.20000000       0.05000000       0.05000000 </v>
   <v>       0.25000000       0.05000000       0.05000000 </v>
   <v>       0.30000000       0.05000000       0.05000000 </v>
   <v>       0.35000000       0.05000000       0.05000000 </v>
   <v>       0.40000000       0.05000000       0.05000000 </v>
   <v>       0.45000000       0.05000000       0.05000000 </v>
   <v>      -0.05000000       0.05000000       0.05000000 </v>
   <v>       0.10000000       0.10000000       0.05000000 </v>
   <v>       0.15000000       0.10000000       0.05000000 </v>
   <v>       0.20000000       0.10000000       0.05000000 </v>
   <v>       0.25000000       0.10000000       0.05000000 </v>
   <v>       0.30000000       0.10000000       0.05000000 </v>
   <v>       0.35000000       0.10000000       0.05000000 </v>
   <v>       0.40000000       0.10000000       0.05000000 </v>
   <v>      -0.10000000       0.10000000       0.05000000 </v>
   <v>       0.15000000       0.15000000       0.05000000 </v>
   <v>       0.20000000       0.15000000       0.05000000 </v>
   <v>       0.25000000       0.15000000       0.05000000 </v>
   <v>       0.30000000       0.15000000       0.05000000 </v>
   <v>       0.35000000       0.15000000       0.05000000 </v>
   <v>       0.40000000       0.15000000       0.05000000 </v>
   <v>      -0.15000000       0.15000000       0.05000000 </v>
   <v>      -0.10000000       0.15000000       0.05000000 </v>
   <v>       0.20000000       0.20000000       0.05000000 </v>
   <v>       0.25000000       0.20000000       0.05000000 </v>
   <v>       0.30000000       0.20000000       0.05000000 </v>
   <v>       0.35000000       0.20000000       0.05000000 </v>
   <v>      -0.20000000       0.20000000       0.05000000 </v>
   <v>      -0.15000000       0.20000000       0.05000000 </v>
   <v>       0.25000000       0.25000000       0.05000000 </v>
   <v>       0.30000000       0.25000000       0.05000000 </v>
   <v>       0.35000000       0.25000000       0.05000000 </v>
   <v>      -0.25000000       0.25000000       0.05000000 </v>
   <v>      -0.20000000       0.25000000       0.05000000 </v>
   <v>      -0.15000000       0.25000000       0.05000000 </v>
   <v>       0.30000000       0.30000000       0.05000000 </v>
   <v>      -0.30000000       0.30000000       0.05000000 </v>
   <v>      -0.25000000       0.30000000       0.05000000 </v>
   <v>      -0.20000000       0.30000000       0.05000000 </v>
   <v>      -0.35000000       0.35000000       0.05000000 </v>
   <v>      -0.30000000       0.35000000       0.05000000 </v>
   <v>      -0.25000000       0.35000000       0.05000000 </v>
   <v>      -0.20000000       0.35000000       0.05000000 </v>
   <v>      -0.40000000       0.40000000       0.05000000 </v>
   <v>      -0.35000000       0.40000000       0.05000000 </v>
   <v>      -0.30000000       0.40000000       0.05000000 </v>
   <v>      -0.25000000       0.40000000       0.05000000 </v>
   <v>      -0.45000000       0.45000000       0.05000000 </v>
   <v>      -0.40000000       0.45000000       0.05000000 </v>
   <v>      -0.35000000       0.45000000       0.05000000 </v>
   <v>      -0.30000000       0.45000000       0.05000000 </v>
   <v>      -0.25000000       0.45000000       0.05000000 </v>
   <v>       0.50000000       0.50000000       0.05000000 </v>
   <v>      -0.45000000       0.50000000       0.05000000 </v>
   <v>      -0.40000000       0.50000000       0.05000000 </v>
   <v>      -0.35000000       0.50000000       0.05000000 </v>
   <v>      -0.30000000       0.50000000       0.05000000 </v>
   <v>      -0.45000000      -0.45000000       0.05000000 </v>
   <v>      -0.40000000      -0.45000000       0.05000000 </v>
   <v>      -0.35000000      -0.45000000       0.05000000 </v>
   <v>      -0.30000000      -0.45000000       0.05000000 </v>
   <v>      -0.40000000      -0.40000000       0.05000000 </v>
   <v>      -0.35000000      -0.40000000       0.05000000 </v>
   <v>      -0.35000000      -0.35000000       0.05000000 </v>
   <v>       0.10000000       0.10000000       0.10000000 </v>
   <v>       0.15000000       0.10000000       0.10000000 </v>
   <v>       0.20000000       0.10000000       0.10000000 </v>
   <v>       0.25000000       0.10000000       0.10000000 </v>
   <v>       0.30000000       0.10000000       0.10000000 </v>
   <v>       0.35000000       0.10000000       0.10000000 </v>
   <v>       0.40000000       0.10000000       0.10000000 </v>
   <v>      -0.10000000       0.10000000       0.10000000 </v>
   <v>       0.15000000       0.15000000       0.10000000 </v>
   <v>       0.20000000       0.15000000       0.10000000 </v>
   <v>       0.25000000       0.15000000       0.10000000 </v>
   <v>       0.30000000       0.15000000       0.10000000 </v>
   <v>       0.35000000       0.15000000       0.10000000 </v>
   <v>      -0.15000000       0.15000000       0.10000000 </v>
   <v>       0.20000000       0.20000000       0.10000000 </v>
   <v>       0.25000000       0.20000000       0.10000000 </v>
   <v>       0.30000000       0.20000000       0.10000000 </v>
   <v>       0.35000000       0.20000000       0.10000000 </v>
   <v>      -0.20000000       0.20000000       0.10000000 </v>
   <v>      -0.15000000       0.20000000       0.10000000 </v>
   <v>       0.25000000       0.25000000       0.10000000 </v>
   <v>       0.30000000       0.25000000       0.10000000 </v>
   <v>      -0.25000000       0.25000000       0.10000000 </v>
   <v>      -0.20000000       0.25000000       0.10000000 </v>
   <v>       0.30000000       0.30000000       0.10000000 </v>
   <v>      -0.30000000       0.30000000       0.10000000 </v>
   <v>      -0.25000000       0.30000000       0.10000000 </v>
   <v>      -0.20000000       0.30000000       0.10000000 </v>
   <v>      -0.35000000       0.35000000       0.10000000 </v>
   <v>      -0.30000000       0.35000000       0.10000000 </v>
   <v>      -0.25000000       0.35000000       0.10000000 </v>
   <v>      -0.40000000       0.40000000       0.10000000 </v>
   <v>      -0.35000000       0.40000000       0.10000000 </v>
   <v>      -0.30000000       0.40000000       0.10000000 </v>
   <v>      -0.25000000       0.40000000       0.10000000 </v>
   <v>      -0.45000000       0.45000000       0.10000000 </v>
   <v>      -0.40000000       0.45000000       0.10000000 </v>
   <v>      -0.35000000       0.45000000       0.10000000 </v>
   <v>      -0.30000000       0.45000000       0.10000000 </v>
   <v>       0.50000000       0.50000000       0.10000000 </v>
   <v>      -0.45000000       0.50000000       0.10000000 </v>
   <v>      -0.40000000       0.50000000       0.10000000 </v>
   <v>      -0.35000000       0.50000000       0.10000000 </v>
   <v>      -0.30000000       0.50000000       0.10000000 </v>
   <v>      -0.45000000      -0.45000000       0.10000000 </v>
   <v>      -0.40000000      -0.45000000       0.10000000 </v>
   <v>      -0.35000000      -0.45000000       0.10000000 </v>
   <v>      -0.40000000      -0.40000000       0.10000000 </v>
   <v>      -0.35000000      -0.40000000       0.10000000 </v>
   <v>       0.15000000       0.15000000       0.15000000 </v>
   <v>       0.20000000       0.15000000       0.15000000 </v>
   <v>       0.25000000       0.15000000       0.15000000 </v>
   <v>       0.30000000       0.15000000       0.15000000 </v>
   <v>       0.35000000       0.15000000       0.15000000 </v>
   <v>      -0.15000000       0.15000000       0.15000000 </v>
   <v>       0.20000000       0.20000000       0.15000000 </v>
   <v>       0.25000000       0.20000000       0.15000000 </v>
   <v>       0.30000000       0.20000000       0.15000000 </v>
   <v>      -0.20000000       0.20000000       0.15000000 </v>
   <v>       0.25000000       0.25000000       0.15000000 </v>
   <v>       0.30000000       0.25000000       0.15000000 </v>
   <v>      -0.25000000       0.25000000       0.15000000 </v>
   <v>      -0.20000000       0.25000000       0.15000000 </v>
   <v>      -0.30000000       0.30000000       0.15000000 </v>
   <v>      -0.25000000       0.30000000       0.15000000 </v>
   <v>      -0.35000000       0.35000000       0.15000000 </v>
   <v>      -0.30000000       0.35000000       0.15000000 </v>
   <v>      -0.25000000       0.35000000       0.15000000 </v>
   <v>      -0.40000000       0.40000000       0.15000000 </v>
   <v>      -0.35000000       0.40000000       0.15000000 </v>
   <v>      -0.30000000       0.40000000       0.15000000 </v>
   <v>      -0.45000000       0.45000000       0.15000000 </v>
   <v>      -0.40000000       0.45000000       0.15000000 </v>
   <v>      -0.35000000       0.45000000       0.15000000 </v>
   <v>      -0.30000000       0.45000000       0.15000000 </v>
   <v>       0.50000000       0.50000000       0.15000000 </v>
   <v>      -0.45000000       0.50000000       0.15000000 </v>
   <v>      -0.40000000       0.50000000       0.15000000 </v>
   <v>      -0.35000000       0.50000000       0.15000000 </v>
   <v>      -0.45000000      -0.45000000       0.15000000 </v>
   <v>      -0.40000000      -0.45000000       0.15000000 </v>
   <v>      -0.35000000      -0.45000000       0.15000000 </v>
   <v>      -0.40000000      -0.40000000       0.15000000 </v>
   <v>       0.20000000       0.20000000       0.20000000 </v>
   <v>       0.25000000       0.20000000       0.20000000 </v>
   <v>       0.30000000       0.20000000       0.20000000 </v>
   <v>      -0.20000000       0.20000000       0.20000000 </v>
   <v>       0.25000000       0.25000000       0.20000000 </v>
   <v>      -0.25000000       0.25000000       0.20000000 </v>
   <v>      -0.30000000       0.30000000       0.20000000 </v>
   <v>      -0.25000000       0.30000000       0.20000000 </v>
   <v>      -0.35000000       0.35000000       0.20000000 </v>
   <v>      -0.30000000       0.35000000       0.20000000 </v>
   <v>      -0.40000000       0.40000000       0.20000000 </v>
   <v>      -0.35000000       0.40000000       0.20000000 </v>
   <v>      -0.30000000       0.40000000       0.20000000 </v>
   <v>      -0.45000000       0.45000000       0.20000000 </v>
   <v>      -0.40000000       0.45000000       0.20000000 </v>
   <v>      -0.35000000       0.45000000       0.20000000 </v>
   <v>       0.50000000       0.50000000       0.20000000 </v>
   <v>      -0.45000000       0.50000000       0.20000000 </v>
   <v>      -0.40000000       0.50000000       0.20000000 </v>
   <v>      -0.35000000       0.50000000       0.20000000 </v>
   <v>      -0.45000000      -0.45000000       0.20000000 </v>
   <v>      -0.40000000      -0.45000000       0.20000000 </v>
   <v>      -0.40000000      -0.40000000       0.20000000 </v>
   <v>       0.25000000       0.25000000       0.25000000 </v>
   <v>      -0.25000000       0.25000000       0.25000000 </v>
   <v>      -0.30000000       0.30000000       0.25000000 </v>
   <v>      -0.35000000       0.35000000       0.25000000 </v>
   <v>      -0.30000000       0.35000000       0.25000000 </v>
   <v>      -0.40000000       0.40000000       0.25000000 </v>
   <v>      -0.35000000       0.40000000       0.25000000 </v>
   <v>      -0.45000000       0.45000000       0.25000000 </v>
   <v>      -0.40000000       0.45000000       0.25000000 </v>
   <v>      -0.35000000       0.45000000       0.25000000 </v>
   <v>       0.50000000       0.50000000       0.25000000 </v>
   <v>      -0.45000000       0.50000000       0.25000000 </v>
   <v>      -0.40000000       0.50000000       0.25000000 </v>
   <v>      -0.45000000      -0.45000000       0.25000000 </v>
   <v>      -0.40000000      -0.45000000       0.25000000 </v>
   <v>      -0.30000000       0.30000000       0.30000000 </v>
   <v>      -0.35000000       0.35000000       0.30000000 </v>
   <v>      -0.40000000       0.40000000       0.30000000 </v>
   <v>      -0.35000000       0.40000000       0.30000000 </v>
   <v>      -0.45000000       0.45000000       0.30000000 </v>
   <v>      -0.40000000       0.45000000       0.30000000 </v>
   <v>       0.50000000       0.50000000       0.30000000 </v>
   <v>      -0.45000000       0.50000000       0.30000000 </v>
   <v>      -0.40000000       0.50000000       0.30000000 </v>
   <v>      -0.45000000      -0.45000000       0.30000000 </v>
   <v>      -0.35000000       0.35000000       0.35000000 </v>
   <v>      -0.40000000       0.40000000       0.35000000 </v>
   <v>      -0.45000000       0.45000000       0.35000000 </v>
   <v>      -0.40000000       0.45000000       0.35000000 </v>
   <v>       0.50000000       0.50000000       0.35000000 </v>
   <v>      -0.45000000       0.50000000       0.35000000 </v>
   <v>      -0.45000000      -0.45000000       0.35000000 </v>
   <v>      -0.40000000       0.40000000       0.40000000 </v>
   <v>      -0.45000000       0.45000000       0.40000000 </v>
   <v>       0.50000000       0.50000000       0.40000000 </v>
   <v>      -0.45000000       0.50000000       0.40000000 </v>
   <v>      -0.45000000       0.45000000       0.45000000 </v>
   <v>       0.50000000       0.50000000       0.45000000 </v>
   <v>       0.50000000       0.50000000       0.50000000 </v>
  </varray>
  <varray name="weights" >
   <v>       0.00012500 </v>
   <v>       0.00150000 </v>
   <v>       0.00150000 </v>
   <v>       0.00150000 </v>
   <v>       0.00150000 </v>
   <v>       0.00150000 </v>
   <v>       0.00150000 </v>
   <v>       0.00150000 </v>
   <v>       0.00150000 </v>
   <v>       0.00150000 </v>
   <v>       0.00075000 </v>
   <v>       0.00300000 </v>
   <v>       0.00600000 </v>
   <v>       0.00600000 </v>
   <v>       0.00600000 </v>
   <v>       0.00600000 </v>
   <v>       0.00600000 </v>
   <v>       0.00600000 </v>
   <v>       0.00600000 </v>
   <v>       0.00600000 </v>
   <v>       0.00300000 </v>
   <v>       0.00600000 </v>
   <v>       0.00600000 </v>
   <v>       0.00600000 </v>
   <v>       0.00600000 </v>
   <v>       0.00600000 </v>
   <v>       0.00600000 </v>
   <v>       0.00300000 </v>
   <v>       0.00300000 </v>
   <v>       0.00600000 </v>
   <v>       0.00600000 </v>
   <v>       0.00600000 </v>
   <v>       0.00600000 </v>
   <v>       0.00600000 </v>
   <v>       0.00300000 </v>
   <v>       0.00600000 </v>
   <v>       0.00600000 </v>
   <v>       0.00600000 </v>
   <v>       0.00300000 </v>
   <v>       0.00300000 </v>
   <v>       0.00600000 </v>
   <v>       0.00600000 </v>
   <v>       0.00300000 </v>
   <v>       0.00300000 </v>
   <v>       0.00100000 </v>
   <v>       0.00300000 </v>
   <v>       0.00300000 </v>
   <v>       0.00300000 </v>
   <v>       0.00300000 </v>
   <v>       0.00300000 </v>
   <v>       0.00300000 </v>
   <v>       0.00300000 </v>
   <v>       0.00150000 </v>
   <v>       0.00075000 </v>
   <v>       0.00300000 </v>
   <v>       0.00600000 </v>
   <v>       0.00600000 </v>
   <v>       0.00600000 </v>
   <v>       0.00600000 </v>
   <v>       0.00600000 </v>
   <v>       0.00600000 </v>
   <v>       0.00300000 </v>
   <v>       0.00300000 </v>
   <v>       0.00600000 </v>
   <v>       0.00600000 </v>
   <v>       0.00600000 </v>
   <v>       0.00600000 </v>
   <v>       0.00300000 </v>
   <v>       0.00300000 </v>
   <v>       0.00300000 </v>
   <v>       0.00300000 </v>
   <v>       0.00600000 </v>
   <v>       0.00600000 </v>
   <v>       0.00600000 </v>
   <v>       0.00300000 </v>
   <v>       0.00600000 </v>
   <v>       0.00300000 </v>
   <v>       0.00600000 </v>
   <v>       0.00300000 </v>
   <v>       0.00300000 </v>
   <v>       0.00600000 </v>
   <v>       0.00300000 </v>
   <v>       0.00300000 </v>
   <v>       0.00300000 </v>
   <v>       0.00600000 </v>
   <v>       0.00600000 </v>
   <v>       0.00300000 </v>
   <v>       0.00600000 </v>
   <v>       0.00600000 </v>
   <v>       0.00300000 </v>
   <v>       0.00300000 </v>
   <v>       0.00600000 </v>
   <v>       0.00600000 </v>
   <v>       0.00600000 </v>
   <v>       0.00300000 </v>
   <v>       0.00600000 </v>
   <v>       0.00600000 </v>
   <v>       0.00600000 </v>
   <v>       0.00300000 </v>
   <v>       0.00150000 </v>
   <v>       0.00600000 </v>
   <v>       0.00600000 </v>
   <v>       0.00600000 </v>
   <v>       0.00600000 </v>
   <v>       0.00300000 </v>
   <v>       0.00600000 </v>
   <v>       0.00600000 </v>
   <v>       0.00300000 </v>
   <v>       0.00300000 </v>
   <v>       0.00600000 </v>
   <v>       0.00100000 </v>
   <v>       0.00100000 </v>
   <v>       0.00300000 </v>
   <v>       0.00300000 </v>
   <v>       0.00300000 </v>
   <v>       0.00300000 </v>
   <v>       0.00300000 </v>
   <v>       0.00150000 </v>
   <v>       0.00075000 </v>
   <v>       0.00300000 </v>
   <v>       0.00600000 </v>
   <v>       0.00600000 </v>
   <v>       0.00600000 </v>
   <v>       0.00600000 </v>
   <v>       0.00300000 </v>
   <v>       0.00300000 </v>
   <v>       0.00600000 </v>
   <v>       0.00600000 </v>
   <v>       0.00300000 </v>
   <v>       0.00300000 </v>
   <v>       0.00300000 </v>
   <v>       0.00300000 </v>
   <v>       0.00600000 </v>
   <v>       0.00300000 </v>
   <v>       0.00600000 </v>
   <v>       0.00100000 </v>
   <v>       0.00300000 </v>
   <v>       0.00600000 </v>
   <v>       0.00300000 </v>
   <v>       0.00300000 </v>
   <v>       0.00600000 </v>
   <v>       0.00600000 </v>
   <v>       0.00300000 </v>
   <v>       0.00600000 </v>
   <v>       0.00600000 </v>
   <v>       0.00300000 </v>
   <v>       0.00300000 </v>
   <v>       0.00600000 </v>
   <v>       0.00600000 </v>
   <v>       0.00600000 </v>
   <v>       0.00150000 </v>
   <v>       0.00600000 </v>
   <v>       0.00600000 </v>
   <v>       0.00600000 </v>
   <v>       0.00300000 </v>
   <v>       0.00300000 </v>
   <v>       0.00600000 </v>
   <v>       0.00600000 </v>
   <v>       0.00300000 </v>
   <v>       0.00300000 </v>
   <v>       0.00100000 </v>
   <v>       0.00300000 </v>
   <v>       0.00300000 </v>
   <v>       0.00300000 </v>
   <v>       0.00150000 </v>
   <v>       0.00075000 </v>
   <v>       0.00300000 </v>
   <v>       0.00600000 </v>
   <v>       0.00600000 </v>
   <v>       0.00300000 </v>
   <v>       0.00300000 </v>
   <v>       0.00300000 </v>
   <v>       0.00300000 </v>
   <v>       0.00300000 </v>
   <v>       0.00300000 </v>
   <v>       0.00600000 </v>
   <v>       0.00300000 </v>
   <v>       0.00600000 </v>
   <v>       0.00300000 </v>
   <v>       0.00300000 </v>
   <v>       0.00600000 </v>
   <v>       0.00600000 </v>
   <v>       0.00300000 </v>
   <v>       0.00600000 </v>
   <v>       0.00600000 </v>
   <v>       0.00300000 </v>
   <v>       0.00150000 </v>
   <v>       0.00600000 </v>
   <v>       0.00600000 </v>
   <v>       0.00600000 </v>
   <v>       0.00300000 </v>
   <v>       0.00600000 </v>
   <v>       0.00300000 </v>
   <v>       0.00300000 </v>
   <v>       0.00100000 </v>
   <v>       0.00300000 </v>
   <v>       0.00150000 </v>
   <v>       0.00075000 </v>
   <v>       0.00300000 </v>
   <v>       0.00300000 </v>
   <v>       0.00300000 </v>
   <v>       0.00300000 </v>
   <v>       0.00300000 </v>
   <v>       0.00600000 </v>
   <v>       0.00300000 </v>
   <v>       0.00600000 </v>
   <v>       0.00300000 </v>
   <v>       0.00300000 </v>
   <v>       0.00600000 </v>
   <v>       0.00600000 </v>
   <v>       0.00150000 </v>
   <v>       0.00600000 </v>
   <v>       0.00600000 </v>
   <v>       0.00300000 </v>
   <v>       0.00300000 </v>
   <v>       0.00600000 </v>
   <v>       0.00100000 </v>
   <v>       0.00025000 </v>
   <v>       0.00075000 </v>
   <v>       0.00300000 </v>
   <v>       0.00300000 </v>
   <v>       0.00300000 </v>
   <v>       0.00300000 </v>
   <v>       0.00600000 </v>
   <v>       0.00300000 </v>
   <v>       0.00600000 </v>
   <v>       0.00300000 </v>
   <v>       0.00150000 </v>
   <v>       0.00600000 </v>
   <v>       0.00600000 </v>
   <v>       0.00300000 </v>
   <v>       0.00300000 </v>
   <v>       0.00075000 </v>
   <v>       0.00300000 </v>
   <v>       0.00300000 </v>
   <v>       0.00300000 </v>
   <v>       0.00300000 </v>
   <v>       0.00600000 </v>
   <v>       0.00150000 </v>
   <v>       0.00600000 </v>
   <v>       0.00300000 </v>
   <v>       0.00300000 </v>
   <v>       0.00075000 </v>
   <v>       0.00300000 </v>
   <v>       0.00300000 </v>
   <v>       0.00300000 </v>
   <v>       0.00150000 </v>
   <v>       0.00600000 </v>
   <v>       0.00100000 </v>
   <v>       0.00075000 </v>
   <v>       0.00300000 </v>
   <v>       0.00150000 </v>
   <v>       0.00300000 </v>
   <v>       0.00075000 </v>
   <v>       0.00150000 </v>
   <v>       0.00012500 </v>
  </varray>
 </kpoints>
 <parameters>
  <separator name="general" >
   <i type="string" name="SYSTEM">Mo_EOS_scale_0.960</i>
   <i type="logical" name="LCOMPAT"> F  </i>
  </separator>
  <separator name="electronic" >
   <i type="string" name="PREC">accura</i>
   <i name="ENMAX">    450.00000000</i>
   <i name="ENAUG">    345.27800000</i>
   <i name="EDIFF">      0.00000100</i>
   <i type="int" name="IALGO">    38</i>
   <i type="int" name="IWAVPR">    10</i>
   <i type="int" name="NBANDS">     7</i>
   <i type="int" name="NBANDSLOW">    -1</i>
   <i type="int" name="NBANDSHIGH">    -1</i>
   <i name="NELECT">      6.00000000</i>
   <i type="int" name="TURBO">     0</i>
   <i type="int" name="IRESTART">     0</i>
   <i type="int" name="NREBOOT">     0</i>
   <i type="int" name="NMIN">     0</i>
   <i name="EREF">      0.00000000</i>
   <separator name="electronic smearing" >
    <i type="int" name="ISMEAR">     1</i>
    <i name="SIGMA">      0.20000000</i>
    <i name="KSPACING">      0.15000000</i>
    <i type="logical" name="KGAMMA"> T  </i>
    <i type="logical" name="KBLOWUP"> T  </i>
   </separator>
   <separator name="electronic projectors" >
    <i type="logical" name="LREAL"> F  </i>
    <v name="ROPT">      0.00000000</v>
    <i type="int" name="LMAXPAW">  -100</i>
    <i type="int" name="LMAXMIX">     2</i>
    <i type="logical" name="NLSPLINE"> F  </i>
   </separator>
   <separator name="electronic startup" >
    <i type="int" name="ISTART">     0</i>
    <i type="int" name="ICHARG">     2</i>
    <i type="int" name="INIWAV">     1</i>
   </separator>
   <separator name="electronic spin" >
    <i type="int" name="ISPIN">     1</i>
    <i type="logical" name="LNONCOLLINEAR"> F  </i>
    <v name="MAGMOM">      1.00000000</v>
    <i name="NUPDOWN">     -1.00000000</i>
    <i type="logical" name="LSORBIT"> F  </i>
    <v name="SAXIS">      0.00000000      0.00000000      1.00000000</v>
    <i type="logical" name="LSPIRAL"> F  </i>
    <v name="QSPIRAL">      0.00000000      0.00000000      0.00000000</v>
    <i type="logical" name="LZEROZ"> F  </i>
   </separator>
   <separator name="electronic exchange-correlation" >
    <i type="logical" name="LASPH"> F  </i>
    <i type="logical" name="LMETAGGA"> F  </i>
   </separator>
   <separator name="electronic convergence" >
    <i type="int" name="NELM">    60</i>
    <i type="int" name="NELMDL">    -5</i>
    <i type="int" name="NELMIN">     2</i>
    <i name="ENINI">    450.00000000</i>
    <separator name="electronic convergence detail" >
     <i type="logical" name="LDIAG"> T  </i>
     <i type="logical" name="LSUBROT"> F  </i>
     <i name="WEIMIN">      0.00000000</i>
     <i name="EBREAK">      0.00000004</i>
     <i name="DEPER">      0.30000000</i>
     <i type="int" name="NRMM">     4</i>
     <i name="TIME">      0.40000000</i>
    </separator>
   </separator>
   <separator name="electronic mixer" >
    <i name="AMIX">      0.40000000</i>
    <i name="BMIX">      1.00000000</i>
    <i name="AMIN">      0.10000000</i>
    <i name="AMIX_MAG">      1.60000000</i>
    <i name="BMIX_MAG">      1.00000000</i>
    <separator name="electronic mixer details" >
     <i type="int" name="IMIX">     4</i>
     <i type="logical" name="MIXFIRST"> F  </i>
     <i type="int" name="MAXMIX">   -45</i>
     <i name="WC">    100.00000000</i>
     <i type="int" name="INIMIX">     1</i>
     <i type="int" name="MIXPRE">     1</i>
     <i type="int" name="MREMOVE">     5</i>
    </separator>
   </separator>
   <separator name="electronic dipolcorrection" >
    <i type="logical" name="LDIPOL"> F  </i>
    <i type="logical" name="LMONO"> F  </i>
    <i type="int" name="IDIPOL">     0</i>
    <i name="EPSILON">      1.00000000</i>
    <v name="DIPOL">   -100.00000000   -100.00000000   -100.00000000</v>
    <i name="EFIELD">      0.00000000</i>
   </separator>
  </separator>
  <separator name="grids" >
   <i type="int" name="NGX">    18</i>
   <i type="int" name="NGY">    18</i>
   <i type="int" name="NGZ">    18</i>
   <i type="int" name="NGXF">    36</i>
   <i type="int" name="NGYF">    36</i>
   <i type="int" name="NGZF">    36</i>
   <i type="logical" name="ADDGRID"> F  </i>
  </separator>
  <separator name="ionic" >
   <i type="int" name="NSW">     0</i>
   <i type="int" name="IBRION">    -1</i>
   <i type="int" name="MDALGO">     0</i>
   <i type="int" name="ISIF">     2</i>
   <i name="PSTRESS">      0.00000000</i>
   <i name="EDIFFG">      0.00001000</i>
   <i type="int" name="NFREE">     0</i>
   <i name="POTIM">      0.50000000</i>
   <i name="SMASS">     -3.00000000</i>
   <i name="SCALEE">      1.00000000</i>
  </separator>
  <separator name="ionic md" >
   <i name="TEBEG">      0.00010000</i>
   <i name="TEEND">      0.00010000</i>
   <i type="int" name="NBLOCK">     1</i>
   <i type="int" name="KBLOCK">     1</i>
   <i type="int" name="NPACO">   256</i>
   <i name="APACO">     10.00000000</i>
  </separator>
  <separator name="symmetry" >
   <i type="int" name="ISYM">     2</i>
   <i name="SYMPREC">      0.00001000</i>
  </separator>
  <separator name="dos" >
   <i type="int" name="LORBIT">     0</i>
   <v name="RWIGS">     -1.00000000</v>
   <i type="int" name="NEDOS">   301</i>
   <i name="EMIN">     10.00000000</i>
   <i name="EMAX">    -10.00000000</i>
   <i name="EFERMI">      0.00000000</i>
  </separator>
  <separator name="writing" >
   <i type="int" name="NWRITE">     2</i>
   <i type="logical" name="LWAVE"> F  </i>
   <i type="logical" name="LDOWNSAMPLE"> F  </i>
   <i type="logical" name="LCHARG"> F  </i>
   <i type="logical" name="LPARD"> F  </i>
   <i type="logical" name="LVTOT"> F  </i>
   <i type="logical" name="LVHAR"> F  </i>
   <i type="logical" name="LELF"> F  </i>
   <i type="logical" name="LOPTICS"> F  </i>
   <v name="STM">      0.00000000      0.00000000      0.00000000      0.00000000      0.00000000      0.00000000      0.00000000</v>
  </separator>
  <separator name="performance" >
   <i type="int" name="NPAR">     1</i>
   <i type="int" name="NSIM">     4</i>
   <i type="int" name="NBLK">    -1</i>
   <i type="logical" name="LPLANE"> T  </i>
   <i type="logical" name="LSCALAPACK"> T  </i>
   <i type="logical" name="LSCAAWARE"> F  </i>
   <i type="logical" name="LSCALU"> F  </i>
   <i type="logical" name="LASYNC"> F  </i>
   <i type="logical" name="LORBITALREAL"> F  </i>
  </separator>
  <separator name="miscellaneous" >
   <i type="int" name="IDIOT">     3</i>
   <i type="int" name="PHON_NSTRUCT">    -1</i>
   <i type="logical" name="LMUSIC"> F  </i>
   <v name="POMASS">     95.94000000</v>
   <v name="DARWINR">      0.00000000</v>
   <v name="DARWINV">      1.00000000</v>
   <i type="logical" name="LCORR"> T  </i>
  </separator>
  <i type="logical" name="GGA_COMPAT"> T  </i>
  <i type="logical" name="LBERRY"> F  </i>
  <i type="int" name="ICORELEVEL">     0</i>
  <i type="logical" name="LDAU"> F  </i>
  <i type="int" name="I_CONSTRAINED_M">     0</i>
  <separator name="electronic exchange-correlation" >
   <i type="string" name="GGA">--</i>
   <i type="int" name="VOSKOWN">     0</i>
   <i type="logical" name="LHFCALC"> F  </i>
   <i type="string" name="PRECFOCK"></i>
   <i type="logical" name="LSYMGRAD"> F  </i>
   <i type="logical" name="LHFONE"> F  </i>
   <i type="logical" name="LRHFCALC"> F  </i>
   <i type="logical" name="LTHOMAS"> F  </i>
   <i type="logical" name="LMODELHF"> F  </i>
   <i type="logical" name="LFOCKACE"> F  </i>
   <i name="ENCUT4O">     -1.00000000</i>
   <i type="int" name="EXXOEP">     0</i>
   <i type="int" name="FOURORBIT">     0</i>
   <i name="AEXX">      0.00000000</i>
   <i name="HFALPHA">      0.00000000</i>
   <i name="MCALPHA">      0.00000000</i>
   <i name="ALDAX">      1.00000000</i>
   <i name="AGGAX">      1.00000000</i>
   <i name="ALDAC">      1.00000000</i>
   <i name="AGGAC">      1.00000000</i>
   <i type="int" name="NKREDX">     1</i>
   <i type="int" name="NKREDY">     1</i>
   <i type="int" name="NKREDZ">     1</i>
   <i type="logical" name="SHIFTRED"> F  </i>
   <i type="logical" name="ODDONLY"> F  </i>
   <i type="logical" name="EVENONLY"> F  </i>
   <i type="int" name="LMAXFOCK">     0</i>
   <i type="int" name="NMAXFOCKAE">     0</i>
   <i type="logical" name="LFOCKAEDFT"> F  </i>
   <i name="HFSCREEN">      0.00000000</i>
   <i name="HFSCREENC">      0.00000000</i>
   <i type="int" name="NBANDSGWLOW">     0</i>
  </separator>
  <separator name="vdW DFT" >
   <i type="logical" name="LUSE_VDW"> F  </i>
   <i type="int" name="IVDW_NL">     1</i>
   <i type="logical" name="LSPIN_VDW"> F  </i>
   <i name="Zab_VDW">     -0.84910000</i>
   <i name="PARAM1">      0.12340000</i>
   <i name="PARAM2">      1.00000000</i>
   <i name="PARAM3">      0.00000000</i>
  </separator>
  <separator name="model GW" >
   <i type="int" name="MODEL_GW">     0</i>
   <i name="MODEL_EPS0">      8.43593718</i>
   <i name="MODEL_ALPHA">      1.00000000</i>
  </separator>
  <separator name="linear response parameters" >
   <i type="logical" name="LEPSILON"> F  </i>
   <i type="logical" name="LRPA"> F  </i>
   <i type="logical" name="LNABLA"> F  </i>
   <i type="logical" name="LVEL"> F  </i>
   <i name="CSHIFT">      0.10000000</i>
   <i name="OMEGAMAX">     -1.00000000</i>
   <i name="DEG_THRESHOLD">      0.00200000</i>
   <i name="RTIME">     -0.10000000</i>
   <i name="WPLASMAI">      0.00000000</i>
   <v name="DFIELD">      0.00000000      0.00000000      0.00000000</v>
   <v name="WPLASMA">      0.00000000      0.00000000      0.00000000      0.00000000      0.00000000      0.00000000      0.00000000      0.00000000      0.00000000</v>
  </separator>
  <separator name="orbital magnetization" >
   <i type="logical" name="NUCIND"> F  </i>
   <v name="MAGPOS">      0.00000000      0.00000000      0.00000000</v>
   <i type="logical" name="LNICSALL"> T  </i>
   <i type="logical" name="ORBITALMAG"> F  </i>
   <i type="logical" name="LMAGBLOCH"> F  </i>
   <i type="logical" name="LCHIMAG"> F  </i>
   <i type="logical" name="LGAUGE"> T  </i>
   <i type="int" name="MAGATOM">     0</i>
   <v name="MAGDIPOL">      0.00000000      0.00000000      0.00000000</v>
   <v name="AVECCONST">      0.00000000      0.00000000      0.00000000</v>
  </separator>
  <separator name="response functions" >
   <i type="logical" name="LALL_IN_ONE"> F  </i>
   <i type="int" name="IALL_IN_ONE">    -1</i>
   <i type="int" name="NBANDS_WAVE">    -1</i>
   <i type="logical" name="LFINITE_TEMPERATURE"> F  </i>
   <i type="logical" name="LADDER"> F  </i>
   <i type="logical" name="LRPAFORCE"> F  </i>
   <i type="logical" name="LFXC"> F  </i>
   <i type="logical" name="LHARTREE"> T  </i>
   <i type="int" name="IBSE">     0</i>
   <v type="int" name="KPOINT">    -1     0     0     0</v>
   <i type="logical" name="LTCTC"> F  </i>
   <i type="logical" name="LTCTE"> F  </i>
   <i type="logical" name="LTETE"> F  </i>
   <i type="logical" name="LTRIPLET"> F  </i>
   <i type="logical" name="LFXCEPS"> F  </i>
   <i type="logical" name="LFXHEG"> F  </i>
   <i type="int" name="NATURALO">     2</i>
   <i type="logical" name="LHOLEGF"> F  </i>
   <i type="logical" name="L2ORDER"> F  </i>
   <i type="logical" name="LDMP1"> F  </i>
   <i type="logical" name="LMP2LT"> F  </i>
   <i type="logical" name="LSMP2LT"> F  </i>
   <i type="logical" name="LGWLF"> F  </i>
   <i name="ENCUTGW">     -1.60000002</i>
   <i name="ENCUTGWSOFT">     -1.60000002</i>
   <i name="ENCUTLF">     -1.00000000</i>
   <i type="logical" name="LESF_SPLINES"> F  </i>
   <i type="int" name="LMAXMP2">    -1</i>
   <i name="SCISSOR">      0.00000000</i>
   <i type="int" name="NOMEGA">     0</i>
   <i type="int" name="NOMEGAR">     0</i>
   <i type="int" name="NBANDSGW">    -1</i>
   <i type="int" name="NBANDSO">    -1</i>
   <i type="int" name="NBANDSV">    -1</i>
   <i type="int" name="NELMGW">     1</i>
   <i type="int" name="NELMHF">     1</i>
   <i type="int" name="DIM">     3</i>
   <i type="int" name="IESPILON">     4</i>
   <i type="int" name="ANTIRES">     0</i>
   <i name="OMEGAMAX">    -30.00000000</i>
   <i name="OMEGAMIN">    -30.00000000</i>
   <i name="OMEGATL">   -200.00000000</i>
   <i type="int" name="OMEGAGRID">     0</i>
   <i name="CSHIFT">     -0.10000000</i>
   <i type="logical" name="LSELFENERGY"> F  </i>
   <i type="logical" name="LSPECTRAL"> F  </i>
   <i type="logical" name="LSPECTRALGW"> F  </i>
   <i type="logical" name="LSINGLES"> F  </i>
   <i type="logical" name="LFERMIGW"> F  </i>
   <i type="logical" name="ODDONLYGW"> F  </i>
   <i type="logical" name="EVENONLYGW"> F  </i>
   <i type="int" name="NKREDLFX">     1</i>
   <i type="int" name="NKREDLFY">     1</i>
   <i type="int" name="NKREDLFZ">     1</i>
   <i type="int" name="MAXMEM">  2800</i>
   <i type="int" name="TELESCOPE">     0</i>
   <i type="int" name="NTAUPAR">    -1</i>
   <i type="int" name="NOMEGAPAR">    -1</i>
   <i name="DAMP_NEWTON">      0.80000001</i>
   <i name="LAMBDA">      1.00000000</i>
  </separator>
  <separator name="External order field" >
   <i name="OFIELD_KAPPA">      0.00000000</i>
   <v name="OFIELD_K">      0.00000000      0.00000000      0.00000000</v>
   <i name="OFIELD_Q6_NEAR">      0.00000000</i>
   <i name="OFIELD_Q6_FAR">      0.00000000</i>
   <i name="OFIELD_A">      0.00000000</i>
  </separator>
  <separator name="optional k-points parameters" >
   <i type="int" name="KPOINTS_OPT_MODE">     1</i>
   <i type="logical" name="LKPOINTS_OPT"> F  </i>
  </separator>
 </parameters>
 <atominfo>
  <atoms>       1 </atoms>
  <types>       1 </types>
  <array name="atoms" >
   <dimension dim="1">ion</dimension>
   <field type="string">element</field>
   <field type="int">atomtype</field>
   <set>
    <rc><c>Mo</c><c>   1</c></rc>
   </set>
  </array>
  <array name="atomtypes" >
   <dimension dim="1">type</dimension>
   <field type="int">atomspertype</field>
   <field type="string">element</field>
   <field>mass</field>
   <field>valence</field>
   <field type="string">pseudopotential</field>
   <set>
    <rc><c>   1</c><c>Mo</c><c>     95.94000000</c><c>      6.00000000</c><c>  PAW_PBE Mo 08Apr2002                  </c></rc>
   </set>
  </array>
 </atominfo>
 <structure name="initialpos" >
  <crystal>
   <varray name="basis" >
    <v>       2.48289504       0.00000000      -0.87783648 </v>
    <v>      -1.24144800       2.15025024      -0.87783648 </v>
    <v>       0.00000000       0.00000000       2.63350848 </v>
   </varray>
   <i name="volume">     14.05989531 </i>
   <varray name="rec_basis" >
    <v>       0.40275565       0.23253116      -0.00000000 </v>
    <v>      -0.00000000       0.46506215       0.00000000 </v>
    <v>       0.13425193       0.23253119       0.37972158 </v>
   </varray>
  </crystal>
  <varray name="positions" >
   <v>       0.00000000       0.00000000       0.00000000 </v>
  </varray>
 </structure>
 <calculation>
  <scstep>
   <time name="dav">    3.18   11.22</time>
   <time name="total">    3.22   11.33</time>
   <energy>
    <i name="alphaZ">     48.82101075 </i>
    <i name="ewald">   -310.19476650 </i>
    <i name="hartreedc">     -8.94323354 </i>
    <i name="XCdc">    -60.70907154 </i>
    <i name="pawpsdc">    265.58305808 </i>
    <i name="pawaedc">   -194.41688646 </i>
    <i name="eentropy">     -0.00011722 </i>
    <i name="bandstr">     49.99263619 </i>
    <i name="atom">    217.51533392 </i>
    <i name="e_fr_energy">      7.64796366 </i>
    <i name="e_wo_entrp">      7.64808088 </i>
    <i name="e_0_energy">      7.64800274 </i>
   </energy>
  </scstep>
  <scstep>
   <time name="dav">    3.35   11.74</time>
   <time name="total">    3.36   11.77</time>
   <energy>
    <i name="e_fr_energy">    -11.22522263 </i>
    <i name="e_wo_entrp">    -11.22465638 </i>
    <i name="e_0_energy">    -11.22503388 </i>
   </energy>
  </scstep>
  <scstep>
   <time name="dav">    3.77   13.23</time>
   <time name="total">    3.78   13.24</time>
   <energy>
    <i name="e_fr_energy">    -11.41498150 </i>
    <i name="e_wo_entrp">    -11.41446209 </i>
    <i name="e_0_energy">    -11.41480837 </i>
   </energy>
  </scstep>
  <scstep>
   <time name="dav">    4.24   14.80</time>
   <time name="total">    4.24   14.81</time>
   <energy>
    <i name="e_fr_energy">    -11.41510168 </i>
    <i name="e_wo_entrp">    -11.41458102 </i>
    <i name="e_0_energy">    -11.41492812 </i>
   </energy>
  </scstep>
  <scstep>
   <time name="dav">    3.90   13.85</time>
   <time name="total">    4.27   15.07</time>
   <energy>
    <i name="e_fr_energy">    -11.41510170 </i>
    <i name="e_wo_entrp">    -11.41458105 </i>
    <i name="e_0_energy">    -11.41492815 </i>
   </energy>
  </scstep>
  <scstep>
   <time name="dav">    3.60   12.75</time>
   <time name="total">    3.98   14.01</time>
   <energy>
    <i name="e_fr_energy">    -10.95532562 </i>
    <i name="e_wo_entrp">    -10.95472813 </i>
    <i name="e_0_energy">    -10.95512645 </i>
   </energy>
  </scstep>
  <scstep>
   <time name="dav">    3.74   13.22</time>
   <time name="total">    4.11   14.44</time>
   <energy>
    <i name="e_fr_energy">    -10.79332379 </i>
    <i name="e_wo_entrp">    -10.79282494 </i>
    <i name="e_0_energy">    -10.79315750 </i>
   </energy>
  </scstep>
  <scstep>
   <time name="dav">    3.36   11.86</time>
   <time name="total">    3.73   13.06</time>
   <energy>
    <i name="e_fr_energy">    -10.78963822 </i>
    <i name="e_wo_entrp">    -10.78914417 </i>
    <i name="e_0_energy">    -10.78947353 </i>
   </energy>
  </scstep>
  <scstep>
   <time name="dav">    3.92   13.73</time>
   <time name="total">    4.29   14.97</time>
   <energy>
    <i name="e_fr_energy">    -10.78931703 </i>
    <i name="e_wo_entrp">    -10.78884753 </i>
    <i name="e_0_energy">    -10.78916053 </i>
   </energy>
  </scstep>
  <scstep>
   <time name="dav">    3.90   13.90</time>
   <time name="total">    3.93   13.96</time>
   <energy>
    <i name="alphaZ">     48.82101075 </i>
    <i name="ewald">   -310.19476650 </i>
    <i name="hartreedc">     -4.47586633 </i>
    <i name="XCdc">    -60.19018079 </i>
    <i name="pawpsdc">    494.50091682 </i>
    <i name="pawaedc">   -425.30499317 </i>
    <i name="eentropy">     -0.00047358 </i>
    <i name="bandstr">     28.53970283 </i>
    <i name="atom">    217.51533392 </i>
    <i name="e_fr_energy">    -10.78931606 </i>
    <i name="e_wo_entrp">    -10.78884248 </i>
    <i name="e_0_energy">    -10.78915820 </i>
   </energy>
  </scstep>
  <structure>
   <crystal>
    <varray name="basis" >
     <v>       2.48289504       0.00000000      -0.87783648 </v>
     <v>      -1.24144800       2.15025024      -0.87783648 </v>
     <v>       0.00000000       0.00000000       2.63350848 </v>
    </varray>
    <i name="volume">     14.05989531 </i>
    <varray name="rec_basis" >
     <v>       0.40275565       0.23253116      -0.00000000 </v>
     <v>      -0.00000000       0.46506215       0.00000000 </v>
     <v>       0.13425193       0.23253119       0.37972158 </v>
    </varray>
   </crystal>
   <varray name="positions" >
    <v>       0.00000000       0.00000000       0.00000000 </v>
   </varray>
  </structure>
  <varray name="forces" >
   <v>       0.00000000       0.00000000       0.00000000 </v>
  </varray>
  <varray name="stress" >
   <v>     358.74357162      -0.00008008      -0.00004624 </v>
   <v>      -0.00008008     358.74359178      -0.00008008 </v>
   <v>      -0.00004624      -0.00008008     358.74373519 </v>
  </varray>
  <energy>
   <i name="e_fr_energy">    -10.78931606 </i>
   <i name="e_wo_entrp">    -10.78884248 </i>
   <i name="e_0_energy">    -10.78915820 </i>
  </energy>
  <time name="totalsc">   47.37  161.00</time>
  <eigenvalues>
   <array>
    <dimension dim="1">band</dimension>
    <dimension dim="2">kpoint</dimension>
    <dimension dim="3">spin</dimension>
    <field>eigene</field>
    <field>occ</field>
    <set>
     <set comment="spin 1">
      <set comment="kpoint 1">
       <r>    0.4631    1.0000 </r>
       <r>    6.4206    1.0000 </r>
       <r>    6.4206    1.0000 </r>
       <r>    6.4206    1.0000 </r>
       <r>    9.8424   -0.0000 </r>
       <r>    9.8424   -0.0000 </r>
       <r>   24.8363    0.0000 </r>
      </set>
      <set comment="kpoint 2">
       <r>    0.5840    1.0000 </r>
       <r>    6.3478    1.0000 </r>
       <r>    6.4111    1.0000 </r>
       <r>    6.5432    1.0000 </r>
       <r>    9.7324   -0.0000 </r>
       <r>    9.8456   -0.0000 </r>
       <r>   24.9313    0.0000 </r>
      </set>
      <set comment="kpoint 3">
       <r>    0.9314    1.0000 </r>
       <r>    6.1429    1.0000 </r>
       <r>    6.3690    1.0000 </r>
       <r>    6.9066    1.0000 </r>
       <r>    9.4760   -0.0000 </r>
       <r>    9.8592   -0.0000 </r>
       <r>   25.1691    0.0000 </r>
      </set>
      <set comment="kpoint 4">
       <r>    1.4512    1.0000 </r>
       <r>    5.8399    1.0000 </r>
       <r>    6.2760    1.0000 </r>
       <r>    7.4978    1.0001 </r>
       <r>    9.2404   -0.0000 </r>
       <r>    9.8923   -0.0000 </r>
       <r>   25.3857    0.0000 </r>
      </set>
      <set comment="kpoint 5">
       <r>    2.0268    1.0000 </r>
       <r>    5.4826    1.0000 </r>
       <r>    6.1912    1.0000 </r>
       <r>    8.2935   -0.0299 </r>
       <r>    9.1631   -0.0000 </r>
       <r>    9.9558   -0.0000 </r>
       <r>   25.2914    0.0000 </r>
      </set>
      <set comment="kpoint 6">
       <r>    2.4553    1.0000 </r>
       <r>    5.1136    1.0000 </r>
       <r>    6.3257    1.0000 </r>
       <r>    9.2583   -0.0000 </r>
       <r>    9.2664   -0.0000 </r>
       <r>   10.0562   -0.0000 </r>
       <r>   24.7053    0.0000 </r>
      </set>
      <set comment="kpoint 7">
       <r>    2.5665    1.0000 </r>
       <r>    4.7686    1.0000 </r>
       <r>    6.8813    1.0000 </r>
       <r>    9.4917   -0.0000 </r>
       <r>   10.1918   -0.0000 </r>
       <r>   10.3389   -0.0000 </r>
       <r>   23.8060    0.0000 </r>
      </set>
      <set comment="kpoint 8">
       <r>    2.4324    1.0000 </r>
       <r>    4.4752    1.0000 </r>
       <r>    7.7763    1.0262 </r>
       <r>    9.7629   -0.0000 </r>
       <r>   10.3487   -0.0000 </r>
       <r>   11.4543   -0.0000 </r>
       <r>   22.8742    0.0000 </r>
      </set>
      <set comment="kpoint 9">
       <r>    2.2307    1.0000 </r>
       <r>    4.2529    1.0000 </r>
       <r>    8.7558   -0.0000 </r>
       <r>   10.0053   -0.0000 </r>
       <r>   10.5010   -0.0000 </r>
       <r>   12.4801   -0.0000 </r>
       <r>   22.0968    0.0000 </r>
      </set>
      <set comment="kpoint 10">
       <r>    2.0756    1.0000 </r>
       <r>    4.1146    1.0000 </r>
       <r>    9.5614   -0.0000 </r>
       <r>   10.1401   -0.0000 </r>
       <r>   10.6139   -0.0000 </r>
       <r>   13.2356   -0.0000 </r>
       <r>   21.5859    0.0000 </r>
      </set>
      <set comment="kpoint 11">
       <r>    2.0190    1.0000 </r>
       <r>    4.0677    1.0000 </r>
       <r>    9.9451   -0.0000 </r>
       <r>   10.1149   -0.0000 </r>
       <r>   10.6559   -0.0000 </r>
       <r>   13.5199    0.0000 </r>
       <r>   21.4079    0.0000 </r>
      </set>
      <set comment="kpoint 12">
       <r>    0.8188    1.0000 </r>
       <r>    6.2523    1.0000 </r>
       <r>    6.3227    1.0000 </r>
       <r>    6.8060    1.0000 </r>
       <r>    9.5367   -0.0000 </r>
       <r>    9.8664   -0.0000 </r>
       <r>   25.1110    0.0000 </r>
      </set>
      <set comment="kpoint 13">
       <r>    1.2573    1.0000 </r>
       <r>    6.0075    1.0000 </r>
       <r>    6.2244    1.0000 </r>
       <r>    7.3048    1.0000 </r>
       <r>    9.2637   -0.0000 </r>
       <r>    9.9173   -0.0000 </r>
       <r>   25.4064    0.0000 </r>
      </set>
      <set comment="kpoint 14">
       <r>    1.8227    1.0000 </r>
       <r>    5.6727    1.0000 </r>
       <r>    6.1064    1.0000 </r>
       <r>    8.0182    0.7579 </r>
       <r>    9.0851   -0.0000 </r>
       <r>    9.9947   -0.0000 </r>
       <r>   25.5430    0.0000 </r>
      </set>
      <set comment="kpoint 15">
       <r>    2.3588    1.0000 </r>
       <r>    5.3065    1.0000 </r>
       <r>    6.0782    1.0000 </r>
       <r>    8.9002   -0.0000 </r>
       <r>    9.1104   -0.0000 </r>
       <r>   10.0993   -0.0000 </r>
       <r>   25.1862    0.0000 </r>
      </set>
      <set comment="kpoint 16">
       <r>    2.6436    1.0000 </r>
       <r>    4.9496    1.0000 </r>
       <r>    6.3817    1.0000 </r>
       <r>    9.2472   -0.0000 </r>
       <r>    9.9806   -0.0000 </r>
       <r>   10.2317   -0.0000 </r>
       <r>   24.3668    0.0000 </r>
      </set>
      <set comment="kpoint 17">
       <r>    2.6100    1.0000 </r>
       <r>    4.6330    1.0000 </r>
       <r>    7.0936    1.0000 </r>
       <r>    9.5235   -0.0000 </r>
       <r>   10.3769   -0.0000 </r>
       <r>   11.1093   -0.0000 </r>
       <r>   23.4026    0.0000 </r>
      </set>
      <set comment="kpoint 18">
       <r>    2.4199    1.0000 </r>
       <r>    4.3788    1.0000 </r>
       <r>    8.0034    0.8082 </r>
       <r>    9.8095   -0.0000 </r>
       <r>   10.5550   -0.0000 </r>
       <r>   12.2116   -0.0000 </r>
       <r>   22.5301    0.0000 </r>
      </set>
      <set comment="kpoint 19">
       <r>    2.2297    1.0000 </r>
       <r>    4.2016    1.0000 </r>
       <r>    8.8455   -0.0000 </r>
       <r>    9.9729   -0.0000 </r>
       <r>   10.7922   -0.0000 </r>
       <r>   13.1384   -0.0000 </r>
       <r>   21.8601    0.0000 </r>
      </set>
      <set comment="kpoint 20">
       <r>    2.1192    1.0000 </r>
       <r>    4.1108    1.0000 </r>
       <r>    9.4142   -0.0000 </r>
       <r>    9.9384   -0.0000 </r>
       <r>   11.0120   -0.0000 </r>
       <r>   13.6868    0.0000 </r>
       <r>   21.3855    0.0000 </r>
      </set>
      <set comment="kpoint 21">
       <r>    1.7545    1.0000 </r>
       <r>    5.8247    1.0000 </r>
       <r>    5.9636    1.0000 </r>
       <r>    7.9639    0.9175 </r>
       <r>    9.0198   -0.0000 </r>
       <r>   10.0425   -0.0000 </r>
       <r>   25.7924    0.0000 </r>
      </set>
      <set comment="kpoint 22">
       <r>    2.3271    1.0000 </r>
       <r>    5.5168    1.0000 </r>
       <r>    5.7796    1.0000 </r>
       <r>    8.8141   -0.0000 </r>
       <r>    8.9197   -0.0000 </r>
       <r>   10.1943   -0.0000 </r>
       <r>   25.8307    0.0000 </r>
      </set>
      <set comment="kpoint 23">
       <r>    2.7823    1.0000 </r>
       <r>    5.1544    1.0000 </r>
       <r>    5.8274    1.0000 </r>
       <r>    8.9577   -0.0000 </r>
       <r>    9.8678   -0.0000 </r>
       <r>   10.3622   -0.0000 </r>
       <r>   25.0671    0.0000 </r>
      </set>
      <set comment="kpoint 24">
       <r>    2.9134    1.0000 </r>
       <r>    4.8234    1.0000 </r>
       <r>    6.2698    1.0000 </r>
       <r>    9.1766   -0.0000 </r>
       <r>   10.4752   -0.0000 </r>
       <r>   11.0622   -0.0000 </r>
       <r>   24.0390    0.0000 </r>
      </set>
      <set comment="kpoint 25">
       <r>    2.7761    1.0000 </r>
       <r>    4.5527    1.0000 </r>
       <r>    7.0203    1.0000 </r>
       <r>    9.4826   -0.0000 </r>
       <r>   10.6432   -0.0000 </r>
       <r>   12.2392   -0.0000 </r>
       <r>   23.0601    0.0000 </r>
      </set>
      <set comment="kpoint 26">
       <r>    2.5672    1.0000 </r>
       <r>    4.3525    1.0000 </r>
       <r>    7.8095    1.0329 </r>
       <r>    9.7463   -0.0000 </r>
       <r>   10.8644   -0.0000 </r>
       <r>   13.3300   -0.0000 </r>
       <r>   22.1952    0.0000 </r>
      </set>
      <set comment="kpoint 27">
       <r>    2.4079    1.0000 </r>
       <r>    4.2294    1.0000 </r>
       <r>    8.4141   -0.0205 </r>
       <r>    9.8328   -0.0000 </r>
       <r>   11.1565   -0.0000 </r>
       <r>   14.1422    0.0000 </r>
       <r>   21.4303    0.0000 </r>
      </set>
      <set comment="kpoint 28">
       <r>    2.3502    1.0000 </r>
       <r>    4.1879    1.0000 </r>
       <r>    8.6539   -0.0002 </r>
       <r>    9.8196   -0.0000 </r>
       <r>   11.3067   -0.0000 </r>
       <r>   14.4519    0.0000 </r>
       <r>   21.0942    0.0000 </r>
      </set>
      <set comment="kpoint 29">
       <r>    2.8571    1.0000 </r>
       <r>    5.3572    1.0000 </r>
       <r>    5.4733    1.0000 </r>
       <r>    8.8393   -0.0000 </r>
       <r>    9.8422   -0.0000 </r>
       <r>   10.4228   -0.0000 </r>
       <r>   25.5906    0.0000 </r>
      </set>
      <set comment="kpoint 30">
       <r>    3.2005    1.0000 </r>
       <r>    5.0078    1.0000 </r>
       <r>    5.6261    1.0000 </r>
       <r>    8.9365   -0.0000 </r>
       <r>   10.5224   -0.0000 </r>
       <r>   11.1089   -0.0000 </r>
       <r>   24.5649    0.0000 </r>
      </set>
      <set comment="kpoint 31">
       <r>    3.2100    1.0000 </r>
       <r>    4.7241    1.0000 </r>
       <r>    6.1411    1.0000 </r>
       <r>    9.1721   -0.0000 </r>
       <r>   10.6926   -0.0000 </r>
       <r>   12.3536   -0.0000 </r>
       <r>   23.5205    0.0000 </r>
      </set>
      <set comment="kpoint 32">
       <r>    3.0304    1.0000 </r>
       <r>    4.5227    1.0000 </r>
       <r>    6.8176    1.0000 </r>
       <r>    9.4711   -0.0000 </r>
       <r>   10.8437   -0.0000 </r>
       <r>   13.6006    0.0000 </r>
       <r>   22.5240    0.0000 </r>
      </set>
      <set comment="kpoint 33">
       <r>    2.8419    1.0000 </r>
       <r>    4.3918    1.0000 </r>
       <r>    7.4119    1.0000 </r>
       <r>    9.6886   -0.0000 </r>
       <r>   11.0618   -0.0000 </r>
       <r>   14.6805    0.0000 </r>
       <r>   21.5553    0.0000 </r>
      </set>
      <set comment="kpoint 34">
       <r>    2.7319    1.0000 </r>
       <r>    4.3268    1.0000 </r>
       <r>    7.7600    1.0224 </r>
       <r>    9.7542   -0.0000 </r>
       <r>   11.2794   -0.0000 </r>
       <r>   15.3540    0.0000 </r>
       <r>   20.8729    0.0000 </r>
      </set>
      <set comment="kpoint 35">
       <r>    3.4480    1.0000 </r>
       <r>    4.8140    1.0000 </r>
       <r>    5.7278    1.0000 </r>
       <r>    9.0457   -0.0000 </r>
       <r>   10.7078   -0.0000 </r>
       <r>   12.4069   -0.0000 </r>
       <r>   23.7180    0.0000 </r>
      </set>
      <set comment="kpoint 36">
       <r>    3.4441    1.0000 </r>
       <r>    4.6461    1.0000 </r>
       <r>    6.1190    1.0000 </r>
       <r>    9.2762   -0.0000 </r>
       <r>   10.8223   -0.0000 </r>
       <r>   13.7738    0.0000 </r>
       <r>   22.7623    0.0000 </r>
      </set>
      <set comment="kpoint 37">
       <r>    3.3088    1.0000 </r>
       <r>    4.5496    1.0000 </r>
       <r>    6.5718    1.0000 </r>
       <r>    9.5539   -0.0000 </r>
       <r>   10.9328   -0.0000 </r>
       <r>   15.0833    0.0000 </r>
       <r>   21.7384    0.0000 </r>
      </set>
      <set comment="kpoint 38">
       <r>    3.1824    1.0000 </r>
       <r>    4.5027    1.0000 </r>
       <r>    6.9039    1.0000 </r>
       <r>    9.7444   -0.0000 </r>
       <r>   11.0867   -0.0000 </r>
       <r>   16.1451    0.0000 </r>
       <r>   20.8085    0.0000 </r>
      </set>
      <set comment="kpoint 39">
       <r>    3.1341    1.0000 </r>
       <r>    4.4886    1.0000 </r>
       <r>    7.0238    1.0000 </r>
       <r>    9.7995   -0.0000 </r>
       <r>   11.1759   -0.0000 </r>
       <r>   16.5980    0.0000 </r>
       <r>   20.3949    0.0000 </r>
      </set>
      <set comment="kpoint 40">
       <r>    3.5411    1.0000 </r>
       <r>    4.6290    1.0000 </r>
       <r>    6.1959    1.0000 </r>
       <r>    9.4972   -0.0000 </r>
       <r>   10.8801   -0.0000 </r>
       <r>   15.2296    0.0000 </r>
       <r>   21.8388    0.0000 </r>
      </set>
      <set comment="kpoint 41">
       <r>    3.5238    1.0000 </r>
       <r>    4.6798    1.0000 </r>
       <r>    6.2821    1.0000 </r>
       <r>    9.7716   -0.0000 </r>
       <r>   10.9121   -0.0000 </r>
       <r>   16.6052    0.0000 </r>
       <r>   20.8868    0.0000 </r>
      </set>
      <set comment="kpoint 42">
       <r>    3.4858    1.0000 </r>
       <r>    4.7322    1.0000 </r>
       <r>    6.3261    1.0000 </r>
       <r>    9.9579   -0.0000 </r>
       <r>   10.9466   -0.0000 </r>
       <r>   17.6411    0.0000 </r>
       <r>   20.1604    0.0000 </r>
      </set>
      <set comment="kpoint 43">
       <r>    3.6246    1.0000 </r>
       <r>    4.9320    1.0000 </r>
       <r>    5.9535    1.0000 </r>
       <r>   10.0784   -0.0000 </r>
       <r>   10.7967   -0.0000 </r>
       <r>   18.0766    0.0000 </r>
       <r>   20.1928    0.0000 </r>
      </set>
      <set comment="kpoint 44">
       <r>    3.6480    1.0000 </r>
       <r>    5.1216    1.0000 </r>
       <r>    5.7451    1.0000 </r>
       <r>   10.2763   -0.0000 </r>
       <r>   10.6823   -0.0000 </r>
       <r>   19.0577    0.0000 </r>
       <r>   19.8006    0.0000 </r>
      </set>
      <set comment="kpoint 45">
       <r>    1.1513    1.0000 </r>
       <r>    6.0920    1.0000 </r>
       <r>    6.0920    1.0000 </r>
       <r>    7.2985    1.0000 </r>
       <r>    9.6294   -0.0000 </r>
       <r>    9.6294   -0.0000 </r>
       <r>   25.3213    0.0000 </r>
      </set>
      <set comment="kpoint 46">
       <r>    1.6589    1.0000 </r>
       <r>    5.7684    1.0000 </r>
       <r>    5.9243    1.0000 </r>
       <r>    7.9864    0.8600 </r>
       <r>    9.3980   -0.0000 </r>
       <r>    9.7535   -0.0000 </r>
       <r>   25.6598    0.0000 </r>
      </set>
      <set comment="kpoint 47">
       <r>    2.2421    1.0000 </r>
       <r>    5.4054    1.0000 </r>
       <r>    5.7832    1.0000 </r>
       <r>    8.8565   -0.0000 </r>
       <r>    9.3009   -0.0000 </r>
       <r>    9.8931   -0.0000 </r>
       <r>   25.6221    0.0000 </r>
      </set>
      <set comment="kpoint 48">
       <r>    2.6999    1.0000 </r>
       <r>    5.0448    1.0000 </r>
       <r>    5.8596    1.0000 </r>
       <r>    9.3348   -0.0000 </r>
       <r>    9.9151   -0.0000 </r>
       <r>   10.0447   -0.0000 </r>
       <r>   24.9765    0.0000 </r>
      </set>
      <set comment="kpoint 49">
       <r>    2.8251    1.0000 </r>
       <r>    4.7169    1.0000 </r>
       <r>    6.3779    1.0000 </r>
       <r>    9.5149   -0.0000 </r>
       <r>   10.2071   -0.0000 </r>
       <r>   11.0509   -0.0000 </r>
       <r>   24.0380    0.0000 </r>
      </set>
      <set comment="kpoint 50">
       <r>    2.6855    1.0000 </r>
       <r>    4.4431    1.0000 </r>
       <r>    7.2603    1.0000 </r>
       <r>    9.7392   -0.0000 </r>
       <r>   10.3727   -0.0000 </r>
       <r>   12.2117   -0.0000 </r>
       <r>   23.0985    0.0000 </r>
      </set>
      <set comment="kpoint 51">
       <r>    2.4782    1.0000 </r>
       <r>    4.2380    1.0000 </r>
       <r>    8.2403    0.0131 </r>
       <r>    9.9350   -0.0000 </r>
       <r>   10.5229   -0.0000 </r>
       <r>   13.2674   -0.0000 </r>
       <r>   22.3272    0.0000 </r>
      </set>
      <set comment="kpoint 52">
       <r>    2.3209    1.0000 </r>
       <r>    4.1113    1.0000 </r>
       <r>    9.0574   -0.0000 </r>
       <r>   10.0274   -0.0000 </r>
       <r>   10.6306   -0.0000 </r>
       <r>   14.0389    0.0000 </r>
       <r>   21.5316    0.0000 </r>
      </set>
      <set comment="kpoint 53">
       <r>    2.2639    1.0000 </r>
       <r>    4.0685    1.0000 </r>
       <r>    9.4174   -0.0000 </r>
       <r>   10.0152   -0.0000 </r>
       <r>   10.6701   -0.0000 </r>
       <r>   14.3282    0.0000 </r>
       <r>   21.1731    0.0000 </r>
      </set>
      <set comment="kpoint 54">
       <r>    0.7039    1.0000 </r>
       <r>    6.4076    1.0000 </r>
       <r>    6.4077    1.0000 </r>
       <r>    6.5347    1.0000 </r>
       <r>    9.5011   -0.0000 </r>
       <r>    9.9663   -0.0000 </r>
       <r>   25.1270    0.0000 </r>
      </set>
      <set comment="kpoint 55">
       <r>    2.2061    1.0000 </r>
       <r>    5.5119    1.0000 </r>
       <r>    5.5889    1.0000 </r>
       <r>    8.8642   -0.0000 </r>
       <r>    9.3639   -0.0000 </r>
       <r>    9.8289   -0.0000 </r>
       <r>   26.0789    0.0000 </r>
      </set>
      <set comment="kpoint 56">
       <r>    2.7784    1.0000 </r>
       <r>    5.1757    1.0000 </r>
       <r>    5.4187    1.0000 </r>
       <r>    9.3352   -0.0000 </r>
       <r>    9.9118   -0.0000 </r>
       <r>   10.0207   -0.0000 </r>
       <r>   25.7038    0.0000 </r>
      </set>
      <set comment="kpoint 57">
       <r>    3.1232    1.0000 </r>
       <r>    4.8402    1.0000 </r>
       <r>    5.6155    1.0000 </r>
       <r>    9.4272   -0.0000 </r>
       <r>   10.2125   -0.0000 </r>
       <r>   11.0835   -0.0000 </r>
       <r>   24.7523    0.0000 </r>
      </set>
      <set comment="kpoint 58">
       <r>    3.0967    1.0000 </r>
       <r>    4.5571    1.0000 </r>
       <r>    6.2878    1.0000 </r>
       <r>    9.6112   -0.0000 </r>
       <r>   10.3886   -0.0000 </r>
       <r>   12.3086   -0.0000 </r>
       <r>   23.7371    0.0000 </r>
      </set>
      <set comment="kpoint 59">
       <r>    2.8957    1.0000 </r>
       <r>    4.3387    1.0000 </r>
       <r>    7.1941    1.0000 </r>
       <r>    9.8254   -0.0000 </r>
       <r>   10.5435   -0.0000 </r>
       <r>   13.4852    0.0000 </r>
       <r>   22.7547    0.0000 </r>
      </set>
      <set comment="kpoint 60">
       <r>    2.7006    1.0000 </r>
       <r>    4.1903    1.0000 </r>
       <r>    8.0438    0.6613 </r>
       <r>    9.9898   -0.0000 </r>
       <r>   10.6808   -0.0000 </r>
       <r>   14.4632    0.0000 </r>
       <r>   21.6944    0.0000 </r>
      </set>
      <set comment="kpoint 61">
       <r>    2.5892    1.0000 </r>
       <r>    4.1152    1.0000 </r>
       <r>    8.5772   -0.0013 </r>
       <r>   10.0516   -0.0000 </r>
       <r>   10.7823   -0.0000 </r>
       <r>   15.0423    0.0000 </r>
       <r>   20.9875    0.0000 </r>
      </set>
      <set comment="kpoint 62">
       <r>    1.0480    1.0000 </r>
       <r>    6.2431    1.0000 </r>
       <r>    6.3817    1.0000 </r>
       <r>    6.8617    1.0000 </r>
       <r>    9.1422   -0.0000 </r>
       <r>   10.0705   -0.0000 </r>
       <r>   25.4018    0.0000 </r>
      </set>
      <set comment="kpoint 63">
       <r>    3.2927    1.0000 </r>
       <r>    5.0090    1.0000 </r>
       <r>    5.1550    1.0000 </r>
       <r>    9.3677   -0.0000 </r>
       <r>   10.2429   -0.0000 </r>
       <r>   11.1056   -0.0000 </r>
       <r>   25.1802    0.0000 </r>
      </set>
      <set comment="kpoint 64">
       <r>    3.5007    1.0000 </r>
       <r>    4.7235    1.0000 </r>
       <r>    5.4712    1.0000 </r>
       <r>    9.4848   -0.0000 </r>
       <r>   10.4457   -0.0000 </r>
       <r>   12.3889   -0.0000 </r>
       <r>   24.1781    0.0000 </r>
      </set>
      <set comment="kpoint 65">
       <r>    3.3841    1.0000 </r>
       <r>    4.4952    1.0000 </r>
       <r>    6.1903    1.0000 </r>
       <r>    9.6779   -0.0000 </r>
       <r>   10.6024   -0.0000 </r>
       <r>   13.6774    0.0000 </r>
       <r>   23.0942    0.0000 </r>
      </set>
      <set comment="kpoint 66">
       <r>    3.1859    1.0000 </r>
       <r>    4.3395    1.0000 </r>
       <r>    6.9785    1.0000 </r>
       <r>    9.8901   -0.0000 </r>
       <r>   10.7238   -0.0000 </r>
       <r>   14.8533    0.0000 </r>
       <r>   21.9286    0.0000 </r>
      </set>
      <set comment="kpoint 67">
       <r>    3.0357    1.0000 </r>
       <r>    4.2489    1.0000 </r>
       <r>    7.5809    1.0011 </r>
       <r>   10.0368   -0.0000 </r>
       <r>   10.8330   -0.0000 </r>
       <r>   15.7405    0.0000 </r>
       <r>   20.9328    0.0000 </r>
      </set>
      <set comment="kpoint 68">
       <r>    2.9814    1.0000 </r>
       <r>    4.2191    1.0000 </r>
       <r>    7.8081    1.0327 </r>
       <r>   10.0805   -0.0000 </r>
       <r>   10.8888   -0.0000 </r>
       <r>   16.0894    0.0000 </r>
       <r>   20.5299    0.0000 </r>
      </set>
      <set comment="kpoint 69">
       <r>    1.5633    1.0000 </r>
       <r>    5.9480    1.0000 </r>
       <r>    6.3012    1.0000 </r>
       <r>    7.4507    1.0000 </r>
       <r>    8.8360   -0.0000 </r>
       <r>   10.1633   -0.0000 </r>
       <r>   25.6403    0.0000 </r>
      </set>
      <set comment="kpoint 70">
       <r>    1.4761    1.0000 </r>
       <r>    6.1527    1.0000 </r>
       <r>    6.2753    1.0000 </r>
       <r>    7.2573    1.0000 </r>
       <r>    8.7250   -0.0000 </r>
       <r>   10.2375   -0.0000 </r>
       <r>   25.7800    0.0000 </r>
      </set>
      <set comment="kpoint 71">
       <r>    3.6385    1.0000 </r>
       <r>    4.6526    1.0000 </r>
       <r>    5.6580    1.0000 </r>
       <r>    9.6105   -0.0000 </r>
       <r>   10.6279   -0.0000 </r>
       <r>   13.7526    0.0000 </r>
       <r>   23.2511    0.0000 </r>
      </set>
      <set comment="kpoint 72">
       <r>    3.5672    1.0000 </r>
       <r>    4.5644    1.0000 </r>
       <r>    6.1578    1.0000 </r>
       <r>    9.8025   -0.0000 </r>
       <r>   10.7414   -0.0000 </r>
       <r>   15.0857    0.0000 </r>
       <r>   22.1494    0.0000 </r>
      </set>
      <set comment="kpoint 73">
       <r>    3.4486    1.0000 </r>
       <r>    4.4970    1.0000 </r>
       <r>    6.6717    1.0000 </r>
       <r>   10.0059   -0.0000 </r>
       <r>   10.8115   -0.0000 </r>
       <r>   16.2634    0.0000 </r>
       <r>   21.0355    0.0000 </r>
      </set>
      <set comment="kpoint 74">
       <r>    3.3723    1.0000 </r>
       <r>    4.4642    1.0000 </r>
       <r>    6.9824    1.0000 </r>
       <r>   10.1320   -0.0000 </r>
       <r>   10.8620   -0.0000 </r>
       <r>   17.0538    0.0000 </r>
       <r>   20.2645    0.0000 </r>
      </set>
      <set comment="kpoint 75">
       <r>    2.1360    1.0000 </r>
       <r>    5.5965    1.0000 </r>
       <r>    6.1963    1.0000 </r>
       <r>    8.2475    0.0042 </r>
       <r>    8.7300   -0.0000 </r>
       <r>   10.2675   -0.0000 </r>
       <r>   25.5379    0.0000 </r>
      </set>
      <set comment="kpoint 76">
       <r>    2.0295    1.0000 </r>
       <r>    5.8813    1.0000 </r>
       <r>    6.1378    1.0000 </r>
       <r>    7.9465    0.9532 </r>
       <r>    8.4565   -0.0119 </r>
       <r>   10.3920   -0.0000 </r>
       <r>   26.0108    0.0000 </r>
      </set>
      <set comment="kpoint 77">
       <r>    3.6091    1.0000 </r>
       <r>    4.7179    1.0000 </r>
       <r>    6.2097    1.0000 </r>
       <r>    9.9909   -0.0000 </r>
       <r>   10.7941   -0.0000 </r>
       <r>   16.4577    0.0000 </r>
       <r>   21.1380    0.0000 </r>
      </set>
      <set comment="kpoint 78">
       <r>    3.5911    1.0000 </r>
       <r>    4.8430    1.0000 </r>
       <r>    6.2930    1.0000 </r>
       <r>   10.1920   -0.0000 </r>
       <r>   10.7859   -0.0000 </r>
       <r>   17.6740    0.0000 </r>
       <r>   20.2692    0.0000 </r>
      </set>
      <set comment="kpoint 79">
       <r>    3.5786    1.0000 </r>
       <r>    4.8877    1.0000 </r>
       <r>    6.3314    1.0000 </r>
       <r>   10.2888   -0.0000 </r>
       <r>   10.7676   -0.0000 </r>
       <r>   18.3148    0.0000 </r>
       <r>   19.8265    0.0000 </r>
      </set>
      <set comment="kpoint 80">
       <r>    2.5664    1.0000 </r>
       <r>    5.2325    1.0000 </r>
       <r>    6.2591    1.0000 </r>
       <r>    8.8592   -0.0000 </r>
       <r>    9.2145   -0.0000 </r>
       <r>   10.3907   -0.0000 </r>
       <r>   24.8588    0.0000 </r>
      </set>
      <set comment="kpoint 81">
       <r>    2.5608    1.0000 </r>
       <r>    5.5282    1.0000 </r>
       <r>    6.0435    1.0000 </r>
       <r>    8.4438   -0.0142 </r>
       <r>    8.8529   -0.0000 </r>
       <r>   10.5468   -0.0000 </r>
       <r>   25.5286    0.0000 </r>
      </set>
      <set comment="kpoint 82">
       <r>    2.5692    1.0000 </r>
       <r>    5.7734    1.0000 </r>
       <r>    5.8230    1.0000 </r>
       <r>    8.2651   -0.0134 </r>
       <r>    8.7547   -0.0000 </r>
       <r>   10.6094   -0.0000 </r>
       <r>   26.1482    0.0000 </r>
      </set>
      <set comment="kpoint 83">
       <r>    3.6390    1.0000 </r>
       <r>    5.2793    1.0000 </r>
       <r>    5.8735    1.0000 </r>
       <r>   10.4136   -0.0000 </r>
       <r>   10.6615   -0.0000 </r>
       <r>   19.0206    0.0000 </r>
       <r>   19.8031    0.0000 </r>
      </set>
      <set comment="kpoint 84">
       <r>    2.6788    1.0000 </r>
       <r>    4.8917    1.0000 </r>
       <r>    6.6888    1.0000 </r>
       <r>    9.1668   -0.0000 </r>
       <r>   10.2984   -0.0000 </r>
       <r>   10.5383   -0.0000 </r>
       <r>   23.8824    0.0000 </r>
      </set>
      <set comment="kpoint 85">
       <r>    2.8519    1.0000 </r>
       <r>    5.1754    1.0000 </r>
       <r>    6.1884    1.0000 </r>
       <r>    8.6919   -0.0001 </r>
       <r>    9.8884   -0.0000 </r>
       <r>   10.7219   -0.0000 </r>
       <r>   24.5020    0.0000 </r>
      </set>
      <set comment="kpoint 86">
       <r>    3.0162    1.0000 </r>
       <r>    5.3815    1.0000 </r>
       <r>    5.8292    1.0000 </r>
       <r>    8.3300   -0.0354 </r>
       <r>    9.7438   -0.0000 </r>
       <r>   10.8399   -0.0000 </r>
       <r>   25.0722    0.0000 </r>
      </set>
      <set comment="kpoint 87">
       <r>    2.5399    1.0000 </r>
       <r>    4.6015    1.0000 </r>
       <r>    7.3933    1.0000 </r>
       <r>    9.5448   -0.0000 </r>
       <r>   10.7507   -0.0000 </r>
       <r>   11.4183   -0.0000 </r>
       <r>   22.9403    0.0000 </r>
      </set>
      <set comment="kpoint 88">
       <r>    2.8177    1.0000 </r>
       <r>    4.8668    1.0000 </r>
       <r>    6.6559    1.0000 </r>
       <r>    9.0928   -0.0000 </r>
       <r>   10.7536   -0.0000 </r>
       <r>   11.1937   -0.0000 </r>
       <r>   23.4748    0.0000 </r>
      </set>
      <set comment="kpoint 89">
       <r>    3.1694    1.0000 </r>
       <r>    5.0559    1.0000 </r>
       <r>    6.0603    1.0000 </r>
       <r>    8.6200   -0.0005 </r>
       <r>   10.5923   -0.0000 </r>
       <r>   11.3396   -0.0000 </r>
       <r>   23.9914    0.0000 </r>
      </set>
      <set comment="kpoint 90">
       <r>    3.3618    1.0000 </r>
       <r>    5.0619    1.0000 </r>
       <r>    5.8700    1.0000 </r>
       <r>    8.4133   -0.0206 </r>
       <r>   10.5403   -0.0000 </r>
       <r>   11.4057   -0.0000 </r>
       <r>   24.2277    0.0000 </r>
      </set>
      <set comment="kpoint 91">
       <r>    2.3319    1.0000 </r>
       <r>    4.3815    1.0000 </r>
       <r>    8.1236    0.3312 </r>
       <r>    9.7905   -0.0000 </r>
       <r>   11.1321   -0.0000 </r>
       <r>   12.4493   -0.0000 </r>
       <r>   22.1726    0.0000 </r>
      </set>
      <set comment="kpoint 92">
       <r>    2.6174    1.0000 </r>
       <r>    4.6211    1.0000 </r>
       <r>    7.2634    1.0000 </r>
       <r>    9.4549   -0.0000 </r>
       <r>   11.1595   -0.0000 </r>
       <r>   12.2565   -0.0000 </r>
       <r>   22.5985    0.0000 </r>
      </set>
      <set comment="kpoint 93">
       <r>    3.0400    1.0000 </r>
       <r>    4.8223    1.0000 </r>
       <r>    6.4965    1.0000 </r>
       <r>    9.0189   -0.0000 </r>
       <r>   10.9585   -0.0000 </r>
       <r>   12.4280   -0.0000 </r>
       <r>   23.0344    0.0000 </r>
      </set>
      <set comment="kpoint 94">
       <r>    3.4511    1.0000 </r>
       <r>    4.8100    1.0000 </r>
       <r>    6.0878    1.0000 </r>
       <r>    8.6885   -0.0001 </r>
       <r>   10.8397   -0.0000 </r>
       <r>   12.5676   -0.0000 </r>
       <r>   23.3379    0.0000 </r>
      </set>
      <set comment="kpoint 95">
       <r>    2.1726    1.0000 </r>
       <r>    4.2446    1.0000 </r>
       <r>    8.7031   -0.0001 </r>
       <r>    9.7922   -0.0000 </r>
       <r>   11.6062   -0.0000 </r>
       <r>   13.2097   -0.0000 </r>
       <r>   21.5811    0.0000 </r>
      </set>
      <set comment="kpoint 96">
       <r>    2.4173    1.0000 </r>
       <r>    4.4503    1.0000 </r>
       <r>    7.8188    1.0342 </r>
       <r>    9.5737   -0.0000 </r>
       <r>   11.6918   -0.0000 </r>
       <r>   13.2185   -0.0000 </r>
       <r>   21.8387    0.0000 </r>
      </set>
      <set comment="kpoint 97">
       <r>    2.8235    1.0000 </r>
       <r>    4.6577    1.0000 </r>
       <r>    6.9679    1.0000 </r>
       <r>    9.3048   -0.0000 </r>
       <r>   11.3488   -0.0000 </r>
       <r>   13.5926    0.0000 </r>
       <r>   22.1398    0.0000 </r>
      </set>
      <set comment="kpoint 98">
       <r>    3.3136    1.0000 </r>
       <r>    4.7059    1.0000 </r>
       <r>    6.3617    1.0000 </r>
       <r>    9.0476   -0.0000 </r>
       <r>   11.0501   -0.0000 </r>
       <r>   13.8987    0.0000 </r>
       <r>   22.4242    0.0000 </r>
      </set>
      <set comment="kpoint 99">
       <r>    3.6119    1.0000 </r>
       <r>    4.5963    1.0000 </r>
       <r>    6.1723    1.0000 </r>
       <r>    8.9337   -0.0000 </r>
       <r>   10.9429   -0.0000 </r>
       <r>   14.0087    0.0000 </r>
       <r>   22.5511    0.0000 </r>
      </set>
      <set comment="kpoint 100">
       <r>    2.1146    1.0000 </r>
       <r>    4.1982    1.0000 </r>
       <r>    8.9607   -0.0000 </r>
       <r>    9.7200   -0.0000 </r>
       <r>   11.8279   -0.0000 </r>
       <r>   13.4961    0.0000 </r>
       <r>   21.3027    0.0000 </r>
      </set>
      <set comment="kpoint 101">
       <r>    2.3014    1.0000 </r>
       <r>    4.3627    1.0000 </r>
       <r>    8.1813    0.1339 </r>
       <r>    9.5210   -0.0000 </r>
       <r>   12.1251   -0.0000 </r>
       <r>   13.8049    0.0000 </r>
       <r>   21.2723    0.0000 </r>
      </set>
      <set comment="kpoint 102">
       <r>    2.6561    1.0000 </r>
       <r>    4.5566    1.0000 </r>
       <r>    7.3345    1.0000 </r>
       <r>    9.3691   -0.0000 </r>
       <r>   11.8095   -0.0000 </r>
       <r>   14.5208    0.0000 </r>
       <r>   21.3134    0.0000 </r>
      </set>
      <set comment="kpoint 103">
       <r>    3.1297    1.0000 </r>
       <r>    4.6706    1.0000 </r>
       <r>    6.5995    1.0000 </r>
       <r>    9.2911   -0.0000 </r>
       <r>   11.3656   -0.0000 </r>
       <r>   15.1375    0.0000 </r>
       <r>   21.4567    0.0000 </r>
      </set>
      <set comment="kpoint 104">
       <r>    3.5892    1.0000 </r>
       <r>    4.5783    1.0000 </r>
       <r>    6.1861    1.0000 </r>
       <r>    9.2783   -0.0000 </r>
       <r>   11.0547   -0.0000 </r>
       <r>   15.4725    0.0000 </r>
       <r>   21.6225    0.0000 </r>
      </set>
      <set comment="kpoint 105">
       <r>    2.5952    1.0000 </r>
       <r>    4.5224    1.0000 </r>
       <r>    7.4788    1.0001 </r>
       <r>    9.3546   -0.0000 </r>
       <r>   12.0256   -0.0000 </r>
       <r>   14.8956    0.0000 </r>
       <r>   20.9401    0.0000 </r>
      </set>
      <set comment="kpoint 106">
       <r>    3.0170    1.0000 </r>
       <r>    4.6576    1.0000 </r>
       <r>    6.7391    1.0000 </r>
       <r>    9.3674   -0.0000 </r>
       <r>   11.6581   -0.0000 </r>
       <r>   15.9786    0.0000 </r>
       <r>   20.7134    0.0000 </r>
      </set>
      <set comment="kpoint 107">
       <r>    3.4912    1.0000 </r>
       <r>    4.6749    1.0000 </r>
       <r>    6.1390    1.0000 </r>
       <r>    9.5347   -0.0000 </r>
       <r>   11.2266   -0.0000 </r>
       <r>   16.7614    0.0000 </r>
       <r>   20.7023    0.0000 </r>
      </set>
      <set comment="kpoint 108">
       <r>    3.7684    1.0000 </r>
       <r>    4.5956    1.0000 </r>
       <r>    5.9050    1.0000 </r>
       <r>    9.6632   -0.0000 </r>
       <r>   11.0020   -0.0000 </r>
       <r>   17.0442    0.0000 </r>
       <r>   20.7842    0.0000 </r>
      </set>
      <set comment="kpoint 109">
       <r>    3.4466    1.0000 </r>
       <r>    4.7280    1.0000 </r>
       <r>    6.1083    1.0000 </r>
       <r>    9.6163   -0.0000 </r>
       <r>   11.3258   -0.0000 </r>
       <r>   17.3806    0.0000 </r>
       <r>   20.2328    0.0000 </r>
      </set>
      <set comment="kpoint 110">
       <r>    3.8083    1.0000 </r>
       <r>    4.7778    1.0000 </r>
       <r>    5.6118    1.0000 </r>
       <r>    9.9855   -0.0000 </r>
       <r>   10.9318   -0.0000 </r>
       <r>   18.3960    0.0000 </r>
       <r>   20.1098    0.0000 </r>
      </set>
      <set comment="kpoint 111">
       <r>    3.9297    1.0000 </r>
       <r>    5.1109    1.0000 </r>
       <r>    5.1109    1.0000 </r>
       <r>   10.4955   -0.0000 </r>
       <r>   10.4955   -0.0000 </r>
       <r>   19.8770    0.0000 </r>
       <r>   19.9933    0.0000 </r>
      </set>
      <set comment="kpoint 112">
       <r>    2.7896    1.0000 </r>
       <r>    5.2192    1.0000 </r>
       <r>    5.2192    1.0000 </r>
       <r>    9.6912   -0.0000 </r>
       <r>    9.6912   -0.0000 </r>
       <r>    9.9332   -0.0000 </r>
       <r>   26.2967    0.0000 </r>
      </set>
      <set comment="kpoint 113">
       <r>    3.3563    1.0000 </r>
       <r>    4.8868    1.0000 </r>
       <r>    5.0759    1.0000 </r>
       <r>    9.6741   -0.0000 </r>
       <r>    9.9776   -0.0000 </r>
       <r>   11.1326   -0.0000 </r>
       <r>   25.4616    0.0000 </r>
      </set>
      <set comment="kpoint 114">
       <r>    3.5516    1.0000 </r>
       <r>    4.6070    1.0000 </r>
       <r>    5.4314    1.0000 </r>
       <r>    9.7654   -0.0000 </r>
       <r>   10.2195   -0.0000 </r>
       <r>   12.4038   -0.0000 </r>
       <r>   24.4798    0.0000 </r>
      </set>
      <set comment="kpoint 115">
       <r>    3.3861    1.0000 </r>
       <r>    4.3865    1.0000 </r>
       <r>    6.2514    1.0000 </r>
       <r>    9.9177   -0.0000 </r>
       <r>   10.4187   -0.0000 </r>
       <r>   13.6618    0.0000 </r>
       <r>   23.4817    0.0000 </r>
      </set>
      <set comment="kpoint 116">
       <r>    3.1615    1.0000 </r>
       <r>    4.2282    1.0000 </r>
       <r>    7.1586    1.0000 </r>
       <r>   10.0716   -0.0000 </r>
       <r>   10.5726   -0.0000 </r>
       <r>   14.7851    0.0000 </r>
       <r>   22.0658    0.0000 </r>
      </set>
      <set comment="kpoint 117">
       <r>    3.0003    1.0000 </r>
       <r>    4.1331    1.0000 </r>
       <r>    7.8774    1.0277 </r>
       <r>   10.1753   -0.0000 </r>
       <r>   10.6725   -0.0000 </r>
       <r>   15.6048    0.0000 </r>
       <r>   20.9945    0.0000 </r>
      </set>
      <set comment="kpoint 118">
       <r>    2.9430    1.0000 </r>
       <r>    4.1014    1.0000 </r>
       <r>    8.1589    0.2023 </r>
       <r>   10.2084   -0.0000 </r>
       <r>   10.7074   -0.0000 </r>
       <r>   15.9162    0.0000 </r>
       <r>   20.5859    0.0000 </r>
      </set>
      <set comment="kpoint 119">
       <r>    1.3826    1.0000 </r>
       <r>    6.4057    1.0000 </r>
       <r>    6.4057    1.0000 </r>
       <r>    6.8726    1.0000 </r>
       <r>    8.5998   -0.0008 </r>
       <r>   10.3164   -0.0000 </r>
       <r>   25.8681    0.0000 </r>
      </set>
      <set comment="kpoint 120">
       <r>    3.8790    1.0000 </r>
       <r>    4.7353    1.0000 </r>
       <r>    4.8473    1.0000 </r>
       <r>    9.8178   -0.0000 </r>
       <r>   10.1651   -0.0000 </r>
       <r>   12.4458   -0.0000 </r>
       <r>   24.8247    0.0000 </r>
      </set>
      <set comment="kpoint 121">
       <r>    3.8982    1.0000 </r>
       <r>    4.5178    1.0000 </r>
       <r>    5.3683    1.0000 </r>
       <r>    9.9361   -0.0000 </r>
       <r>   10.3929   -0.0000 </r>
       <r>   13.7799    0.0000 </r>
       <r>   23.8261    0.0000 </r>
      </set>
      <set comment="kpoint 122">
       <r>    3.6877    1.0000 </r>
       <r>    4.3538    1.0000 </r>
       <r>    6.1922    1.0000 </r>
       <r>   10.0846   -0.0000 </r>
       <r>   10.5671   -0.0000 </r>
       <r>   15.0391    0.0000 </r>
       <r>   22.4873    0.0000 </r>
      </set>
      <set comment="kpoint 123">
       <r>    3.5003    1.0000 </r>
       <r>    4.2511    1.0000 </r>
       <r>    6.9453    1.0000 </r>
       <r>   10.2219   -0.0000 </r>
       <r>   10.6828   -0.0000 </r>
       <r>   16.0912    0.0000 </r>
       <r>   21.1673    0.0000 </r>
      </set>
      <set comment="kpoint 124">
       <r>    3.3969    1.0000 </r>
       <r>    4.2018    1.0000 </r>
       <r>    7.4041    1.0000 </r>
       <r>   10.3012   -0.0000 </r>
       <r>   10.7437   -0.0000 </r>
       <r>   16.7416    0.0000 </r>
       <r>   20.3451    0.0000 </r>
      </set>
      <set comment="kpoint 125">
       <r>    1.8837    1.0000 </r>
       <r>    6.2393    1.0000 </r>
       <r>    6.3818    1.0000 </r>
       <r>    7.3491    1.0000 </r>
       <r>    8.1240    0.3296 </r>
       <r>   10.5214   -0.0000 </r>
       <r>   26.2438    0.0000 </r>
      </set>
      <set comment="kpoint 126">
       <r>    3.9258    1.0000 </r>
       <r>    4.5655    1.0000 </r>
       <r>    5.6305    1.0000 </r>
       <r>   10.0721   -0.0000 </r>
       <r>   10.5777   -0.0000 </r>
       <r>   15.1363    0.0000 </r>
       <r>   22.7241    0.0000 </r>
      </set>
      <set comment="kpoint 127">
       <r>    3.8239    1.0000 </r>
       <r>    4.5509    1.0000 </r>
       <r>    6.1450    1.0000 </r>
       <r>   10.2230   -0.0000 </r>
       <r>   10.6968   -0.0000 </r>
       <r>   16.3819    0.0000 </r>
       <r>   21.4420    0.0000 </r>
      </set>
      <set comment="kpoint 128">
       <r>    3.7364    1.0000 </r>
       <r>    4.5210    1.0000 </r>
       <r>    6.5935    1.0000 </r>
       <r>   10.3542   -0.0000 </r>
       <r>   10.7534   -0.0000 </r>
       <r>   17.3847    0.0000 </r>
       <r>   20.3611    0.0000 </r>
      </set>
      <set comment="kpoint 129">
       <r>    3.7037    1.0000 </r>
       <r>    4.5096    1.0000 </r>
       <r>    6.7680    1.0000 </r>
       <r>   10.4082   -0.0000 </r>
       <r>   10.7687   -0.0000 </r>
       <r>   17.8407    0.0000 </r>
       <r>   19.8860    0.0000 </r>
      </set>
      <set comment="kpoint 130">
       <r>    2.4451    1.0000 </r>
       <r>    5.9243    1.0000 </r>
       <r>    6.2276    1.0000 </r>
       <r>    7.9618    0.9221 </r>
       <r>    8.1285    0.3121 </r>
       <r>   10.7044   -0.0000 </r>
       <r>   26.1554    0.0000 </r>
      </set>
      <set comment="kpoint 131">
       <r>    2.4105    1.0000 </r>
       <r>    6.2210    1.0000 </r>
       <r>    6.2227    1.0000 </r>
       <r>    7.7074    1.0117 </r>
       <r>    7.8708    1.0303 </r>
       <r>   10.7655   -0.0000 </r>
       <r>   26.6691    0.0000 </r>
      </set>
      <set comment="kpoint 132">
       <r>    3.8280    1.0000 </r>
       <r>    4.8414    1.0000 </r>
       <r>    6.1281    1.0000 </r>
       <r>   10.3730   -0.0000 </r>
       <r>   10.7487   -0.0000 </r>
       <r>   17.6308    0.0000 </r>
       <r>   20.4940    0.0000 </r>
      </set>
      <set comment="kpoint 133">
       <r>    3.8138    1.0000 </r>
       <r>    5.0237    1.0000 </r>
       <r>    6.1322    1.0000 </r>
       <r>   10.4991   -0.0000 </r>
       <r>   10.7359   -0.0000 </r>
       <r>   18.6624    0.0000 </r>
       <r>   19.7962    0.0000 </r>
      </set>
      <set comment="kpoint 134">
       <r>    2.8794    1.0000 </r>
       <r>    5.5812    1.0000 </r>
       <r>    6.0778    1.0000 </r>
       <r>    8.1786    0.1416 </r>
       <r>    9.0951   -0.0000 </r>
       <r>   10.8836   -0.0000 </r>
       <r>   25.1216    0.0000 </r>
      </set>
      <set comment="kpoint 135">
       <r>    2.9265    1.0000 </r>
       <r>    5.8442    1.0000 </r>
       <r>    6.0919    1.0000 </r>
       <r>    7.7104    1.0122 </r>
       <r>    8.7193   -0.0000 </r>
       <r>   10.9876   -0.0000 </r>
       <r>   25.7380    0.0000 </r>
      </set>
      <set comment="kpoint 136">
       <r>    3.8297    1.0000 </r>
       <r>    5.5924    1.0000 </r>
       <r>    5.5924    1.0000 </r>
       <r>   10.6394   -0.0000 </r>
       <r>   10.6394   -0.0000 </r>
       <r>   19.5585    0.0000 </r>
       <r>   19.9530    0.0000 </r>
      </set>
      <set comment="kpoint 137">
       <r>    2.9960    1.0000 </r>
       <r>    5.2553    1.0000 </r>
       <r>    6.2031    1.0000 </r>
       <r>    8.6261   -0.0004 </r>
       <r>   10.1853   -0.0000 </r>
       <r>   11.1050   -0.0000 </r>
       <r>   24.0139    0.0000 </r>
      </set>
      <set comment="kpoint 138">
       <r>    3.2302    1.0000 </r>
       <r>    5.4900    1.0000 </r>
       <r>    5.9796    1.0000 </r>
       <r>    8.0718    0.5461 </r>
       <r>    9.7325   -0.0000 </r>
       <r>   11.2397   -0.0000 </r>
       <r>   24.5663    0.0000 </r>
      </set>
      <set comment="kpoint 139">
       <r>    3.3513    1.0000 </r>
       <r>    5.3988    1.0000 </r>
       <r>    6.1284    1.0000 </r>
       <r>    7.7600    1.0224 </r>
       <r>    9.6008   -0.0000 </r>
       <r>   11.2924   -0.0000 </r>
       <r>   24.8340    0.0000 </r>
      </set>
      <set comment="kpoint 140">
       <r>    2.8412    1.0000 </r>
       <r>    4.9760    1.0000 </r>
       <r>    6.5921    1.0000 </r>
       <r>    9.0731   -0.0000 </r>
       <r>   11.3160   -0.0000 </r>
       <r>   11.4936   -0.0000 </r>
       <r>   23.0777    0.0000 </r>
      </set>
      <set comment="kpoint 141">
       <r>    3.1964    1.0000 </r>
       <r>    5.2498    1.0000 </r>
       <r>    6.0726    1.0000 </r>
       <r>    8.5675   -0.0016 </r>
       <r>   10.7258   -0.0000 </r>
       <r>   11.7081   -0.0000 </r>
       <r>   23.5828    0.0000 </r>
      </set>
      <set comment="kpoint 142">
       <r>    3.5514    1.0000 </r>
       <r>    5.0399    1.0000 </r>
       <r>    6.1467    1.0000 </r>
       <r>    8.0993    0.4304 </r>
       <r>   10.4472   -0.0000 </r>
       <r>   11.8348   -0.0000 </r>
       <r>   23.9466    0.0000 </r>
      </set>
      <set comment="kpoint 143">
       <r>    2.6124    1.0000 </r>
       <r>    4.7634    1.0000 </r>
       <r>    7.0591    1.0000 </r>
       <r>    9.2715   -0.0000 </r>
       <r>   12.1574   -0.0000 </r>
       <r>   12.3610   -0.0000 </r>
       <r>   22.2642    0.0000 </r>
      </set>
      <set comment="kpoint 144">
       <r>    2.9708    1.0000 </r>
       <r>    5.0616    1.0000 </r>
       <r>    6.3641    1.0000 </r>
       <r>    8.9188   -0.0000 </r>
       <r>   11.5281   -0.0000 </r>
       <r>   12.6139   -0.0000 </r>
       <r>   22.7157    0.0000 </r>
      </set>
      <set comment="kpoint 145">
       <r>    3.4393    1.0000 </r>
       <r>    4.9430    1.0000 </r>
       <r>    6.1521    1.0000 </r>
       <r>    8.5485   -0.0024 </r>
       <r>   11.0158   -0.0000 </r>
       <r>   12.8596   -0.0000 </r>
       <r>   23.1098    0.0000 </r>
      </set>
      <set comment="kpoint 146">
       <r>    3.7687    1.0000 </r>
       <r>    4.6279    1.0000 </r>
       <r>    6.2469    1.0000 </r>
       <r>    8.3588   -0.0325 </r>
       <r>   10.8398   -0.0000 </r>
       <r>   12.9432   -0.0000 </r>
       <r>   23.2774    0.0000 </r>
      </set>
      <set comment="kpoint 147">
       <r>    2.4390    1.0000 </r>
       <r>    4.6310    1.0000 </r>
       <r>    7.4567    1.0000 </r>
       <r>    9.2314   -0.0000 </r>
       <r>   12.8809   -0.0000 </r>
       <r>   13.1351   -0.0000 </r>
       <r>   21.5133    0.0000 </r>
      </set>
      <set comment="kpoint 148">
       <r>    2.7467    1.0000 </r>
       <r>    4.9219    1.0000 </r>
       <r>    6.6977    1.0000 </r>
       <r>    8.9937   -0.0000 </r>
       <r>   12.2734   -0.0000 </r>
       <r>   13.6399    0.0000 </r>
       <r>   21.8239    0.0000 </r>
      </set>
      <set comment="kpoint 149">
       <r>    3.1972    1.0000 </r>
       <r>    4.9724    1.0000 </r>
       <r>    6.1970    1.0000 </r>
       <r>    8.8372   -0.0000 </r>
       <r>   11.5682   -0.0000 </r>
       <r>   14.1036    0.0000 </r>
       <r>   22.1776    0.0000 </r>
      </set>
      <set comment="kpoint 150">
       <r>    3.7221    1.0000 </r>
       <r>    4.5506    1.0000 </r>
       <r>    6.1560    1.0000 </r>
       <r>    8.7700   -0.0000 </r>
       <r>   11.1170   -0.0000 </r>
       <r>   14.3384    0.0000 </r>
       <r>   22.4483    0.0000 </r>
      </set>
      <set comment="kpoint 151">
       <r>    2.3763    1.0000 </r>
       <r>    4.5860    1.0000 </r>
       <r>    7.6264    1.0029 </r>
       <r>    9.1699   -0.0000 </r>
       <r>   13.2085   -0.0000 </r>
       <r>   13.4276    0.0000 </r>
       <r>   21.1631    0.0000 </r>
      </set>
      <set comment="kpoint 152">
       <r>    2.6181    1.0000 </r>
       <r>    4.8477    1.0000 </r>
       <r>    6.9273    1.0000 </r>
       <r>    8.9374   -0.0000 </r>
       <r>   12.7916   -0.0000 </r>
       <r>   14.3489    0.0000 </r>
       <r>   21.1160    0.0000 </r>
      </set>
      <set comment="kpoint 153">
       <r>    3.0076    1.0000 </r>
       <r>    4.9987    1.0000 </r>
       <r>    6.2702    1.0000 </r>
       <r>    8.9107   -0.0000 </r>
       <r>   12.1223   -0.0000 </r>
       <r>   15.2051    0.0000 </r>
       <r>   21.2038    0.0000 </r>
      </set>
      <set comment="kpoint 154">
       <r>    3.5166    1.0000 </r>
       <r>    4.7494    1.0000 </r>
       <r>    5.9492    1.0000 </r>
       <r>    9.0788   -0.0000 </r>
       <r>   11.4819   -0.0000 </r>
       <r>   15.7451    0.0000 </r>
       <r>   21.4284    0.0000 </r>
      </set>
      <set comment="kpoint 155">
       <r>    3.9841    1.0000 </r>
       <r>    4.3009    1.0000 </r>
       <r>    5.9092    1.0000 </r>
       <r>    9.2181   -0.0000 </r>
       <r>   11.1777   -0.0000 </r>
       <r>   15.9259    0.0000 </r>
       <r>   21.5766    0.0000 </r>
      </set>
      <set comment="kpoint 156">
       <r>    2.9390    1.0000 </r>
       <r>    5.0056    1.0000 </r>
       <r>    6.3071    1.0000 </r>
       <r>    8.9094   -0.0000 </r>
       <r>   12.3670   -0.0000 </r>
       <r>   15.6940    0.0000 </r>
       <r>   20.7318    0.0000 </r>
      </set>
      <set comment="kpoint 157">
       <r>    3.3841    1.0000 </r>
       <r>    4.9607    1.0000 </r>
       <r>    5.7467    1.0000 </r>
       <r>    9.2022   -0.0000 </r>
       <r>   11.8003   -0.0000 </r>
       <r>   16.8113    0.0000 </r>
       <r>   20.5459    0.0000 </r>
      </set>
      <set comment="kpoint 158">
       <r>    3.9214    1.0000 </r>
       <r>    4.5436    1.0000 </r>
       <r>    5.5136    1.0000 </r>
       <r>    9.6240   -0.0000 </r>
       <r>   11.2617   -0.0000 </r>
       <r>   17.4433    0.0000 </r>
       <r>   20.6668    0.0000 </r>
      </set>
      <set comment="kpoint 159">
       <r>    3.8599    1.0000 </r>
       <r>    4.8384    1.0000 </r>
       <r>    5.1968    1.0000 </r>
       <r>    9.7749   -0.0000 </r>
       <r>   11.3159   -0.0000 </r>
       <r>   18.3154    0.0000 </r>
       <r>   20.0916    0.0000 </r>
      </set>
      <set comment="kpoint 160">
       <r>    4.3269    1.0000 </r>
       <r>    4.4973    1.0000 </r>
       <r>    4.9897    1.0000 </r>
       <r>   10.2357   -0.0000 </r>
       <r>   10.9055   -0.0000 </r>
       <r>   19.0966    0.0000 </r>
       <r>   20.1516    0.0000 </r>
      </set>
      <set comment="kpoint 161">
       <r>    4.5324    1.0000 </r>
       <r>    4.5324    1.0000 </r>
       <r>    4.6117    1.0000 </r>
       <r>   10.1750   -0.0000 </r>
       <r>   10.1750   -0.0000 </r>
       <r>   13.8265    0.0000 </r>
       <r>   24.3985    0.0000 </r>
      </set>
      <set comment="kpoint 162">
       <r>    4.2783    1.0000 </r>
       <r>    4.3917    1.0000 </r>
       <r>    5.3847    1.0000 </r>
       <r>   10.2528   -0.0000 </r>
       <r>   10.4389   -0.0000 </r>
       <r>   15.1664    0.0000 </r>
       <r>   23.2133    0.0000 </r>
      </set>
      <set comment="kpoint 163">
       <r>    4.0636    1.0000 </r>
       <r>    4.3021    1.0000 </r>
       <r>    6.1423    1.0000 </r>
       <r>   10.3560   -0.0000 </r>
       <r>   10.6175   -0.0000 </r>
       <r>   16.3640    0.0000 </r>
       <r>   21.6057    0.0000 </r>
      </set>
      <set comment="kpoint 164">
       <r>    3.9250    1.0000 </r>
       <r>    4.2534    1.0000 </r>
       <r>    6.7157    1.0000 </r>
       <r>   10.4395   -0.0000 </r>
       <r>   10.7204   -0.0000 </r>
       <r>   17.2840    0.0000 </r>
       <r>   20.4052    0.0000 </r>
      </set>
      <set comment="kpoint 165">
       <r>    3.8772    1.0000 </r>
       <r>    4.2381    1.0000 </r>
       <r>    6.9340    1.0000 </r>
       <r>   10.4710   -0.0000 </r>
       <r>   10.7539   -0.0000 </r>
       <r>   17.6786    0.0000 </r>
       <r>   19.9150    0.0000 </r>
      </set>
      <set comment="kpoint 166">
       <r>    2.3607    1.0000 </r>
       <r>    6.5016    1.0000 </r>
       <r>    6.5016    1.0000 </r>
       <r>    7.3898    1.0000 </r>
       <r>    7.4206    1.0000 </r>
       <r>   10.8256   -0.0000 </r>
       <r>   26.8102    0.0000 </r>
      </set>
      <set comment="kpoint 167">
       <r>    4.2558    1.0000 </r>
       <r>    4.5339    1.0000 </r>
       <r>    5.6444    1.0000 </r>
       <r>   10.4127   -0.0000 </r>
       <r>   10.5860   -0.0000 </r>
       <r>   16.4695    0.0000 </r>
       <r>   21.9857    0.0000 </r>
      </set>
      <set comment="kpoint 168">
       <r>    4.1867    1.0000 </r>
       <r>    4.5831    1.0000 </r>
       <r>    6.0430    1.0000 </r>
       <r>   10.5160   -0.0000 </r>
       <r>   10.7082   -0.0000 </r>
       <r>   17.6011    0.0000 </r>
       <r>   20.7048    0.0000 </r>
      </set>
      <set comment="kpoint 169">
       <r>    4.1488    1.0000 </r>
       <r>    4.5866    1.0000 </r>
       <r>    6.3193    1.0000 </r>
       <r>   10.5802   -0.0000 </r>
       <r>   10.7645   -0.0000 </r>
       <r>   18.4371    0.0000 </r>
       <r>   19.8066    0.0000 </r>
      </set>
      <set comment="kpoint 170">
       <r>    2.8952    1.0000 </r>
       <r>    6.3110    1.0000 </r>
       <r>    6.4001    1.0000 </r>
       <r>    7.1402    1.0000 </r>
       <r>    8.0145    0.7709 </r>
       <r>   11.0842   -0.0000 </r>
       <r>   26.4401    0.0000 </r>
      </set>
      <set comment="kpoint 171">
       <r>    4.1791    1.0000 </r>
       <r>    4.9683    1.0000 </r>
       <r>    5.9059    1.0000 </r>
       <r>   10.6275   -0.0000 </r>
       <r>   10.7568   -0.0000 </r>
       <r>   18.6994    0.0000 </r>
       <r>   20.0110    0.0000 </r>
      </set>
      <set comment="kpoint 172">
       <r>    4.1755    1.0000 </r>
       <r>    5.1545    1.0000 </r>
       <r>    5.8152    1.0000 </r>
       <r>   10.6820   -0.0000 </r>
       <r>   10.7575   -0.0000 </r>
       <r>   19.4725    0.0000 </r>
       <r>   19.5584    0.0000 </r>
      </set>
      <set comment="kpoint 173">
       <r>    3.3250    1.0000 </r>
       <r>    5.8059    1.0000 </r>
       <r>    6.1293    1.0000 </r>
       <r>    7.5384    1.0004 </r>
       <r>    8.9391   -0.0000 </r>
       <r>   11.3302   -0.0000 </r>
       <r>   25.1708    0.0000 </r>
      </set>
      <set comment="kpoint 174">
       <r>    3.3704    1.0000 </r>
       <r>    5.8041    1.0000 </r>
       <r>    6.5110    1.0000 </r>
       <r>    7.1472    1.0000 </r>
       <r>    8.6373   -0.0003 </r>
       <r>   11.3694   -0.0000 </r>
       <r>   25.4794    0.0000 </r>
      </set>
      <set comment="kpoint 175">
       <r>    3.4493    1.0000 </r>
       <r>    5.5815    1.0000 </r>
       <r>    5.8404    1.0000 </r>
       <r>    8.0912    0.4642 </r>
       <r>   10.0239   -0.0000 </r>
       <r>   11.6560   -0.0000 </r>
       <r>   24.1563    0.0000 </r>
      </set>
      <set comment="kpoint 176">
       <r>    3.6807    1.0000 </r>
       <r>    5.2662    1.0000 </r>
       <r>    6.3901    1.0000 </r>
       <r>    7.5797    1.0011 </r>
       <r>    9.5689   -0.0000 </r>
       <r>   11.7030   -0.0000 </r>
       <r>   24.5827    0.0000 </r>
      </set>
      <set comment="kpoint 177">
       <r>    3.2614    1.0000 </r>
       <r>    5.5841    1.0000 </r>
       <r>    5.7113    1.0000 </r>
       <r>    8.5273   -0.0037 </r>
       <r>   11.1640   -0.0000 </r>
       <r>   12.2325   -0.0000 </r>
       <r>   23.2993    0.0000 </r>
      </set>
      <set comment="kpoint 178">
       <r>    3.6498    1.0000 </r>
       <r>    5.0708    1.0000 </r>
       <r>    6.1827    1.0000 </r>
       <r>    8.1089    0.3904 </r>
       <r>   10.5644   -0.0000 </r>
       <r>   12.2792   -0.0000 </r>
       <r>   23.8032    0.0000 </r>
      </set>
      <set comment="kpoint 179">
       <r>    3.9263    1.0000 </r>
       <r>    4.7121    1.0000 </r>
       <r>    6.5202    1.0000 </r>
       <r>    7.8424    1.0354 </r>
       <r>   10.3265   -0.0000 </r>
       <r>   12.3132   -0.0000 </r>
       <r>   24.0190    0.0000 </r>
      </set>
      <set comment="kpoint 180">
       <r>    2.9900    1.0000 </r>
       <r>    5.3863    1.0000 </r>
       <r>    5.9934    1.0000 </r>
       <r>    8.6753   -0.0001 </r>
       <r>   12.2269   -0.0000 </r>
       <r>   13.1281   -0.0000 </r>
       <r>   22.3873    0.0000 </r>
      </set>
      <set comment="kpoint 181">
       <r>    3.3695    1.0000 </r>
       <r>    5.1878    1.0000 </r>
       <r>    5.9908    1.0000 </r>
       <r>    8.4411   -0.0147 </r>
       <r>   11.5033   -0.0000 </r>
       <r>   13.2479   -0.0000 </r>
       <r>   22.9445    0.0000 </r>
      </set>
      <set comment="kpoint 182">
       <r>    3.8554    1.0000 </r>
       <r>    4.5301    1.0000 </r>
       <r>    6.3706    1.0000 </r>
       <r>    8.3101   -0.0341 </r>
       <r>   10.9570   -0.0000 </r>
       <r>   13.3617   -0.0000 </r>
       <r>   23.3347    0.0000 </r>
      </set>
      <set comment="kpoint 183">
       <r>    2.7899    1.0000 </r>
       <r>    5.2621    1.0000 </r>
       <r>    6.2555    1.0000 </r>
       <r>    8.6242   -0.0004 </r>
       <r>   13.0206   -0.0000 </r>
       <r>   14.0775    0.0000 </r>
       <r>   21.4181    0.0000 </r>
      </set>
      <set comment="kpoint 184">
       <r>    3.0999    1.0000 </r>
       <r>    5.3771    1.0000 </r>
       <r>    5.8499    1.0000 </r>
       <r>    8.5178   -0.0044 </r>
       <r>   12.3514   -0.0000 </r>
       <r>   14.4136    0.0000 </r>
       <r>   21.8497    0.0000 </r>
      </set>
      <set comment="kpoint 185">
       <r>    3.5376    1.0000 </r>
       <r>    4.7321    1.0000 </r>
       <r>    6.0952    1.0000 </r>
       <r>    8.6540   -0.0002 </r>
       <r>   11.5836   -0.0000 </r>
       <r>   14.6973    0.0000 </r>
       <r>   22.3153    0.0000 </r>
      </set>
      <set comment="kpoint 186">
       <r>    4.0658    1.0000 </r>
       <r>    4.1142    1.0000 </r>
       <r>    6.1942    1.0000 </r>
       <r>    8.7989   -0.0000 </r>
       <r>   11.2176   -0.0000 </r>
       <r>   14.7942    0.0000 </r>
       <r>   22.5465    0.0000 </r>
      </set>
      <set comment="kpoint 187">
       <r>    2.7184    1.0000 </r>
       <r>    5.2199    1.0000 </r>
       <r>    6.3655    1.0000 </r>
       <r>    8.5734   -0.0014 </r>
       <r>   13.3223   -0.0000 </r>
       <r>   14.5234    0.0000 </r>
       <r>   20.9495    0.0000 </r>
      </set>
      <set comment="kpoint 188">
       <r>    2.9500    1.0000 </r>
       <r>    5.5056    1.0000 </r>
       <r>    5.7765    1.0000 </r>
       <r>    8.4888   -0.0072 </r>
       <r>   12.9000   -0.0000 </r>
       <r>   15.3234    0.0000 </r>
       <r>   20.9140    0.0000 </r>
      </set>
      <set comment="kpoint 189">
       <r>    3.3055    1.0000 </r>
       <r>    5.0135    1.0000 </r>
       <r>    5.7858    1.0000 </r>
       <r>    8.7911   -0.0000 </r>
       <r>   12.1743   -0.0000 </r>
       <r>   15.9993    0.0000 </r>
       <r>   21.1208    0.0000 </r>
      </set>
      <set comment="kpoint 190">
       <r>    3.7638    1.0000 </r>
       <r>    4.3917    1.0000 </r>
       <r>    5.8320    1.0000 </r>
       <r>    9.2587   -0.0000 </r>
       <r>   11.5158   -0.0000 </r>
       <r>   16.3385    0.0000 </r>
       <r>   21.4683    0.0000 </r>
      </set>
      <set comment="kpoint 191">
       <r>    3.2247    1.0000 </r>
       <r>    5.2131    1.0000 </r>
       <r>    5.5774    1.0000 </r>
       <r>    8.8194   -0.0000 </r>
       <r>   12.4297   -0.0000 </r>
       <r>   16.6549    0.0000 </r>
       <r>   20.4824    0.0000 </r>
      </set>
      <set comment="kpoint 192">
       <r>    3.6021    1.0000 </r>
       <r>    4.6759    1.0000 </r>
       <r>    5.4852    1.0000 </r>
       <r>    9.4845   -0.0000 </r>
       <r>   11.7840   -0.0000 </r>
       <r>   17.6685    0.0000 </r>
       <r>   20.4150    0.0000 </r>
      </set>
      <set comment="kpoint 193">
       <r>    3.9488    1.0000 </r>
       <r>    4.2692    1.0000 </r>
       <r>    5.4401    1.0000 </r>
       <r>    9.9480   -0.0000 </r>
       <r>   11.3455   -0.0000 </r>
       <r>   18.0197    0.0000 </r>
       <r>   20.6656    0.0000 </r>
      </set>
      <set comment="kpoint 194">
       <r>    3.9582    1.0000 </r>
       <r>    4.3550    1.0000 </r>
       <r>    5.2208    1.0000 </r>
       <r>   10.3074   -0.0000 </r>
       <r>   11.1997   -0.0000 </r>
       <r>   19.2622    0.0000 </r>
       <r>   20.0254    0.0000 </r>
      </set>
      <set comment="kpoint 195">
       <r>    4.5352    1.0000 </r>
       <r>    4.5352    1.0000 </r>
       <r>    5.7201    1.0000 </r>
       <r>   10.6345   -0.0000 </r>
       <r>   10.6345   -0.0000 </r>
       <r>   17.6773    0.0000 </r>
       <r>   21.0088    0.0000 </r>
      </set>
      <set comment="kpoint 196">
       <r>    4.5473    1.0000 </r>
       <r>    4.6925    1.0000 </r>
       <r>    5.8372    1.0000 </r>
       <r>   10.6865   -0.0000 </r>
       <r>   10.7547   -0.0000 </r>
       <r>   18.6807    0.0000 </r>
       <r>   20.1242    0.0000 </r>
      </set>
      <set comment="kpoint 197">
       <r>    4.5534    1.0000 </r>
       <r>    4.7376    1.0000 </r>
       <r>    5.8967    1.0000 </r>
       <r>   10.7084   -0.0000 </r>
       <r>   10.7920   -0.0000 </r>
       <r>   19.4267    0.0000 </r>
       <r>   19.4494    0.0000 </r>
      </set>
      <set comment="kpoint 198">
       <r>    3.3812    1.0000 </r>
       <r>    6.0924    1.0000 </r>
       <r>    6.7866    1.0000 </r>
       <r>    6.7866    1.0000 </r>
       <r>    8.1539    0.2191 </r>
       <r>   11.4046   -0.0000 </r>
       <r>   25.8205    0.0000 </r>
      </set>
      <set comment="kpoint 199">
       <r>    4.6215    1.0000 </r>
       <r>    5.0637    1.0000 </r>
       <r>    5.5482    1.0000 </r>
       <r>   10.7647   -0.0000 </r>
       <r>   10.7896   -0.0000 </r>
       <r>   19.3239    0.0000 </r>
       <r>   20.1020    0.0000 </r>
      </set>
      <set comment="kpoint 200">
       <r>    3.7679    1.0000 </r>
       <r>    5.4051    1.0000 </r>
       <r>    6.7928    1.0000 </r>
       <r>    7.1936    1.0000 </r>
       <r>    8.8378   -0.0000 </r>
       <r>   11.7118   -0.0000 </r>
       <r>   25.0710    0.0000 </r>
      </set>
      <set comment="kpoint 201">
       <r>    3.8897    1.0000 </r>
       <r>    4.9321    1.0000 </r>
       <r>    6.6067    1.0000 </r>
       <r>    7.7371    1.0173 </r>
       <r>    9.8577   -0.0000 </r>
       <r>   12.1337   -0.0000 </r>
       <r>   24.4136    0.0000 </r>
      </set>
      <set comment="kpoint 202">
       <r>    4.0220    1.0000 </r>
       <r>    4.8094    1.0000 </r>
       <r>    6.9926    1.0000 </r>
       <r>    7.4681    1.0001 </r>
       <r>    9.5113   -0.0000 </r>
       <r>   12.1142   -0.0000 </r>
       <r>   24.6839    0.0000 </r>
      </set>
      <set comment="kpoint 203">
       <r>    3.6359    1.0000 </r>
       <r>    4.8839    1.0000 </r>
       <r>    6.3993    1.0000 </r>
       <r>    8.1419    0.2616 </r>
       <r>   10.9884   -0.0000 </r>
       <r>   12.8576   -0.0000 </r>
       <r>   23.6875    0.0000 </r>
      </set>
      <set comment="kpoint 204">
       <r>    3.9794    1.0000 </r>
       <r>    4.4419    1.0000 </r>
       <r>    6.8829    1.0000 </r>
       <r>    7.9590    0.9282 </r>
       <r>   10.4273   -0.0000 </r>
       <r>   12.7753   -0.0000 </r>
       <r>   24.2142    0.0000 </r>
      </set>
      <set comment="kpoint 205">
       <r>    3.2945    1.0000 </r>
       <r>    5.0220    1.0000 </r>
       <r>    6.2286    1.0000 </r>
       <r>    8.2862   -0.0268 </r>
       <r>   12.0645   -0.0000 </r>
       <r>   13.9341    0.0000 </r>
       <r>   22.5962    0.0000 </r>
      </set>
      <set comment="kpoint 206">
       <r>    3.5893    1.0000 </r>
       <r>    4.4951    1.0000 </r>
       <r>    6.6817    1.0000 </r>
       <r>    8.3219   -0.0353 </r>
       <r>   11.3816   -0.0000 </r>
       <r>   13.8314    0.0000 </r>
       <r>   23.3030    0.0000 </r>
      </set>
      <set comment="kpoint 207">
       <r>    3.8980    1.0000 </r>
       <r>    4.1028    1.0000 </r>
       <r>    6.8323    1.0000 </r>
       <r>    8.4572   -0.0118 </r>
       <r>   10.9962   -0.0000 </r>
       <r>   13.8274    0.0000 </r>
       <r>   23.6424    0.0000 </r>
      </set>
      <set comment="kpoint 208">
       <r>    3.0587    1.0000 </r>
       <r>    5.1566    1.0000 </r>
       <r>    6.1187    1.0000 </r>
       <r>    8.2697   -0.0170 </r>
       <r>   12.8793   -0.0000 </r>
       <r>   15.1068    0.0000 </r>
       <r>   21.3217    0.0000 </r>
      </set>
      <set comment="kpoint 209">
       <r>    3.2686    1.0000 </r>
       <r>    4.6035    1.0000 </r>
       <r>    6.4973    1.0000 </r>
       <r>    8.4645   -0.0106 </r>
       <r>   12.2603   -0.0000 </r>
       <r>   15.1458    0.0000 </r>
       <r>   21.9204    0.0000 </r>
      </set>
      <set comment="kpoint 210">
       <r>    3.5493    1.0000 </r>
       <r>    4.1412    1.0000 </r>
       <r>    6.6023    1.0000 </r>
       <r>    8.9407   -0.0000 </r>
       <r>   11.5682   -0.0000 </r>
       <r>   15.2184    0.0000 </r>
       <r>   22.4876    0.0000 </r>
      </set>
      <set comment="kpoint 211">
       <r>    2.9768    1.0000 </r>
       <r>    5.2110    1.0000 </r>
       <r>    6.0809    1.0000 </r>
       <r>    8.2429    0.0097 </r>
       <r>   13.1919   -0.0000 </r>
       <r>   15.7061    0.0000 </r>
       <r>   20.6703    0.0000 </r>
      </set>
      <set comment="kpoint 212">
       <r>    3.1009    1.0000 </r>
       <r>    4.6779    1.0000 </r>
       <r>    6.3851    1.0000 </r>
       <r>    8.4918   -0.0069 </r>
       <r>   12.8257   -0.0000 </r>
       <r>   16.2882    0.0000 </r>
       <r>   20.6829    0.0000 </r>
      </set>
      <set comment="kpoint 213">
       <r>    3.3146    1.0000 </r>
       <r>    4.2052    1.0000 </r>
       <r>    6.3942    1.0000 </r>
       <r>    9.1966   -0.0000 </r>
       <r>   12.1184   -0.0000 </r>
       <r>   16.6930    0.0000 </r>
       <r>   21.0737    0.0000 </r>
      </set>
      <set comment="kpoint 214">
       <r>    3.4954    1.0000 </r>
       <r>    3.9359    1.0000 </r>
       <r>    6.3657    1.0000 </r>
       <r>    9.6767   -0.0000 </r>
       <r>   11.6530   -0.0000 </r>
       <r>   16.8175    0.0000 </r>
       <r>   21.4500    0.0000 </r>
      </set>
      <set comment="kpoint 215">
       <r>    3.2344    1.0000 </r>
       <r>    4.2345    1.0000 </r>
       <r>    6.3116    1.0000 </r>
       <r>    9.2670   -0.0000 </r>
       <r>   12.3625   -0.0000 </r>
       <r>   17.5667    0.0000 </r>
       <r>   20.2128    0.0000 </r>
      </set>
      <set comment="kpoint 216">
       <r>    3.4347    1.0000 </r>
       <r>    3.8775    1.0000 </r>
       <r>    6.1988    1.0000 </r>
       <r>   10.1468   -0.0000 </r>
       <r>   11.7084   -0.0000 </r>
       <r>   18.3780    0.0000 </r>
       <r>   20.3688    0.0000 </r>
      </set>
      <set comment="kpoint 217">
       <r>    3.6227    1.0000 </r>
       <r>    3.6227    1.0000 </r>
       <r>    6.1155    1.0000 </r>
       <r>   11.0345   -0.0000 </r>
       <r>   11.0345   -0.0000 </r>
       <r>   20.0933    0.0000 </r>
       <r>   20.0964    0.0000 </r>
      </set>
      <set comment="kpoint 218">
       <r>    5.0993    1.0000 </r>
       <r>    5.0993    1.0000 </r>
       <r>    5.0993    1.0000 </r>
       <r>   10.8067   -0.0000 </r>
       <r>   10.8067   -0.0000 </r>
       <r>   19.3233    0.0000 </r>
       <r>   21.0079    0.0000 </r>
      </set>
      <set comment="kpoint 219">
       <r>    4.0508    1.0000 </r>
       <r>    4.8545    1.0000 </r>
       <r>    7.3276    1.0000 </r>
       <r>    7.3276    1.0000 </r>
       <r>    9.0325   -0.0000 </r>
       <r>   12.0772   -0.0000 </r>
       <r>   24.9862    0.0000 </r>
      </set>
      <set comment="kpoint 220">
       <r>    4.0992    1.0000 </r>
       <r>    4.3189    1.0000 </r>
       <r>    7.4609    1.0001 </r>
       <r>    7.7631    1.0231 </r>
       <r>    9.7743   -0.0000 </r>
       <r>   12.5670   -0.0000 </r>
       <r>   24.8735    0.0000 </r>
      </set>
      <set comment="kpoint 221">
       <r>    3.6959    1.0000 </r>
       <r>    4.2134    1.0000 </r>
       <r>    7.3748    1.0000 </r>
       <r>    8.1645    0.1840 </r>
       <r>   10.8269   -0.0000 </r>
       <r>   13.3711   -0.0000 </r>
       <r>   24.2570    0.0000 </r>
      </set>
      <set comment="kpoint 222">
       <r>    3.7986    1.0000 </r>
       <r>    4.0447    1.0000 </r>
       <r>    7.6516    1.0047 </r>
       <r>    8.2341    0.0219 </r>
       <r>   10.4380   -0.0000 </r>
       <r>   13.2518   -0.0000 </r>
       <r>   24.7651    0.0000 </r>
      </set>
      <set comment="kpoint 223">
       <r>    3.3044    1.0000 </r>
       <r>    4.1978    1.0000 </r>
       <r>    7.2571    1.0000 </r>
       <r>    8.3677   -0.0308 </r>
       <r>   11.8953   -0.0000 </r>
       <r>   14.5514    0.0000 </r>
       <r>   22.8367    0.0000 </r>
      </set>
      <set comment="kpoint 224">
       <r>    3.3943    1.0000 </r>
       <r>    3.9104    1.0000 </r>
       <r>    7.5739    1.0009 </r>
       <r>    8.7102   -0.0000 </r>
       <r>   11.2932   -0.0000 </r>
       <r>   14.3217    0.0000 </r>
       <r>   23.6361    0.0000 </r>
      </set>
      <set comment="kpoint 225">
       <r>    3.0581    1.0000 </r>
       <r>    4.1901    1.0000 </r>
       <r>    7.1718    1.0000 </r>
       <r>    8.4229   -0.0185 </r>
       <r>   12.7266   -0.0000 </r>
       <r>   15.9062    0.0000 </r>
       <r>   21.2187    0.0000 </r>
      </set>
      <set comment="kpoint 226">
       <r>    3.1018    1.0000 </r>
       <r>    3.8089    1.0000 </r>
       <r>    7.4598    1.0000 </r>
       <r>    8.9730   -0.0000 </r>
       <r>   12.1410   -0.0000 </r>
       <r>   15.7087    0.0000 </r>
       <r>   21.9542    0.0000 </r>
      </set>
      <set comment="kpoint 227">
       <r>    3.1579    1.0000 </r>
       <r>    3.6373    1.0000 </r>
       <r>    7.4726    1.0001 </r>
       <r>    9.4575   -0.0000 </r>
       <r>   11.6925   -0.0000 </r>
       <r>   15.6609    0.0000 </r>
       <r>   22.4457    0.0000 </r>
      </set>
      <set comment="kpoint 228">
       <r>    2.9746    1.0000 </r>
       <r>    4.1881    1.0000 </r>
       <r>    7.1415    1.0000 </r>
       <r>    8.4281   -0.0174 </r>
       <r>   13.0503   -0.0000 </r>
       <r>   16.6925    0.0000 </r>
       <r>   20.3352    0.0000 </r>
      </set>
      <set comment="kpoint 229">
       <r>    2.9502    1.0000 </r>
       <r>    3.7560    1.0000 </r>
       <r>    7.3885    1.0000 </r>
       <r>    9.0696   -0.0000 </r>
       <r>   12.7049   -0.0000 </r>
       <r>   17.0588    0.0000 </r>
       <r>   20.4308    0.0000 </r>
      </set>
      <set comment="kpoint 230">
       <r>    3.0084    1.0000 </r>
       <r>    3.4591    1.0000 </r>
       <r>    7.3578    1.0000 </r>
       <r>    9.9624   -0.0000 </r>
       <r>   12.0652   -0.0000 </r>
       <r>   17.2031    0.0000 </r>
       <r>   21.0122    0.0000 </r>
      </set>
      <set comment="kpoint 231">
       <r>    2.9570    1.0000 </r>
       <r>    3.3983    1.0000 </r>
       <r>    7.3130    1.0000 </r>
       <r>   10.1212   -0.0000 </r>
       <r>   12.2466   -0.0000 </r>
       <r>   18.3049    0.0000 </r>
       <r>   19.9426    0.0000 </r>
      </set>
      <set comment="kpoint 232">
       <r>    3.0272    1.0000 </r>
       <r>    3.2076    1.0000 </r>
       <r>    7.2697    1.0000 </r>
       <r>   10.8647   -0.0000 </r>
       <r>   11.7241   -0.0000 </r>
       <r>   18.8356    0.0000 </r>
       <r>   20.3448    0.0000 </r>
      </set>
      <set comment="kpoint 233">
       <r>    3.7658    1.0000 </r>
       <r>    4.0177    1.0000 </r>
       <r>    8.1566    0.2098 </r>
       <r>    8.1566    0.2098 </r>
       <r>    9.9968   -0.0000 </r>
       <r>   13.0844   -0.0000 </r>
       <r>   25.4934    0.0000 </r>
      </set>
      <set comment="kpoint 234">
       <r>    3.3180    1.0000 </r>
       <r>    3.7778    1.0000 </r>
       <r>    8.4140   -0.0205 </r>
       <r>    8.6285   -0.0004 </r>
       <r>   10.7517   -0.0000 </r>
       <r>   13.8741    0.0000 </r>
       <r>   24.7125    0.0000 </r>
      </set>
      <set comment="kpoint 235">
       <r>    2.9844    1.0000 </r>
       <r>    3.5393    1.0000 </r>
       <r>    8.4195   -0.0193 </r>
       <r>    8.9508   -0.0000 </r>
       <r>   11.7460   -0.0000 </r>
       <r>   15.0412    0.0000 </r>
       <r>   22.8785    0.0000 </r>
      </set>
      <set comment="kpoint 236">
       <r>    2.9501    1.0000 </r>
       <r>    3.4413    1.0000 </r>
       <r>    8.6062   -0.0007 </r>
       <r>    9.3161   -0.0000 </r>
       <r>   11.3537   -0.0000 </r>
       <r>   14.8299    0.0000 </r>
       <r>   23.4592    0.0000 </r>
      </set>
      <set comment="kpoint 237">
       <r>    2.7790    1.0000 </r>
       <r>    3.3761    1.0000 </r>
       <r>    8.3802   -0.0282 </r>
       <r>    9.1015   -0.0000 </r>
       <r>   12.5785   -0.0000 </r>
       <r>   16.4694    0.0000 </r>
       <r>   21.0463    0.0000 </r>
      </set>
      <set comment="kpoint 238">
       <r>    2.7133    1.0000 </r>
       <r>    3.1556    1.0000 </r>
       <r>    8.5949   -0.0009 </r>
       <r>    9.8204   -0.0000 </r>
       <r>   12.0623   -0.0000 </r>
       <r>   16.1485    0.0000 </r>
       <r>   21.7799    0.0000 </r>
      </set>
      <set comment="kpoint 239">
       <r>    2.7097    1.0000 </r>
       <r>    3.3189    1.0000 </r>
       <r>    8.3623   -0.0319 </r>
       <r>    9.1418   -0.0000 </r>
       <r>   12.9116   -0.0000 </r>
       <r>   17.4363    0.0000 </r>
       <r>   19.9483    0.0000 </r>
      </set>
      <set comment="kpoint 240">
       <r>    2.6019    1.0000 </r>
       <r>    2.9927    1.0000 </r>
       <r>    8.5674   -0.0016 </r>
       <r>   10.0352   -0.0000 </r>
       <r>   12.5826   -0.0000 </r>
       <r>   17.5884    0.0000 </r>
       <r>   20.1436    0.0000 </r>
      </set>
      <set comment="kpoint 241">
       <r>    2.5883    1.0000 </r>
       <r>    2.8576    1.0000 </r>
       <r>    8.5582   -0.0020 </r>
       <r>   10.7222   -0.0000 </r>
       <r>   12.1515   -0.0000 </r>
       <r>   17.5747    0.0000 </r>
       <r>   20.7686    0.0000 </r>
      </set>
      <set comment="kpoint 242">
       <r>    2.5749    1.0000 </r>
       <r>    2.7257    1.0000 </r>
       <r>    8.5375   -0.0030 </r>
       <r>   11.1269   -0.0000 </r>
       <r>   12.1246   -0.0000 </r>
       <r>   18.8221    0.0000 </r>
       <r>   19.6768    0.0000 </r>
      </set>
      <set comment="kpoint 243">
       <r>    2.8799    1.0000 </r>
       <r>    3.3735    1.0000 </r>
       <r>    9.2673   -0.0000 </r>
       <r>    9.2673   -0.0000 </r>
       <r>   10.9601   -0.0000 </r>
       <r>   14.5442    0.0000 </r>
       <r>   23.9788    0.0000 </r>
      </set>
      <set comment="kpoint 244">
       <r>    2.5631    1.0000 </r>
       <r>    2.9969    1.0000 </r>
       <r>    9.6182   -0.0000 </r>
       <r>    9.7938   -0.0000 </r>
       <r>   11.6640   -0.0000 </r>
       <r>   15.5443    0.0000 </r>
       <r>   22.4223    0.0000 </r>
      </set>
      <set comment="kpoint 245">
       <r>    2.3892    1.0000 </r>
       <r>    2.7249    1.0000 </r>
       <r>    9.6806   -0.0000 </r>
       <r>   10.0930   -0.0000 </r>
       <r>   12.4506   -0.0000 </r>
       <r>   16.8707    0.0000 </r>
       <r>   20.7029    0.0000 </r>
      </set>
      <set comment="kpoint 246">
       <r>    2.3195    1.0000 </r>
       <r>    2.6309    1.0000 </r>
       <r>    9.8347   -0.0000 </r>
       <r>   10.6284   -0.0000 </r>
       <r>   12.1169   -0.0000 </r>
       <r>   16.6039    0.0000 </r>
       <r>   21.2232    0.0000 </r>
      </set>
      <set comment="kpoint 247">
       <r>    2.3390    1.0000 </r>
       <r>    2.6220    1.0000 </r>
       <r>    9.6850   -0.0000 </r>
       <r>   10.1845   -0.0000 </r>
       <r>   12.7889   -0.0000 </r>
       <r>   17.9322    0.0000 </r>
       <r>   19.5096    0.0000 </r>
      </set>
      <set comment="kpoint 248">
       <r>    2.2262    1.0000 </r>
       <r>    2.4054    1.0000 </r>
       <r>    9.8661   -0.0000 </r>
       <r>   11.1083   -0.0000 </r>
       <r>   12.4893   -0.0000 </r>
       <r>   17.9200    0.0000 </r>
       <r>   19.7862    0.0000 </r>
      </set>
      <set comment="kpoint 249">
       <r>    2.2332    1.0000 </r>
       <r>    2.2332    1.0000 </r>
       <r>    9.8724   -0.0000 </r>
       <r>   12.0220   -0.0000 </r>
       <r>   12.0220   -0.0000 </r>
       <r>   19.1342    0.0000 </r>
       <r>   19.1342    0.0000 </r>
      </set>
      <set comment="kpoint 250">
       <r>    2.2290    1.0000 </r>
       <r>    2.5528    1.0000 </r>
       <r>   10.5959   -0.0000 </r>
       <r>   10.5959   -0.0000 </r>
       <r>   11.8062   -0.0000 </r>
       <r>   16.2411    0.0000 </r>
       <r>   21.4313    0.0000 </r>
      </set>
      <set comment="kpoint 251">
       <r>    2.0450    1.0000 </r>
       <r>    2.2402    1.0000 </r>
       <r>   10.9594   -0.0000 </r>
       <r>   11.1300   -0.0000 </r>
       <r>   12.3626   -0.0000 </r>
       <r>   17.2460    0.0000 </r>
       <r>   20.1221    0.0000 </r>
      </set>
      <set comment="kpoint 252">
       <r>    2.0024    1.0000 </r>
       <r>    2.1129    1.0000 </r>
       <r>   11.0094   -0.0000 </r>
       <r>   11.3099   -0.0000 </r>
       <r>   12.6930   -0.0000 </r>
       <r>   18.2198    0.0000 </r>
       <r>   19.0318    0.0000 </r>
      </set>
      <set comment="kpoint 253">
       <r>    1.9329    1.0000 </r>
       <r>    2.0063    1.0000 </r>
       <r>   11.1499   -0.0000 </r>
       <r>   11.9544   -0.0000 </r>
       <r>   12.4942   -0.0000 </r>
       <r>   18.1561    0.0000 </r>
       <r>   19.2908    0.0000 </r>
      </set>
      <set comment="kpoint 254">
       <r>    1.8319    1.0000 </r>
       <r>    1.9274    1.0000 </r>
       <r>   11.9310   -0.0000 </r>
       <r>   11.9310   -0.0000 </r>
       <r>   12.3973   -0.0000 </r>
       <r>   17.7478    0.0000 </r>
       <r>   19.3372    0.0000 </r>
      </set>
      <set comment="kpoint 255">
       <r>    1.7771    1.0000 </r>
       <r>    1.8027    1.0000 </r>
       <r>   12.1271   -0.0000 </r>
       <r>   12.2352   -0.0000 </r>
       <r>   12.6322   -0.0000 </r>
       <r>   18.3595    0.0000 </r>
       <r>   18.5949    0.0000 </r>
      </set>
      <set comment="kpoint 256">
       <r>    1.6986    1.0000 </r>
       <r>    1.6986    1.0000 </r>
       <r>   12.6113   -0.0000 </r>
       <r>   12.6113   -0.0000 </r>
       <r>   12.6113   -0.0000 </r>
       <r>   18.4001    0.0000 </r>
       <r>   18.4001    0.0000 </r>
      </set>
     </set>
    </set>
   </array>
  </eigenvalues>
  <separator name="orbital magnetization" >
   <v name="MAGDIPOLOUT">      0.00000000      0.00000000      0.00000000</v>
  </separator>
  <dos>
   <i name="efermi">      8.08274623 </i>
   <total>
    <array>
     <dimension dim="1">gridpoints</dimension>
     <dimension dim="2">spin</dimension>
     <field>energy</field>
     <field>total</field>
     <field>integrated</field>
     <set>
      <set comment="spin 1">
       <r>    -1.5369     0.0000     0.0000 </r>
       <r>    -1.4358     0.0000     0.0000 </r>
       <r>    -1.3346     0.0000     0.0000 </r>
       <r>    -1.2335    -0.0000    -0.0000 </r>
       <r>    -1.1323    -0.0000    -0.0000 </r>
       <r>    -1.0312    -0.0000    -0.0000 </r>
       <r>    -0.9300    -0.0000    -0.0000 </r>
       <r>    -0.8288    -0.0000    -0.0000 </r>
       <r>    -0.7277    -0.0000    -0.0000 </r>
       <r>    -0.6265    -0.0000    -0.0000 </r>
       <r>    -0.5254    -0.0000    -0.0000 </r>
       <r>    -0.4242    -0.0000    -0.0000 </r>
       <r>    -0.3231    -0.0000    -0.0000 </r>
       <r>    -0.2219    -0.0000    -0.0000 </r>
       <r>    -0.1207    -0.0000    -0.0000 </r>
       <r>    -0.0196    -0.0000    -0.0000 </r>
       <r>     0.0816    -0.0001    -0.0000 </r>
       <r>     0.1827    -0.0003    -0.0000 </r>
       <r>     0.2839    -0.0006    -0.0001 </r>
       <r>     0.3850     0.0001    -0.0001 </r>
       <r>     0.4862     0.0046     0.0004 </r>
       <r>     0.5874     0.0124     0.0016 </r>
       <r>     0.6885     0.0205     0.0037 </r>
       <r>     0.7897     0.0296     0.0067 </r>
       <r>     0.8908     0.0367     0.0104 </r>
       <r>     0.9920     0.0385     0.0143 </r>
       <r>     1.0931     0.0413     0.0185 </r>
       <r>     1.1943     0.0512     0.0237 </r>
       <r>     1.2954     0.0602     0.0298 </r>
       <r>     1.3966     0.0600     0.0358 </r>
       <r>     1.4978     0.0600     0.0419 </r>
       <r>     1.5989     0.0654     0.0485 </r>
       <r>     1.7001     0.0839     0.0570 </r>
       <r>     1.8012     0.1213     0.0693 </r>
       <r>     1.9024     0.1601     0.0855 </r>
       <r>     2.0035     0.2052     0.1062 </r>
       <r>     2.1047     0.2831     0.1349 </r>
       <r>     2.2059     0.4093     0.1763 </r>
       <r>     2.3070     0.5635     0.2333 </r>
       <r>     2.4082     0.6695     0.3010 </r>
       <r>     2.5093     0.7454     0.3764 </r>
       <r>     2.6105     0.8896     0.4664 </r>
       <r>     2.7116     1.0137     0.5689 </r>
       <r>     2.8128     1.0473     0.6749 </r>
       <r>     2.9140     1.1290     0.7891 </r>
       <r>     3.0151     1.2692     0.9175 </r>
       <r>     3.1163     1.2993     1.0489 </r>
       <r>     3.2174     1.2348     1.1738 </r>
       <r>     3.3186     1.2649     1.3017 </r>
       <r>     3.4197     1.4193     1.4453 </r>
       <r>     3.5209     1.4926     1.5963 </r>
       <r>     3.6221     1.3461     1.7325 </r>
       <r>     3.7232     1.1229     1.8461 </r>
       <r>     3.8244     0.9968     1.9469 </r>
       <r>     3.9255     0.8897     2.0369 </r>
       <r>     4.0267     0.7827     2.1161 </r>
       <r>     4.1278     0.9036     2.2075 </r>
       <r>     4.2290     1.1779     2.3266 </r>
       <r>     4.3302     1.2866     2.4568 </r>
       <r>     4.4313     1.3755     2.5959 </r>
       <r>     4.5325     1.7112     2.7690 </r>
       <r>     4.6336     1.9669     2.9680 </r>
       <r>     4.7348     1.7795     3.1480 </r>
       <r>     4.8359     1.3963     3.2892 </r>
       <r>     4.9371     1.1808     3.4087 </r>
       <r>     5.0383     1.1106     3.5210 </r>
       <r>     5.1394     0.9917     3.6213 </r>
       <r>     5.2406     0.8206     3.7043 </r>
       <r>     5.3417     0.7345     3.7786 </r>
       <r>     5.4429     0.7908     3.8586 </r>
       <r>     5.5440     0.8604     3.9457 </r>
       <r>     5.6452     0.8387     4.0305 </r>
       <r>     5.7464     0.8665     4.1182 </r>
       <r>     5.8475     0.9814     4.2175 </r>
       <r>     5.9487     1.0521     4.3239 </r>
       <r>     6.0498     1.3032     4.4557 </r>
       <r>     6.1510     1.8404     4.6419 </r>
       <r>     6.2521     2.1059     4.8549 </r>
       <r>     6.3533     1.7623     5.0332 </r>
       <r>     6.4545     1.1399     5.1485 </r>
       <r>     6.5556     0.6951     5.2188 </r>
       <r>     6.6568     0.5572     5.2752 </r>
       <r>     6.7579     0.5361     5.3294 </r>
       <r>     6.8591     0.5361     5.3836 </r>
       <r>     6.9602     0.5548     5.4397 </r>
       <r>     7.0614     0.5075     5.4911 </r>
       <r>     7.1626     0.4406     5.5357 </r>
       <r>     7.2637     0.4976     5.5860 </r>
       <r>     7.3649     0.6274     5.6495 </r>
       <r>     7.4660     0.6437     5.7146 </r>
       <r>     7.5672     0.5083     5.7660 </r>
       <r>     7.6683     0.3844     5.8049 </r>
       <r>     7.7695     0.3772     5.8430 </r>
       <r>     7.8707     0.4237     5.8859 </r>
       <r>     7.9718     0.4920     5.9356 </r>
       <r>     8.0730     0.5777     5.9941 </r>
       <r>     8.1741     0.6002     6.0548 </r>
       <r>     8.2753     0.5856     6.1140 </r>
       <r>     8.3764     0.6698     6.1818 </r>
       <r>     8.4776     0.8412     6.2669 </r>
       <r>     8.5788     0.9506     6.3630 </r>
       <r>     8.6799     0.9475     6.4589 </r>
       <r>     8.7811     0.9485     6.5548 </r>
       <r>     8.8822     1.0354     6.6596 </r>
       <r>     8.9834     1.0854     6.7694 </r>
       <r>     9.0845     1.0251     6.8731 </r>
       <r>     9.1857     0.9907     6.9733 </r>
       <r>     9.2869     1.0240     7.0769 </r>
       <r>     9.3880     1.0300     7.1811 </r>
       <r>     9.4892     1.0221     7.2845 </r>
       <r>     9.5903     1.0338     7.3890 </r>
       <r>     9.6915     1.1148     7.5018 </r>
       <r>     9.7926     1.3463     7.6380 </r>
       <r>     9.8938     1.5864     7.7985 </r>
       <r>     9.9950     1.6272     7.9631 </r>
       <r>    10.0961     1.4505     8.1098 </r>
       <r>    10.1973     1.2194     8.2331 </r>
       <r>    10.2984     1.1074     8.3452 </r>
       <r>    10.3996     1.1454     8.4610 </r>
       <r>    10.5007     1.2780     8.5903 </r>
       <r>    10.6019     1.5167     8.7437 </r>
       <r>    10.7031     1.8538     8.9312 </r>
       <r>    10.8042     1.9756     9.1311 </r>
       <r>    10.9054     1.6802     9.3011 </r>
       <r>    11.0065     1.3476     9.4374 </r>
       <r>    11.1077     1.2417     9.5630 </r>
       <r>    11.2088     1.1450     9.6788 </r>
       <r>    11.3100     0.9500     9.7749 </r>
       <r>    11.4112     0.7439     9.8502 </r>
       <r>    11.5123     0.6051     9.9114 </r>
       <r>    11.6135     0.6008     9.9721 </r>
       <r>    11.7146     0.6412    10.0370 </r>
       <r>    11.8158     0.5393    10.0916 </r>
       <r>    11.9169     0.3388    10.1258 </r>
       <r>    12.0181     0.3277    10.1590 </r>
       <r>    12.1193     0.5874    10.2184 </r>
       <r>    12.2204     0.8424    10.3036 </r>
       <r>    12.3216     0.8870    10.3933 </r>
       <r>    12.4227     0.7592    10.4701 </r>
       <r>    12.5239     0.5600    10.5268 </r>
       <r>    12.6250     0.3935    10.5666 </r>
       <r>    12.7262     0.3375    10.6007 </r>
       <r>    12.8274     0.3627    10.6374 </r>
       <r>    12.9285     0.3341    10.6712 </r>
       <r>    13.0297     0.2365    10.6951 </r>
       <r>    13.1308     0.2258    10.7180 </r>
       <r>    13.2320     0.3104    10.7494 </r>
       <r>    13.3331     0.3294    10.7827 </r>
       <r>    13.4343     0.2534    10.8083 </r>
       <r>    13.5354     0.2193    10.8305 </r>
       <r>    13.6366     0.2966    10.8605 </r>
       <r>    13.7378     0.3956    10.9005 </r>
       <r>    13.8389     0.4032    10.9413 </r>
       <r>    13.9401     0.3082    10.9725 </r>
       <r>    14.0412     0.2062    10.9934 </r>
       <r>    14.1424     0.1582    11.0094 </r>
       <r>    14.2435     0.1588    11.0254 </r>
       <r>    14.3447     0.2194    11.0476 </r>
       <r>    14.4459     0.2772    11.0757 </r>
       <r>    14.5470     0.2506    11.1010 </r>
       <r>    14.6482     0.1911    11.1203 </r>
       <r>    14.7493     0.1714    11.1377 </r>
       <r>    14.8505     0.1700    11.1549 </r>
       <r>    14.9516     0.1952    11.1746 </r>
       <r>    15.0528     0.3142    11.2064 </r>
       <r>    15.1540     0.4343    11.2504 </r>
       <r>    15.2551     0.3921    11.2900 </r>
       <r>    15.3563     0.2433    11.3146 </r>
       <r>    15.4574     0.1363    11.3284 </r>
       <r>    15.5586     0.1216    11.3407 </r>
       <r>    15.6597     0.1783    11.3588 </r>
       <r>    15.7609     0.2203    11.3810 </r>
       <r>    15.8621     0.1962    11.4009 </r>
       <r>    15.9632     0.1866    11.4198 </r>
       <r>    16.0644     0.2246    11.4425 </r>
       <r>    16.1655     0.2516    11.4679 </r>
       <r>    16.2667     0.2568    11.4939 </r>
       <r>    16.3678     0.2506    11.5193 </r>
       <r>    16.4690     0.2191    11.5414 </r>
       <r>    16.5702     0.2037    11.5620 </r>
       <r>    16.6713     0.2471    11.5870 </r>
       <r>    16.7725     0.2759    11.6150 </r>
       <r>    16.8736     0.2175    11.6370 </r>
       <r>    16.9748     0.1433    11.6515 </r>
       <r>    17.0759     0.1335    11.6650 </r>
       <r>    17.1771     0.1435    11.6795 </r>
       <r>    17.2783     0.1413    11.6938 </r>
       <r>    17.3794     0.1533    11.7093 </r>
       <r>    17.4806     0.2017    11.7297 </r>
       <r>    17.5817     0.2918    11.7592 </r>
       <r>    17.6829     0.3300    11.7926 </r>
       <r>    17.7840     0.2344    11.8163 </r>
       <r>    17.8852     0.1240    11.8289 </r>
       <r>    17.9864     0.0914    11.8381 </r>
       <r>    18.0875     0.0836    11.8466 </r>
       <r>    18.1887     0.0883    11.8555 </r>
       <r>    18.2898     0.1463    11.8703 </r>
       <r>    18.3910     0.2113    11.8917 </r>
       <r>    18.4921     0.1881    11.9107 </r>
       <r>    18.5933     0.1254    11.9234 </r>
       <r>    18.6945     0.1127    11.9348 </r>
       <r>    18.7956     0.1086    11.9458 </r>
       <r>    18.8968     0.0819    11.9540 </r>
       <r>    18.9979     0.0766    11.9618 </r>
       <r>    19.0991     0.0945    11.9713 </r>
       <r>    19.2002     0.1001    11.9815 </r>
       <r>    19.3014     0.1003    11.9916 </r>
       <r>    19.4026     0.1032    12.0020 </r>
       <r>    19.5037     0.0947    12.0116 </r>
       <r>    19.6049     0.0874    12.0205 </r>
       <r>    19.7060     0.1380    12.0344 </r>
       <r>    19.8072     0.2390    12.0586 </r>
       <r>    19.9083     0.2778    12.0867 </r>
       <r>    20.0095     0.2754    12.1145 </r>
       <r>    20.1107     0.3466    12.1496 </r>
       <r>    20.2118     0.4361    12.1937 </r>
       <r>    20.3130     0.4661    12.2409 </r>
       <r>    20.4141     0.4419    12.2856 </r>
       <r>    20.5153     0.3676    12.3227 </r>
       <r>    20.6164     0.3408    12.3572 </r>
       <r>    20.7176     0.4064    12.3983 </r>
       <r>    20.8188     0.4435    12.4432 </r>
       <r>    20.9199     0.4489    12.4886 </r>
       <r>    21.0211     0.4890    12.5381 </r>
       <r>    21.1222     0.5036    12.5890 </r>
       <r>    21.2234     0.4493    12.6345 </r>
       <r>    21.3245     0.4132    12.6763 </r>
       <r>    21.4257     0.4632    12.7231 </r>
       <r>    21.5269     0.4851    12.7722 </r>
       <r>    21.6280     0.3987    12.8125 </r>
       <r>    21.7292     0.3370    12.8466 </r>
       <r>    21.8303     0.3809    12.8852 </r>
       <r>    21.9315     0.3964    12.9253 </r>
       <r>    22.0326     0.3174    12.9574 </r>
       <r>    22.1338     0.2676    12.9844 </r>
       <r>    22.2350     0.2715    13.0119 </r>
       <r>    22.3361     0.2889    13.0411 </r>
       <r>    22.4373     0.3669    13.0782 </r>
       <r>    22.5384     0.4323    13.1220 </r>
       <r>    22.6396     0.3724    13.1596 </r>
       <r>    22.7407     0.2714    13.1871 </r>
       <r>    22.8419     0.2202    13.2094 </r>
       <r>    22.9431     0.2203    13.2317 </r>
       <r>    23.0442     0.2630    13.2583 </r>
       <r>    23.1454     0.2872    13.2873 </r>
       <r>    23.2465     0.2816    13.3158 </r>
       <r>    23.3477     0.2988    13.3460 </r>
       <r>    23.4488     0.3076    13.3771 </r>
       <r>    23.5500     0.2828    13.4057 </r>
       <r>    23.6512     0.2605    13.4321 </r>
       <r>    23.7523     0.2534    13.4577 </r>
       <r>    23.8535     0.2508    13.4831 </r>
       <r>    23.9546     0.2588    13.5093 </r>
       <r>    24.0558     0.2662    13.5362 </r>
       <r>    24.1569     0.2445    13.5610 </r>
       <r>    24.2581     0.2030    13.5815 </r>
       <r>    24.3593     0.1713    13.5988 </r>
       <r>    24.4604     0.1894    13.6180 </r>
       <r>    24.5616     0.2399    13.6423 </r>
       <r>    24.6627     0.2538    13.6679 </r>
       <r>    24.7639     0.2303    13.6912 </r>
       <r>    24.8650     0.1990    13.7114 </r>
       <r>    24.9662     0.1885    13.7304 </r>
       <r>    25.0674     0.2345    13.7541 </r>
       <r>    25.1685     0.2649    13.7809 </r>
       <r>    25.2697     0.2056    13.8017 </r>
       <r>    25.3708     0.1609    13.8180 </r>
       <r>    25.4720     0.2145    13.8397 </r>
       <r>    25.5731     0.2836    13.8684 </r>
       <r>    25.6743     0.2952    13.8983 </r>
       <r>    25.7754     0.2574    13.9243 </r>
       <r>    25.8766     0.1825    13.9428 </r>
       <r>    25.9778     0.1145    13.9544 </r>
       <r>    26.0789     0.1005    13.9645 </r>
       <r>    26.1801     0.1041    13.9750 </r>
       <r>    26.2812     0.0809    13.9832 </r>
       <r>    26.3824     0.0476    13.9880 </r>
       <r>    26.4835     0.0293    13.9910 </r>
       <r>    26.5847     0.0251    13.9935 </r>
       <r>    26.6859     0.0272    13.9963 </r>
       <r>    26.7870     0.0238    13.9987 </r>
       <r>    26.8882     0.0120    13.9999 </r>
       <r>    26.9893     0.0023    14.0002 </r>
       <r>    27.0905    -0.0007    14.0001 </r>
       <r>    27.1916    -0.0006    14.0000 </r>
       <r>    27.2928    -0.0002    14.0000 </r>
       <r>    27.3940    -0.0000    14.0000 </r>
       <r>    27.4951    -0.0000    14.0000 </r>
       <r>    27.5963    -0.0000    14.0000 </r>
       <r>    27.6974    -0.0000    14.0000 </r>
       <r>    27.7986    -0.0000    14.0000 </r>
       <r>    27.8997    -0.0000    14.0000 </r>
       <r>    28.0009    -0.0000    14.0000 </r>
       <r>    28.1021    -0.0000    14.0000 </r>
       <r>    28.2032     0.0000    14.0000 </r>
       <r>    28.3044     0.0000    14.0000 </r>
       <r>    28.4055     0.0000    14.0000 </r>
       <r>    28.5067     0.0000    14.0000 </r>
       <r>    28.6078     0.0000    14.0000 </r>
       <r>    28.7090     0.0000    14.0000 </r>
       <r>    28.8102     0.0000    14.0000 </r>
      </set>
     </set>
    </array>
   </total>
  </dos>
 </calculation>
 <structure name="finalpos" >
  <crystal>
   <varray name="basis" >
    <v>       2.48289504       0.00000000      -0.87783648 </v>
    <v>      -1.24144800       2.15025024      -0.87783648 </v>
    <v>       0.00000000       0.00000000       2.63350848 </v>
   </varray>
   <i name="volume">     14.05989531 </i>
   <varray name="rec_basis" >
    <v>       0.40275565       0.23253116      -0.00000000 </v>
    <v>      -0.00000000       0.46506215       0.00000000 </v>
    <v>       0.13425193       0.23253119       0.37972158 </v>
   </varray>
  </crystal>
  <varray name="positions" >
   <v>       0.00000000       0.00000000       0.00000000 </v>
  </varray>
 </structure>
</modeling>
