<?xml version="1.0" encoding="ISO-8859-1"?>
<modeling>
 <generator>
  <i name="program" type="string">vasp </i>
  <i name="version" type="string">6.4.2  </i>
  <i name="subversion" type="string">20Jul23 (build Mar  2 2025 11:04:54) complex                          parallel </i>
  <i name="platform" type="string">LinuxNV </i>
  <i name="date" type="string">2026 04 06 </i>
  <i name="time" type="string">21:57:40 </i>
 </generator>
 <incar>
  <i type="string" name="PREC">Accurate</i>
  <i name="EDIFF">      0.00000100</i>
  <i type="int" name="NSW">     0</i>
  <i type="int" name="ISIF">     2</i>
  <i name="ENCUT">    400.00000000</i>
  <i type="int" name="ISMEAR">     0</i>
  <i name="SIGMA">      0.05000000</i>
  <i name="PSTRESS">      0.00000000</i>
  <i type="logical" name="LWAVE"> F  </i>
  <i type="logical" name="LCHARG"> F  </i>
 </incar>
 <primitive_cell>
  <structure name="primitive_cell" >
   <crystal>
    <varray name="basis" >
     <v>       2.11500000       2.11500000      -2.11500000 </v>
     <v>      -2.11500000       2.11500000       2.11500000 </v>
     <v>       2.11500000      -2.11500000       2.11500000 </v>
    </varray>
    <i name="volume">     37.84348350 </i>
    <varray name="rec_basis" >
     <v>       0.23640662       0.23640662      -0.00000000 </v>
     <v>      -0.00000000       0.23640662       0.23640662 </v>
     <v>       0.23640662      -0.00000000       0.23640662 </v>
    </varray>
   </crystal>
   <varray name="positions" >
    <v>       0.00000000       0.00000000       0.00000000 </v>
   </varray>
  </structure>
  <varray name="primitive_index" >
   <v type="int" >        1 </v>
  </varray>
 </primitive_cell>
 <kpoints>
  <generation param="Monkhorst-Pack">
   <v type="int" name="divisions">      12       12       12 </v>
   <v name="usershift">      0.00000000       0.00000000       0.00000000 </v>
   <v name="genvec1">      0.08333333       0.00000000       0.00000000 </v>
   <v name="genvec2">      0.00000000       0.08333333       0.00000000 </v>
   <v name="genvec3">      0.00000000       0.00000000       0.08333333 </v>
   <v name="shift">      0.50000000       0.50000000       0.50000000 </v>
  </generation>
  <varray name="kpointlist" >
   <v>       0.04166667       0.04166667       0.04166667 </v>
   <v>       0.12500000       0.04166667       0.04166667 </v>
   <v>       0.20833333       0.04166667       0.04166667 </v>
   <v>       0.29166667       0.04166667       0.04166667 </v>
   <v>       0.37500000       0.04166667       0.04166667 </v>
   <v>       0.45833333       0.04166667       0.04166667 </v>
   <v>       0.12500000       0.12500000       0.04166667 </v>
   <v>       0.20833333       0.12500000       0.04166667 </v>
   <v>       0.29166667       0.12500000       0.04166667 </v>
   <v>       0.37500000       0.12500000       0.04166667 </v>
   <v>       0.45833333       0.12500000       0.04166667 </v>
   <v>       0.20833333       0.20833333       0.04166667 </v>
   <v>       0.29166667       0.20833333       0.04166667 </v>
   <v>       0.37500000       0.20833333       0.04166667 </v>
   <v>       0.45833333       0.20833333       0.04166667 </v>
   <v>       0.29166667       0.29166667       0.04166667 </v>
   <v>       0.37500000       0.29166667       0.04166667 </v>
   <v>       0.45833333       0.29166667       0.04166667 </v>
   <v>       0.37500000       0.37500000       0.04166667 </v>
   <v>       0.45833333       0.37500000       0.04166667 </v>
   <v>       0.45833333       0.45833333       0.04166667 </v>
   <v>       0.12500000       0.12500000       0.12500000 </v>
   <v>       0.20833333       0.12500000       0.12500000 </v>
   <v>       0.29166667       0.12500000       0.12500000 </v>
   <v>       0.37500000       0.12500000       0.12500000 </v>
   <v>       0.45833333       0.12500000       0.12500000 </v>
   <v>       0.20833333       0.20833333       0.12500000 </v>
   <v>       0.29166667       0.20833333       0.12500000 </v>
   <v>       0.37500000       0.20833333       0.12500000 </v>
   <v>       0.45833333       0.20833333       0.12500000 </v>
   <v>       0.29166667       0.29166667       0.12500000 </v>
   <v>       0.37500000       0.29166667       0.12500000 </v>
   <v>       0.45833333       0.29166667       0.12500000 </v>
   <v>       0.37500000       0.37500000       0.12500000 </v>
   <v>       0.45833333       0.37500000       0.12500000 </v>
   <v>       0.45833333       0.45833333       0.12500000 </v>
   <v>       0.20833333       0.20833333       0.20833333 </v>
   <v>       0.29166667       0.20833333       0.20833333 </v>
   <v>       0.37500000       0.20833333       0.20833333 </v>
   <v>       0.45833333       0.20833333       0.20833333 </v>
   <v>       0.29166667       0.29166667       0.20833333 </v>
   <v>       0.37500000       0.29166667       0.20833333 </v>
   <v>       0.45833333       0.29166667       0.20833333 </v>
   <v>       0.37500000       0.37500000       0.20833333 </v>
   <v>       0.45833333       0.37500000       0.20833333 </v>
   <v>       0.45833333       0.45833333       0.20833333 </v>
   <v>       0.29166667       0.29166667       0.29166667 </v>
   <v>       0.37500000       0.29166667       0.29166667 </v>
   <v>       0.45833333       0.29166667       0.29166667 </v>
   <v>       0.37500000       0.37500000       0.29166667 </v>
   <v>       0.45833333       0.37500000       0.29166667 </v>
   <v>       0.45833333       0.45833333       0.29166667 </v>
   <v>       0.37500000       0.37500000       0.37500000 </v>
   <v>       0.45833333       0.37500000       0.37500000 </v>
   <v>       0.45833333       0.45833333       0.37500000 </v>
   <v>       0.45833333       0.45833333       0.45833333 </v>
  </varray>
  <varray name="weights" >
   <v>       0.00462963 </v>
   <v>       0.01388889 </v>
   <v>       0.01388889 </v>
   <v>       0.01388889 </v>
   <v>       0.01388889 </v>
   <v>       0.01388889 </v>
   <v>       0.01388889 </v>
   <v>       0.02777778 </v>
   <v>       0.02777778 </v>
   <v>       0.02777778 </v>
   <v>       0.02777778 </v>
   <v>       0.01388889 </v>
   <v>       0.02777778 </v>
   <v>       0.02777778 </v>
   <v>       0.02777778 </v>
   <v>       0.01388889 </v>
   <v>       0.02777778 </v>
   <v>       0.02777778 </v>
   <v>       0.01388889 </v>
   <v>       0.02777778 </v>
   <v>       0.01388889 </v>
   <v>       0.00462963 </v>
   <v>       0.01388889 </v>
   <v>       0.01388889 </v>
   <v>       0.01388889 </v>
   <v>       0.01388889 </v>
   <v>       0.01388889 </v>
   <v>       0.02777778 </v>
   <v>       0.02777778 </v>
   <v>       0.02777778 </v>
   <v>       0.01388889 </v>
   <v>       0.02777778 </v>
   <v>       0.02777778 </v>
   <v>       0.01388889 </v>
   <v>       0.02777778 </v>
   <v>       0.01388889 </v>
   <v>       0.00462963 </v>
   <v>       0.01388889 </v>
   <v>       0.01388889 </v>
   <v>       0.01388889 </v>
   <v>       0.01388889 </v>
   <v>       0.02777778 </v>
   <v>       0.02777778 </v>
   <v>       0.01388889 </v>
   <v>       0.02777778 </v>
   <v>       0.01388889 </v>
   <v>       0.00462963 </v>
   <v>       0.01388889 </v>
   <v>       0.01388889 </v>
   <v>       0.01388889 </v>
   <v>       0.02777778 </v>
   <v>       0.01388889 </v>
   <v>       0.00462963 </v>
   <v>       0.01388889 </v>
   <v>       0.01388889 </v>
   <v>       0.00462963 </v>
  </varray>
 </kpoints>
 <parameters>
  <separator name="general" >
   <i type="string" name="SYSTEM">unknown system</i>
   <i type="logical" name="LCOMPAT"> F  </i>
  </separator>
  <separator name="electronic" >
   <i type="string" name="PREC">accura</i>
   <i name="ENMAX">    400.00000000</i>
   <i name="ENAUG">    250.69500000</i>
   <i name="EDIFF">      0.00000100</i>
   <i type="int" name="IALGO">    38</i>
   <i type="int" name="IWAVPR">    10</i>
   <i type="int" name="NBANDS">     5</i>
   <i type="int" name="NBANDSLOW">    -1</i>
   <i type="int" name="NBANDSHIGH">    -1</i>
   <i name="NELECT">      2.00000000</i>
   <i type="int" name="TURBO">     0</i>
   <i type="int" name="IRESTART">     0</i>
   <i type="int" name="NREBOOT">     0</i>
   <i type="int" name="NMIN">     0</i>
   <i name="EREF">      0.00000000</i>
   <separator name="electronic smearing" >
    <i type="int" name="ISMEAR">     0</i>
    <i name="SIGMA">      0.05000000</i>
    <i name="KSPACING">      0.50000000</i>
    <i type="logical" name="KGAMMA"> T  </i>
    <i type="logical" name="KBLOWUP"> T  </i>
   </separator>
   <separator name="electronic projectors" >
    <i type="logical" name="LREAL"> F  </i>
    <v name="ROPT">      0.00000000</v>
    <i type="int" name="LMAXPAW">  -100</i>
    <i type="int" name="LMAXMIX">     2</i>
    <i type="logical" name="NLSPLINE"> F  </i>
   </separator>
   <separator name="electronic startup" >
    <i type="int" name="ISTART">     0</i>
    <i type="int" name="ICHARG">     2</i>
    <i type="int" name="INIWAV">     1</i>
   </separator>
   <separator name="electronic spin" >
    <i type="int" name="ISPIN">     1</i>
    <i type="logical" name="LNONCOLLINEAR"> F  </i>
    <v name="MAGMOM">      1.00000000      1.00000000</v>
    <i name="NUPDOWN">     -1.00000000</i>
    <i type="logical" name="LSORBIT"> F  </i>
    <v name="SAXIS">      0.00000000      0.00000000      1.00000000</v>
    <i type="logical" name="LSPIRAL"> F  </i>
    <v name="QSPIRAL">      0.00000000      0.00000000      0.00000000</v>
    <i type="logical" name="LZEROZ"> F  </i>
   </separator>
   <separator name="electronic exchange-correlation" >
    <i type="logical" name="LASPH"> F  </i>
    <i type="logical" name="LMETAGGA"> F  </i>
   </separator>
   <separator name="electronic convergence" >
    <i type="int" name="NELM">    60</i>
    <i type="int" name="NELMDL">    -5</i>
    <i type="int" name="NELMIN">     2</i>
    <i name="ENINI">    400.00000000</i>
    <separator name="electronic convergence detail" >
     <i type="logical" name="LDIAG"> T  </i>
     <i type="logical" name="LSUBROT"> F  </i>
     <i name="WEIMIN">      0.00000000</i>
     <i name="EBREAK">      0.00000005</i>
     <i name="DEPER">      0.30000000</i>
     <i type="int" name="NRMM">     4</i>
     <i name="TIME">      0.40000000</i>
    </separator>
   </separator>
   <separator name="electronic mixer" >
    <i name="AMIX">      0.40000000</i>
    <i name="BMIX">      1.00000000</i>
    <i name="AMIN">      0.10000000</i>
    <i name="AMIX_MAG">      1.60000000</i>
    <i name="BMIX_MAG">      1.00000000</i>
    <separator name="electronic mixer details" >
     <i type="int" name="IMIX">     4</i>
     <i type="logical" name="MIXFIRST"> F  </i>
     <i type="int" name="MAXMIX">   -45</i>
     <i name="WC">    100.00000000</i>
     <i type="int" name="INIMIX">     1</i>
     <i type="int" name="MIXPRE">     1</i>
     <i type="int" name="MREMOVE">     5</i>
    </separator>
   </separator>
   <separator name="electronic dipolcorrection" >
    <i type="logical" name="LDIPOL"> F  </i>
    <i type="logical" name="LMONO"> F  </i>
    <i type="int" name="IDIPOL">     0</i>
    <i name="EPSILON">      1.00000000</i>
    <v name="DIPOL">   -100.00000000   -100.00000000   -100.00000000</v>
    <i name="EFIELD">      0.00000000</i>
   </separator>
  </separator>
  <separator name="grids" >
   <i type="int" name="NGX">    28</i>
   <i type="int" name="NGY">    28</i>
   <i type="int" name="NGZ">    28</i>
   <i type="int" name="NGXF">    56</i>
   <i type="int" name="NGYF">    56</i>
   <i type="int" name="NGZF">    56</i>
   <i type="logical" name="ADDGRID"> F  </i>
  </separator>
  <separator name="ionic" >
   <i type="int" name="NSW">     0</i>
   <i type="int" name="IBRION">    -1</i>
   <i type="int" name="MDALGO">     0</i>
   <i type="int" name="ISIF">     2</i>
   <i name="PSTRESS">      0.00000000</i>
   <i name="EDIFFG">      0.00001000</i>
   <i type="int" name="NFREE">     0</i>
   <i name="POTIM">      0.50000000</i>
   <i name="SMASS">     -3.00000000</i>
   <i name="SCALEE">      1.00000000</i>
  </separator>
  <separator name="ionic md" >
   <i name="TEBEG">      0.00010000</i>
   <i name="TEEND">      0.00010000</i>
   <i type="int" name="NBLOCK">     1</i>
   <i type="int" name="KBLOCK">     1</i>
   <i type="int" name="NPACO">   256</i>
   <i name="APACO">     10.00000000</i>
  </separator>
  <separator name="symmetry" >
   <i type="int" name="ISYM">     2</i>
   <i name="SYMPREC">      0.00001000</i>
  </separator>
  <separator name="dos" >
   <i type="int" name="LORBIT">     0</i>
   <v name="RWIGS">     -1.00000000</v>
   <i type="int" name="NEDOS">   301</i>
   <i name="EMIN">     10.00000000</i>
   <i name="EMAX">    -10.00000000</i>
   <i name="EFERMI">      0.00000000</i>
  </separator>
  <separator name="writing" >
   <i type="int" name="NWRITE">     2</i>
   <i type="logical" name="LWAVE"> F  </i>
   <i type="logical" name="LDOWNSAMPLE"> F  </i>
   <i type="logical" name="LCHARG"> F  </i>
   <i type="logical" name="LPARD"> F  </i>
   <i type="logical" name="LVTOT"> F  </i>
   <i type="logical" name="LVHAR"> F  </i>
   <i type="logical" name="LELF"> F  </i>
   <i type="logical" name="LOPTICS"> F  </i>
   <v name="STM">      0.00000000      0.00000000      0.00000000      0.00000000      0.00000000      0.00000000      0.00000000</v>
  </separator>
  <separator name="performance" >
   <i type="int" name="NPAR">     1</i>
   <i type="int" name="NSIM">     4</i>
   <i type="int" name="NBLK">    -1</i>
   <i type="logical" name="LPLANE"> T  </i>
   <i type="logical" name="LSCALAPACK"> T  </i>
   <i type="logical" name="LSCAAWARE"> F  </i>
   <i type="logical" name="LSCALU"> F  </i>
   <i type="logical" name="LASYNC"> F  </i>
   <i type="logical" name="LORBITALREAL"> F  </i>
  </separator>
  <separator name="miscellaneous" >
   <i type="int" name="IDIOT">     3</i>
   <i type="int" name="PHON_NSTRUCT">    -1</i>
   <i type="logical" name="LMUSIC"> F  </i>
   <v name="POMASS">     22.99000000</v>
   <v name="DARWINR">      0.00000000</v>
   <v name="DARWINV">      1.00000000</v>
   <i type="logical" name="LCORR"> T  </i>
  </separator>
  <i type="logical" name="GGA_COMPAT"> T  </i>
  <i type="logical" name="LBERRY"> F  </i>
  <i type="int" name="ICORELEVEL">     0</i>
  <i type="logical" name="LDAU"> F  </i>
  <i type="int" name="I_CONSTRAINED_M">     0</i>
  <separator name="electronic exchange-correlation" >
   <i type="string" name="GGA">--</i>
   <i type="int" name="VOSKOWN">     0</i>
   <i type="logical" name="LHFCALC"> F  </i>
   <i type="string" name="PRECFOCK"></i>
   <i type="logical" name="LSYMGRAD"> F  </i>
   <i type="logical" name="LHFONE"> F  </i>
   <i type="logical" name="LRHFCALC"> F  </i>
   <i type="logical" name="LTHOMAS"> F  </i>
   <i type="logical" name="LMODELHF"> F  </i>
   <i type="logical" name="LFOCKACE"> F  </i>
   <i name="ENCUT4O">     -1.00000000</i>
   <i type="int" name="EXXOEP">     0</i>
   <i type="int" name="FOURORBIT">     0</i>
   <i name="AEXX">      0.00000000</i>
   <i name="HFALPHA">      0.00000000</i>
   <i name="MCALPHA">      0.00000000</i>
   <i name="ALDAX">      1.00000000</i>
   <i name="AGGAX">      1.00000000</i>
   <i name="ALDAC">      1.00000000</i>
   <i name="AGGAC">      1.00000000</i>
   <i type="int" name="NKREDX">     1</i>
   <i type="int" name="NKREDY">     1</i>
   <i type="int" name="NKREDZ">     1</i>
   <i type="logical" name="SHIFTRED"> F  </i>
   <i type="logical" name="ODDONLY"> F  </i>
   <i type="logical" name="EVENONLY"> F  </i>
   <i type="int" name="LMAXFOCK">     0</i>
   <i type="int" name="NMAXFOCKAE">     0</i>
   <i type="logical" name="LFOCKAEDFT"> F  </i>
   <i name="HFSCREEN">      0.00000000</i>
   <i name="HFSCREENC">      0.00000000</i>
   <i type="int" name="NBANDSGWLOW">     0</i>
  </separator>
  <separator name="vdW DFT" >
   <i type="logical" name="LUSE_VDW"> F  </i>
   <i type="int" name="IVDW_NL">     1</i>
   <i type="logical" name="LSPIN_VDW"> F  </i>
   <i name="Zab_VDW">     -0.84910000</i>
   <i name="PARAM1">      0.12340000</i>
   <i name="PARAM2">      1.00000000</i>
   <i name="PARAM3">      0.00000000</i>
  </separator>
  <separator name="model GW" >
   <i type="int" name="MODEL_GW">     0</i>
   <i name="MODEL_EPS0">     22.70609010</i>
   <i name="MODEL_ALPHA">      1.00000000</i>
  </separator>
  <separator name="linear response parameters" >
   <i type="logical" name="LEPSILON"> F  </i>
   <i type="logical" name="LRPA"> F  </i>
   <i type="logical" name="LNABLA"> F  </i>
   <i type="logical" name="LVEL"> F  </i>
   <i name="CSHIFT">      0.10000000</i>
   <i name="OMEGAMAX">     -1.00000000</i>
   <i name="DEG_THRESHOLD">      0.00200000</i>
   <i name="RTIME">     -0.10000000</i>
   <i name="WPLASMAI">      0.00000000</i>
   <v name="DFIELD">      0.00000000      0.00000000      0.00000000</v>
   <v name="WPLASMA">      0.00000000      0.00000000      0.00000000      0.00000000      0.00000000      0.00000000      0.00000000      0.00000000      0.00000000</v>
  </separator>
  <separator name="orbital magnetization" >
   <i type="logical" name="NUCIND"> F  </i>
   <v name="MAGPOS">      0.00000000      0.00000000      0.00000000</v>
   <i type="logical" name="LNICSALL"> T  </i>
   <i type="logical" name="ORBITALMAG"> F  </i>
   <i type="logical" name="LMAGBLOCH"> F  </i>
   <i type="logical" name="LCHIMAG"> F  </i>
   <i type="logical" name="LGAUGE"> T  </i>
   <i type="int" name="MAGATOM">     0</i>
   <v name="MAGDIPOL">      0.00000000      0.00000000      0.00000000</v>
   <v name="AVECCONST">      0.00000000      0.00000000      0.00000000</v>
  </separator>
  <separator name="response functions" >
   <i type="logical" name="LALL_IN_ONE"> F  </i>
   <i type="int" name="IALL_IN_ONE">    -1</i>
   <i type="int" name="NBANDS_WAVE">    -1</i>
   <i type="logical" name="LFINITE_TEMPERATURE"> F  </i>
   <i type="logical" name="LADDER"> F  </i>
   <i type="logical" name="LRPAFORCE"> F  </i>
   <i type="logical" name="LFXC"> F  </i>
   <i type="logical" name="LHARTREE"> T  </i>
   <i type="int" name="IBSE">     0</i>
   <v type="int" name="KPOINT">    -1     0     0     0</v>
   <i type="logical" name="LTCTC"> F  </i>
   <i type="logical" name="LTCTE"> F  </i>
   <i type="logical" name="LTETE"> F  </i>
   <i type="logical" name="LTRIPLET"> F  </i>
   <i type="logical" name="LFXCEPS"> F  </i>
   <i type="logical" name="LFXHEG"> F  </i>
   <i type="int" name="NATURALO">     2</i>
   <i type="logical" name="LHOLEGF"> F  </i>
   <i type="logical" name="L2ORDER"> F  </i>
   <i type="logical" name="LDMP1"> F  </i>
   <i type="logical" name="LMP2LT"> F  </i>
   <i type="logical" name="LSMP2LT"> F  </i>
   <i type="logical" name="LGWLF"> F  </i>
   <i name="ENCUTGW">     -1.60000002</i>
   <i name="ENCUTGWSOFT">     -1.60000002</i>
   <i name="ENCUTLF">     -1.00000000</i>
   <i type="logical" name="LESF_SPLINES"> F  </i>
   <i type="int" name="LMAXMP2">    -1</i>
   <i name="SCISSOR">      0.00000000</i>
   <i type="int" name="NOMEGA">     0</i>
   <i type="int" name="NOMEGAR">     0</i>
   <i type="int" name="NBANDSGW">    -1</i>
   <i type="int" name="NBANDSO">    -1</i>
   <i type="int" name="NBANDSV">    -1</i>
   <i type="int" name="NELMGW">     1</i>
   <i type="int" name="NELMHF">     1</i>
   <i type="int" name="DIM">     3</i>
   <i type="int" name="IESPILON">     4</i>
   <i type="int" name="ANTIRES">     0</i>
   <i name="OMEGAMAX">    -30.00000000</i>
   <i name="OMEGAMIN">    -30.00000000</i>
   <i name="OMEGATL">   -200.00000000</i>
   <i type="int" name="OMEGAGRID">     0</i>
   <i name="CSHIFT">     -0.10000000</i>
   <i type="logical" name="LSELFENERGY"> F  </i>
   <i type="logical" name="LSPECTRAL"> F  </i>
   <i type="logical" name="LSPECTRALGW"> F  </i>
   <i type="logical" name="LSINGLES"> F  </i>
   <i type="logical" name="LFERMIGW"> F  </i>
   <i type="logical" name="ODDONLYGW"> F  </i>
   <i type="logical" name="EVENONLYGW"> F  </i>
   <i type="int" name="NKREDLFX">     1</i>
   <i type="int" name="NKREDLFY">     1</i>
   <i type="int" name="NKREDLFZ">     1</i>
   <i type="int" name="MAXMEM">  2800</i>
   <i type="int" name="TELESCOPE">     0</i>
   <i type="int" name="NTAUPAR">    -1</i>
   <i type="int" name="NOMEGAPAR">    -1</i>
   <i name="DAMP_NEWTON">      0.80000001</i>
   <i name="LAMBDA">      1.00000000</i>
  </separator>
  <separator name="External order field" >
   <i name="OFIELD_KAPPA">      0.00000000</i>
   <v name="OFIELD_K">      0.00000000      0.00000000      0.00000000</v>
   <i name="OFIELD_Q6_NEAR">      0.00000000</i>
   <i name="OFIELD_Q6_FAR">      0.00000000</i>
   <i name="OFIELD_A">      0.00000000</i>
  </separator>
  <separator name="optional k-points parameters" >
   <i type="int" name="KPOINTS_OPT_MODE">     1</i>
   <i type="logical" name="LKPOINTS_OPT"> F  </i>
  </separator>
 </parameters>
 <atominfo>
  <atoms>       2 </atoms>
  <types>       1 </types>
  <array name="atoms" >
   <dimension dim="1">ion</dimension>
   <field type="string">element</field>
   <field type="int">atomtype</field>
   <set>
    <rc><c>Na</c><c>   1</c></rc>
    <rc><c>Na</c><c>   1</c></rc>
   </set>
  </array>
  <array name="atomtypes" >
   <dimension dim="1">type</dimension>
   <field type="int">atomspertype</field>
   <field type="string">element</field>
   <field>mass</field>
   <field>valence</field>
   <field type="string">pseudopotential</field>
   <set>
    <rc><c>   2</c><c>Na</c><c>     22.99000000</c><c>      1.00000000</c><c>  PAW_PBE Na 08Apr2002                  </c></rc>
   </set>
  </array>
 </atominfo>
 <structure name="initialpos" >
  <crystal>
   <varray name="basis" >
    <v>       4.23000000       0.00000000       0.00000000 </v>
    <v>       0.00000000       4.23000000       0.00000000 </v>
    <v>       0.00000000       0.00000000       4.23000000 </v>
   </varray>
   <i name="volume">     75.68696700 </i>
   <varray name="rec_basis" >
    <v>       0.23640662       0.00000000       0.00000000 </v>
    <v>       0.00000000       0.23640662       0.00000000 </v>
    <v>       0.00000000       0.00000000       0.23640662 </v>
   </varray>
  </crystal>
  <varray name="positions" >
   <v>       0.00000000       0.00000000       0.00000000 </v>
   <v>       0.50000000       0.50000000       0.50000000 </v>
  </varray>
 </structure>
 <calculation>
  <scstep>
   <time name="dav">    0.47    0.47</time>
   <time name="total">    0.49    0.49</time>
   <energy>
    <i name="alphaZ">     -0.96798943 </i>
    <i name="ewald">    -12.38869679 </i>
    <i name="hartreedc">     -0.00626525 </i>
    <i name="XCdc">    -73.15260009 </i>
    <i name="pawpsdc">     79.75229217 </i>
    <i name="pawaedc">     -4.73530507 </i>
    <i name="eentropy">     -0.00041306 </i>
    <i name="bandstr">     -0.71542472 </i>
    <i name="atom">     10.31609890 </i>
    <i name="e_fr_energy">     -1.89830334 </i>
    <i name="e_wo_entrp">     -1.89789028 </i>
    <i name="e_0_energy">     -1.89809681 </i>
   </energy>
  </scstep>
  <scstep>
   <time name="dav">    0.44    0.44</time>
   <time name="total">    0.44    0.44</time>
   <energy>
    <i name="e_fr_energy">     -2.60664881 </i>
    <i name="e_wo_entrp">     -2.60563939 </i>
    <i name="e_0_energy">     -2.60614410 </i>
   </energy>
  </scstep>
  <scstep>
   <time name="dav">    0.50    0.50</time>
   <time name="total">    0.50    0.50</time>
   <energy>
    <i name="e_fr_energy">     -2.61408082 </i>
    <i name="e_wo_entrp">     -2.61306097 </i>
    <i name="e_0_energy">     -2.61357090 </i>
   </energy>
  </scstep>
  <scstep>
   <time name="dav">    0.46    0.46</time>
   <time name="total">    0.46    0.46</time>
   <energy>
    <i name="e_fr_energy">     -2.61414861 </i>
    <i name="e_wo_entrp">     -2.61312912 </i>
    <i name="e_0_energy">     -2.61363887 </i>
   </energy>
  </scstep>
  <scstep>
   <time name="dav">    0.50    0.50</time>
   <time name="total">    0.54    0.54</time>
   <energy>
    <i name="e_fr_energy">     -2.61415040 </i>
    <i name="e_wo_entrp">     -2.61313092 </i>
    <i name="e_0_energy">     -2.61364066 </i>
   </energy>
  </scstep>
  <scstep>
   <time name="dav">    0.47    0.47</time>
   <time name="total">    0.52    0.51</time>
   <energy>
    <i name="e_fr_energy">     -2.61414300 </i>
    <i name="e_wo_entrp">     -2.61312310 </i>
    <i name="e_0_energy">     -2.61363305 </i>
   </energy>
  </scstep>
  <scstep>
   <time name="dav">    0.38    0.38</time>
   <time name="total">    0.43    0.42</time>
   <energy>
    <i name="e_fr_energy">     -2.61373339 </i>
    <i name="e_wo_entrp">     -2.61271283 </i>
    <i name="e_0_energy">     -2.61322311 </i>
   </energy>
  </scstep>
  <scstep>
   <time name="dav">    0.44    0.44</time>
   <time name="total">    0.49    0.48</time>
   <energy>
    <i name="e_fr_energy">     -2.61372541 </i>
    <i name="e_wo_entrp">     -2.61270484 </i>
    <i name="e_0_energy">     -2.61321513 </i>
   </energy>
  </scstep>
  <scstep>
   <time name="dav">    0.34    0.34</time>
   <time name="total">    0.35    0.35</time>
   <energy>
    <i name="alphaZ">     -0.96798943 </i>
    <i name="ewald">    -12.38869679 </i>
    <i name="hartreedc">     -0.02918373 </i>
    <i name="XCdc">    -73.03036271 </i>
    <i name="pawpsdc">     78.78485585 </i>
    <i name="pawaedc">     -3.77230238 </i>
    <i name="eentropy">     -0.00102058 </i>
    <i name="bandstr">     -1.52512423 </i>
    <i name="atom">     10.31609890 </i>
    <i name="e_fr_energy">     -2.61372510 </i>
    <i name="e_wo_entrp">     -2.61270452 </i>
    <i name="e_0_energy">     -2.61321481 </i>
   </energy>
  </scstep>
  <structure>
   <crystal>
    <varray name="basis" >
     <v>       4.23000000       0.00000000       0.00000000 </v>
     <v>       0.00000000       4.23000000       0.00000000 </v>
     <v>       0.00000000       0.00000000       4.23000000 </v>
    </varray>
    <i name="volume">     75.68696700 </i>
    <varray name="rec_basis" >
     <v>       0.23640662       0.00000000       0.00000000 </v>
     <v>       0.00000000       0.23640662       0.00000000 </v>
     <v>       0.00000000       0.00000000       0.23640662 </v>
    </varray>
   </crystal>
   <varray name="positions" >
    <v>       0.00000000       0.00000000       0.00000000 </v>
    <v>       0.50000000       0.50000000       0.50000000 </v>
   </varray>
  </structure>
  <varray name="forces" >
   <v>       0.00000000      -0.00000000       0.00000000 </v>
   <v>      -0.00000000       0.00000000      -0.00000000 </v>
  </varray>
  <varray name="stress" >
   <v>      -1.99374767      -0.00000000       0.00000000 </v>
   <v>      -0.00000000      -1.99374767       0.00000000 </v>
   <v>      -0.00000000      -0.00000000      -1.99374767 </v>
  </varray>
  <energy>
   <i name="e_fr_energy">     -2.61372510 </i>
   <i name="e_wo_entrp">     -2.61270452 </i>
   <i name="e_0_energy">     -2.61321481 </i>
  </energy>
  <time name="totalsc">    5.26    5.16</time>
  <eigenvalues>
   <array>
    <dimension dim="1">band</dimension>
    <dimension dim="2">kpoint</dimension>
    <dimension dim="3">spin</dimension>
    <field>eigene</field>
    <field>occ</field>
    <set>
     <set comment="spin 1">
      <set comment="kpoint 1">
       <r>   -2.6756    1.0000 </r>
       <r>    4.5316    0.0000 </r>
       <r>    4.5316    0.0000 </r>
       <r>    5.1940    0.0000 </r>
       <r>    5.8781    0.0000 </r>
      </set>
      <set comment="kpoint 2">
       <r>   -2.5559    1.0000 </r>
       <r>    3.5348    0.0000 </r>
       <r>    4.6417    0.0000 </r>
       <r>    5.2280    0.0000 </r>
       <r>    5.9848    0.0000 </r>
      </set>
      <set comment="kpoint 3">
       <r>   -2.3172    1.0000 </r>
       <r>    2.4841    0.0000 </r>
       <r>    4.8617    0.0000 </r>
       <r>    5.4281    0.0000 </r>
       <r>    6.1984    0.0000 </r>
      </set>
      <set comment="kpoint 4">
       <r>   -1.9607    1.0000 </r>
       <r>    1.4962    0.0000 </r>
       <r>    5.1912    0.0000 </r>
       <r>    5.7373    0.0000 </r>
       <r>    6.5199    0.0000 </r>
      </set>
      <set comment="kpoint 5">
       <r>   -1.4881    1.0000 </r>
       <r>    0.5958    0.0183 </r>
       <r>    5.6297    0.0000 </r>
       <r>    6.1506    0.0000 </r>
       <r>    6.9503    0.0000 </r>
      </set>
      <set comment="kpoint 6">
       <r>   -0.9020    1.0000 </r>
       <r>   -0.2059    1.0000 </r>
       <r>    6.1765    0.0000 </r>
       <r>    6.6664    0.0000 </r>
       <r>    6.8307    0.0000 </r>
      </set>
      <set comment="kpoint 7">
       <r>   -2.4365    1.0000 </r>
       <r>    3.4592    0.0000 </r>
       <r>    3.8947    0.0000 </r>
       <r>    5.1927    0.0000 </r>
       <r>    6.4037    0.0000 </r>
      </set>
      <set comment="kpoint 8">
       <r>   -2.1982    1.0000 </r>
       <r>    2.5768    0.0000 </r>
       <r>    3.9492    0.0000 </r>
       <r>    5.3894    0.0000 </r>
       <r>    6.6718    0.0000 </r>
      </set>
      <set comment="kpoint 9">
       <r>   -1.8422    1.0000 </r>
       <r>    1.6043    0.0000 </r>
       <r>    4.2626    0.0000 </r>
       <r>    5.7030    0.0000 </r>
       <r>    7.0175    0.0000 </r>
      </set>
      <set comment="kpoint 10">
       <r>   -1.3705    1.0000 </r>
       <r>    0.7085    0.0000 </r>
       <r>    4.6956    0.0000 </r>
       <r>    6.1229    0.0000 </r>
       <r>    6.6475    0.0000 </r>
      </set>
      <set comment="kpoint 11">
       <r>   -0.7855    1.0000 </r>
       <r>   -0.0908    1.0000 </r>
       <r>    5.2392    0.0000 </r>
       <r>    5.8906    0.0000 </r>
       <r>    6.6461    0.0000 </r>
      </set>
      <set comment="kpoint 12">
       <r>   -1.9607    1.0000 </r>
       <r>    2.5954    0.0000 </r>
       <r>    3.1031    0.0000 </r>
       <r>    5.5861    0.0000 </r>
       <r>    6.9759    0.0000 </r>
      </set>
      <set comment="kpoint 13">
       <r>   -1.6060    1.0000 </r>
       <r>    1.8104    0.0000 </r>
       <r>    3.2326    0.0000 </r>
       <r>    5.8992    0.0000 </r>
       <r>    6.4760    0.0000 </r>
      </set>
      <set comment="kpoint 14">
       <r>   -1.1359    1.0000 </r>
       <r>    0.9318    0.0000 </r>
       <r>    3.6540    0.0000 </r>
       <r>    5.6140    0.0000 </r>
       <r>    6.3182    0.0000 </r>
      </set>
      <set comment="kpoint 15">
       <r>   -0.5532    1.0000 </r>
       <r>    0.1383    1.0000 </r>
       <r>    4.1985    0.0000 </r>
       <r>    4.8534    0.0000 </r>
       <r>    6.8398    0.0000 </r>
      </set>
      <set comment="kpoint 16">
       <r>   -1.2531    1.0000 </r>
       <r>    1.9480    0.0000 </r>
       <r>    2.4456    0.0000 </r>
       <r>    5.5163    0.0000 </r>
       <r>    6.2102    0.0000 </r>
      </set>
      <set comment="kpoint 17">
       <r>   -0.7857    1.0000 </r>
       <r>    1.2556    0.0000 </r>
       <r>    2.6888    0.0000 </r>
       <r>    4.6493    0.0000 </r>
       <r>    6.6260    0.0000 </r>
      </set>
      <set comment="kpoint 18">
       <r>   -0.2067    1.0000 </r>
       <r>    0.4786    0.8894 </r>
       <r>    3.2256    0.0000 </r>
       <r>    3.8835    0.0000 </r>
       <r>    7.1421    0.0000 </r>
      </set>
      <set comment="kpoint 19">
       <r>   -0.3221    1.0000 </r>
       <r>    1.5169    0.0000 </r>
       <r>    1.9876    0.0000 </r>
       <r>    3.7767    0.0000 </r>
       <r>    7.0358    0.0000 </r>
      </set>
      <set comment="kpoint 20">
       <r>    0.2506    1.0000 </r>
       <r>    0.9201    0.0000 </r>
       <r>    2.3544    0.0000 </r>
       <r>    3.0071    0.0000 </r>
       <r>    7.5393    0.0000 </r>
      </set>
      <set comment="kpoint 21">
       <r>    0.8078    0.0000 </r>
       <r>    1.3015    0.0000 </r>
       <r>    1.7539    0.0000 </r>
       <r>    2.2419    0.0000 </r>
       <r>    8.0030    0.0000 </r>
      </set>
      <set comment="kpoint 22">
       <r>   -2.3172    1.0000 </r>
       <r>    3.5678    0.0000 </r>
       <r>    3.5678    0.0000 </r>
       <r>    4.5181    0.0000 </r>
       <r>    7.5004    0.0000 </r>
      </set>
      <set comment="kpoint 23">
       <r>   -2.0793    1.0000 </r>
       <r>    2.6720    0.0000 </r>
       <r>    3.7848    0.0000 </r>
       <r>    4.5589    0.0000 </r>
       <r>    7.7171    0.0000 </r>
      </set>
      <set comment="kpoint 24">
       <r>   -1.7240    1.0000 </r>
       <r>    1.7120    0.0000 </r>
       <r>    4.1104    0.0000 </r>
       <r>    4.8526    0.0000 </r>
       <r>    7.3674    0.0000 </r>
      </set>
      <set comment="kpoint 25">
       <r>   -1.2531    1.0000 </r>
       <r>    0.8209    0.0000 </r>
       <r>    4.5447    0.0000 </r>
       <r>    5.2776    0.0000 </r>
       <r>    6.4993    0.0000 </r>
      </set>
      <set comment="kpoint 26">
       <r>   -0.6692    1.0000 </r>
       <r>    0.0239    1.0000 </r>
       <r>    5.0876    0.0000 </r>
       <r>    5.7392    0.0000 </r>
       <r>    5.8129    0.0000 </r>
      </set>
      <set comment="kpoint 27">
       <r>   -1.8423    1.0000 </r>
       <r>    2.7034    0.0000 </r>
       <r>    3.1447    0.0000 </r>
       <r>    4.5277    0.0000 </r>
       <r>    7.4842    0.0000 </r>
      </set>
      <set comment="kpoint 28">
       <r>   -1.4882    1.0000 </r>
       <r>    1.9177    0.0000 </r>
       <r>    3.3036    0.0000 </r>
       <r>    4.8165    0.0000 </r>
       <r>    6.5399    0.0000 </r>
      </set>
      <set comment="kpoint 29">
       <r>   -1.0189    1.0000 </r>
       <r>    1.0435    0.0000 </r>
       <r>    3.7268    0.0000 </r>
       <r>    5.2407    0.0000 </r>
       <r>    5.6808    0.0000 </r>
      </set>
      <set comment="kpoint 30">
       <r>   -0.4374    1.0000 </r>
       <r>    0.2524    1.0000 </r>
       <r>    4.2697    0.0000 </r>
       <r>    4.9224    0.0000 </r>
       <r>    5.7757    0.0000 </r>
      </set>
      <set comment="kpoint 31">
       <r>   -1.1359    1.0000 </r>
       <r>    2.0557    0.0000 </r>
       <r>    2.5436    0.0000 </r>
       <r>    5.1042    0.0000 </r>
       <r>    5.6035    0.0000 </r>
      </set>
      <set comment="kpoint 32">
       <r>   -0.6694    1.0000 </r>
       <r>    1.3659    0.0000 </r>
       <r>    2.7905    0.0000 </r>
       <r>    4.7434    0.0000 </r>
       <r>    5.5245    0.0000 </r>
      </set>
      <set comment="kpoint 33">
       <r>   -0.0917    1.0000 </r>
       <r>    0.5918    0.0240 </r>
       <r>    3.3257    0.0000 </r>
       <r>    3.9812    0.0000 </r>
       <r>    6.0525    0.0000 </r>
      </set>
      <set comment="kpoint 34">
       <r>   -0.2069    1.0000 </r>
       <r>    1.6244    0.0000 </r>
       <r>    2.0986    0.0000 </r>
       <r>    3.8789    0.0000 </r>
       <r>    5.9371    0.0000 </r>
      </set>
      <set comment="kpoint 35">
       <r>    0.3644    1.0000 </r>
       <r>    1.0316    0.0000 </r>
       <r>    2.4632    0.0000 </r>
       <r>    3.1131    0.0000 </r>
       <r>    6.4487    0.0000 </r>
      </set>
      <set comment="kpoint 36">
       <r>    0.9196    0.0000 </r>
       <r>    1.4090    0.0000 </r>
       <r>    1.8687    0.0000 </r>
       <r>    2.3522    0.0000 </r>
       <r>    6.9105    0.0000 </r>
      </set>
      <set comment="kpoint 37">
       <r>   -1.6060    1.0000 </r>
       <r>    2.9195    0.0000 </r>
       <r>    2.9195    0.0000 </r>
       <r>    3.8938    0.0000 </r>
       <r>    7.4688    0.0000 </r>
      </set>
      <set comment="kpoint 38">
       <r>   -1.2532    1.0000 </r>
       <r>    2.1239    0.0000 </r>
       <r>    3.2438    0.0000 </r>
       <r>    4.0292    0.0000 </r>
       <r>    6.4942    0.0000 </r>
      </set>
      <set comment="kpoint 39">
       <r>   -0.7857    1.0000 </r>
       <r>    1.2646    0.0000 </r>
       <r>    3.6765    0.0000 </r>
       <r>    4.4339    0.0000 </r>
       <r>    5.6268    0.0000 </r>
      </set>
      <set comment="kpoint 40">
       <r>   -0.2066    1.0000 </r>
       <r>    0.4797    0.8836 </r>
       <r>    4.2178    0.0000 </r>
       <r>    4.8679    0.0000 </r>
       <r>    4.9698    0.0000 </r>
      </set>
      <set comment="kpoint 41">
       <r>   -0.9023    1.0000 </r>
       <r>    2.2713    0.0000 </r>
       <r>    2.6996    0.0000 </r>
       <r>    4.0936    0.0000 </r>
       <r>    5.7528    0.0000 </r>
      </set>
      <set comment="kpoint 42">
       <r>   -0.4376    1.0000 </r>
       <r>    1.5846    0.0000 </r>
       <r>    2.9718    0.0000 </r>
       <r>    4.4900    0.0000 </r>
       <r>    4.9113    0.0000 </r>
      </set>
      <set comment="kpoint 43">
       <r>    0.1375    1.0000 </r>
       <r>    0.8170    0.0000 </r>
       <r>    3.5056    0.0000 </r>
       <r>    4.1563    0.0000 </r>
       <r>    5.0180    0.0000 </r>
      </set>
      <set comment="kpoint 44">
       <r>    0.0229    1.0000 </r>
       <r>    1.8396    0.0000 </r>
       <r>    2.3117    0.0000 </r>
       <r>    4.0756    0.0000 </r>
       <r>    4.8786    0.0000 </r>
      </set>
      <set comment="kpoint 45">
       <r>    0.5911    0.0251 </r>
       <r>    1.2535    0.0000 </r>
       <r>    2.6752    0.0000 </r>
       <r>    3.3195    0.0000 </r>
       <r>    5.3888    0.0000 </r>
      </set>
      <set comment="kpoint 46">
       <r>    1.1423    0.0000 </r>
       <r>    1.6240    0.0000 </r>
       <r>    2.0939    0.0000 </r>
       <r>    2.5694    0.0000 </r>
       <r>    5.8456    0.0000 </r>
      </set>
      <set comment="kpoint 47">
       <r>   -0.5535    1.0000 </r>
       <r>    2.5948    0.0000 </r>
       <r>    2.5948    0.0000 </r>
       <r>    3.5457    0.0000 </r>
       <r>    5.8400    0.0000 </r>
      </set>
      <set comment="kpoint 48">
       <r>   -0.0918    1.0000 </r>
       <r>    1.9026    0.0000 </r>
       <r>    3.0265    0.0000 </r>
       <r>    3.7920    0.0000 </r>
       <r>    4.9736    0.0000 </r>
      </set>
      <set comment="kpoint 49">
       <r>    0.4789    0.8877 </r>
       <r>    1.1512    0.0000 </r>
       <r>    3.5668    0.0000 </r>
       <r>    4.2157    0.0000 </r>
       <r>    4.2990    0.0000 </r>
      </set>
      <set comment="kpoint 50">
       <r>    0.3654    1.0000 </r>
       <r>    2.1627    0.0000 </r>
       <r>    2.5834    0.0000 </r>
       <r>    3.9623    0.0000 </r>
       <r>    4.3383    0.0000 </r>
      </set>
      <set comment="kpoint 51">
       <r>    0.9287    0.0000 </r>
       <r>    1.5830    0.0000 </r>
       <r>    2.9661    0.0000 </r>
       <r>    3.6035    0.0000 </r>
       <r>    4.4486    0.0000 </r>
      </set>
      <set comment="kpoint 52">
       <r>    1.4739    0.0000 </r>
       <r>    1.9468    0.0000 </r>
       <r>    2.4164    0.0000 </r>
       <r>    2.8832    0.0000 </r>
       <r>    4.8815    0.0000 </r>
      </set>
      <set comment="kpoint 53">
       <r>    0.8175    0.0000 </r>
       <r>    2.5938    0.0000 </r>
       <r>    2.5938    0.0000 </r>
       <r>    3.5101    0.0000 </r>
       <r>    4.5387    0.0000 </r>
      </set>
      <set comment="kpoint 54">
       <r>    1.3727    0.0000 </r>
       <r>    2.0100    0.0000 </r>
       <r>    3.1334    0.0000 </r>
       <r>    3.7816    0.0000 </r>
       <r>    3.8371    0.0000 </r>
      </set>
      <set comment="kpoint 55">
       <r>    1.9095    0.0000 </r>
       <r>    2.3777    0.0000 </r>
       <r>    2.7904    0.0000 </r>
       <r>    3.2601    0.0000 </r>
       <r>    4.0529    0.0000 </r>
      </set>
      <set comment="kpoint 56">
       <r>    2.4332    0.0000 </r>
       <r>    2.9169    0.0000 </r>
       <r>    2.9169    0.0000 </r>
       <r>    3.5648    0.0000 </r>
       <r>    3.5648    0.0000 </r>
      </set>
     </set>
    </set>
   </array>
  </eigenvalues>
  <separator name="orbital magnetization" >
   <v name="MAGDIPOLOUT">      0.00000000      0.00000000      0.00000000</v>
  </separator>
  <dos>
   <i name="efermi">      0.52186932 </i>
   <total>
    <array>
     <dimension dim="1">gridpoints</dimension>
     <dimension dim="2">spin</dimension>
     <field>energy</field>
     <field>total</field>
     <field>integrated</field>
     <set>
      <set comment="spin 1">
       <r>    -3.2095     0.0000     0.0000 </r>
       <r>    -3.1703     0.0000     0.0000 </r>
       <r>    -3.1312     0.0000     0.0000 </r>
       <r>    -3.0920     0.0000     0.0000 </r>
       <r>    -3.0529     0.0000     0.0000 </r>
       <r>    -3.0137     0.0000     0.0000 </r>
       <r>    -2.9746     0.0000     0.0000 </r>
       <r>    -2.9354     0.0000     0.0000 </r>
       <r>    -2.8963     0.0000     0.0000 </r>
       <r>    -2.8571     0.0000     0.0000 </r>
       <r>    -2.8180     0.0000     0.0000 </r>
       <r>    -2.7788     0.0004     0.0000 </r>
       <r>    -2.7396     0.0079     0.0003 </r>
       <r>    -2.7005     0.0486     0.0022 </r>
       <r>    -2.6613     0.0994     0.0061 </r>
       <r>    -2.6222     0.0864     0.0095 </r>
       <r>    -2.5830     0.1501     0.0154 </r>
       <r>    -2.5439     0.2940     0.0269 </r>
       <r>    -2.5047     0.2259     0.0357 </r>
       <r>    -2.4656     0.1753     0.0426 </r>
       <r>    -2.4264     0.2932     0.0541 </r>
       <r>    -2.3873     0.2387     0.0634 </r>
       <r>    -2.3481     0.2122     0.0717 </r>
       <r>    -2.3089     0.3852     0.0868 </r>
       <r>    -2.2698     0.3296     0.0997 </r>
       <r>    -2.2306     0.3023     0.1116 </r>
       <r>    -2.1915     0.5688     0.1338 </r>
       <r>    -2.1523     0.4781     0.1525 </r>
       <r>    -2.1132     0.2329     0.1617 </r>
       <r>    -2.0740     0.2892     0.1730 </r>
       <r>    -2.0349     0.2632     0.1833 </r>
       <r>    -1.9957     0.2705     0.1939 </r>
       <r>    -1.9566     0.5546     0.2156 </r>
       <r>    -1.9174     0.5213     0.2360 </r>
       <r>    -1.8782     0.4354     0.2531 </r>
       <r>    -1.8391     0.8255     0.2854 </r>
       <r>    -1.7999     0.7534     0.3149 </r>
       <r>    -1.7608     0.3182     0.3273 </r>
       <r>    -1.7216     0.2907     0.3387 </r>
       <r>    -1.6825     0.2755     0.3495 </r>
       <r>    -1.6433     0.2927     0.3610 </r>
       <r>    -1.6042     0.6296     0.3856 </r>
       <r>    -1.5650     0.6205     0.4099 </r>
       <r>    -1.5258     0.4576     0.4278 </r>
       <r>    -1.4867     0.8138     0.4597 </r>
       <r>    -1.4475     0.7832     0.4904 </r>
       <r>    -1.4084     0.4219     0.5069 </r>
       <r>    -1.3692     0.5542     0.5286 </r>
       <r>    -1.3301     0.5409     0.5498 </r>
       <r>    -1.2909     0.4340     0.5668 </r>
       <r>    -1.2518     0.8112     0.5985 </r>
       <r>    -1.2126     0.7950     0.6296 </r>
       <r>    -1.1735     0.5171     0.6499 </r>
       <r>    -1.1343     0.8218     0.6821 </r>
       <r>    -1.0951     0.7827     0.7127 </r>
       <r>    -1.0560     0.4265     0.7294 </r>
       <r>    -1.0168     0.5594     0.7513 </r>
       <r>    -0.9777     0.5264     0.7719 </r>
       <r>    -0.9385     0.3485     0.7856 </r>
       <r>    -0.8994     0.5565     0.8074 </r>
       <r>    -0.8602     0.5579     0.8292 </r>
       <r>    -0.8211     0.6503     0.8547 </r>
       <r>    -0.7819     1.3776     0.9086 </r>
       <r>    -0.7428     1.2651     0.9581 </r>
       <r>    -0.7036     0.6775     0.9847 </r>
       <r>    -0.6644     0.8639     1.0185 </r>
       <r>    -0.6253     0.7544     1.0480 </r>
       <r>    -0.5861     0.4634     1.0662 </r>
       <r>    -0.5470     0.6743     1.0926 </r>
       <r>    -0.5078     0.6110     1.1165 </r>
       <r>    -0.4687     0.6211     1.1408 </r>
       <r>    -0.4295     1.1505     1.1859 </r>
       <r>    -0.3904     0.9250     1.2221 </r>
       <r>    -0.3512     0.3647     1.2364 </r>
       <r>    -0.3121     0.3137     1.2487 </r>
       <r>    -0.2729     0.3200     1.2612 </r>
       <r>    -0.2337     0.7296     1.2898 </r>
       <r>    -0.1946     1.4700     1.3473 </r>
       <r>    -0.1554     1.1593     1.3927 </r>
       <r>    -0.1163     0.9732     1.4308 </r>
       <r>    -0.0771     1.4969     1.4894 </r>
       <r>    -0.0380     1.0424     1.5302 </r>
       <r>     0.0012     0.5341     1.5511 </r>
       <r>     0.0403     0.6182     1.5753 </r>
       <r>     0.0795     0.5006     1.5949 </r>
       <r>     0.1186     0.7674     1.6250 </r>
       <r>     0.1578     1.2085     1.6723 </r>
       <r>     0.1970     0.8417     1.7053 </r>
       <r>     0.2361     0.8935     1.7403 </r>
       <r>     0.2753     1.2042     1.7874 </r>
       <r>     0.3144     0.7580     1.8171 </r>
       <r>     0.3536     0.7380     1.8460 </r>
       <r>     0.3927     0.8975     1.8811 </r>
       <r>     0.4319     0.6335     1.9059 </r>
       <r>     0.4710     0.9671     1.9438 </r>
       <r>     0.5102     1.1732     1.9897 </r>
       <r>     0.5493     0.8318     2.0223 </r>
       <r>     0.5885     1.2866     2.0727 </r>
       <r>     0.6277     1.3794     2.1267 </r>
       <r>     0.6668     0.6546     2.1523 </r>
       <r>     0.7060     0.5631     2.1744 </r>
       <r>     0.7451     0.6091     2.1982 </r>
       <r>     0.7843     0.6957     2.2254 </r>
       <r>     0.8234     1.2499     2.2744 </r>
       <r>     0.8626     1.1679     2.3201 </r>
       <r>     0.9017     1.3190     2.3718 </r>
       <r>     0.9409     2.0850     2.4534 </r>
       <r>     0.9800     1.4967     2.5120 </r>
       <r>     1.0192     1.0090     2.5515 </r>
       <r>     1.0584     1.2075     2.5988 </r>
       <r>     1.0975     0.7722     2.6290 </r>
       <r>     1.1367     0.5596     2.6509 </r>
       <r>     1.1758     0.6214     2.6753 </r>
       <r>     1.2150     0.6497     2.7007 </r>
       <r>     1.2541     1.3454     2.7534 </r>
       <r>     1.2933     1.5967     2.8159 </r>
       <r>     1.3324     1.0689     2.8578 </r>
       <r>     1.3716     1.0802     2.9000 </r>
       <r>     1.4108     1.0529     2.9413 </r>
       <r>     1.4499     0.7086     2.9690 </r>
       <r>     1.4891     0.7715     2.9992 </r>
       <r>     1.5282     0.9544     3.0366 </r>
       <r>     1.5674     1.3728     3.0903 </r>
       <r>     1.6065     2.1533     3.1747 </r>
       <r>     1.6457     1.7483     3.2431 </r>
       <r>     1.6848     0.7404     3.2721 </r>
       <r>     1.7240     0.5051     3.2919 </r>
       <r>     1.7631     0.6291     3.3165 </r>
       <r>     1.8023     0.8383     3.3493 </r>
       <r>     1.8415     1.0987     3.3924 </r>
       <r>     1.8806     1.2997     3.4432 </r>
       <r>     1.9198     1.7284     3.5109 </r>
       <r>     1.9589     1.7227     3.5784 </r>
       <r>     1.9981     1.2072     3.6256 </r>
       <r>     2.0372     0.8754     3.6599 </r>
       <r>     2.0764     0.8977     3.6951 </r>
       <r>     2.1155     1.0706     3.7370 </r>
       <r>     2.1547     0.8937     3.7720 </r>
       <r>     2.1938     0.5383     3.7930 </r>
       <r>     2.2330     0.4591     3.8110 </r>
       <r>     2.2722     0.6727     3.8374 </r>
       <r>     2.3113     0.8816     3.8719 </r>
       <r>     2.3505     1.2632     3.9213 </r>
       <r>     2.3896     1.4263     3.9772 </r>
       <r>     2.4288     1.3172     4.0288 </r>
       <r>     2.4679     1.4323     4.0848 </r>
       <r>     2.5071     1.1992     4.1318 </r>
       <r>     2.5462     1.2149     4.1794 </r>
       <r>     2.5854     1.9546     4.2559 </r>
       <r>     2.6245     1.8626     4.3288 </r>
       <r>     2.6637     1.6477     4.3933 </r>
       <r>     2.7029     2.0598     4.4740 </r>
       <r>     2.7420     1.4599     4.5312 </r>
       <r>     2.7812     0.9689     4.5691 </r>
       <r>     2.8203     0.9145     4.6049 </r>
       <r>     2.8595     0.5676     4.6271 </r>
       <r>     2.8986     0.6426     4.6523 </r>
       <r>     2.9378     1.1011     4.6954 </r>
       <r>     2.9769     1.6999     4.7619 </r>
       <r>     3.0161     1.7486     4.8304 </r>
       <r>     3.0552     1.1137     4.8740 </r>
       <r>     3.0944     0.9744     4.9122 </r>
       <r>     3.1336     1.3932     4.9667 </r>
       <r>     3.1727     1.1744     5.0127 </r>
       <r>     3.2119     1.2048     5.0599 </r>
       <r>     3.2510     1.8710     5.1331 </r>
       <r>     3.2902     2.0108     5.2119 </r>
       <r>     3.3293     2.0072     5.2905 </r>
       <r>     3.3685     1.2447     5.3392 </r>
       <r>     3.4076     0.3530     5.3530 </r>
       <r>     3.4468     0.3094     5.3651 </r>
       <r>     3.4859     0.7692     5.3953 </r>
       <r>     3.5251     1.3064     5.4464 </r>
       <r>     3.5643     1.5807     5.5083 </r>
       <r>     3.6034     1.5198     5.5678 </r>
       <r>     3.6426     1.3118     5.6192 </r>
       <r>     3.6817     1.1945     5.6659 </r>
       <r>     3.7209     1.1015     5.7091 </r>
       <r>     3.7600     1.2843     5.7594 </r>
       <r>     3.7992     1.5119     5.8185 </r>
       <r>     3.8383     1.3199     5.8702 </r>
       <r>     3.8775     1.4318     5.9263 </r>
       <r>     3.9167     1.6463     5.9907 </r>
       <r>     3.9558     1.6262     6.0544 </r>
       <r>     3.9950     1.5582     6.1154 </r>
       <r>     4.0341     1.2115     6.1629 </r>
       <r>     4.0733     1.1777     6.2090 </r>
       <r>     4.1124     1.2279     6.2571 </r>
       <r>     4.1516     1.2069     6.3043 </r>
       <r>     4.1907     1.4585     6.3614 </r>
       <r>     4.2299     1.7782     6.4310 </r>
       <r>     4.2690     1.8787     6.5046 </r>
       <r>     4.3082     1.5245     6.5643 </r>
       <r>     4.3474     0.8281     6.5967 </r>
       <r>     4.3865     0.4231     6.6133 </r>
       <r>     4.4257     0.6480     6.6387 </r>
       <r>     4.4648     1.2405     6.6872 </r>
       <r>     4.5040     1.5438     6.7477 </r>
       <r>     4.5431     1.6187     6.8111 </r>
       <r>     4.5823     1.1878     6.8576 </r>
       <r>     4.6214     0.8137     6.8894 </r>
       <r>     4.6606     1.1402     6.9341 </r>
       <r>     4.6997     1.2872     6.9845 </r>
       <r>     4.7389     1.1261     7.0286 </r>
       <r>     4.7781     0.9258     7.0648 </r>
       <r>     4.8172     1.2136     7.1123 </r>
       <r>     4.8564     2.2257     7.1995 </r>
       <r>     4.8955     2.7433     7.3069 </r>
       <r>     4.9347     2.2411     7.3946 </r>
       <r>     4.9738     1.5279     7.4545 </r>
       <r>     5.0130     1.1526     7.4996 </r>
       <r>     5.0521     0.8649     7.5335 </r>
       <r>     5.0913     0.7055     7.5611 </r>
       <r>     5.1304     0.6331     7.5859 </r>
       <r>     5.1696     0.6759     7.6123 </r>
       <r>     5.2088     1.3815     7.6664 </r>
       <r>     5.2479     1.9933     7.7445 </r>
       <r>     5.2871     1.4592     7.8016 </r>
       <r>     5.3262     0.5991     7.8251 </r>
       <r>     5.3654     0.7091     7.8528 </r>
       <r>     5.4045     1.3435     7.9054 </r>
       <r>     5.4437     1.0916     7.9482 </r>
       <r>     5.4828     0.6164     7.9723 </r>
       <r>     5.5220     0.8686     8.0063 </r>
       <r>     5.5611     1.1255     8.0504 </r>
       <r>     5.6003     1.4809     8.1084 </r>
       <r>     5.6395     1.8747     8.1818 </r>
       <r>     5.6786     1.7291     8.2495 </r>
       <r>     5.7178     1.7928     8.3197 </r>
       <r>     5.7569     1.8516     8.3922 </r>
       <r>     5.7961     1.5681     8.4536 </r>
       <r>     5.8352     1.2255     8.5016 </r>
       <r>     5.8744     1.3883     8.5559 </r>
       <r>     5.9135     1.6363     8.6200 </r>
       <r>     5.9527     1.1742     8.6660 </r>
       <r>     5.9918     0.6747     8.6924 </r>
       <r>     6.0310     0.6112     8.7163 </r>
       <r>     6.0702     0.7591     8.7460 </r>
       <r>     6.1093     0.8702     8.7801 </r>
       <r>     6.1485     1.1225     8.8240 </r>
       <r>     6.1876     1.2187     8.8718 </r>
       <r>     6.2268     0.9450     8.9088 </r>
       <r>     6.2659     0.4718     8.9272 </r>
       <r>     6.3051     0.4689     8.9456 </r>
       <r>     6.3442     0.6241     8.9700 </r>
       <r>     6.3834     0.4997     8.9896 </r>
       <r>     6.4226     0.7359     9.0184 </r>
       <r>     6.4617     1.4135     9.0738 </r>
       <r>     6.5009     1.9228     9.1491 </r>
       <r>     6.5400     1.7052     9.2158 </r>
       <r>     6.5792     1.0917     9.2586 </r>
       <r>     6.6183     1.3345     9.3108 </r>
       <r>     6.6575     2.3619     9.4033 </r>
       <r>     6.6966     1.9669     9.4803 </r>
       <r>     6.7358     0.6586     9.5061 </r>
       <r>     6.7749     0.1652     9.5126 </r>
       <r>     6.8141     0.4762     9.5312 </r>
       <r>     6.8533     0.9229     9.5673 </r>
       <r>     6.8924     0.7778     9.5978 </r>
       <r>     6.9316     0.6704     9.6240 </r>
       <r>     6.9707     0.8527     9.6574 </r>
       <r>     7.0099     1.0714     9.6994 </r>
       <r>     7.0490     1.0042     9.7387 </r>
       <r>     7.0882     0.5331     9.7596 </r>
       <r>     7.1273     0.4663     9.7778 </r>
       <r>     7.1665     0.5961     9.8012 </r>
       <r>     7.2056     0.2971     9.8128 </r>
       <r>     7.2448     0.0490     9.8147 </r>
       <r>     7.2840     0.0089     9.8151 </r>
       <r>     7.3231     0.0681     9.8177 </r>
       <r>     7.3623     0.2395     9.8271 </r>
       <r>     7.4014     0.2903     9.8385 </r>
       <r>     7.4406     0.2332     9.8476 </r>
       <r>     7.4797     0.4687     9.8660 </r>
       <r>     7.5189     0.7797     9.8965 </r>
       <r>     7.5580     0.7749     9.9268 </r>
       <r>     7.5972     0.3767     9.9416 </r>
       <r>     7.6363     0.0767     9.9446 </r>
       <r>     7.6755     0.0811     9.9478 </r>
       <r>     7.7147     0.2502     9.9576 </r>
       <r>     7.7538     0.2683     9.9681 </r>
       <r>     7.7930     0.0949     9.9718 </r>
       <r>     7.8321     0.0109     9.9722 </r>
       <r>     7.8713     0.0005     9.9722 </r>
       <r>     7.9104     0.0031     9.9723 </r>
       <r>     7.9496     0.0433     9.9740 </r>
       <r>     7.9887     0.1973     9.9818 </r>
       <r>     8.0279     0.2951     9.9933 </r>
       <r>     8.0670     0.1458     9.9990 </r>
       <r>     8.1062     0.0236    10.0000 </r>
       <r>     8.1454     0.0012    10.0000 </r>
       <r>     8.1845     0.0000    10.0000 </r>
       <r>     8.2237     0.0000    10.0000 </r>
       <r>     8.2628     0.0000    10.0000 </r>
       <r>     8.3020     0.0000    10.0000 </r>
       <r>     8.3411     0.0000    10.0000 </r>
       <r>     8.3803     0.0000    10.0000 </r>
       <r>     8.4194     0.0000    10.0000 </r>
       <r>     8.4586     0.0000    10.0000 </r>
       <r>     8.4977     0.0000    10.0000 </r>
       <r>     8.5369     0.0000    10.0000 </r>
      </set>
     </set>
    </array>
   </total>
  </dos>
 </calculation>
 <structure name="finalpos" >
  <crystal>
   <varray name="basis" >
    <v>       4.23000000       0.00000000       0.00000000 </v>
    <v>       0.00000000       4.23000000       0.00000000 </v>
    <v>       0.00000000       0.00000000       4.23000000 </v>
   </varray>
   <i name="volume">     75.68696700 </i>
   <varray name="rec_basis" >
    <v>       0.23640662       0.00000000       0.00000000 </v>
    <v>       0.00000000       0.23640662       0.00000000 </v>
    <v>       0.00000000       0.00000000       0.23640662 </v>
   </varray>
  </crystal>
  <varray name="positions" >
   <v>       0.00000000       0.00000000       0.00000000 </v>
   <v>       0.50000000       0.50000000       0.50000000 </v>
  </varray>
 </structure>
</modeling>
