   1   1   0   0
  0.9282668E+01  0.2359007E-09  0.2359007E-09  0.2359007E-09  0.5000000E-15
   1.0000000000000000E-004
  CAR 
 FCC Ni EOS static single-point          
     46.78798422     -0.51706345  301     11.82661429      1.00000000
     -0.517  0.0000E+00  0.0000E+00  0.0000E+00  0.0000E+00
     -0.359  0.0000E+00  0.0000E+00  0.0000E+00  0.0000E+00
     -0.202  0.0000E+00  0.0000E+00  0.0000E+00  0.0000E+00
     -0.044  0.0000E+00  0.0000E+00  0.0000E+00  0.0000E+00
      0.114  0.0000E+00  0.0000E+00  0.0000E+00  0.0000E+00
      0.271  0.0000E+00  0.0000E+00  0.0000E+00  0.0000E+00
      0.429  0.0000E+00  0.0000E+00  0.0000E+00  0.0000E+00
      0.587  0.0000E+00  0.0000E+00  0.0000E+00  0.0000E+00
      0.744 -0.7831E-39 -0.2205E-37 -0.1235E-39 -0.3477E-38
      0.902 -0.1464E-27 -0.2279E-26 -0.2308E-28 -0.3594E-27
      1.060 -0.1775E-18 -0.1570E-17 -0.2799E-19 -0.2476E-18
      1.217 -0.1654E-11 -0.8002E-11 -0.2608E-12 -0.1262E-11
      1.375 -0.1220E-06 -0.3354E-06 -0.1924E-07 -0.5289E-07
      1.533 -0.6590E-04 -0.9418E-04 -0.1041E-04 -0.1490E-04
      1.691  0.1133E-02  0.1790E-02  0.1683E-03  0.2673E-03
      1.848  0.9056E-02  0.9847E-02  0.1596E-02  0.1820E-02
      2.006  0.1507E-01  0.1535E-01  0.3972E-02  0.4241E-02
      2.164  0.1932E-01  0.2017E-01  0.7018E-02  0.7422E-02
      2.321  0.1998E-01  0.2019E-01  0.1017E-01  0.1060E-01
      2.479  0.2813E-01  0.2759E-01  0.1460E-01  0.1496E-01
      2.637  0.2589E-01  0.2689E-01  0.1869E-01  0.1919E-01
      2.794  0.3485E-01  0.3434E-01  0.2418E-01  0.2461E-01
      2.952  0.2833E-01  0.2930E-01  0.2865E-01  0.2923E-01
      3.110  0.4198E-01  0.4106E-01  0.3527E-01  0.3571E-01
      3.267  0.3372E-01  0.3323E-01  0.4059E-01  0.4095E-01
      3.425  0.4854E-01  0.4900E-01  0.4824E-01  0.4867E-01
      3.583  0.4310E-01  0.4226E-01  0.5503E-01  0.5533E-01
      3.740  0.4279E-01  0.4246E-01  0.6178E-01  0.6203E-01
      3.898  0.6123E-01  0.6032E-01  0.7144E-01  0.7154E-01
      4.056  0.4416E-01  0.4252E-01  0.7840E-01  0.7825E-01
      4.213  0.6114E-01  0.6010E-01  0.8804E-01  0.8772E-01
      4.371  0.6812E-01  0.6554E-01  0.9878E-01  0.9806E-01
      4.529  0.5580E-01  0.5432E-01  0.1076E+00  0.1066E+00
      4.686  0.7474E-01  0.7079E-01  0.1194E+00  0.1178E+00
      4.844  0.8203E-01  0.7677E-01  0.1323E+00  0.1299E+00
      5.002  0.6673E-01  0.6616E-01  0.1428E+00  0.1403E+00
      5.160  0.9938E-01  0.8851E-01  0.1585E+00  0.1543E+00
      5.317  0.1032E+00  0.9054E-01  0.1748E+00  0.1686E+00
      5.475  0.8980E-01  0.8543E-01  0.1889E+00  0.1820E+00
      5.633  0.1398E+00  0.1058E+00  0.2110E+00  0.1987E+00
      5.790  0.1380E+00  0.1230E+00  0.2327E+00  0.2181E+00
      5.948  0.1662E+00  0.1113E+00  0.2589E+00  0.2357E+00
      6.106  0.2738E+00  0.1532E+00  0.3021E+00  0.2598E+00
      6.263  0.4123E+00  0.1823E+00  0.3671E+00  0.2886E+00
      6.421  0.4911E+00  0.2060E+00  0.4446E+00  0.3210E+00
      6.579  0.4962E+00  0.4241E+00  0.5228E+00  0.3879E+00
      6.736  0.5102E+00  0.4276E+00  0.6033E+00  0.4553E+00
      6.894  0.6545E+00  0.4404E+00  0.7065E+00  0.5248E+00
      7.052  0.7452E+00  0.4731E+00  0.8240E+00  0.5994E+00
      7.209  0.8139E+00  0.4374E+00  0.9523E+00  0.6684E+00
      7.367  0.8563E+00  0.5459E+00  0.1087E+01  0.7544E+00
      7.525  0.7796E+00  0.6550E+00  0.1210E+01  0.8577E+00
      7.682  0.7044E+00  0.7457E+00  0.1321E+01  0.9753E+00
      7.840  0.6991E+00  0.7463E+00  0.1432E+01  0.1093E+01
      7.998  0.6547E+00  0.7265E+00  0.1535E+01  0.1208E+01
      8.156  0.6776E+00  0.6893E+00  0.1642E+01  0.1316E+01
      8.313  0.8210E+00  0.6805E+00  0.1771E+01  0.1424E+01
      8.471  0.9097E+00  0.6403E+00  0.1915E+01  0.1525E+01
      8.629  0.9582E+00  0.5954E+00  0.2066E+01  0.1618E+01
      8.786  0.9692E+00  0.7328E+00  0.2218E+01  0.1734E+01
      8.944  0.1168E+01  0.8388E+00  0.2403E+01  0.1866E+01
      9.102  0.1186E+01  0.9153E+00  0.2590E+01  0.2011E+01
      9.259  0.1447E+01  0.9246E+00  0.2818E+01  0.2156E+01
      9.417  0.1220E+01  0.1028E+01  0.3010E+01  0.2318E+01
      9.575  0.8980E+00  0.1135E+01  0.3152E+01  0.2497E+01
      9.732  0.7851E+00  0.1056E+01  0.3276E+01  0.2664E+01
      9.890  0.7433E+00  0.1262E+01  0.3393E+01  0.2863E+01
     10.048  0.8895E+00  0.1218E+01  0.3533E+01  0.3055E+01
     10.205  0.1074E+01  0.8723E+00  0.3702E+01  0.3192E+01
     10.363  0.1157E+01  0.7614E+00  0.3885E+01  0.3313E+01
     10.521  0.1056E+01  0.7732E+00  0.4051E+01  0.3434E+01
     10.678  0.9910E+00  0.9155E+00  0.4208E+01  0.3579E+01
     10.836  0.9694E+00  0.1070E+01  0.4360E+01  0.3748E+01
     10.994  0.1077E+01  0.1085E+01  0.4530E+01  0.3919E+01
     11.152  0.1371E+01  0.9052E+00  0.4747E+01  0.4061E+01
     11.309  0.1959E+01  0.8925E+00  0.5056E+01  0.4202E+01
     11.467  0.1063E+01  0.8752E+00  0.5223E+01  0.4340E+01
     11.625  0.2247E+00  0.9238E+00  0.5259E+01  0.4486E+01
     11.782  0.1832E+00  0.1062E+01  0.5287E+01  0.4653E+01
     11.940  0.1031E+00  0.1536E+01  0.5304E+01  0.4896E+01
     12.098  0.1927E+00  0.1516E+01  0.5334E+01  0.5135E+01
     12.255  0.1280E+00  0.7900E+00  0.5354E+01  0.5259E+01
     12.413  0.1294E+00  0.2242E+00  0.5375E+01  0.5294E+01
     12.571  0.1562E+00  0.1148E+00  0.5399E+01  0.5313E+01
     12.728  0.1238E+00  0.2516E+00  0.5419E+01  0.5352E+01
     12.886  0.1264E+00  0.8802E-01  0.5439E+01  0.5366E+01
     13.044  0.1529E+00  0.1840E+00  0.5463E+01  0.5395E+01
     13.201  0.1113E+00  0.1515E+00  0.5480E+01  0.5419E+01
     13.359  0.1159E+00  0.1241E+00  0.5499E+01  0.5439E+01
     13.517  0.1493E+00  0.1707E+00  0.5522E+01  0.5465E+01
     13.674  0.1190E+00  0.1317E+00  0.5541E+01  0.5486E+01
     13.832  0.1079E+00  0.1177E+00  0.5558E+01  0.5505E+01
     13.990  0.1211E+00  0.1619E+00  0.5577E+01  0.5530E+01
     14.148  0.1239E+00  0.1271E+00  0.5597E+01  0.5550E+01
     14.305  0.1365E+00  0.1331E+00  0.5618E+01  0.5571E+01
     14.463  0.1013E+00  0.9927E-01  0.5634E+01  0.5587E+01
     14.621  0.1045E+00  0.1674E+00  0.5651E+01  0.5613E+01
     14.778  0.1349E+00  0.1313E+00  0.5672E+01  0.5634E+01
     14.936  0.1238E+00  0.9921E-01  0.5691E+01  0.5650E+01
     15.094  0.9000E-01  0.1137E+00  0.5706E+01  0.5668E+01
     15.251  0.1217E+00  0.1384E+00  0.5725E+01  0.5690E+01
     15.409  0.9364E-01  0.1214E+00  0.5740E+01  0.5709E+01
     15.567  0.1088E+00  0.1063E+00  0.5757E+01  0.5725E+01
     15.724  0.1076E+00  0.1011E+00  0.5774E+01  0.5741E+01
     15.882  0.1065E+00  0.9844E-01  0.5790E+01  0.5757E+01
     16.040  0.7792E-01  0.1234E+00  0.5803E+01  0.5776E+01
     16.197  0.9600E-01  0.1090E+00  0.5818E+01  0.5794E+01
     16.355  0.9097E-01  0.8271E-01  0.5832E+01  0.5807E+01
     16.513  0.7960E-01  0.9462E-01  0.5845E+01  0.5821E+01
     16.670  0.9505E-01  0.8269E-01  0.5860E+01  0.5835E+01
     16.828  0.8671E-01  0.9195E-01  0.5873E+01  0.5849E+01
     16.986  0.7276E-01  0.1016E+00  0.5885E+01  0.5865E+01
     17.143  0.5658E-01  0.8406E-01  0.5894E+01  0.5878E+01
     17.301  0.6359E-01  0.6309E-01  0.5904E+01  0.5888E+01
     17.459  0.9829E-01  0.5130E-01  0.5919E+01  0.5896E+01
     17.617  0.5649E-01  0.9355E-01  0.5928E+01  0.5911E+01
     17.774  0.6678E-01  0.7773E-01  0.5939E+01  0.5923E+01
     17.932  0.3410E-01  0.6446E-01  0.5944E+01  0.5934E+01
     18.090  0.4823E-01  0.4975E-01  0.5952E+01  0.5941E+01
     18.247  0.5358E-01  0.4068E-01  0.5960E+01  0.5948E+01
     18.405  0.6098E-01  0.4950E-01  0.5970E+01  0.5956E+01
     18.563  0.3268E-01  0.6661E-01  0.5975E+01  0.5966E+01
     18.720  0.3564E-01  0.4255E-01  0.5981E+01  0.5973E+01
     18.878  0.8456E-01  0.3324E-01  0.5994E+01  0.5978E+01
     19.036  0.1254E+00  0.2945E-01  0.6014E+01  0.5983E+01
     19.193  0.1347E+00  0.4705E-01  0.6035E+01  0.5990E+01
     19.351  0.1679E+00  0.1287E+00  0.6061E+01  0.6010E+01
     19.509  0.1652E+00  0.1670E+00  0.6087E+01  0.6037E+01
     19.666  0.1577E+00  0.1825E+00  0.6112E+01  0.6066E+01
     19.824  0.1301E+00  0.1686E+00  0.6133E+01  0.6092E+01
     19.982  0.1491E+00  0.1666E+00  0.6156E+01  0.6118E+01
     20.139  0.1289E+00  0.1241E+00  0.6177E+01  0.6138E+01
     20.297  0.1255E+00  0.1768E+00  0.6196E+01  0.6166E+01
     20.455  0.1262E+00  0.1049E+00  0.6216E+01  0.6182E+01
     20.613  0.1241E+00  0.1481E+00  0.6236E+01  0.6206E+01
     20.770  0.1078E+00  0.1282E+00  0.6253E+01  0.6226E+01
     20.928  0.1117E+00  0.1089E+00  0.6271E+01  0.6243E+01
     21.086  0.1162E+00  0.1194E+00  0.6289E+01  0.6262E+01
     21.243  0.9762E-01  0.1124E+00  0.6304E+01  0.6280E+01
     21.401  0.1255E+00  0.1141E+00  0.6324E+01  0.6298E+01
     21.559  0.8533E-01  0.1123E+00  0.6337E+01  0.6315E+01
     21.716  0.1106E+00  0.1079E+00  0.6355E+01  0.6332E+01
     21.874  0.9700E-01  0.9680E-01  0.6370E+01  0.6348E+01
     22.032  0.1083E+00  0.1074E+00  0.6387E+01  0.6365E+01
     22.189  0.9045E-01  0.1146E+00  0.6402E+01  0.6383E+01
     22.347  0.1186E+00  0.8211E-01  0.6420E+01  0.6396E+01
     22.505  0.8356E-01  0.1275E+00  0.6433E+01  0.6416E+01
     22.662  0.1590E+00  0.8143E-01  0.6459E+01  0.6429E+01
     22.820  0.1258E+00  0.1201E+00  0.6478E+01  0.6447E+01
     22.978  0.1335E+00  0.1601E+00  0.6499E+01  0.6473E+01
     23.135  0.1278E+00  0.1163E+00  0.6520E+01  0.6491E+01
     23.293  0.9542E-01  0.1581E+00  0.6535E+01  0.6516E+01
     23.451  0.1833E+00  0.8478E-01  0.6563E+01  0.6529E+01
     23.609  0.1812E+00  0.1589E+00  0.6592E+01  0.6554E+01
     23.766  0.1575E+00  0.2077E+00  0.6617E+01  0.6587E+01
     23.924  0.1552E+00  0.1546E+00  0.6641E+01  0.6612E+01
     24.082  0.1641E+00  0.1555E+00  0.6667E+01  0.6636E+01
     24.239  0.1640E+00  0.1690E+00  0.6693E+01  0.6663E+01
     24.397  0.1658E+00  0.1757E+00  0.6719E+01  0.6690E+01
     24.555  0.1766E+00  0.1695E+00  0.6747E+01  0.6717E+01
     24.712  0.1639E+00  0.1693E+00  0.6773E+01  0.6744E+01
     24.870  0.1420E+00  0.1723E+00  0.6795E+01  0.6771E+01
     25.028  0.1384E+00  0.1456E+00  0.6817E+01  0.6794E+01
     25.185  0.1665E+00  0.1450E+00  0.6843E+01  0.6817E+01
     25.343  0.2090E+00  0.1660E+00  0.6876E+01  0.6843E+01
     25.501  0.1703E+00  0.2184E+00  0.6903E+01  0.6877E+01
     25.658  0.1460E+00  0.1713E+00  0.6926E+01  0.6904E+01
     25.816  0.1580E+00  0.1444E+00  0.6951E+01  0.6927E+01
     25.974  0.2095E+00  0.1658E+00  0.6984E+01  0.6953E+01
     26.131  0.1663E+00  0.2094E+00  0.7010E+01  0.6986E+01
     26.289  0.1395E+00  0.1664E+00  0.7032E+01  0.7013E+01
     26.447  0.1938E+00  0.1531E+00  0.7063E+01  0.7037E+01
     26.604  0.1888E+00  0.1919E+00  0.7093E+01  0.7067E+01
     26.762  0.1909E+00  0.2008E+00  0.7123E+01  0.7099E+01
     26.920  0.1478E+00  0.1749E+00  0.7146E+01  0.7126E+01
     27.078  0.1911E+00  0.1595E+00  0.7176E+01  0.7151E+01
     27.235  0.1592E+00  0.1887E+00  0.7201E+01  0.7181E+01
     27.393  0.2332E+00  0.1880E+00  0.7238E+01  0.7211E+01
     27.551  0.1425E+00  0.2077E+00  0.7261E+01  0.7244E+01
     27.708  0.2036E+00  0.1500E+00  0.7293E+01  0.7267E+01
     27.866  0.1871E+00  0.2211E+00  0.7322E+01  0.7302E+01
     28.024  0.1934E+00  0.1884E+00  0.7353E+01  0.7332E+01
     28.181  0.2035E+00  0.1957E+00  0.7385E+01  0.7363E+01
     28.339  0.1712E+00  0.2070E+00  0.7412E+01  0.7395E+01
     28.497  0.2360E+00  0.1742E+00  0.7449E+01  0.7423E+01
     28.654  0.2188E+00  0.2593E+00  0.7483E+01  0.7464E+01
     28.812  0.1747E+00  0.1857E+00  0.7511E+01  0.7493E+01
     28.970  0.2033E+00  0.1983E+00  0.7543E+01  0.7524E+01
     29.127  0.1888E+00  0.1864E+00  0.7573E+01  0.7554E+01
     29.285  0.2083E+00  0.1843E+00  0.7606E+01  0.7583E+01
     29.443  0.1990E+00  0.2445E+00  0.7637E+01  0.7621E+01
     29.600  0.1994E+00  0.1686E+00  0.7669E+01  0.7648E+01
     29.758  0.1658E+00  0.2071E+00  0.7695E+01  0.7680E+01
     29.916  0.1916E+00  0.1574E+00  0.7725E+01  0.7705E+01
     30.074  0.2060E+00  0.2080E+00  0.7757E+01  0.7738E+01
     30.231  0.1874E+00  0.2098E+00  0.7787E+01  0.7771E+01
     30.389  0.1661E+00  0.1699E+00  0.7813E+01  0.7798E+01
     30.547  0.1621E+00  0.1615E+00  0.7839E+01  0.7823E+01
     30.704  0.2227E+00  0.1821E+00  0.7874E+01  0.7852E+01
     30.862  0.1831E+00  0.2319E+00  0.7903E+01  0.7889E+01
     31.020  0.1653E+00  0.1625E+00  0.7929E+01  0.7914E+01
     31.177  0.1438E+00  0.1528E+00  0.7951E+01  0.7938E+01
     31.335  0.1714E+00  0.1502E+00  0.7978E+01  0.7962E+01
     31.493  0.2168E+00  0.2159E+00  0.8013E+01  0.7996E+01
     31.650  0.1619E+00  0.1746E+00  0.8038E+01  0.8024E+01
     31.808  0.1533E+00  0.1726E+00  0.8062E+01  0.8051E+01
     31.966  0.1503E+00  0.1387E+00  0.8086E+01  0.8073E+01
     32.123  0.1850E+00  0.1710E+00  0.8115E+01  0.8100E+01
     32.281  0.1690E+00  0.2027E+00  0.8142E+01  0.8132E+01
     32.439  0.1502E+00  0.1351E+00  0.8166E+01  0.8153E+01
     32.596  0.1347E+00  0.1519E+00  0.8187E+01  0.8177E+01
     32.754  0.1582E+00  0.1462E+00  0.8212E+01  0.8200E+01
     32.912  0.2004E+00  0.1806E+00  0.8243E+01  0.8228E+01
     33.070  0.1656E+00  0.1971E+00  0.8269E+01  0.8259E+01
     33.227  0.1079E+00  0.1230E+00  0.8286E+01  0.8279E+01
     33.385  0.1388E+00  0.1284E+00  0.8308E+01  0.8299E+01
     33.543  0.1471E+00  0.1576E+00  0.8332E+01  0.8324E+01
     33.700  0.1690E+00  0.1418E+00  0.8358E+01  0.8346E+01
     33.858  0.1682E+00  0.1732E+00  0.8385E+01  0.8374E+01
     34.016  0.1427E+00  0.1534E+00  0.8407E+01  0.8398E+01
     34.173  0.1583E+00  0.1600E+00  0.8432E+01  0.8423E+01
     34.331  0.1693E+00  0.1742E+00  0.8459E+01  0.8451E+01
     34.489  0.1398E+00  0.1389E+00  0.8481E+01  0.8472E+01
     34.646  0.1559E+00  0.1500E+00  0.8505E+01  0.8496E+01
     34.804  0.1883E+00  0.1780E+00  0.8535E+01  0.8524E+01
     34.962  0.1835E+00  0.2041E+00  0.8564E+01  0.8556E+01
     35.119  0.1639E+00  0.1584E+00  0.8590E+01  0.8581E+01
     35.277  0.2041E+00  0.2018E+00  0.8622E+01  0.8613E+01
     35.435  0.1745E+00  0.1724E+00  0.8650E+01  0.8640E+01
     35.592  0.1982E+00  0.1745E+00  0.8681E+01  0.8668E+01
     35.750  0.1807E+00  0.2011E+00  0.8709E+01  0.8700E+01
     35.908  0.1960E+00  0.1783E+00  0.8740E+01  0.8728E+01
     36.066  0.2509E+00  0.2256E+00  0.8780E+01  0.8763E+01
     36.223  0.2131E+00  0.2484E+00  0.8813E+01  0.8802E+01
     36.381  0.2378E+00  0.2338E+00  0.8851E+01  0.8839E+01
     36.539  0.1985E+00  0.2092E+00  0.8882E+01  0.8872E+01
     36.696  0.2251E+00  0.2137E+00  0.8918E+01  0.8906E+01
     36.854  0.2204E+00  0.2345E+00  0.8953E+01  0.8943E+01
     37.012  0.2093E+00  0.1953E+00  0.8986E+01  0.8974E+01
     37.169  0.2110E+00  0.2124E+00  0.9019E+01  0.9007E+01
     37.327  0.2593E+00  0.2631E+00  0.9060E+01  0.9049E+01
     37.485  0.2047E+00  0.2163E+00  0.9092E+01  0.9083E+01
     37.642  0.2107E+00  0.2194E+00  0.9125E+01  0.9117E+01
     37.800  0.2123E+00  0.1954E+00  0.9159E+01  0.9148E+01
     37.958  0.2110E+00  0.2030E+00  0.9192E+01  0.9180E+01
     38.115  0.2580E+00  0.2589E+00  0.9233E+01  0.9221E+01
     38.273  0.1765E+00  0.2012E+00  0.9260E+01  0.9253E+01
     38.431  0.2398E+00  0.2170E+00  0.9298E+01  0.9287E+01
     38.588  0.2632E+00  0.2620E+00  0.9340E+01  0.9328E+01
     38.746  0.2092E+00  0.2284E+00  0.9373E+01  0.9364E+01
     38.904  0.2197E+00  0.2023E+00  0.9407E+01  0.9396E+01
     39.061  0.2047E+00  0.2190E+00  0.9440E+01  0.9431E+01
     39.219  0.2530E+00  0.2426E+00  0.9480E+01  0.9469E+01
     39.377  0.2091E+00  0.2318E+00  0.9512E+01  0.9506E+01
     39.535  0.2026E+00  0.1969E+00  0.9544E+01  0.9537E+01
     39.692  0.1610E+00  0.1685E+00  0.9570E+01  0.9563E+01
     39.850  0.1757E+00  0.1715E+00  0.9598E+01  0.9590E+01
     40.008  0.2029E+00  0.2053E+00  0.9630E+01  0.9623E+01
     40.165  0.1907E+00  0.1904E+00  0.9660E+01  0.9653E+01
     40.323  0.2117E+00  0.2179E+00  0.9693E+01  0.9687E+01
     40.481  0.1439E+00  0.1494E+00  0.9716E+01  0.9711E+01
     40.638  0.1552E+00  0.1599E+00  0.9740E+01  0.9736E+01
     40.796  0.1429E+00  0.1425E+00  0.9763E+01  0.9758E+01
     40.954  0.1170E+00  0.1194E+00  0.9781E+01  0.9777E+01
     41.111  0.1184E+00  0.1138E+00  0.9800E+01  0.9795E+01
     41.269  0.1861E+00  0.1765E+00  0.9829E+01  0.9823E+01
     41.427  0.1148E+00  0.1461E+00  0.9847E+01  0.9846E+01
     41.584  0.9841E-01  0.8713E-01  0.9863E+01  0.9860E+01
     41.742  0.1285E+00  0.1222E+00  0.9883E+01  0.9879E+01
     41.900  0.9033E-01  0.1028E+00  0.9897E+01  0.9895E+01
     42.057  0.9494E-01  0.1041E+00  0.9912E+01  0.9911E+01
     42.215  0.6199E-01  0.5640E-01  0.9922E+01  0.9920E+01
     42.373  0.1380E+00  0.1304E+00  0.9944E+01  0.9941E+01
     42.531  0.1008E+00  0.1080E+00  0.9960E+01  0.9958E+01
     42.688  0.5679E-01  0.6069E-01  0.9969E+01  0.9968E+01
     42.846  0.4584E-01  0.5244E-01  0.9976E+01  0.9976E+01
     43.004  0.3860E-01  0.3508E-01  0.9982E+01  0.9981E+01
     43.161  0.3027E-01  0.3198E-01  0.9987E+01  0.9986E+01
     43.319  0.9641E-02  0.1117E-01  0.9988E+01  0.9988E+01
     43.477  0.1851E-01  0.1850E-01  0.9991E+01  0.9991E+01
     43.634  0.2787E-01  0.2699E-01  0.9996E+01  0.9995E+01
     43.792  0.2901E-02  0.4358E-02  0.9996E+01  0.9996E+01
     43.950  0.7874E-02  0.7488E-02  0.9997E+01  0.9997E+01
     44.107  0.4612E-02  0.4025E-02  0.9998E+01  0.9998E+01
     44.265  0.4480E-02  0.5684E-02  0.9999E+01  0.9999E+01
     44.423 -0.3728E-03 -0.4299E-03  0.9999E+01  0.9999E+01
     44.580  0.4276E-02  0.3504E-02  0.9999E+01  0.9999E+01
     44.738  0.4523E-02  0.5296E-02  0.1000E+02  0.1000E+02
     44.896 -0.1582E-03 -0.1629E-03  0.1000E+02  0.1000E+02
     45.053 -0.2521E-05 -0.3438E-05  0.1000E+02  0.1000E+02
     45.211 -0.8707E-10 -0.1465E-09  0.1000E+02  0.1000E+02
     45.369 -0.1693E-16 -0.3480E-16  0.1000E+02  0.1000E+02
     45.527  0.0000E+00  0.0000E+00  0.1000E+02  0.1000E+02
     45.684  0.0000E+00  0.0000E+00  0.1000E+02  0.1000E+02
     45.842  0.0000E+00  0.0000E+00  0.1000E+02  0.1000E+02
     46.000  0.0000E+00  0.0000E+00  0.1000E+02  0.1000E+02
     46.157  0.0000E+00  0.0000E+00  0.1000E+02  0.1000E+02
     46.315  0.0000E+00  0.0000E+00  0.1000E+02  0.1000E+02
     46.473  0.0000E+00  0.0000E+00  0.1000E+02  0.1000E+02
     46.630  0.0000E+00  0.0000E+00  0.1000E+02  0.1000E+02
     46.788  0.0000E+00  0.0000E+00  0.1000E+02  0.1000E+02
