Cr35                                    
    1.000000000000000     
    -3.4722295491878983    6.0140858613974046    4.9104677847714200
    -3.4722251492664920   -6.0140855296303934    4.9104711246622852
     4.6351092950285553   -0.0000044832884112    3.2775177241032907
   Cr
    35
Direct
  0.1666671392209782  0.1666668971754128  0.7499998297920897
  0.1666669832478000  0.4975929945208383  0.2499998474664262
  0.1666666424837810  0.4989870681845432  0.7499997259706389
  0.1666667936133035  0.8357403769376489  0.2500001797870091
  0.1666671319353333  0.8343464712612562  0.7500003258555337
  0.4975927509140936  0.1666667581913515  0.2500001984996283
  0.4989869283786136  0.1666664331012803  0.7500003797735542
  0.4998622292754755  0.4998622748858811  0.2500000293872131
  0.4988636432534972  0.4988637049991155  0.7500000399823429
  0.4998617595278390  0.8334719119569465  0.2500001658777650
  0.4988633334375940  0.8344701153634704  0.7500003741402863
  0.8357401435703901  0.1666665705749441  0.2499998330707297
  0.8343463375530995  0.1666669234969467  0.7499996762544228
  0.8334717872770258  0.4998619144376362  0.2499998336261660
  0.8344699453932017  0.4988635309253706  0.7499996422132431
  0.8334708579530262  0.8334708754151912  0.2500000233037609
  0.8344696752097059  0.8344697116281062  0.7499999692704560
  0.0016030968296364  0.0016032521115041  0.0029500668046277
  0.0016032583887752  0.0016031406734334  0.4970498014820181
  0.0016042141949153  0.3317292404363365  0.0029485572786840
  0.0016046083745014  0.3317288578462105  0.4970501486511470
  0.0002228488400181  0.6666662302400392  0.9994808864378366
  0.0002229918247349  0.6666661877476715  0.5005187888214191
  0.3317288332311860  0.0016046455283235  0.0029498584574206
  0.3317292554090970  0.0016042338491204  0.4970513985813103
  0.3317294837061733  0.3317296148463047  0.0029492816595034
  0.3317296372763406  0.3317294933729069  0.4970507316047976
  0.3331101054437477  0.6666671606396195  0.9994816457742957
  0.3331102587096416  0.6666670919100697  0.5005187077981721
  0.6666662608841184  0.0002230179435570  0.9994812265973392
  0.6666663339297806  0.0002228794801980  0.5005190833173896
  0.6666671907086787  0.3331102308721592  0.9994813044822406
  0.6666672390574340  0.3331101026806703  0.5005184028591553
  0.6666667507321880  0.6666667847049453  0.0011631964803894
  0.6666669002142716  0.6666666520609875  0.4988368336409905
 
  0.00000000E+00  0.00000000E+00  0.00000000E+00
  0.00000000E+00  0.00000000E+00  0.00000000E+00
  0.00000000E+00  0.00000000E+00  0.00000000E+00
  0.00000000E+00  0.00000000E+00  0.00000000E+00
  0.00000000E+00  0.00000000E+00  0.00000000E+00
  0.00000000E+00  0.00000000E+00  0.00000000E+00
  0.00000000E+00  0.00000000E+00  0.00000000E+00
  0.00000000E+00  0.00000000E+00  0.00000000E+00
  0.00000000E+00  0.00000000E+00  0.00000000E+00
  0.00000000E+00  0.00000000E+00  0.00000000E+00
  0.00000000E+00  0.00000000E+00  0.00000000E+00
  0.00000000E+00  0.00000000E+00  0.00000000E+00
  0.00000000E+00  0.00000000E+00  0.00000000E+00
  0.00000000E+00  0.00000000E+00  0.00000000E+00
  0.00000000E+00  0.00000000E+00  0.00000000E+00
  0.00000000E+00  0.00000000E+00  0.00000000E+00
  0.00000000E+00  0.00000000E+00  0.00000000E+00
  0.00000000E+00  0.00000000E+00  0.00000000E+00
  0.00000000E+00  0.00000000E+00  0.00000000E+00
  0.00000000E+00  0.00000000E+00  0.00000000E+00
  0.00000000E+00  0.00000000E+00  0.00000000E+00
  0.00000000E+00  0.00000000E+00  0.00000000E+00
  0.00000000E+00  0.00000000E+00  0.00000000E+00
  0.00000000E+00  0.00000000E+00  0.00000000E+00
  0.00000000E+00  0.00000000E+00  0.00000000E+00
  0.00000000E+00  0.00000000E+00  0.00000000E+00
  0.00000000E+00  0.00000000E+00  0.00000000E+00
  0.00000000E+00  0.00000000E+00  0.00000000E+00
  0.00000000E+00  0.00000000E+00  0.00000000E+00
  0.00000000E+00  0.00000000E+00  0.00000000E+00
  0.00000000E+00  0.00000000E+00  0.00000000E+00
  0.00000000E+00  0.00000000E+00  0.00000000E+00
  0.00000000E+00  0.00000000E+00  0.00000000E+00
  0.00000000E+00  0.00000000E+00  0.00000000E+00
  0.00000000E+00  0.00000000E+00  0.00000000E+00
