Co7 Sb24                                
    1.000000000000000     
    14.8453136581555363   -0.0043675523246192   -5.2442082699429458
    -3.7188202506687613    6.4348928003405303   -2.6379711219118986
     0.0040216440234936   -0.0124856389833586    7.8776741044012475
   Co   Sb
     7    24
Direct
  0.7499991099999974  0.4999992600000027  0.4999990199999971
  0.0000328103116693  0.5000224682959787  0.0004087268640099
  0.4999676796883357  0.4999811717040241 -0.0004072068640120
  0.9998062010772307  0.9995024526068438  0.4994865335329471
  0.5001937389227643  0.0004967873931502  0.5005157664670585
  0.2500004700000034  0.9999996600000003  0.0000002600000002
  0.7500004700000034  0.9999996600000003  0.0000002600000002
  0.2480882577130127  0.1648083892355401  0.3368293741746052
  0.7466039344399730  0.1598886555674630  0.3335961468140385
  0.0803401938645646  0.6667045169307925  0.8291662483204608
  0.5795658374102154  0.6663583679757816  0.8250735923395923
  0.1670505153247933  0.1720774872032478  0.8394174497524698
  0.6665333560296335  0.1734633432873087  0.8405281552361435
  0.4184900677115229  0.6651241020947022  0.5041937606663239
  0.9195156430885609  0.6661832147725842  0.5067966004999834
  0.3329494446752034  0.8279193527967464  0.1605829902475311
  0.8334666039703632  0.8265334967126856  0.1594722847638572
  0.4196598161354362  0.3332967030692088  0.1708324916795415
  0.9204341725897854  0.3336428520242199  0.1749251476604101
  0.3320178430914272  0.5028937571983462  0.8352733212304948
  0.8334016870020637  0.5073772569477241  0.8398878610869996
  0.1679810869085767  0.4971038828016502  0.1647235887695053
  0.6665972429979401  0.4926203830522726  0.1601090489130005
  0.0815085722884783  0.3348748379052954  0.4958063293336763
  0.5804829969114402  0.3338157252274135  0.4932034895000169
  0.4129500118555116  0.1585740437264646  0.6670591705284197
  0.9138953586569407  0.1609743366243541  0.6662023553585475
  0.0870513131444879  0.8414300962735367  0.3329432794715842
  0.5861059663430588  0.8390298033756475  0.3338000946414562
  0.2519125822869858  0.8351934607644567  0.6631698158253987
  0.7533969055600255  0.8401131944325337  0.6664030431859655
 
  0.00000000E+00  0.00000000E+00  0.00000000E+00
  0.00000000E+00  0.00000000E+00  0.00000000E+00
  0.00000000E+00  0.00000000E+00  0.00000000E+00
  0.00000000E+00  0.00000000E+00  0.00000000E+00
  0.00000000E+00  0.00000000E+00  0.00000000E+00
  0.00000000E+00  0.00000000E+00  0.00000000E+00
  0.00000000E+00  0.00000000E+00  0.00000000E+00
  0.00000000E+00  0.00000000E+00  0.00000000E+00
  0.00000000E+00  0.00000000E+00  0.00000000E+00
  0.00000000E+00  0.00000000E+00  0.00000000E+00
  0.00000000E+00  0.00000000E+00  0.00000000E+00
  0.00000000E+00  0.00000000E+00  0.00000000E+00
  0.00000000E+00  0.00000000E+00  0.00000000E+00
  0.00000000E+00  0.00000000E+00  0.00000000E+00
  0.00000000E+00  0.00000000E+00  0.00000000E+00
  0.00000000E+00  0.00000000E+00  0.00000000E+00
  0.00000000E+00  0.00000000E+00  0.00000000E+00
  0.00000000E+00  0.00000000E+00  0.00000000E+00
  0.00000000E+00  0.00000000E+00  0.00000000E+00
  0.00000000E+00  0.00000000E+00  0.00000000E+00
  0.00000000E+00  0.00000000E+00  0.00000000E+00
  0.00000000E+00  0.00000000E+00  0.00000000E+00
  0.00000000E+00  0.00000000E+00  0.00000000E+00
  0.00000000E+00  0.00000000E+00  0.00000000E+00
  0.00000000E+00  0.00000000E+00  0.00000000E+00
  0.00000000E+00  0.00000000E+00  0.00000000E+00
  0.00000000E+00  0.00000000E+00  0.00000000E+00
  0.00000000E+00  0.00000000E+00  0.00000000E+00
  0.00000000E+00  0.00000000E+00  0.00000000E+00
  0.00000000E+00  0.00000000E+00  0.00000000E+00
  0.00000000E+00  0.00000000E+00  0.00000000E+00
