   2   2   0   0
  0.3987503E+02  0.4831500E-09  0.4831500E-09  0.4831500E-09  0.5000000E-15
   1.0000000000000000E-004
  CAR 
 Diamond Sn - EOS static calculation     
      9.89825279     -8.17731915  301      2.28267105      1.00000000
     -8.177  0.0000E+00  0.0000E+00
     -8.117  0.0000E+00  0.0000E+00
     -8.057  0.0000E+00  0.0000E+00
     -7.997  0.0000E+00  0.0000E+00
     -7.936  0.0000E+00  0.0000E+00
     -7.876  0.0000E+00  0.0000E+00
     -7.816  0.0000E+00  0.0000E+00
     -7.756  0.0000E+00  0.0000E+00
     -7.695  0.0000E+00  0.0000E+00
     -7.635  0.1125E-16  0.6776E-18
     -7.575  0.2374E-11  0.1430E-12
     -7.515  0.3092E-07  0.1863E-08
     -7.454  0.3008E-04  0.1814E-05
     -7.394  0.3154E-02  0.1918E-03
     -7.334  0.4563E-01  0.2941E-02
     -7.274  0.1444E+00  0.1164E-01
     -7.213  0.2359E+00  0.2586E-01
     -7.153  0.2803E+00  0.4274E-01
     -7.093  0.3711E+00  0.6510E-01
     -7.033  0.3378E+00  0.8545E-01
     -6.972  0.4757E+00  0.1141E+00
     -6.912  0.4925E+00  0.1438E+00
     -6.852  0.4191E+00  0.1690E+00
     -6.792  0.5961E+00  0.2050E+00
     -6.731  0.6804E+00  0.2460E+00
     -6.671  0.4893E+00  0.2754E+00
     -6.611  0.6588E+00  0.3151E+00
     -6.551  0.7624E+00  0.3611E+00
     -6.490  0.8288E+00  0.4110E+00
     -6.430  0.6362E+00  0.4493E+00
     -6.370  0.7866E+00  0.4967E+00
     -6.310  0.9539E+00  0.5542E+00
     -6.249  0.1080E+01  0.6192E+00
     -6.189  0.8815E+00  0.6724E+00
     -6.129  0.8656E+00  0.7245E+00
     -6.069  0.1308E+01  0.8033E+00
     -6.008  0.1657E+01  0.9031E+00
     -5.948  0.1257E+01  0.9788E+00
     -5.888  0.1124E+01  0.1047E+01
     -5.827  0.1588E+01  0.1142E+01
     -5.767  0.1423E+01  0.1228E+01
     -5.707  0.1185E+01  0.1299E+01
     -5.647  0.1093E+01  0.1365E+01
     -5.586  0.1020E+01  0.1427E+01
     -5.526  0.1262E+01  0.1503E+01
     -5.466  0.1234E+01  0.1577E+01
     -5.406  0.7290E+00  0.1621E+01
     -5.345  0.6885E+00  0.1662E+01
     -5.285  0.1080E+01  0.1727E+01
     -5.225  0.1087E+01  0.1793E+01
     -5.165  0.5002E+00  0.1823E+01
     -5.104  0.4408E+00  0.1850E+01
     -5.044  0.6045E+00  0.1886E+01
     -4.984  0.9191E+00  0.1941E+01
     -4.924  0.4045E+00  0.1966E+01
     -4.863  0.1197E+00  0.1973E+01
     -4.803  0.8490E-01  0.1978E+01
     -4.743  0.2691E+00  0.1994E+01
     -4.683  0.3993E+00  0.2018E+01
     -4.622  0.1285E+00  0.2026E+01
     -4.562  0.6615E-01  0.2030E+01
     -4.502  0.1564E+00  0.2040E+01
     -4.442  0.6102E+00  0.2076E+01
     -4.381  0.9172E+00  0.2132E+01
     -4.321  0.3771E+00  0.2154E+01
     -4.261  0.4027E+00  0.2179E+01
     -4.201  0.4022E+00  0.2203E+01
     -4.140  0.1068E+01  0.2267E+01
     -4.080  0.1092E+01  0.2333E+01
     -4.020  0.5893E+00  0.2368E+01
     -3.960  0.5598E+00  0.2402E+01
     -3.899  0.8678E+00  0.2454E+01
     -3.839  0.1210E+01  0.2527E+01
     -3.779  0.1121E+01  0.2595E+01
     -3.719  0.1134E+01  0.2663E+01
     -3.658  0.8488E+00  0.2714E+01
     -3.598  0.9859E+00  0.2774E+01
     -3.538  0.1661E+01  0.2874E+01
     -3.478  0.1471E+01  0.2963E+01
     -3.417  0.1097E+01  0.3029E+01
     -3.357  0.8917E+00  0.3082E+01
     -3.297  0.5991E+00  0.3118E+01
     -3.237  0.7885E+00  0.3166E+01
     -3.176  0.9120E+00  0.3221E+01
     -3.116  0.8758E+00  0.3274E+01
     -3.056  0.5548E+00  0.3307E+01
     -2.996  0.5223E+00  0.3339E+01
     -2.935  0.6535E+00  0.3378E+01
     -2.875  0.3536E+00  0.3399E+01
     -2.815  0.3828E+00  0.3422E+01
     -2.755  0.7683E+00  0.3469E+01
     -2.694  0.5684E+00  0.3503E+01
     -2.634  0.5239E+00  0.3534E+01
     -2.574  0.2434E+00  0.3549E+01
     -2.514  0.2513E+00  0.3564E+01
     -2.453  0.3975E+00  0.3588E+01
     -2.393  0.4639E+00  0.3616E+01
     -2.333  0.3384E+00  0.3637E+01
     -2.273  0.3337E+00  0.3657E+01
     -2.212  0.3564E+00  0.3678E+01
     -2.152  0.3721E+00  0.3701E+01
     -2.092  0.2905E+00  0.3718E+01
     -2.032  0.2138E+00  0.3731E+01
     -1.971  0.1716E+00  0.3741E+01
     -1.911  0.1615E+00  0.3751E+01
     -1.851  0.2779E+00  0.3768E+01
     -1.791  0.4369E+00  0.3794E+01
     -1.730  0.1168E+00  0.3801E+01
     -1.670  0.2422E+00  0.3816E+01
     -1.610  0.2542E+00  0.3831E+01
     -1.550  0.1252E+00  0.3839E+01
     -1.489  0.1469E+00  0.3847E+01
     -1.429  0.1903E+00  0.3859E+01
     -1.369  0.5329E-01  0.3862E+01
     -1.309  0.1011E+00  0.3868E+01
     -1.248  0.2273E+00  0.3882E+01
     -1.188  0.2417E+00  0.3896E+01
     -1.128  0.2289E+00  0.3910E+01
     -1.068  0.8939E-01  0.3916E+01
     -1.007  0.3497E-01  0.3918E+01
     -0.947  0.3767E-01  0.3920E+01
     -0.887  0.6128E-01  0.3924E+01
     -0.827  0.1604E+00  0.3933E+01
     -0.766  0.1549E+00  0.3943E+01
     -0.706  0.3483E-01  0.3945E+01
     -0.646  0.1979E-01  0.3946E+01
     -0.586  0.1788E+00  0.3957E+01
     -0.525  0.2239E+00  0.3970E+01
     -0.465  0.4203E+00  0.3996E+01
     -0.405  0.1105E+01  0.4062E+01
     -0.345  0.1794E+01  0.4170E+01
     -0.284  0.2073E+01  0.4295E+01
     -0.224  0.1876E+01  0.4408E+01
     -0.164  0.2017E+01  0.4530E+01
     -0.104  0.1820E+01  0.4639E+01
     -0.043  0.1437E+01  0.4726E+01
      0.017  0.1703E+01  0.4828E+01
      0.077  0.1713E+01  0.4932E+01
      0.137  0.1380E+01  0.5015E+01
      0.198  0.2005E+01  0.5136E+01
      0.258  0.1973E+01  0.5255E+01
      0.318  0.2216E+01  0.5388E+01
      0.378  0.2089E+01  0.5514E+01
      0.439  0.2059E+01  0.5638E+01
      0.499  0.1993E+01  0.5758E+01
      0.559  0.2156E+01  0.5888E+01
      0.619  0.2748E+01  0.6054E+01
      0.680  0.2286E+01  0.6191E+01
      0.740  0.1418E+01  0.6277E+01
      0.800  0.1527E+01  0.6369E+01
      0.860  0.2396E+01  0.6513E+01
      0.921  0.2004E+01  0.6634E+01
      0.981  0.1672E+01  0.6735E+01
      1.041  0.1893E+01  0.6849E+01
      1.101  0.1980E+01  0.6968E+01
      1.162  0.1629E+01  0.7066E+01
      1.222  0.1578E+01  0.7161E+01
      1.282  0.1924E+01  0.7277E+01
      1.342  0.1497E+01  0.7367E+01
      1.403  0.1746E+01  0.7473E+01
      1.463  0.1288E+01  0.7550E+01
      1.523  0.9309E+00  0.7606E+01
      1.583  0.9117E+00  0.7661E+01
      1.644  0.1065E+01  0.7725E+01
      1.704  0.7269E+00  0.7769E+01
      1.764  0.5482E+00  0.7802E+01
      1.824  0.6566E+00  0.7842E+01
      1.885  0.5793E+00  0.7877E+01
      1.945  0.2634E+00  0.7893E+01
      2.005  0.4602E+00  0.7920E+01
      2.066  0.5301E+00  0.7952E+01
      2.126  0.2364E+00  0.7966E+01
      2.186  0.2373E+00  0.7981E+01
      2.246  0.2426E+00  0.7995E+01
      2.307  0.1306E+00  0.8003E+01
      2.367  0.1623E+00  0.8013E+01
      2.427  0.1191E+00  0.8020E+01
      2.487  0.3540E+00  0.8042E+01
      2.548  0.4748E+00  0.8070E+01
      2.608  0.3286E+00  0.8090E+01
      2.668  0.2413E+00  0.8104E+01
      2.728  0.2987E+00  0.8122E+01
      2.789  0.2953E+00  0.8140E+01
      2.849  0.2881E+00  0.8158E+01
      2.909  0.3862E+00  0.8181E+01
      2.969  0.6650E+00  0.8221E+01
      3.030  0.6248E+00  0.8259E+01
      3.090  0.7897E+00  0.8306E+01
      3.150  0.8021E+00  0.8355E+01
      3.210  0.8251E+00  0.8404E+01
      3.271  0.8711E+00  0.8457E+01
      3.331  0.6325E+00  0.8495E+01
      3.391  0.1240E+01  0.8570E+01
      3.451  0.2484E+01  0.8719E+01
      3.512  0.2753E+01  0.8885E+01
      3.572  0.2360E+01  0.9027E+01
      3.632  0.1933E+01  0.9144E+01
      3.692  0.2795E+01  0.9312E+01
      3.753  0.2750E+01  0.9478E+01
      3.813  0.1364E+01  0.9560E+01
      3.873  0.7980E+00  0.9608E+01
      3.933  0.1077E+01  0.9673E+01
      3.994  0.1445E+01  0.9760E+01
      4.054  0.1080E+01  0.9825E+01
      4.114  0.2053E+01  0.9949E+01
      4.174  0.2534E+01  0.1010E+02
      4.235  0.1956E+01  0.1022E+02
      4.295  0.1215E+01  0.1029E+02
      4.355  0.3101E+00  0.1031E+02
      4.415  0.1454E+00  0.1032E+02
      4.476  0.3394E+00  0.1034E+02
      4.536  0.5649E+00  0.1037E+02
      4.596  0.1162E+01  0.1044E+02
      4.656  0.1750E+01  0.1055E+02
      4.717  0.2447E+01  0.1070E+02
      4.777  0.1770E+01  0.1080E+02
      4.837  0.7999E+00  0.1085E+02
      4.897  0.6389E+00  0.1089E+02
      4.958  0.9380E+00  0.1095E+02
      5.018  0.8910E+00  0.1100E+02
      5.078  0.9840E+00  0.1106E+02
      5.138  0.1330E+01  0.1114E+02
      5.199  0.1901E+01  0.1125E+02
      5.259  0.2005E+01  0.1138E+02
      5.319  0.2419E+01  0.1152E+02
      5.379  0.2814E+01  0.1169E+02
      5.440  0.3307E+01  0.1189E+02
      5.500  0.2101E+01  0.1202E+02
      5.560  0.1436E+01  0.1210E+02
      5.620  0.1256E+01  0.1218E+02
      5.681  0.1069E+01  0.1224E+02
      5.741  0.7689E+00  0.1229E+02
      5.801  0.1319E+01  0.1237E+02
      5.861  0.1556E+01  0.1246E+02
      5.922  0.1288E+01  0.1254E+02
      5.982  0.9248E+00  0.1260E+02
      6.042  0.1569E+01  0.1269E+02
      6.102  0.1825E+01  0.1280E+02
      6.163  0.2392E+01  0.1294E+02
      6.223  0.2811E+01  0.1311E+02
      6.283  0.2926E+01  0.1329E+02
      6.343  0.1800E+01  0.1340E+02
      6.404  0.1757E+01  0.1350E+02
      6.464  0.1685E+01  0.1361E+02
      6.524  0.1351E+01  0.1369E+02
      6.584  0.1635E+01  0.1379E+02
      6.645  0.2457E+01  0.1393E+02
      6.705  0.2378E+01  0.1408E+02
      6.765  0.1910E+01  0.1419E+02
      6.825  0.1211E+01  0.1427E+02
      6.886  0.1357E+01  0.1435E+02
      6.946  0.1245E+01  0.1442E+02
      7.006  0.1506E+01  0.1451E+02
      7.066  0.1875E+01  0.1463E+02
      7.127  0.1532E+01  0.1472E+02
      7.187  0.2228E+01  0.1485E+02
      7.247  0.1891E+01  0.1497E+02
      7.307  0.9239E+00  0.1502E+02
      7.368  0.1376E+01  0.1511E+02
      7.428  0.1011E+01  0.1517E+02
      7.488  0.9883E+00  0.1523E+02
      7.548  0.1422E+01  0.1531E+02
      7.609  0.9584E+00  0.1537E+02
      7.669  0.9933E+00  0.1543E+02
      7.729  0.1119E+01  0.1550E+02
      7.789  0.1090E+01  0.1556E+02
      7.850  0.7745E+00  0.1561E+02
      7.910  0.5546E+00  0.1564E+02
      7.970  0.4211E+00  0.1567E+02
      8.030  0.1012E+01  0.1573E+02
      8.091  0.9992E+00  0.1579E+02
      8.151  0.5088E+00  0.1582E+02
      8.211  0.4538E+00  0.1585E+02
      8.271  0.3463E+00  0.1587E+02
      8.332  0.2962E+00  0.1589E+02
      8.392  0.2793E+00  0.1590E+02
      8.452  0.2942E+00  0.1592E+02
      8.512  0.2510E+00  0.1594E+02
      8.573  0.6030E-01  0.1594E+02
      8.633  0.5551E-01  0.1594E+02
      8.693  0.1915E+00  0.1595E+02
      8.753  0.3085E+00  0.1597E+02
      8.814  0.1875E+00  0.1598E+02
      8.874  0.1184E+00  0.1599E+02
      8.934  0.9690E-01  0.1600E+02
      8.994  0.1143E-01  0.1600E+02
      9.055  0.1263E-01  0.1600E+02
      9.115  0.2884E-01  0.1600E+02
      9.175  0.6634E-02  0.1600E+02
      9.235  0.1285E-03  0.1600E+02
      9.296  0.1708E-06  0.1600E+02
      9.356  0.1399E-10  0.1600E+02
      9.416  0.6478E-16  0.1600E+02
      9.476  0.0000E+00  0.1600E+02
      9.537  0.0000E+00  0.1600E+02
      9.597  0.0000E+00  0.1600E+02
      9.657  0.0000E+00  0.1600E+02
      9.717  0.0000E+00  0.1600E+02
      9.778  0.0000E+00  0.1600E+02
      9.838  0.0000E+00  0.1600E+02
      9.898  0.0000E+00  0.1600E+02
