[1776482831.735150] [d01:2825163:f]        vfs_fuse.c:281  UCX  ERROR inotify_add_watch(/tmp) failed: No space left on device
 running    1 mpi-ranks, with    2 threads/rank, on    1 nodes
 distrk:  each k-point on    1 cores,    1 groups
 distr:  one band on    1 cores,    1 groups
 OpenACC runtime initialized ...    1 GPUs detected
 vasp.6.4.2 20Jul23 (build Mar  2 2025 11:04:54) complex                         
 POSCAR found type information on POSCAR Sn
 POSCAR found :  1 types and       2 ions
 scaLAPACK will be used selectively (only on CPU)
 LDA part: xc-table for Pade appr. of Perdew
 -----------------------------------------------------------------------------
|                                                                             |
|           W    W    AA    RRRRR   N    N  II  N    N   GGGG   !!!           |
|           W    W   A  A   R    R  NN   N  II  NN   N  G    G  !!!           |
|           W    W  A    A  R    R  N N  N  II  N N  N  G       !!!           |
|           W WW W  AAAAAA  RRRRR   N  N N  II  N  N N  G  GGG   !            |
|           WW  WW  A    A  R   R   N   NN  II  N   NN  G    G                |
|           W    W  A    A  R    R  N    N  II  N    N   GGGG   !!!           |
|                                                                             |
|     The requested file  could not be found or opened for reading            |
|     k-point information. Automatic k-point generation is used as a          |
|     fallback, which may lead to unwanted results.                           |
|                                                                             |
 -----------------------------------------------------------------------------

 POSCAR, INCAR and KPOINTS ok, starting setup
 FFT: planning ... GRIDC
 FFT: planning ... GRID_SOFT
 FFT: planning ... GRID
 WAVECAR not read
 entering main loop
       N       E                     dE             d eps       ncg     rms          rms(c)
DAV:   1     0.182162000921E+02    0.18216E+02   -0.26897E+03  2320   0.717E+02
DAV:   2    -0.704210761476E+01   -0.25258E+02   -0.24616E+02  3368   0.748E+01
DAV:   3    -0.766408430344E+01   -0.62198E+00   -0.62001E+00  3056   0.160E+01
DAV:   4    -0.766609902661E+01   -0.20147E-02   -0.20147E-02  3304   0.105E+00
DAV:   5    -0.766610209516E+01   -0.30686E-05   -0.30686E-05  3032   0.346E-02    0.266E+00
DAV:   6    -0.763465340587E+01    0.31449E-01   -0.11855E-02  2736   0.789E-01    0.163E+00
DAV:   7    -0.761715865416E+01    0.17495E-01   -0.31208E-02  2408   0.131E+00    0.119E-01
DAV:   8    -0.761847177469E+01   -0.13131E-02   -0.14221E-03  2408   0.209E-01    0.240E-02
DAV:   9    -0.761866958926E+01   -0.19781E-03   -0.26388E-04  3304   0.103E-01    0.128E-02
DAV:  10    -0.761868355219E+01   -0.13963E-04   -0.38313E-05  2368   0.415E-02    0.288E-03
DAV:  11    -0.761868339266E+01    0.15952E-06   -0.47374E-07  3280   0.432E-03
   1 F= -.76186834E+01 E0= -.76186085E+01  d E =-.149779E-03
Warning: ieee_invalid is signaling
Warning: ieee_divide_by_zero is signaling
Warning: ieee_underflow is signaling
Warning: ieee_inexact is signaling
FORTRAN STOP
