       N       E                     dE             d eps       ncg     rms          rms(c)
DAV:   1     0.416423614842E+02    0.41642E+02   -0.33248E+03  1088   0.747E+02
DAV:   2     0.348090725454E+00   -0.41294E+02   -0.41131E+02  1104   0.195E+02
DAV:   3    -0.997621036429E+00   -0.13457E+01   -0.13385E+01  1808   0.324E+01
DAV:   4    -0.102181817821E+01   -0.24197E-01   -0.24222E-01  1576   0.370E+00
DAV:   5    -0.102229291640E+01   -0.47474E-03   -0.47465E-03  1920   0.298E-01    0.159E+00
DAV:   6    -0.102305918433E+01   -0.76627E-03   -0.12683E-03  1784   0.250E-01    0.969E-01
DAV:   7    -0.102373228079E+01   -0.67310E-03   -0.25686E-03  1704   0.389E-01    0.500E-02
DAV:   8    -0.102382013020E+01   -0.87849E-04   -0.10264E-04  1680   0.127E-01    0.146E-02
DAV:   9    -0.102382971031E+01   -0.95801E-05   -0.13524E-05  1728   0.278E-02    0.500E-03
DAV:  10    -0.102382886452E+01    0.84579E-06   -0.13129E-06  1752   0.119E-02    0.596E-04
DAV:  11    -0.102382887611E+01   -0.11594E-07   -0.23212E-08  1288   0.141E-03
   1 F= -.10238289E+01 E0= -.10241756E+01  d E =0.104023E-02
