In4 Se4                                 
    1.000000000000000     
     4.0417341300000000    0.0000000100000000   -0.0000000000000000
    -2.0208665600000000    3.5002448099999999    0.0000000000000000
    -0.0000000000000000    0.0000000000000000   17.4284433999999990
   In   Se
     4     4
Direct
  0.3333330000000032  0.6666669999999968  0.3303039600000020
  0.6666669999999968  0.3333330000000032  0.8303039600000020
  0.6666669999999968  0.3333330000000032  0.6696960399999980
  0.3333330000000032  0.6666669999999968  0.1696960399999980
  0.3333330000000032  0.6666669999999968  0.5973247599999993
  0.6666669999999968  0.3333330000000032  0.0973247599999993
  0.6666669999999968  0.3333330000000032  0.4026752400000007
  0.3333330000000032  0.6666669999999968  0.9026752400000007
 
  0.00000000E+00  0.00000000E+00  0.00000000E+00
  0.00000000E+00  0.00000000E+00  0.00000000E+00
  0.00000000E+00  0.00000000E+00  0.00000000E+00
  0.00000000E+00  0.00000000E+00  0.00000000E+00
  0.00000000E+00  0.00000000E+00  0.00000000E+00
  0.00000000E+00  0.00000000E+00  0.00000000E+00
  0.00000000E+00  0.00000000E+00  0.00000000E+00
  0.00000000E+00  0.00000000E+00  0.00000000E+00
