   1   1   0   0
  0.1462640E+02  0.2745053E-09  0.2745053E-09  0.2745054E-09  0.5000000E-15
   1.0000000000000000E-004
  CAR 
 Rh FCC EOS static single-point          
     31.07999946      1.15545699  301     10.62064786      1.00000000
      1.155  0.0000E+00  0.0000E+00
      1.255  0.0000E+00  0.0000E+00
      1.355  0.0000E+00  0.0000E+00
      1.455  0.0000E+00  0.0000E+00
      1.554 -0.9768E-30 -0.9743E-31
      1.654 -0.2102E-26 -0.2097E-27
      1.754 -0.2736E-23 -0.2731E-24
      1.854 -0.2157E-20 -0.2154E-21
      1.953 -0.1030E-17 -0.1029E-18
      2.053 -0.2884E-15 -0.2887E-16
      2.153 -0.5023E-13 -0.5039E-14
      2.253 -0.5310E-11 -0.5347E-12
      2.352 -0.3416E-09 -0.3461E-10
      2.452 -0.1345E-07 -0.1377E-08
      2.552 -0.3270E-06 -0.3399E-07
      2.652 -0.4937E-05 -0.5264E-06
      2.751 -0.4613E-04 -0.5128E-05
      2.851 -0.2572E-03 -0.3079E-04
      2.951 -0.7476E-03 -0.1054E-03
      3.051 -0.4239E-03 -0.1476E-03
      3.150  0.3867E-02  0.2380E-03
      3.250  0.1297E-01  0.1532E-02
      3.350  0.2385E-01  0.3911E-02
      3.450  0.3672E-01  0.7573E-02
      3.549  0.4611E-01  0.1217E-01
      3.649  0.4542E-01  0.1670E-01
      3.749  0.5183E-01  0.2187E-01
      3.849  0.7060E-01  0.2892E-01
      3.948  0.7794E-01  0.3669E-01
      4.048  0.6882E-01  0.4356E-01
      4.148  0.6655E-01  0.5019E-01
      4.248  0.9183E-01  0.5935E-01
      4.347  0.1197E+00  0.7129E-01
      4.447  0.1161E+00  0.8287E-01
      4.547  0.9316E-01  0.9217E-01
      4.647  0.9152E-01  0.1013E+00
      4.746  0.1359E+00  0.1149E+00
      4.846  0.1872E+00  0.1335E+00
      4.946  0.2307E+00  0.1565E+00
      5.046  0.3526E+00  0.1917E+00
      5.145  0.6181E+00  0.2534E+00
      5.245  0.9439E+00  0.3475E+00
      5.345  0.1196E+01  0.4668E+00
      5.445  0.1369E+01  0.6034E+00
      5.544  0.1560E+01  0.7591E+00
      5.644  0.1828E+01  0.9414E+00
      5.744  0.2102E+01  0.1151E+01
      5.844  0.2201E+01  0.1371E+01
      5.943  0.2061E+01  0.1576E+01
      6.043  0.1890E+01  0.1765E+01
      6.143  0.1786E+01  0.1943E+01
      6.243  0.1632E+01  0.2106E+01
      6.342  0.1474E+01  0.2253E+01
      6.442  0.1381E+01  0.2390E+01
      6.542  0.1272E+01  0.2517E+01
      6.642  0.1212E+01  0.2638E+01
      6.741  0.1314E+01  0.2769E+01
      6.841  0.1449E+01  0.2914E+01
      6.941  0.1477E+01  0.3061E+01
      7.041  0.1437E+01  0.3205E+01
      7.140  0.1382E+01  0.3342E+01
      7.240  0.1378E+01  0.3480E+01
      7.340  0.1473E+01  0.3627E+01
      7.440  0.1525E+01  0.3779E+01
      7.539  0.1475E+01  0.3926E+01
      7.639  0.1495E+01  0.4075E+01
      7.739  0.1628E+01  0.4237E+01
      7.839  0.1774E+01  0.4414E+01
      7.938  0.1959E+01  0.4610E+01
      8.038  0.2304E+01  0.4840E+01
      8.138  0.2689E+01  0.5108E+01
      8.238  0.2722E+01  0.5379E+01
      8.337  0.2293E+01  0.5608E+01
      8.437  0.1802E+01  0.5788E+01
      8.537  0.1601E+01  0.5947E+01
      8.637  0.1577E+01  0.6105E+01
      8.736  0.1442E+01  0.6249E+01
      8.836  0.1269E+01  0.6375E+01
      8.936  0.1317E+01  0.6506E+01
      9.036  0.1449E+01  0.6651E+01
      9.135  0.1426E+01  0.6793E+01
      9.235  0.1390E+01  0.6932E+01
      9.335  0.1490E+01  0.7081E+01
      9.435  0.1669E+01  0.7247E+01
      9.534  0.1867E+01  0.7433E+01
      9.634  0.1923E+01  0.7625E+01
      9.734  0.1694E+01  0.7794E+01
      9.834  0.1354E+01  0.7929E+01
      9.933  0.1220E+01  0.8051E+01
     10.033  0.1366E+01  0.8187E+01
     10.133  0.1536E+01  0.8340E+01
     10.233  0.1456E+01  0.8486E+01
     10.332  0.1233E+01  0.8609E+01
     10.432  0.1200E+01  0.8728E+01
     10.532  0.1379E+01  0.8866E+01
     10.632  0.1512E+01  0.9017E+01
     10.731  0.1510E+01  0.9167E+01
     10.831  0.1562E+01  0.9323E+01
     10.931  0.1831E+01  0.9506E+01
     11.031  0.2255E+01  0.9731E+01
     11.130  0.2516E+01  0.9982E+01
     11.230  0.2276E+01  0.1021E+02
     11.330  0.1631E+01  0.1037E+02
     11.430  0.9519E+00  0.1047E+02
     11.529  0.4400E+00  0.1051E+02
     11.629  0.1442E+00  0.1052E+02
     11.729  0.5358E-01  0.1053E+02
     11.829  0.1119E+00  0.1054E+02
     11.928  0.2732E+00  0.1057E+02
     12.028  0.4699E+00  0.1062E+02
     12.128  0.5192E+00  0.1067E+02
     12.228  0.3479E+00  0.1070E+02
     12.327  0.1823E+00  0.1072E+02
     12.427  0.1560E+00  0.1074E+02
     12.527  0.1522E+00  0.1075E+02
     12.627  0.1200E+00  0.1076E+02
     12.726  0.1331E+00  0.1078E+02
     12.826  0.2083E+00  0.1080E+02
     12.926  0.3041E+00  0.1083E+02
     13.026  0.3702E+00  0.1086E+02
     13.125  0.3562E+00  0.1090E+02
     13.225  0.2905E+00  0.1093E+02
     13.325  0.2633E+00  0.1095E+02
     13.425  0.2676E+00  0.1098E+02
     13.524  0.2215E+00  0.1100E+02
     13.624  0.1636E+00  0.1102E+02
     13.724  0.1604E+00  0.1104E+02
     13.824  0.2040E+00  0.1106E+02
     13.923  0.2864E+00  0.1108E+02
     14.023  0.3479E+00  0.1112E+02
     14.123  0.3149E+00  0.1115E+02
     14.223  0.2600E+00  0.1118E+02
     14.322  0.2655E+00  0.1120E+02
     14.422  0.2626E+00  0.1123E+02
     14.522  0.2103E+00  0.1125E+02
     14.622  0.1703E+00  0.1127E+02
     14.721  0.1914E+00  0.1129E+02
     14.821  0.2655E+00  0.1131E+02
     14.921  0.3245E+00  0.1135E+02
     15.020  0.3203E+00  0.1138E+02
     15.120  0.2889E+00  0.1141E+02
     15.220  0.2439E+00  0.1143E+02
     15.320  0.1817E+00  0.1145E+02
     15.419  0.1698E+00  0.1147E+02
     15.519  0.2152E+00  0.1149E+02
     15.619  0.2254E+00  0.1151E+02
     15.719  0.1716E+00  0.1153E+02
     15.818  0.1327E+00  0.1154E+02
     15.918  0.2071E+00  0.1156E+02
     16.018  0.3534E+00  0.1160E+02
     16.118  0.3818E+00  0.1163E+02
     16.217  0.2425E+00  0.1166E+02
     16.317  0.1202E+00  0.1167E+02
     16.417  0.1305E+00  0.1168E+02
     16.517  0.1850E+00  0.1170E+02
     16.616  0.1962E+00  0.1172E+02
     16.716  0.1823E+00  0.1174E+02
     16.816  0.1390E+00  0.1175E+02
     16.916  0.9076E-01  0.1176E+02
     17.015  0.1151E+00  0.1177E+02
     17.115  0.1907E+00  0.1179E+02
     17.215  0.2491E+00  0.1182E+02
     17.315  0.2671E+00  0.1184E+02
     17.414  0.2194E+00  0.1187E+02
     17.514  0.1379E+00  0.1188E+02
     17.614  0.1043E+00  0.1189E+02
     17.714  0.9174E-01  0.1190E+02
     17.813  0.5232E-01  0.1190E+02
     17.913  0.5062E-01  0.1191E+02
     18.013  0.1154E+00  0.1192E+02
     18.113  0.1471E+00  0.1194E+02
     18.212  0.9493E-01  0.1195E+02
     18.312  0.5047E-01  0.1195E+02
     18.412  0.8967E-01  0.1196E+02
     18.512  0.2248E+00  0.1198E+02
     18.611  0.4383E+00  0.1203E+02
     18.711  0.5912E+00  0.1208E+02
     18.811  0.5518E+00  0.1214E+02
     18.911  0.4321E+00  0.1218E+02
     19.010  0.3890E+00  0.1222E+02
     19.110  0.3626E+00  0.1226E+02
     19.210  0.3065E+00  0.1229E+02
     19.310  0.2933E+00  0.1232E+02
     19.409  0.3318E+00  0.1235E+02
     19.509  0.3365E+00  0.1238E+02
     19.609  0.2824E+00  0.1241E+02
     19.709  0.2730E+00  0.1244E+02
     19.808  0.3529E+00  0.1247E+02
     19.908  0.4099E+00  0.1252E+02
     20.008  0.3555E+00  0.1255E+02
     20.108  0.2485E+00  0.1258E+02
     20.207  0.1855E+00  0.1259E+02
     20.307  0.2124E+00  0.1262E+02
     20.407  0.2742E+00  0.1264E+02
     20.507  0.2930E+00  0.1267E+02
     20.606  0.2853E+00  0.1270E+02
     20.706  0.2959E+00  0.1273E+02
     20.806  0.3240E+00  0.1276E+02
     20.906  0.3290E+00  0.1280E+02
     21.005  0.2811E+00  0.1282E+02
     21.105  0.2004E+00  0.1284E+02
     21.205  0.1464E+00  0.1286E+02
     21.305  0.1803E+00  0.1288E+02
     21.404  0.2978E+00  0.1291E+02
     21.504  0.3951E+00  0.1294E+02
     21.604  0.3888E+00  0.1298E+02
     21.704  0.3436E+00  0.1302E+02
     21.803  0.3214E+00  0.1305E+02
     21.903  0.3047E+00  0.1308E+02
     22.003  0.3299E+00  0.1311E+02
     22.103  0.4023E+00  0.1315E+02
     22.202  0.4822E+00  0.1320E+02
     22.302  0.5870E+00  0.1326E+02
     22.402  0.6798E+00  0.1333E+02
     22.502  0.6646E+00  0.1339E+02
     22.601  0.5427E+00  0.1345E+02
     22.701  0.4199E+00  0.1349E+02
     22.801  0.3726E+00  0.1353E+02
     22.901  0.3750E+00  0.1356E+02
     23.000  0.3783E+00  0.1360E+02
     23.100  0.3731E+00  0.1364E+02
     23.200  0.3862E+00  0.1368E+02
     23.300  0.4640E+00  0.1372E+02
     23.399  0.5517E+00  0.1378E+02
     23.499  0.5161E+00  0.1383E+02
     23.599  0.4058E+00  0.1387E+02
     23.699  0.3942E+00  0.1391E+02
     23.798  0.4460E+00  0.1396E+02
     23.898  0.4049E+00  0.1400E+02
     23.998  0.2957E+00  0.1403E+02
     24.098  0.2488E+00  0.1405E+02
     24.197  0.3308E+00  0.1408E+02
     24.297  0.4419E+00  0.1413E+02
     24.397  0.4300E+00  0.1417E+02
     24.497  0.3655E+00  0.1421E+02
     24.596  0.3665E+00  0.1424E+02
     24.696  0.3778E+00  0.1428E+02
     24.796  0.3425E+00  0.1431E+02
     24.896  0.3062E+00  0.1435E+02
     24.995  0.3138E+00  0.1438E+02
     25.095  0.3813E+00  0.1441E+02
     25.195  0.4638E+00  0.1446E+02
     25.295  0.4453E+00  0.1451E+02
     25.394  0.3103E+00  0.1454E+02
     25.494  0.2184E+00  0.1456E+02
     25.594  0.2648E+00  0.1458E+02
     25.694  0.3443E+00  0.1462E+02
     25.793  0.3658E+00  0.1466E+02
     25.893  0.3826E+00  0.1469E+02
     25.993  0.4111E+00  0.1473E+02
     26.093  0.4343E+00  0.1478E+02
     26.192  0.4623E+00  0.1482E+02
     26.292  0.4375E+00  0.1487E+02
     26.392  0.3845E+00  0.1491E+02
     26.492  0.4677E+00  0.1495E+02
     26.591  0.6515E+00  0.1502E+02
     26.691  0.7192E+00  0.1509E+02
     26.791  0.9534E+00  0.1518E+02
     26.891  0.1881E+01  0.1537E+02
     26.990  0.2621E+01  0.1563E+02
     27.090  0.1904E+01  0.1582E+02
     27.190  0.6117E+00  0.1588E+02
     27.290  0.3495E-01  0.1589E+02
     27.389  0.3554E-01  0.1589E+02
     27.489  0.1395E+00  0.1591E+02
     27.589  0.1680E+00  0.1592E+02
     27.689  0.1248E+00  0.1593E+02
     27.788  0.1108E+00  0.1595E+02
     27.888  0.1385E+00  0.1596E+02
     27.988  0.1261E+00  0.1597E+02
     28.088  0.7326E-01  0.1598E+02
     28.187  0.4101E-01  0.1598E+02
     28.287  0.3635E-01  0.1599E+02
     28.387  0.3505E-01  0.1599E+02
     28.487  0.3431E-01  0.1599E+02
     28.586  0.2961E-01  0.1600E+02
     28.686  0.1428E-01  0.1600E+02
     28.786  0.1069E-02  0.1600E+02
     28.886 -0.1528E-02  0.1600E+02
     28.985  0.2178E-02  0.1600E+02
     29.085  0.6464E-02  0.1600E+02
     29.185  0.6329E-02  0.1600E+02
     29.285  0.2532E-02  0.1600E+02
     29.384 -0.1109E-04  0.1600E+02
     29.484 -0.3368E-03  0.1600E+02
     29.584 -0.1127E-03  0.1600E+02
     29.684 -0.1718E-04  0.1600E+02
     29.783 -0.1416E-05  0.1600E+02
     29.883 -0.6658E-07  0.1600E+02
     29.983 -0.1831E-08  0.1600E+02
     30.083 -0.2984E-10  0.1600E+02
     30.182 -0.2901E-12  0.1600E+02
     30.282 -0.1690E-14  0.1600E+02
     30.382 -0.7789E-17  0.1600E+02
     30.482  0.0000E+00  0.1600E+02
     30.581  0.0000E+00  0.1600E+02
     30.681  0.0000E+00  0.1600E+02
     30.781  0.0000E+00  0.1600E+02
     30.881  0.0000E+00  0.1600E+02
     30.980  0.0000E+00  0.1600E+02
     31.080  0.0000E+00  0.1600E+02
