 running    1 mpi-ranks, with    1 threads/rank, on    1 nodes
 distrk:  each k-point on    1 cores,    1 groups
 distr:  one band on    1 cores,    1 groups
 OpenACC runtime initialized ...    1 GPUs detected
 vasp.6.4.2 20Jul23 (build Mar  2 2025 11:04:54) complex                         
 POSCAR found type information on POSCAR Rh
 POSCAR found :  1 types and       1 ions
 scaLAPACK will be used selectively (only on CPU)
 LDA part: xc-table for Pade appr. of Perdew
 -----------------------------------------------------------------------------
|                                                                             |
|           W    W    AA    RRRRR   N    N  II  N    N   GGGG   !!!           |
|           W    W   A  A   R    R  NN   N  II  NN   N  G    G  !!!           |
|           W    W  A    A  R    R  N N  N  II  N N  N  G       !!!           |
|           W WW W  AAAAAA  RRRRR   N  N N  II  N  N N  G  GGG   !            |
|           WW  WW  A    A  R   R   N   NN  II  N   NN  G    G                |
|           W    W  A    A  R    R  N    N  II  N    N   GGGG   !!!           |
|                                                                             |
|     The requested file  could not be found or opened for reading            |
|     k-point information. Automatic k-point generation is used as a          |
|     fallback, which may lead to unwanted results.                           |
|                                                                             |
 -----------------------------------------------------------------------------

 POSCAR, INCAR and KPOINTS ok, starting setup
 FFT: planning ... GRIDC
 FFT: planning ... GRID_SOFT
 FFT: planning ... GRID
 WAVECAR not read
 entering main loop
       N       E                     dE             d eps       ncg     rms          rms(c)
DAV:   1     0.208071871380E+02    0.20807E+02   -0.36477E+03  3576   0.778E+02
DAV:   2    -0.767682731668E+01   -0.28484E+02   -0.27771E+02  3696   0.151E+02
DAV:   3    -0.778790476703E+01   -0.11108E+00   -0.11096E+00  5336   0.136E+01
DAV:   4    -0.778800717642E+01   -0.10241E-03   -0.10241E-03  5024   0.262E-01
DAV:   5    -0.778800724714E+01   -0.70721E-07   -0.72456E-07  5088   0.506E-03    0.894E+00
DAV:   6    -0.729014315611E+01    0.49786E+00   -0.18936E+00  3784   0.135E+01    0.304E+00
DAV:   7    -0.725946463989E+01    0.30679E-01   -0.95513E-02  6168   0.283E+00    0.127E+00
DAV:   8    -0.725478711430E+01    0.46775E-02   -0.41413E-03  3976   0.684E-01    0.458E-01
DAV:   9    -0.725389744302E+01    0.88967E-03   -0.29555E-04  4992   0.186E-01    0.465E-02
DAV:  10    -0.725388739878E+01    0.10044E-04   -0.22037E-06  5584   0.161E-02    0.957E-03
DAV:  11    -0.725388518597E+01    0.22128E-05   -0.48781E-08  3880   0.298E-03    0.134E-03
DAV:  12    -0.725388536409E+01   -0.17813E-06   -0.39524E-09  3256   0.485E-04
   1 F= -.72538854E+01 E0= -.72537846E+01  d E =-.302234E-03
Warning: ieee_invalid is signaling
Warning: ieee_divide_by_zero is signaling
Warning: ieee_underflow is signaling
Warning: ieee_inexact is signaling
FORTRAN STOP
