   2   2   0   0
  0.1956585E+02  0.3810786E-09  0.3810787E-09  0.3810785E-09  0.5000000E-15
   1.0000000000000000E-004
  CAR 
 Si diamond                              
     17.49750591     -7.17797488  301      6.31257313      1.00000000
     -7.178  0.0000E+00  0.0000E+00
     -7.096  0.0000E+00  0.0000E+00
     -7.013  0.0000E+00  0.0000E+00
     -6.931  0.0000E+00  0.0000E+00
     -6.849  0.0000E+00  0.0000E+00
     -6.767  0.0000E+00  0.0000E+00
     -6.684  0.0000E+00  0.0000E+00
     -6.602  0.0000E+00  0.0000E+00
     -6.520  0.0000E+00  0.0000E+00
     -6.438  0.0000E+00  0.0000E+00
     -6.355  0.0000E+00  0.0000E+00
     -6.273  0.3814E-11  0.3137E-12
     -6.191  0.6239E-06  0.5132E-07
     -6.109  0.6385E-03  0.5257E-04
     -6.026  0.1856E-01  0.1579E-02
     -5.944  0.9415E-01  0.9323E-02
     -5.862  0.1014E+00  0.1766E-01
     -5.780  0.2296E+00  0.3655E-01
     -5.697  0.1079E+00  0.4542E-01
     -5.615  0.2402E+00  0.6518E-01
     -5.533  0.2738E+00  0.8770E-01
     -5.451  0.2733E+00  0.1102E+00
     -5.368  0.1779E+00  0.1248E+00
     -5.286  0.2730E+00  0.1473E+00
     -5.204  0.4904E+00  0.1876E+00
     -5.122  0.2762E+00  0.2103E+00
     -5.039  0.3428E+00  0.2385E+00
     -4.957  0.1753E+00  0.2529E+00
     -4.875  0.5068E+00  0.2946E+00
     -4.793  0.5013E+00  0.3359E+00
     -4.710  0.5476E+00  0.3809E+00
     -4.628  0.1576E+00  0.3939E+00
     -4.546  0.4504E+00  0.4309E+00
     -4.464  0.4485E+00  0.4678E+00
     -4.381  0.6560E+00  0.5217E+00
     -4.299  0.3747E+00  0.5526E+00
     -4.217  0.8300E+00  0.6208E+00
     -4.135  0.3674E+00  0.6511E+00
     -4.052  0.3943E+00  0.6835E+00
     -3.970  0.5672E+00  0.7301E+00
     -3.888  0.7251E+00  0.7898E+00
     -3.806  0.6607E+00  0.8441E+00
     -3.723  0.1051E+01  0.9306E+00
     -3.641  0.8302E+00  0.9988E+00
     -3.559  0.4076E+00  0.1032E+01
     -3.477  0.7581E+00  0.1095E+01
     -3.394  0.9083E+00  0.1169E+01
     -3.312  0.1005E+01  0.1252E+01
     -3.230  0.9174E+00  0.1328E+01
     -3.148  0.6950E+00  0.1385E+01
     -3.065  0.3203E+00  0.1411E+01
     -2.983  0.7189E+00  0.1470E+01
     -2.901  0.8295E+00  0.1538E+01
     -2.819  0.5286E+00  0.1582E+01
     -2.736  0.6017E+00  0.1631E+01
     -2.654  0.8351E+00  0.1700E+01
     -2.572  0.3943E+00  0.1732E+01
     -2.490  0.3084E+00  0.1758E+01
     -2.407  0.5283E+00  0.1801E+01
     -2.325  0.3767E+00  0.1832E+01
     -2.243  0.5594E+00  0.1878E+01
     -2.161  0.5056E+00  0.1920E+01
     -2.078  0.3332E+00  0.1947E+01
     -1.996  0.1760E+00  0.1962E+01
     -1.914  0.7414E-01  0.1968E+01
     -1.832  0.1042E+00  0.1976E+01
     -1.749  0.2417E+00  0.1996E+01
     -1.667  0.2797E+00  0.2019E+01
     -1.585  0.2042E+00  0.2036E+01
     -1.503  0.1342E-01  0.2037E+01
     -1.420  0.7360E-01  0.2043E+01
     -1.338  0.1341E+00  0.2054E+01
     -1.256  0.2354E+00  0.2074E+01
     -1.174  0.1048E+01  0.2160E+01
     -1.091  0.4176E+00  0.2194E+01
     -1.009  0.3120E+00  0.2220E+01
     -0.927  0.5769E+00  0.2267E+01
     -0.845  0.1041E+01  0.2353E+01
     -0.762  0.1662E+01  0.2490E+01
     -0.680  0.1672E+01  0.2627E+01
     -0.598  0.1278E+01  0.2732E+01
     -0.516  0.4156E+00  0.2766E+01
     -0.433  0.7416E+00  0.2827E+01
     -0.351  0.8570E+00  0.2898E+01
     -0.269  0.2843E+00  0.2921E+01
     -0.187  0.9671E+00  0.3001E+01
     -0.104  0.7048E+00  0.3059E+01
     -0.022  0.4860E+00  0.3099E+01
      0.060  0.6201E+00  0.3150E+01
      0.142  0.4078E+00  0.3183E+01
      0.225  0.1469E+00  0.3195E+01
      0.307  0.3035E+00  0.3220E+01
      0.389  0.1000E+01  0.3303E+01
      0.471  0.4120E+00  0.3337E+01
      0.554  0.3294E+00  0.3364E+01
      0.636  0.1176E+00  0.3373E+01
      0.718  0.3807E+00  0.3405E+01
      0.800  0.5017E+00  0.3446E+01
      0.883  0.3397E+00  0.3474E+01
      0.965  0.4384E-01  0.3477E+01
      1.047  0.1561E+00  0.3490E+01
      1.129  0.7360E+00  0.3551E+01
      1.212  0.3746E+00  0.3582E+01
      1.294  0.1120E+00  0.3591E+01
      1.376  0.1581E+00  0.3604E+01
      1.458  0.1820E+00  0.3619E+01
      1.541  0.3784E+00  0.3650E+01
      1.623  0.2767E+00  0.3673E+01
      1.705  0.7676E+00  0.3736E+01
      1.787  0.7429E+00  0.3797E+01
      1.870  0.1293E+01  0.3903E+01
      1.952  0.1368E+01  0.4016E+01
      2.034  0.1389E+01  0.4130E+01
      2.116  0.6887E+00  0.4187E+01
      2.199  0.5813E+00  0.4235E+01
      2.281  0.1043E+01  0.4320E+01
      2.363  0.1445E+01  0.4439E+01
      2.445  0.1080E+01  0.4528E+01
      2.528  0.9326E+00  0.4605E+01
      2.610  0.8105E+00  0.4671E+01
      2.692  0.7496E+00  0.4733E+01
      2.774  0.1390E+01  0.4847E+01
      2.857  0.1205E+01  0.4946E+01
      2.939  0.1390E+01  0.5061E+01
      3.021  0.9234E+00  0.5137E+01
      3.103  0.1590E+01  0.5267E+01
      3.186  0.1226E+01  0.5368E+01
      3.268  0.1400E+01  0.5483E+01
      3.350  0.1475E+01  0.5605E+01
      3.432  0.1183E+01  0.5702E+01
      3.515  0.1287E+01  0.5808E+01
      3.597  0.1443E+01  0.5926E+01
      3.679  0.1868E+01  0.6080E+01
      3.761  0.1683E+01  0.6219E+01
      3.844  0.1428E+01  0.6336E+01
      3.926  0.7126E+00  0.6395E+01
      4.008  0.1151E+01  0.6489E+01
      4.090  0.1411E+01  0.6605E+01
      4.173  0.1362E+01  0.6717E+01
      4.255  0.1145E+01  0.6812E+01
      4.337  0.1030E+01  0.6896E+01
      4.420  0.1133E+01  0.6990E+01
      4.502  0.1540E+01  0.7116E+01
      4.584  0.1316E+01  0.7224E+01
      4.666  0.5093E+00  0.7266E+01
      4.749  0.1396E+01  0.7381E+01
      4.831  0.1580E+01  0.7511E+01
      4.913  0.6219E+00  0.7562E+01
      4.995  0.5084E+00  0.7604E+01
      5.078  0.9881E+00  0.7685E+01
      5.160  0.5720E+00  0.7732E+01
      5.242  0.2424E+00  0.7752E+01
      5.324  0.4545E+00  0.7790E+01
      5.407  0.7211E+00  0.7849E+01
      5.489  0.3797E+00  0.7880E+01
      5.571  0.3940E+00  0.7913E+01
      5.653  0.2665E+00  0.7935E+01
      5.736  0.2615E+00  0.7956E+01
      5.818  0.2000E+00  0.7973E+01
      5.900  0.7167E-01  0.7978E+01
      5.982  0.1644E+00  0.7992E+01
      6.065  0.8479E-01  0.7999E+01
      6.147  0.1270E-01  0.8000E+01
      6.229  0.1977E-03  0.8000E+01
      6.311  0.2548E-07  0.8000E+01
      6.394  0.5945E-09  0.8000E+01
      6.476  0.2897E-04  0.8000E+01
      6.558  0.9219E-02  0.8001E+01
      6.640  0.4681E-01  0.8005E+01
      6.723  0.9408E-01  0.8012E+01
      6.805  0.2605E+00  0.8034E+01
      6.887  0.2143E+00  0.8051E+01
      6.969  0.1701E+00  0.8065E+01
      7.052  0.3205E+00  0.8092E+01
      7.134  0.4252E+00  0.8127E+01
      7.216  0.5489E+00  0.8172E+01
      7.298  0.4689E+00  0.8210E+01
      7.381  0.5898E+00  0.8259E+01
      7.463  0.5556E+00  0.8305E+01
      7.545  0.8925E+00  0.8378E+01
      7.627  0.5557E+00  0.8424E+01
      7.710  0.6154E+00  0.8474E+01
      7.792  0.8667E+00  0.8546E+01
      7.874  0.8025E+00  0.8612E+01
      7.956  0.8812E+00  0.8684E+01
      8.039  0.4931E+00  0.8725E+01
      8.121  0.7694E+00  0.8788E+01
      8.203  0.1623E+01  0.8921E+01
      8.285  0.1803E+01  0.9070E+01
      8.368  0.1631E+01  0.9204E+01
      8.450  0.1282E+01  0.9309E+01
      8.532  0.1327E+01  0.9418E+01
      8.614  0.2139E+01  0.9594E+01
      8.697  0.1809E+01  0.9743E+01
      8.779  0.1252E+01  0.9846E+01
      8.861  0.7758E+00  0.9910E+01
      8.943  0.9133E+00  0.9985E+01
      9.026  0.1027E+01  0.1007E+02
      9.108  0.8827E+00  0.1014E+02
      9.190  0.1696E+01  0.1028E+02
      9.272  0.1505E+01  0.1041E+02
      9.355  0.1146E+01  0.1050E+02
      9.437  0.1530E+01  0.1063E+02
      9.519  0.2232E+01  0.1081E+02
      9.601  0.2684E+01  0.1103E+02
      9.684  0.1480E+01  0.1115E+02
      9.766  0.1217E+01  0.1125E+02
      9.848  0.1380E+01  0.1137E+02
      9.930  0.2079E+01  0.1154E+02
     10.013  0.2163E+01  0.1171E+02
     10.095  0.1337E+01  0.1182E+02
     10.177  0.8595E+00  0.1189E+02
     10.259  0.1299E+01  0.1200E+02
     10.342  0.1372E+01  0.1211E+02
     10.424  0.8864E+00  0.1219E+02
     10.506  0.1471E+01  0.1231E+02
     10.588  0.9466E+00  0.1239E+02
     10.671  0.1335E+01  0.1250E+02
     10.753  0.9373E+00  0.1257E+02
     10.835  0.7520E+00  0.1264E+02
     10.917  0.1239E+01  0.1274E+02
     11.000  0.1668E+01  0.1287E+02
     11.082  0.7815E+00  0.1294E+02
     11.164  0.8631E+00  0.1301E+02
     11.246  0.1249E+01  0.1311E+02
     11.329  0.1791E+01  0.1326E+02
     11.411  0.1442E+01  0.1338E+02
     11.493  0.1522E+01  0.1350E+02
     11.575  0.1770E+01  0.1365E+02
     11.658  0.1304E+01  0.1376E+02
     11.740  0.1199E+01  0.1385E+02
     11.822  0.5523E+00  0.1390E+02
     11.904  0.5804E+00  0.1395E+02
     11.987  0.7039E+00  0.1401E+02
     12.069  0.1234E+01  0.1411E+02
     12.151  0.1007E+01  0.1419E+02
     12.233  0.2122E+00  0.1421E+02
     12.316  0.8171E+00  0.1427E+02
     12.398  0.8428E+00  0.1434E+02
     12.480  0.8639E+00  0.1442E+02
     12.562  0.6459E+00  0.1447E+02
     12.645  0.9542E+00  0.1455E+02
     12.727  0.1562E+01  0.1468E+02
     12.809  0.1529E+01  0.1480E+02
     12.891  0.2147E+01  0.1498E+02
     12.974  0.7708E+00  0.1504E+02
     13.056  0.5224E+00  0.1508E+02
     13.138  0.6342E+00  0.1514E+02
     13.220  0.3156E+00  0.1516E+02
     13.303  0.5116E+00  0.1520E+02
     13.385  0.6024E+00  0.1525E+02
     13.467  0.6707E+00  0.1531E+02
     13.549  0.3838E+00  0.1534E+02
     13.632  0.3627E+00  0.1537E+02
     13.714  0.1569E+00  0.1538E+02
     13.796  0.7447E+00  0.1544E+02
     13.878  0.1039E+01  0.1553E+02
     13.961  0.3845E+00  0.1556E+02
     14.043  0.3781E+00  0.1559E+02
     14.125  0.7812E+00  0.1566E+02
     14.207  0.1298E+01  0.1576E+02
     14.290  0.7306E+00  0.1582E+02
     14.372  0.2520E+00  0.1584E+02
     14.454  0.3061E-01  0.1585E+02
     14.536  0.6997E-04  0.1585E+02
     14.619  0.1048E-08  0.1585E+02
     14.701  0.5680E-07  0.1585E+02
     14.783  0.7662E-03  0.1585E+02
     14.865  0.7561E-01  0.1585E+02
     14.948  0.1322E+00  0.1586E+02
     15.030  0.5965E-01  0.1587E+02
     15.112  0.1614E+00  0.1588E+02
     15.194  0.3149E+00  0.1591E+02
     15.277  0.2496E+00  0.1593E+02
     15.359  0.9281E-01  0.1594E+02
     15.441  0.1784E+00  0.1595E+02
     15.523  0.2030E+00  0.1597E+02
     15.606  0.2229E+00  0.1599E+02
     15.688  0.1143E+00  0.1600E+02
     15.770  0.2029E-02  0.1600E+02
     15.852  0.3144E-06  0.1600E+02
     15.935  0.2715E-12  0.1600E+02
     16.017  0.0000E+00  0.1600E+02
     16.099  0.1372E-15  0.1600E+02
     16.181  0.1024E-08  0.1600E+02
     16.264  0.4038E-04  0.1600E+02
     16.346  0.1055E-01  0.1600E+02
     16.428  0.3890E-01  0.1600E+02
     16.510  0.3675E-02  0.1600E+02
     16.593  0.3721E-05  0.1600E+02
     16.675  0.2269E-10  0.1600E+02
     16.757  0.0000E+00  0.1600E+02
     16.839  0.0000E+00  0.1600E+02
     16.922  0.0000E+00  0.1600E+02
     17.004  0.0000E+00  0.1600E+02
     17.086  0.0000E+00  0.1600E+02
     17.168  0.0000E+00  0.1600E+02
     17.251  0.0000E+00  0.1600E+02
     17.333  0.0000E+00  0.1600E+02
     17.415  0.0000E+00  0.1600E+02
     17.498  0.0000E+00  0.1600E+02
