 running    8 mpi-ranks, with    2 threads/rank, on    1 nodes
 distrk:  each k-point on    1 cores,    8 groups
 distr:  one band on    1 cores,    1 groups
 Offloading initialized ...    8 GPUs detected
 vasp.6.5.1 10Mar25 (build Apr 15 2026 12:55:44) complex                         
 POSCAR found type information on POSCAR LiS 
 POSCAR found :  2 types and      23 ions
 scaLAPACK will be used selectively (only on CPU)
 -----------------------------------------------------------------------------
|                                                                             |
|               ----> ADVICE to this user running VASP <----                  |
|                                                                             |
|     You have a (more or less) 'large supercell' and for larger cells it     |
|     might be more efficient to use real-space projection operators.         |
|     Therefore, try LREAL= Auto in the INCAR file.                           |
|     Mind: For very accurate calculation, you might also keep the            |
|     reciprocal projection scheme (i.e. LREAL=.FALSE.).                      |
|                                                                             |
 -----------------------------------------------------------------------------

 LDA part: xc-table for (Slater+PW92), standard interpolation
 -----------------------------------------------------------------------------
|                                                                             |
|           W    W    AA    RRRRR   N    N  II  N    N   GGGG   !!!           |
|           W    W   A  A   R    R  NN   N  II  NN   N  G    G  !!!           |
|           W    W  A    A  R    R  N N  N  II  N N  N  G       !!!           |
|           W WW W  AAAAAA  RRRRR   N  N N  II  N  N N  G  GGG   !            |
|           WW  WW  A    A  R   R   N   NN  II  N   NN  G    G                |
|           W    W  A    A  R    R  N    N  II  N    N   GGGG   !!!           |
|                                                                             |
|     The requested file  could not be found or opened for reading            |
|     k-point information. Automatic k-point generation is used as a          |
|     fallback, which may lead to unwanted results.                           |
|                                                                             |
 -----------------------------------------------------------------------------

 POSCAR, INCAR and KPOINTS ok, starting setup
 FFT: planning ... GRIDC
 FFT: planning ... GRID_SOFT
 FFT: planning ... GRID
 WAVECAR not read
 entering main loop
       N       E                     dE             d eps       ncg     rms          rms(c)
DAV:   1     0.266095868277E+03    0.26610E+03   -0.23451E+04   860   0.117E+03
DAV:   2    -0.599559407146E+02   -0.32605E+03   -0.31493E+03  1165   0.182E+02
DAV:   3    -0.916322563897E+02   -0.31676E+02   -0.31461E+02  1050   0.628E+01
DAV:   4    -0.923419478404E+02   -0.70969E+00   -0.70840E+00  1080   0.112E+01
DAV:   5    -0.923600769469E+02   -0.18129E-01   -0.18122E-01  1048   0.186E+00    0.104E+01
DAV:   6    -0.903983078398E+02    0.19618E+01   -0.44743E+00  1024   0.589E+00    0.784E+00
DAV:   7    -0.902779387999E+02    0.12037E+00   -0.12215E+00  1032   0.323E+00    0.442E+00
DAV:   8    -0.903425674846E+02   -0.64629E-01   -0.10424E-01  1008   0.137E+00    0.909E-01
DAV:   9    -0.903422085556E+02    0.35893E-03   -0.83519E-03  1080   0.389E-01    0.398E-01
DAV:  10    -0.903465795463E+02   -0.43710E-02   -0.54502E-03  1040   0.266E-01    0.137E-01
DAV:  11    -0.903478548533E+02   -0.12753E-02   -0.17345E-03  1008   0.159E-01    0.992E-02
DAV:  12    -0.903479858792E+02   -0.13103E-03   -0.21837E-04  1064   0.555E-02    0.526E-02
DAV:  13    -0.903480269950E+02   -0.41116E-04   -0.15044E-04  1120   0.427E-02    0.190E-02
DAV:  14    -0.903480312168E+02   -0.42218E-05   -0.23634E-05  1080   0.200E-02    0.206E-02
DAV:  15    -0.903480309425E+02    0.27430E-06   -0.33517E-06   904   0.596E-03
   1 F= -.90348031E+02 E0= -.90341171E+02  d E =-.903480E+02
 curvature:   0.00 expect dE= 0.000E+00 dE for cont linesearch  0.000E+00
 trial: gam= 0.00000 g(F)=  0.345E-01 g(S)=  0.111E-01 ort = 0.000E+00 (trialstep = 0.100E+01)
 search vector abs. value=  0.456E-01
 bond charge predicted
       N       E                     dE             d eps       ncg     rms          rms(c)
DAV:   1    -0.904033582629E+02   -0.55327E-01   -0.10731E+00   889   0.346E+00    0.103E+00
DAV:   2    -0.903904288809E+02    0.12929E-01   -0.87614E-02  1048   0.107E+00    0.516E-01
DAV:   3    -0.903884648683E+02    0.19640E-02   -0.68393E-03  1000   0.273E-01    0.248E-01
DAV:   4    -0.903881688170E+02    0.29605E-03   -0.68995E-04  1048   0.903E-02    0.140E-01
DAV:   5    -0.903880898783E+02    0.78939E-04   -0.17767E-04  1000   0.441E-02    0.532E-02
DAV:   6    -0.903880808475E+02    0.90307E-05   -0.73575E-06  1056   0.116E-02    0.255E-02
DAV:   7    -0.903880770989E+02    0.37486E-05   -0.51487E-06  1008   0.794E-03    0.514E-03
DAV:   8    -0.903880781579E+02   -0.10590E-05   -0.54879E-07   568   0.305E-03    0.284E-03
DAV:   9    -0.903880780530E+02    0.10493E-06   -0.14414E-07   544   0.144E-03
   2 F= -.90388078E+02 E0= -.90381174E+02  d E =-.400471E-01
 ZBRENT: can't locate minimum, use default step
 trial-energy change:   -0.040047  1 .order   -0.040111   -0.045613   -0.034610
 step:   4.0000(harm=  4.1456)  dis= 0.05248  next Energy=   -90.442577 (dE=-0.945E-01)
 bond charge predicted
       N       E                     dE             d eps       ncg     rms          rms(c)
DAV:   1    -0.905816025585E+02   -0.19352E+00   -0.96098E+00   868   0.103E+01    0.323E+00
DAV:   2    -0.904653030260E+02    0.11630E+00   -0.78211E-01  1042   0.325E+00    0.170E+00
DAV:   3    -0.904486365014E+02    0.16667E-01   -0.61011E-02  1010   0.817E-01    0.843E-01
DAV:   4    -0.904454467330E+02    0.31898E-02   -0.71186E-03  1021   0.281E-01    0.404E-01
DAV:   5    -0.904449687911E+02    0.47794E-03   -0.15341E-03  1013   0.132E-01    0.179E-01
DAV:   6    -0.904449153012E+02    0.53490E-04   -0.99628E-05  1064   0.396E-02    0.955E-02
DAV:   7    -0.904448887902E+02    0.26511E-04   -0.53916E-05   962   0.264E-02    0.135E-02
DAV:   8    -0.904448912245E+02   -0.24342E-05   -0.59523E-06  1056   0.842E-03    0.720E-03
DAV:   9    -0.904448913125E+02   -0.87968E-07   -0.58112E-07   607   0.321E-03
   3 F= -.90444891E+02 E0= -.90437879E+02  d E =-.968604E-01
 curvature:  -2.07 expect dE=-0.385E-01 dE for cont linesearch -0.533E-03
 trial: gam= 0.33316 g(F)=  0.715E-02 g(S)=  0.115E-01 ort = 0.343E-02 (trialstep = 0.160E+01)
 search vector abs. value=  0.260E-01
 bond charge predicted
       N       E                     dE             d eps       ncg     rms          rms(c)
DAV:   1    -0.904889323470E+02   -0.44041E-01   -0.10496E+00   998   0.351E+00    0.114E+00
DAV:   2    -0.904707535496E+02    0.18179E-01   -0.10346E-01   980   0.116E+00    0.464E-01
DAV:   3    -0.904689082882E+02    0.18453E-02   -0.12508E-02  1037   0.355E-01    0.277E-01
DAV:   4    -0.904687898281E+02    0.11846E-03   -0.48780E-04  1015   0.824E-02    0.193E-01
DAV:   5    -0.904687490923E+02    0.40736E-04   -0.21202E-04  1064   0.542E-02    0.840E-02
DAV:   6    -0.904687570786E+02   -0.79862E-05   -0.21348E-05  1013   0.176E-02    0.397E-02
DAV:   7    -0.904687634304E+02   -0.63518E-05   -0.55545E-06  1007   0.844E-03    0.843E-03
DAV:   8    -0.904687641304E+02   -0.70005E-06   -0.29499E-07   551   0.226E-03
   4 F= -.90468764E+02 E0= -.90461851E+02  d E =-.238728E-01
 trial-energy change:   -0.023873  1 .order   -0.023818   -0.031628   -0.016009
 step:   3.1748(harm=  3.2401)  dis= 0.02898  next Energy=   -90.476695 (dE=-0.318E-01)
 bond charge predicted
       N       E                     dE             d eps       ncg     rms          rms(c)
DAV:   1    -0.904963894122E+02   -0.27626E-01   -0.10181E+00  1014   0.347E+00    0.113E+00
DAV:   2    -0.904786674090E+02    0.17722E-01   -0.10110E-01   988   0.114E+00    0.464E-01
DAV:   3    -0.904769188967E+02    0.17485E-02   -0.12429E-02  1032   0.357E-01    0.280E-01
DAV:   4    -0.904767963801E+02    0.12252E-03   -0.52294E-04  1010   0.841E-02    0.198E-01
DAV:   5    -0.904767572288E+02    0.39151E-04   -0.18908E-04  1072   0.531E-02    0.841E-02
DAV:   6    -0.904767629504E+02   -0.57216E-05   -0.30363E-05   997   0.201E-02    0.442E-02
DAV:   7    -0.904767701936E+02   -0.72432E-05   -0.88983E-06  1050   0.109E-02    0.104E-02
DAV:   8    -0.904767707750E+02   -0.58139E-06   -0.58448E-07   551   0.313E-03
   5 F= -.90476771E+02 E0= -.90469947E+02  d E =-.318795E-01
 curvature:  -2.13 expect dE=-0.926E-02 dE for cont linesearch -0.150E-05
 trial: gam= 0.31226 g(F)=  0.322E-02 g(S)=  0.114E-02 ort = 0.135E-03 (trialstep = 0.191E+01)
 search vector abs. value=  0.698E-02
 bond charge predicted
       N       E                     dE             d eps       ncg     rms          rms(c)
DAV:   1    -0.904842840877E+02   -0.75139E-02   -0.13234E-01   939   0.122E+00    0.334E-01
DAV:   2    -0.904838220424E+02    0.46205E-03   -0.96235E-03  1024   0.410E-01    0.134E-01
DAV:   3    -0.904836419394E+02    0.18010E-03   -0.11787E-03  1026   0.119E-01    0.759E-02
DAV:   4    -0.904836066853E+02    0.35254E-04   -0.14775E-04  1040   0.447E-02    0.407E-02
DAV:   5    -0.904835999001E+02    0.67851E-05   -0.56733E-05  1037   0.267E-02    0.136E-02
DAV:   6    -0.904835985764E+02    0.13238E-05   -0.53586E-06   999   0.915E-03    0.931E-03
DAV:   7    -0.904835964306E+02    0.21458E-05   -0.96040E-07   655   0.391E-03    0.465E-03
DAV:   8    -0.904835956489E+02    0.78169E-06   -0.25461E-07   524   0.219E-03
   6 F= -.90483596E+02 E0= -.90476793E+02  d E =-.682487E-02
 trial-energy change:   -0.006825  1 .order   -0.006827   -0.008429   -0.005224
 step:   5.0367(harm=  5.0367)  dis= 0.02989  next Energy=   -90.487856 (dE=-0.111E-01)
 bond charge predicted
       N       E                     dE             d eps       ncg     rms          rms(c)
DAV:   1    -0.904899610723E+02   -0.63646E-02   -0.35386E-01   930   0.199E+00    0.553E-01
DAV:   2    -0.904885021592E+02    0.14589E-02   -0.27280E-02  1016   0.683E-01    0.229E-01
DAV:   3    -0.904880687072E+02    0.43345E-03   -0.33658E-03  1029   0.204E-01    0.127E-01
DAV:   4    -0.904879702643E+02    0.98443E-04   -0.41961E-04  1040   0.726E-02    0.713E-02
DAV:   5    -0.904879550166E+02    0.15248E-04   -0.15432E-04  1034   0.453E-02    0.261E-02
DAV:   6    -0.904879531728E+02    0.18438E-05   -0.17049E-05  1010   0.160E-02    0.146E-02
DAV:   7    -0.904879495227E+02    0.36501E-05   -0.22161E-06   751   0.644E-03    0.565E-03
DAV:   8    -0.904879485865E+02    0.93619E-06   -0.46692E-07   599   0.301E-03
   7 F= -.90487949E+02 E0= -.90481178E+02  d E =-.111778E-01
 curvature:  -3.99 expect dE=-0.119E-03 dE for cont linesearch -0.374E-05
 trial: gam=-0.02383 g(F)=  0.294E-04 g(S)=  0.340E-06 ort = 0.809E-04 (trialstep = 0.254E+01)
 search vector abs. value=  0.298E-04
 reached required accuracy - stopping structural energy minimisation
Warning: ieee_invalid is signaling
Warning: ieee_divide_by_zero is signaling
Warning: ieee_underflow is signaling
Warning: ieee_inexact is signaling
FORTRAN STOP
Warning: ieee_invalid is signaling
Warning: ieee_divide_by_zero is signaling
Warning: ieee_underflow is signaling
Warning: ieee_inexact is signaling
FORTRAN STOP
Warning: ieee_invalid is signaling
Warning: ieee_divide_by_zero is signaling
Warning: ieee_underflow is signaling
Warning: ieee_inexact is signaling
FORTRAN STOP
Warning: ieee_invalid is signaling
Warning: ieee_divide_by_zero is signaling
Warning: ieee_underflow is signaling
Warning: ieee_inexact is signaling
FORTRAN STOP
Warning: ieee_invalid is signaling
Warning: ieee_divide_by_zero is signaling
Warning: ieee_underflow is signaling
Warning: ieee_inexact is signaling
FORTRAN STOP
Warning: ieee_invalid is signaling
Warning: ieee_divide_by_zero is signaling
Warning: ieee_underflow is signaling
Warning: ieee_inexact is signaling
FORTRAN STOP
Warning: ieee_invalid is signaling
Warning: ieee_divide_by_zero is signaling
Warning: ieee_underflow is signaling
Warning: ieee_inexact is signaling
FORTRAN STOP
Warning: ieee_invalid is signaling
Warning: ieee_divide_by_zero is signaling
Warning: ieee_underflow is signaling
Warning: ieee_inexact is signaling
FORTRAN STOP
