  10  10   0   0
  0.1057338E+02  0.3047567E-09  0.5817410E-09  0.6326486E-09  0.5000000E-15
   1.0000000000000000E-004
  CAR 
 HSE06 Band Gap Calculation for Ga2O3 (re
     17.00027024    -21.59577496  301      0.80601294      1.00000000
    -21.596  0.0000E+00  0.0000E+00
    -21.467  0.0000E+00  0.0000E+00
    -21.338  0.0000E+00  0.0000E+00
    -21.210  0.0000E+00  0.0000E+00
    -21.081  0.0000E+00  0.0000E+00
    -20.953  0.0000E+00  0.0000E+00
    -20.824  0.0000E+00  0.0000E+00
    -20.695  0.0000E+00  0.0000E+00
    -20.567  0.0000E+00  0.0000E+00
    -20.438  0.0000E+00  0.0000E+00
    -20.309  0.0000E+00  0.0000E+00
    -20.181  0.0000E+00  0.0000E+00
    -20.052  0.5120E-10  0.6587E-11
    -19.923  0.4076E-03  0.5244E-04
    -19.795  0.1138E+00  0.1470E-01
    -19.666  0.6743E+00  0.1014E+00
    -19.537  0.9804E+00  0.2276E+00
    -19.409  0.1524E+01  0.4236E+00
    -19.280  0.1681E+01  0.6398E+00
    -19.151  0.1815E+01  0.8734E+00
    -19.023  0.1503E+01  0.1067E+01
    -18.894  0.2067E+01  0.1333E+01
    -18.765  0.2450E+01  0.1648E+01
    -18.637  0.2743E+01  0.2001E+01
    -18.508  0.3396E+01  0.2438E+01
    -18.379  0.3098E+01  0.2836E+01
    -18.251  0.4537E+01  0.3420E+01
    -18.122  0.5282E+01  0.4099E+01
    -17.993  0.5436E+01  0.4799E+01
    -17.865  0.5068E+01  0.5451E+01
    -17.736  0.6538E+01  0.6292E+01
    -17.608  0.8102E+01  0.7334E+01
    -17.479  0.7265E+01  0.8269E+01
    -17.350  0.5424E+01  0.8967E+01
    -17.222  0.7287E+01  0.9904E+01
    -17.093  0.9036E+01  0.1107E+02
    -16.964  0.7091E+01  0.1198E+02
    -16.836  0.1606E+00  0.1200E+02
    -16.707  0.8266E-06  0.1200E+02
    -16.578  0.0000E+00  0.1200E+02
    -16.450  0.0000E+00  0.1200E+02
    -16.321  0.0000E+00  0.1200E+02
    -16.192  0.0000E+00  0.1200E+02
    -16.064  0.0000E+00  0.1200E+02
    -15.935  0.0000E+00  0.1200E+02
    -15.806  0.0000E+00  0.1200E+02
    -15.678  0.0000E+00  0.1200E+02
    -15.549  0.0000E+00  0.1200E+02
    -15.420  0.0000E+00  0.1200E+02
    -15.292  0.0000E+00  0.1200E+02
    -15.163  0.0000E+00  0.1200E+02
    -15.034  0.0000E+00  0.1200E+02
    -14.906  0.0000E+00  0.1200E+02
    -14.777  0.0000E+00  0.1200E+02
    -14.648  0.0000E+00  0.1200E+02
    -14.520  0.0000E+00  0.1200E+02
    -14.391  0.0000E+00  0.1200E+02
    -14.263  0.0000E+00  0.1200E+02
    -14.134  0.0000E+00  0.1200E+02
    -14.005  0.0000E+00  0.1200E+02
    -13.877  0.0000E+00  0.1200E+02
    -13.748  0.0000E+00  0.1200E+02
    -13.619  0.0000E+00  0.1200E+02
    -13.491  0.0000E+00  0.1200E+02
    -13.362  0.0000E+00  0.1200E+02
    -13.233  0.0000E+00  0.1200E+02
    -13.105  0.0000E+00  0.1200E+02
    -12.976  0.0000E+00  0.1200E+02
    -12.847  0.0000E+00  0.1200E+02
    -12.719  0.0000E+00  0.1200E+02
    -12.590  0.0000E+00  0.1200E+02
    -12.461  0.0000E+00  0.1200E+02
    -12.333  0.0000E+00  0.1200E+02
    -12.204  0.0000E+00  0.1200E+02
    -12.075  0.0000E+00  0.1200E+02
    -11.947  0.0000E+00  0.1200E+02
    -11.818  0.0000E+00  0.1200E+02
    -11.689  0.0000E+00  0.1200E+02
    -11.561  0.0000E+00  0.1200E+02
    -11.432  0.0000E+00  0.1200E+02
    -11.303  0.0000E+00  0.1200E+02
    -11.175  0.0000E+00  0.1200E+02
    -11.046  0.0000E+00  0.1200E+02
    -10.918  0.0000E+00  0.1200E+02
    -10.789  0.0000E+00  0.1200E+02
    -10.660  0.0000E+00  0.1200E+02
    -10.532  0.0000E+00  0.1200E+02
    -10.403  0.0000E+00  0.1200E+02
    -10.274  0.0000E+00  0.1200E+02
    -10.146  0.0000E+00  0.1200E+02
    -10.017  0.0000E+00  0.1200E+02
     -9.888  0.0000E+00  0.1200E+02
     -9.760  0.0000E+00  0.1200E+02
     -9.631  0.0000E+00  0.1200E+02
     -9.502  0.0000E+00  0.1200E+02
     -9.374  0.0000E+00  0.1200E+02
     -9.245  0.0000E+00  0.1200E+02
     -9.116  0.0000E+00  0.1200E+02
     -8.988  0.0000E+00  0.1200E+02
     -8.859  0.0000E+00  0.1200E+02
     -8.730  0.0000E+00  0.1200E+02
     -8.602  0.0000E+00  0.1200E+02
     -8.473  0.0000E+00  0.1200E+02
     -8.344  0.0000E+00  0.1200E+02
     -8.216  0.0000E+00  0.1200E+02
     -8.087  0.0000E+00  0.1200E+02
     -7.959  0.0000E+00  0.1200E+02
     -7.830  0.0000E+00  0.1200E+02
     -7.701  0.0000E+00  0.1200E+02
     -7.573  0.0000E+00  0.1200E+02
     -7.444  0.0000E+00  0.1200E+02
     -7.315  0.0000E+00  0.1200E+02
     -7.187  0.0000E+00  0.1200E+02
     -7.058  0.9806E-16  0.1200E+02
     -6.929  0.1192E-05  0.1200E+02
     -6.801  0.6205E-01  0.1201E+02
     -6.672  0.9196E+00  0.1213E+02
     -6.543  0.1027E+01  0.1226E+02
     -6.415  0.2170E+01  0.1254E+02
     -6.286  0.2651E+01  0.1288E+02
     -6.157  0.2940E+01  0.1326E+02
     -6.029  0.3326E+01  0.1368E+02
     -5.900  0.3509E+01  0.1414E+02
     -5.771  0.5355E+01  0.1483E+02
     -5.643  0.4828E+01  0.1545E+02
     -5.514  0.3846E+01  0.1594E+02
     -5.385  0.4090E+01  0.1647E+02
     -5.257  0.3824E+01  0.1696E+02
     -5.128  0.2277E+01  0.1725E+02
     -4.999  0.2054E+01  0.1752E+02
     -4.871  0.2938E+01  0.1789E+02
     -4.742  0.2370E+01  0.1820E+02
     -4.614  0.2967E+01  0.1858E+02
     -4.485  0.3339E+01  0.1901E+02
     -4.356  0.3513E+01  0.1946E+02
     -4.228  0.2815E+01  0.1982E+02
     -4.099  0.2797E+01  0.2018E+02
     -3.970  0.2989E+01  0.2057E+02
     -3.842  0.3906E+01  0.2107E+02
     -3.713  0.3119E+01  0.2147E+02
     -3.584  0.3641E+01  0.2194E+02
     -3.456  0.4737E+01  0.2255E+02
     -3.327  0.4675E+01  0.2315E+02
     -3.198  0.5442E+01  0.2385E+02
     -3.070  0.4687E+01  0.2446E+02
     -2.941  0.5446E+01  0.2516E+02
     -2.812  0.5337E+01  0.2584E+02
     -2.684  0.5537E+01  0.2655E+02
     -2.555  0.4865E+01  0.2718E+02
     -2.426  0.5057E+01  0.2783E+02
     -2.298  0.5161E+01  0.2850E+02
     -2.169  0.6693E+01  0.2936E+02
     -2.040  0.5194E+01  0.3002E+02
     -1.912  0.4481E+01  0.3060E+02
     -1.783  0.6741E+01  0.3147E+02
     -1.654  0.7814E+01  0.3247E+02
     -1.526  0.6900E+01  0.3336E+02
     -1.397  0.6854E+01  0.3424E+02
     -1.269  0.4753E+01  0.3485E+02
     -1.140  0.4611E+01  0.3545E+02
     -1.011  0.6391E+01  0.3627E+02
     -0.883  0.7573E+01  0.3724E+02
     -0.754  0.7336E+01  0.3819E+02
     -0.625  0.7402E+01  0.3914E+02
     -0.497  0.8690E+01  0.4026E+02
     -0.368  0.1078E+02  0.4164E+02
     -0.239  0.9429E+01  0.4286E+02
     -0.111  0.1107E+02  0.4428E+02
      0.018  0.9831E+01  0.4555E+02
      0.147  0.6038E+01  0.4632E+02
      0.275  0.3987E+01  0.4684E+02
      0.404  0.5427E+01  0.4753E+02
      0.533  0.3437E+01  0.4798E+02
      0.661  0.1806E+00  0.4800E+02
      0.790  0.1005E-04  0.4800E+02
      0.919  0.6851E-14  0.4800E+02
      1.047  0.0000E+00  0.4800E+02
      1.176  0.0000E+00  0.4800E+02
      1.305  0.0000E+00  0.4800E+02
      1.433  0.0000E+00  0.4800E+02
      1.562  0.0000E+00  0.4800E+02
      1.691  0.0000E+00  0.4800E+02
      1.819  0.0000E+00  0.4800E+02
      1.948  0.0000E+00  0.4800E+02
      2.076  0.0000E+00  0.4800E+02
      2.205  0.0000E+00  0.4800E+02
      2.334  0.0000E+00  0.4800E+02
      2.462  0.0000E+00  0.4800E+02
      2.591  0.0000E+00  0.4800E+02
      2.720  0.0000E+00  0.4800E+02
      2.848  0.0000E+00  0.4800E+02
      2.977  0.0000E+00  0.4800E+02
      3.106  0.0000E+00  0.4800E+02
      3.234  0.0000E+00  0.4800E+02
      3.363  0.0000E+00  0.4800E+02
      3.492  0.0000E+00  0.4800E+02
      3.620  0.0000E+00  0.4800E+02
      3.749  0.0000E+00  0.4800E+02
      3.878  0.0000E+00  0.4800E+02
      4.006  0.0000E+00  0.4800E+02
      4.135  0.0000E+00  0.4800E+02
      4.264  0.0000E+00  0.4800E+02
      4.392  0.5076E-11  0.4800E+02
      4.521  0.1433E-03  0.4800E+02
      4.650  0.3246E-01  0.4800E+02
      4.778  0.6655E-02  0.4801E+02
      4.907  0.6272E-04  0.4801E+02
      5.035  0.7026E-01  0.4801E+02
      5.164  0.1653E+00  0.4804E+02
      5.293  0.1456E+00  0.4805E+02
      5.421  0.2880E-01  0.4806E+02
      5.550  0.2387E+00  0.4809E+02
      5.679  0.1509E+00  0.4811E+02
      5.807  0.1404E+00  0.4813E+02
      5.936  0.9121E-01  0.4814E+02
      6.065  0.3467E+00  0.4818E+02
      6.193  0.2559E+00  0.4822E+02
      6.322  0.9493E-01  0.4823E+02
      6.451  0.6030E+00  0.4831E+02
      6.579  0.5981E+00  0.4838E+02
      6.708  0.2698E+00  0.4842E+02
      6.837  0.1125E+00  0.4843E+02
      6.965  0.5432E+00  0.4850E+02
      7.094  0.2735E+00  0.4854E+02
      7.223  0.8224E+00  0.4864E+02
      7.351  0.7147E+00  0.4873E+02
      7.480  0.5734E+00  0.4881E+02
      7.609  0.9454E+00  0.4893E+02
      7.737  0.8911E+00  0.4904E+02
      7.866  0.7826E+00  0.4914E+02
      7.995  0.1117E+01  0.4929E+02
      8.123  0.1751E+01  0.4951E+02
      8.252  0.1926E+01  0.4976E+02
      8.380  0.2648E+01  0.5010E+02
      8.509  0.2300E+01  0.5040E+02
      8.638  0.2692E+01  0.5074E+02
      8.766  0.3359E+01  0.5118E+02
      8.895  0.2888E+01  0.5155E+02
      9.024  0.2411E+01  0.5186E+02
      9.152  0.2685E+01  0.5220E+02
      9.281  0.3613E+01  0.5267E+02
      9.410  0.2863E+01  0.5304E+02
      9.538  0.2868E+01  0.5341E+02
      9.667  0.3249E+01  0.5382E+02
      9.796  0.2695E+01  0.5417E+02
      9.924  0.2669E+01  0.5451E+02
     10.053  0.2211E+01  0.5480E+02
     10.182  0.2684E+01  0.5514E+02
     10.310  0.2731E+01  0.5550E+02
     10.439  0.2806E+01  0.5586E+02
     10.568  0.2948E+01  0.5624E+02
     10.696  0.2306E+01  0.5653E+02
     10.825  0.2066E+01  0.5680E+02
     10.954  0.2314E+01  0.5710E+02
     11.082  0.1991E+01  0.5735E+02
     11.211  0.2531E+01  0.5768E+02
     11.340  0.4539E+01  0.5826E+02
     11.468  0.3105E+01  0.5866E+02
     11.597  0.2372E+01  0.5897E+02
     11.725  0.2500E+01  0.5929E+02
     11.854  0.2116E+01  0.5956E+02
     11.983  0.1898E+01  0.5980E+02
     12.111  0.1894E+01  0.6005E+02
     12.240  0.1358E+01  0.6022E+02
     12.369  0.2061E+01  0.6049E+02
     12.497  0.2499E+01  0.6081E+02
     12.626  0.2401E+01  0.6112E+02
     12.755  0.2354E+01  0.6142E+02
     12.883  0.2061E+01  0.6169E+02
     13.012  0.2229E+01  0.6197E+02
     13.141  0.1813E+01  0.6221E+02
     13.269  0.1676E+01  0.6242E+02
     13.398  0.1414E+01  0.6260E+02
     13.527  0.1863E+01  0.6284E+02
     13.655  0.1140E+01  0.6299E+02
     13.784  0.1151E+01  0.6314E+02
     13.913  0.1156E+01  0.6329E+02
     14.041  0.1681E+01  0.6350E+02
     14.170  0.1227E+01  0.6366E+02
     14.299  0.6256E+00  0.6374E+02
     14.427  0.5315E+00  0.6381E+02
     14.556  0.2234E+00  0.6384E+02
     14.685  0.3473E+00  0.6388E+02
     14.813  0.1680E+00  0.6390E+02
     14.942  0.2563E+00  0.6394E+02
     15.070  0.3623E+00  0.6398E+02
     15.199  0.5001E-01  0.6399E+02
     15.328  0.7069E-01  0.6400E+02
     15.456  0.8078E-03  0.6400E+02
     15.585  0.1024E-09  0.6400E+02
     15.714  0.0000E+00  0.6400E+02
     15.842  0.0000E+00  0.6400E+02
     15.971  0.0000E+00  0.6400E+02
     16.100  0.0000E+00  0.6400E+02
     16.228  0.0000E+00  0.6400E+02
     16.357  0.0000E+00  0.6400E+02
     16.486  0.0000E+00  0.6400E+02
     16.614  0.0000E+00  0.6400E+02
     16.743  0.0000E+00  0.6400E+02
     16.872  0.0000E+00  0.6400E+02
     17.000  0.0000E+00  0.6400E+02
