    8    8    1    1
  0.1031298E+02  0.3075694E-09  0.3075694E-09  0.1007065E-08  0.5000000E-15
   1.0000000000000000E-004
  CAR 
 HSE06 Band Gap Calculation (restart from
     32     90     21
 
  0.1262379E-14  0.1262379E-14  0.1262379E-14  0.7812500E-03
      1         -9.514210   1.000000
      2         -8.230316   1.000000
      3         -8.195668   1.000000
      4         -5.654342   1.000000
      5         -1.868897   1.000000
      6          2.778628   1.000000
      7          2.827138   1.000000
      8          6.281160   1.000000
      9          6.281185   1.000000
     10          6.789424   1.000000
     11          6.789445   1.000000
     12          6.951122   1.000000
     13          6.951144   1.000000
     14          7.538895   1.000000
     15          7.592774   1.000000
     16          7.592791   1.000000
     17         13.911670   0.000000
     18         14.520878   0.000000
     19         15.192608   0.000000
     20         15.225546   0.000000
     21         15.863285   0.000000
 
  0.6250000E-01  0.1267020E-14  0.1262379E-14  0.4687500E-02
      1         -9.440252   1.000000
      2         -8.158749   1.000000
      3         -8.123745   1.000000
      4         -5.591813   1.000000
      5         -1.799436   1.000000
      6          2.803339   1.000000
      7          2.853091   1.000000
      8          5.851406   1.000000
      9          6.134130   1.000000
     10          6.451910   1.000000
     11          6.611746   1.000000
     12          6.706347   1.000000
     13          6.841073   1.000000
     14          7.308236   1.000000
     15          7.490112   1.000000
     16          7.562805   1.000000
     17         14.164841   0.000000
     18         14.743179   0.000000
     19         15.177015   0.000000
     20         15.335483   0.000000
     21         15.701766   0.000000
 
  0.1250000E+00  0.1257131E-14  0.1262379E-14  0.4687500E-02
      1         -9.219338   1.000000
      2         -7.945456   1.000000
      3         -7.909332   1.000000
      4         -5.407368   1.000000
      5         -1.594164   1.000000
      6          2.842101   1.000000
      7          2.897111   1.000000
      8          4.816029   1.000000
      9          5.602157   1.000000
     10          5.765288   1.000000
     11          5.775449   1.000000
     12          6.467678   1.000000
     13          6.556998   1.000000
     14          6.565622   1.000000
     15          7.340274   1.000000
     16          7.448530   1.000000
     17         14.028080   0.000000
     18         14.740371   0.000000
     19         14.846437   0.000000
     20         15.583186   0.000000
     21         15.864008   0.000000
 
  0.1875000E+00  0.1255347E-14  0.1262379E-14  0.4687500E-02
      1         -8.854756   1.000000
      2         -7.595169   1.000000
      3         -7.556882   1.000000
      4         -5.112034   1.000000
      5         -1.265186   1.000000
      6          2.678608   1.000000
      7          2.792872   1.000000
      8          3.604885   1.000000
      9          4.652022   1.000000
     10          4.802698   1.000000
     11          5.335189   1.000000
     12          5.585741   1.000000
     13          6.130028   1.000000
     14          6.186482   1.000000
     15          7.078248   1.000000
     16          7.243173   1.000000
     17         13.221894   0.000000
     18         13.934428   0.000000
     19         14.348717   0.000000
     20         15.616065   0.000000
     21         16.058069   0.000000
 
  0.2500000E+00  0.1248928E-14  0.1262379E-14  0.4687500E-02
      1         -8.353150   1.000000
      2         -7.118074   1.000000
      3         -7.075968   1.000000
      4         -4.731768   1.000000
      5         -0.849024   1.000000
      6          1.782336   1.000000
      7          2.175310   1.000000
      8          2.559100   1.000000
      9          3.990879   1.000000
     10          4.251680   1.000000
     11          4.756338   1.000000
     12          4.902226   1.000000
     13          5.768277   1.000000
     14          5.806038   1.000000
     15          6.698425   1.000000
     16          6.988314   1.000000
     17         12.437217   0.000000
     18         12.980761   0.000000
     19         13.815926   0.000000
     20         14.936008   0.000000
     21         15.592156   0.000000
 
  0.3125000E+00  0.1237903E-14  0.1262379E-14  0.4687500E-02
      1         -7.727372   1.000000
      2         -6.535431   1.000000
      3         -6.486268   1.000000
      4         -4.327517   1.000000
      5         -0.497481   1.000000
      6          0.615643   1.000000
      7          1.118533   1.000000
      8          1.599090   1.000000
      9          3.005505   1.000000
     10          4.204922   1.000000
     11          4.529238   1.000000
     12          4.664499   1.000000
     13          5.440967   1.000000
     14          5.469259   1.000000
     15          6.256127   1.000000
     16          6.737184   1.000000
     17         11.783662   0.000000
     18         12.102335   0.000000
     19         13.370475   0.000000
     20         14.385725   0.000000
     21         14.896570   0.000000
 
  0.3750000E+00  0.1273053E-14  0.1262379E-14  0.4687500E-02
      1         -7.004667   1.000000
      2         -5.898233   1.000000
      3         -5.833335   1.000000
      4         -4.042770   1.000000
      5         -0.773524   1.000000
      6         -0.300582   1.000000
      7          0.119697   1.000000
      8          1.301886   1.000000
      9          1.919997   1.000000
     10          4.054277   1.000000
     11          4.246597   1.000000
     12          4.870396   1.000000
     13          5.185946   1.000000
     14          5.209813   1.000000
     15          5.931053   1.000000
     16          6.531722   1.000000
     17         11.283284   0.000000
     18         11.411047   0.000000
     19         13.060109   0.000000
     20         14.087381   0.000000
     21         14.228059   0.000000
 
  0.4375000E+00  0.1206581E-14  0.1262379E-14  0.4687500E-02
      1         -6.258114   1.000000
      2         -5.357965   1.000000
      3         -5.235571   1.000000
      4         -4.065826   1.000000
      5         -1.450452   1.000000
      6         -1.088519   1.000000
      7         -0.302648   1.000000
      8          0.917588   1.000000
      9          1.800229   1.000000
     10          3.569272   1.000000
     11          4.071324   1.000000
     12          5.025430   1.000000
     13          5.047397   1.000000
     14          5.072780   1.000000
     15          5.855658   1.000000
     16          6.398872   1.000000
     17         10.909346   0.000000
     18         11.021090   0.000000
     19         12.918902   0.000000
     20         13.701937   0.000000
     21         14.010046   0.000000
 
  0.5000000E+00  0.1306515E-14  0.1262379E-14  0.2343750E-02
      1         -5.806940   1.000000
      2         -5.221838   1.000000
      3         -4.962455   1.000000
      4         -4.168843   1.000000
      5         -1.788067   1.000000
      6         -1.452812   1.000000
      7         -0.139015   1.000000
      8          0.312683   1.000000
      9          2.237988   1.000000
     10          3.139240   1.000000
     11          4.012019   1.000000
     12          4.970768   1.000000
     13          4.992206   1.000000
     14          5.153886   1.000000
     15          5.868662   1.000000
     16          6.353090   1.000000
     17         10.757269   0.000000
     18         10.907577   0.000000
     19         12.902502   0.000000
     20         13.481510   0.000000
     21         14.038868   0.000000
 
  0.6250000E-01  0.6250000E-01  0.1262379E-14  0.4687500E-02
      1         -9.292794   1.000000
      2         -8.016305   1.000000
      3         -7.980566   1.000000
      4         -5.468295   1.000000
      5         -1.662005   1.000000
      6          2.837017   1.000000
      7          2.889621   1.000000
      8          5.193433   1.000000
      9          5.658578   1.000000
     10          5.989345   1.000000
     11          6.223854   1.000000
     12          6.331577   1.000000
     13          6.524574   1.000000
     14          7.006048   1.000000
     15          7.401963   1.000000
     16          7.408638   1.000000
     17         14.475402   0.000000
     18         14.710535   0.000000
     19         15.052603   0.000000
     20         15.343750   0.000000
     21         15.768715   0.000000
 
  0.1250000E+00  0.6250000E-01  0.1262379E-14  0.9375000E-02
      1         -8.999976   1.000000
      2         -7.734395   1.000000
      3         -7.697027   1.000000
      4         -5.228038   1.000000
      5         -1.394199   1.000000
      6          2.807815   1.000000
      7          2.875387   1.000000
      8          4.118775   1.000000
      9          4.936299   1.000000
     10          5.192609   1.000000
     11          5.434561   1.000000
     12          5.823470   1.000000
     13          6.102053   1.000000
     14          6.493088   1.000000
     15          7.170547   1.000000
     16          7.225316   1.000000
     17         13.907388   0.000000
     18         14.495728   0.000000
     19         14.840584   0.000000
     20         15.284810   0.000000
     21         15.977219   0.000000
 
  0.1875000E+00  0.6250000E-01  0.1262379E-14  0.9375000E-02
      1         -8.566596   1.000000
      2         -7.320153   1.000000
      3         -7.279869   1.000000
      4         -4.888526   1.000000
      5         -1.017201   1.000000
      6          2.311577   1.000000
      7          2.538899   1.000000
      8          3.007269   1.000000
      9          4.291888   1.000000
     10          4.425241   1.000000
     11          4.716179   1.000000
     12          5.217313   1.000000
     13          5.670903   1.000000
     14          5.915053   1.000000
     15          6.897408   1.000000
     16          6.929356   1.000000
     17         13.117839   0.000000
     18         13.627053   0.000000
     19         14.328268   0.000000
     20         15.142492   0.000000
     21         16.013704   0.000000
 
  0.2500000E+00  0.6250000E-01  0.1262379E-14  0.9375000E-02
      1         -8.001907   1.000000
      2         -6.788320   1.000000
      3         -6.742883   1.000000
      4         -4.489895   1.000000
      5         -0.602579   1.000000
      6          1.203990   1.000000
      7          1.660695   1.000000
      8          2.033445   1.000000
      9          3.425590   1.000000
     10          4.231719   1.000000
     11          4.423321   1.000000
     12          4.727635   1.000000
     13          5.295951   1.000000
     14          5.459403   1.000000
     15          6.506931   1.000000
     16          6.621098   1.000000
     17         12.420400   0.000000
     18         12.708508   0.000000
     19         13.857870   0.000000
     20         14.626559   0.000000
     21         15.418812   0.000000
 
  0.3125000E+00  0.6250000E-01  0.1262379E-14  0.9375000E-02
      1         -7.324325   1.000000
      2         -6.171215   1.000000
      3         -6.115826   1.000000
      4         -4.127751   1.000000
      5         -0.483349   1.000000
      6          0.148812   1.000000
      7          0.597775   1.000000
      8          1.349705   1.000000
      9          2.403909   1.000000
     10          4.060824   1.000000
     11          4.181350   1.000000
     12          4.691758   1.000000
     13          5.039092   1.000000
     14          5.195457   1.000000
     15          6.073294   1.000000
     16          6.369913   1.000000
     17         11.825569   0.000000
     18         11.956954   0.000000
     19         13.501812   0.000000
     20         14.244683   0.000000
     21         14.732816   0.000000
 
  0.3750000E+00  0.6250000E-01  0.1262379E-14  0.9375000E-02
      1         -6.576531   1.000000
      2         -5.554017   1.000000
      3         -5.472052   1.000000
      4         -3.993167   1.000000
      5         -1.073976   1.000000
      6         -0.676772   1.000000
      7         -0.156969   1.000000
      8          1.364684   1.000000
      9          1.572624   1.000000
     10          3.727999   1.000000
     11          3.901578   1.000000
     12          4.641608   1.000000
     13          4.866176   1.000000
     14          5.222040   1.000000
     15          5.836664   1.000000
     16          6.186191   1.000000
     17         11.298750   0.000000
     18         11.516786   0.000000
     19         13.299694   0.000000
     20         14.078017   0.000000
     21         14.139853   0.000000
 
  0.4375000E+00  0.6250000E-01  0.1262379E-14  0.9375000E-02
      1         -5.899677   1.000000
      2         -5.194138   1.000000
      3         -4.998931   1.000000
      4         -4.123395   1.000000
      5         -1.645412   1.000000
      6         -1.306634   1.000000
      7         -0.194723   1.000000
      8          0.535194   1.000000
      9          2.126520   1.000000
     10          3.240465   1.000000
     11          3.712196   1.000000
     12          4.561079   1.000000
     13          4.742222   1.000000
     14          5.328722   1.000000
     15          5.816321   1.000000
     16          6.089754   1.000000
     17         11.000218   0.000000
     18         11.304510   0.000000
     19         13.266994   0.000000
     20         13.693984   0.000000
     21         14.192939   0.000000
 
  0.1250000E+00  0.1250000E+00  0.1262379E-14  0.4687500E-02
      1         -8.638160   1.000000
      2         -7.388156   1.000000
      3         -7.348444   1.000000
      4         -4.942480   1.000000
      5         -1.075889   1.000000
      6          2.536333   1.000000
      7          2.663095   1.000000
      8          3.222693   1.000000
      9          4.391699   1.000000
     10          4.555142   1.000000
     11          4.691592   1.000000
     12          5.260591   1.000000
     13          5.444061   1.000000
     14          6.126135   1.000000
     15          6.660223   1.000000
     16          7.026452   1.000000
     17         13.851511   0.000000
     18         14.332638   0.000000
     19         14.437252   0.000000
     20         15.044683   0.000000
     21         16.076349   0.000000
 
  0.1875000E+00  0.1250000E+00  0.1262379E-14  0.9375000E-02
      1         -8.140745   1.000000
      2         -6.917430   1.000000
      3         -6.873702   1.000000
      4         -4.578828   1.000000
      5         -0.679913   1.000000
      6          1.756391   1.000000
      7          2.047772   1.000000
      8          2.307674   1.000000
      9          3.561365   1.000000
     10          4.118630   1.000000
     11          4.387829   1.000000
     12          4.822114   1.000000
     13          4.918000   1.000000
     14          5.469943   1.000000
     15          6.216380   1.000000
     16          6.688008   1.000000
     17         13.420116   0.000000
     18         13.439225   0.000000
     19         14.272914   0.000000
     20         14.931493   0.000000
     21         16.036166   0.000000
 
  0.2500000E+00  0.1250000E+00  0.1262379E-14  0.9375000E-02
      1         -7.520900   1.000000
      2         -6.344196   1.000000
      3         -6.293539   1.000000
      4         -4.201513   1.000000
      5         -0.360523   1.000000
      6          0.689708   1.000000
      7          1.111329   1.000000
      8          1.603328   1.000000
      9          2.632015   1.000000
     10          3.694410   1.000000
     11          4.069325   1.000000
     12          4.618006   1.000000
     13          4.705265   1.000000
     14          5.049969   1.000000
     15          5.867172   1.000000
     16          6.234667   1.000000
     17         12.587257   0.000000
     18         12.926962   0.000000
     19         13.997763   0.000000
     20         14.636264   0.000000
     21         15.539462   0.000000
 
  0.3125000E+00  0.1250000E+00  0.1262379E-14  0.9375000E-02
      1         -6.806000   1.000000
      2         -5.719688   1.000000
      3         -5.655358   1.000000
      4         -3.953446   1.000000
      5         -0.604345   1.000000
      6         -0.200859   1.000000
      7          0.202742   1.000000
      8          1.463435   1.000000
      9          1.761734   1.000000
     10          3.245659   1.000000
     11          3.682569   1.000000
     12          4.191277   1.000000
     13          4.656283   1.000000
     14          5.217364   1.000000
     15          5.601271   1.000000
     16          5.818721   1.000000
     17         11.937371   0.000000
     18         12.501794   0.000000
     19         13.792625   0.000000
     20         14.377952   0.000000
     21         14.957838   0.000000
 
  0.3750000E+00  0.1250000E+00  0.1262379E-14  0.9375000E-02
      1         -6.067362   1.000000
      2         -5.190781   1.000000
      3         -5.079710   1.000000
      4         -4.004197   1.000000
      5         -1.262751   1.000000
      6         -0.918204   1.000000
      7         -0.150365   1.000000
      8          0.919662   1.000000
      9          1.938423   1.000000
     10          2.951148   1.000000
     11          3.299495   1.000000
     12          3.908318   1.000000
     13          4.436806   1.000000
     14          5.408868   1.000000
     15          5.434925   1.000000
     16          5.669171   1.000000
     17         11.538146   0.000000
     18         12.211746   0.000000
     19         13.710826   0.000000
     20         14.266301   0.000000
     21         14.500367   0.000000
 
  0.4375000E+00  0.1250000E+00  0.1262379E-14  0.4687500E-02
      1         -5.616588   1.000000
      2         -5.060653   1.000000
      3         -4.822183   1.000000
      4         -4.116503   1.000000
      5         -1.587698   1.000000
      6         -1.255409   1.000000
      7          0.039586   1.000000
      8          0.360892   1.000000
      9          2.341082   1.000000
     10          2.861373   1.000000
     11          2.984336   1.000000
     12          3.816447   1.000000
     13          4.283508   1.000000
     14          5.376463   1.000000
     15          5.488686   1.000000
     16          5.665987   1.000000
     17         11.404288   0.000000
     18         12.107182   0.000000
     19         13.709978   0.000000
     20         14.220349   0.000000
     21         14.369954   0.000000
 
  0.1875000E+00  0.1875000E+00  0.1262379E-14  0.4687500E-02
      1         -7.587152   1.000000
      2         -6.403245   1.000000
      3         -6.354016   1.000000
      4         -4.229936   1.000000
      5         -0.341805   1.000000
      6          1.047122   1.000000
      7          1.370547   1.000000
      8          1.664226   1.000000
      9          2.661314   1.000000
     10          3.447553   1.000000
     11          3.933766   1.000000
     12          4.536337   1.000000
     13          4.876553   1.000000
     14          4.951393   1.000000
     15          5.468881   1.000000
     16          6.301147   1.000000
     17         12.995835   0.000000
     18         13.565048   0.000000
     19         13.839873   0.000000
     20         15.293400   0.000000
     21         16.177227   0.000000
 
  0.2500000E+00  0.1875000E+00  0.1262379E-14  0.9375000E-02
      1         -6.924974   1.000000
      2         -5.811768   1.000000
      3         -5.753885   1.000000
      4         -3.943053   1.000000
      5         -0.247326   1.000000
      6          0.187186   1.000000
      7          0.577569   1.000000
      8          1.487510   1.000000
      9          1.842148   1.000000
     10          2.789317   1.000000
     11          3.248872   1.000000
     12          4.132112   1.000000
     13          4.666890   1.000000
     14          4.951606   1.000000
     15          5.189864   1.000000
     16          5.814903   1.000000
     17         12.440287   0.000000
     18         13.343028   0.000000
     19         13.599939   0.000000
     20         15.301749   0.000000
     21         15.885532   0.000000
 
  0.3125000E+00  0.1875000E+00  0.1262379E-14  0.9375000E-02
      1         -6.195964   1.000000
      2         -5.225483   1.000000
      3         -5.151548   1.000000
      4         -3.887039   1.000000
      5         -0.747759   1.000000
      6         -0.437364   1.000000
      7          0.011451   1.000000
      8          1.124918   1.000000
      9          1.799593   1.000000
     10          2.297348   1.000000
     11          2.835323   1.000000
     12          3.486724   1.000000
     13          4.575841   1.000000
     14          4.651627   1.000000
     15          5.430861   1.000000
     16          5.451742   1.000000
     17         12.057163   0.000000
     18         13.052322   0.000000
     19         13.423135   0.000000
     20         15.182554   0.000000
     21         15.313537   0.000000
 
  0.3750000E+00  0.1875000E+00  0.1262379E-14  0.9375000E-02
      1         -5.529810   1.000000
      2         -4.883390   1.000000
      3         -4.729404   1.000000
      4         -4.060200   1.000000
      5         -1.272605   1.000000
      6         -0.943263   1.000000
      7          0.091029   1.000000
      8          0.537903   1.000000
      9          1.934467   1.000000
     10          2.202820   1.000000
     11          2.738146   1.000000
     12          3.141672   1.000000
     13          4.210260   1.000000
     14          4.503533   1.000000
     15          5.386533   1.000000
     16          5.581772   1.000000
     17         11.891302   0.000000
     18         12.860955   0.000000
     19         13.316857   0.000000
     20         14.957728   0.000000
     21         15.198662   0.000000
 
  0.2500000E+00  0.2500000E+00  0.1262379E-14  0.4687500E-02
      1         -6.242416   1.000000
      2         -5.244802   1.000000
      3         -5.179079   1.000000
      4         -3.841599   1.000000
      5         -0.383068   1.000000
      6         -0.199999   1.000000
      7          0.042493   1.000000
      8          1.113277   1.000000
      9          1.758172   1.000000
     10          1.970478   1.000000
     11          2.559239   1.000000
     12          3.552365   1.000000
     13          4.147657   1.000000
     14          4.759467   1.000000
     15          5.295895   1.000000
     16          5.433656   1.000000
     17         12.279691   0.000000
     18         13.173458   0.000000
     19         13.538312   0.000000
     20         15.263355   0.000000
     21         15.598948   0.000000
 
  0.3125000E+00  0.2500000E+00  0.1262379E-14  0.9375000E-02
      1         -5.537055   1.000000
      2         -4.768610   1.000000
      3         -4.693076   1.000000
      4         -3.996978   1.000000
      5         -0.866960   1.000000
      6         -0.500957   1.000000
      7         -0.031346   1.000000
      8          0.676597   1.000000
      9          1.422505   1.000000
     10          1.610547   1.000000
     11          2.690395   1.000000
     12          2.965793   1.000000
     13          3.722817   1.000000
     14          4.545804   1.000000
     15          4.994996   1.000000
     16          5.624754   1.000000
     17         12.250649   0.000000
     18         12.883385   0.000000
     19         13.602409   0.000000
     20         14.669232   0.000000
     21         15.333879   0.000000
 
  0.3750000E+00  0.2500000E+00  0.1262379E-14  0.4687500E-02
      1         -5.079081   1.000000
      2         -4.660697   1.000000
      3         -4.495887   1.000000
      4         -4.161190   1.000000
      5         -1.064730   1.000000
      6         -0.736882   1.000000
      7          0.090764   1.000000
      8          0.498202   1.000000
      9          1.238224   1.000000
     10          1.457734   1.000000
     11          2.695207   1.000000
     12          2.986265   1.000000
     13          3.604086   1.000000
     14          4.229078   1.000000
     15          4.988767   1.000000
     16          5.696628   1.000000
     17         12.299720   0.000000
     18         12.738001   0.000000
     19         13.642466   0.000000
     20         14.425074   0.000000
     21         15.186449   0.000000
 
  0.3125000E+00  0.3125000E+00  0.1262379E-14  0.4687500E-02
      1         -4.914576   1.000000
      2         -4.480030   1.000000
      3         -4.414920   1.000000
      4         -4.296472   1.000000
      5         -0.861278   1.000000
      6         -0.458440   1.000000
      7         -0.244078   1.000000
      8          0.720400   1.000000
      9          0.887005   1.000000
     10          1.049733   1.000000
     11          2.736620   1.000000
     12          3.052723   1.000000
     13          3.124114   1.000000
     14          4.473348   1.000000
     15          4.605938   1.000000
     16          5.736830   1.000000
     17         12.501204   0.000000
     18         12.655645   0.000000
     19         13.999324   0.000000
     20         14.125679   0.000000
     21         14.738780   0.000000
 
  0.1262379E-14  0.1262379E-14  0.2000000E+00  0.1562500E-02
      1         -9.460944   1.000000
      2         -8.673264   1.000000
      3         -7.668036   1.000000
      4         -5.889680   1.000000
      5         -1.544301   1.000000
      6          1.528396   1.000000
      7          4.095638   1.000000
      8          6.307278   1.000000
      9          6.307303   1.000000
     10          6.662775   1.000000
     11          6.662798   1.000000
     12          7.090049   1.000000
     13          7.090069   1.000000
     14          7.237824   1.000000
     15          7.553432   1.000000
     16          7.553449   1.000000
     17         13.948133   0.000000
     18         14.410929   0.000000
     19         15.328549   0.000000
     20         15.414119   0.000000
     21         15.889928   0.000000
 
  0.6250000E-01  0.1267020E-14  0.2000000E+00  0.9375000E-02
      1         -9.387029   1.000000
      2         -8.600681   1.000000
      3         -7.597434   1.000000
      4         -5.825618   1.000000
      5         -1.477325   1.000000
      6          1.570176   1.000000
      7          4.096366   1.000000
      8          5.882026   1.000000
      9          6.162625   1.000000
     10          6.292192   1.000000
     11          6.554300   1.000000
     12          6.787579   1.000000
     13          7.006888   1.000000
     14          7.091831   1.000000
     15          7.380324   1.000000
     16          7.519495   1.000000
     17         14.198496   0.000000
     18         14.634083   0.000000
     19         15.260972   0.000000
     20         15.406624   0.000000
     21         15.795559   0.000000
 
  0.1250000E+00  0.1257131E-14  0.2000000E+00  0.9375000E-02
      1         -9.166371   1.000000
      2         -8.384071   1.000000
      3         -7.387354   1.000000
      4         -5.636328   1.000000
      5         -1.280393   1.000000
      6          1.676897   1.000000
      7          4.023583   1.000000
      8          4.869322   1.000000
      9          5.360048   1.000000
     10          5.808181   1.000000
     11          6.048001   1.000000
     12          6.264798   1.000000
     13          6.425433   1.000000
     14          6.778132   1.000000
     15          7.191099   1.000000
     16          7.395934   1.000000
     17         14.054445   0.000000
     18         14.513267   0.000000
     19         15.005316   0.000000
     20         15.597802   0.000000
     21         15.845540   0.000000
 
  0.1875000E+00  0.1255347E-14  0.2000000E+00  0.9375000E-02
      1         -8.802248   1.000000
      2         -8.027535   1.000000
      3         -7.043213   1.000000
      4         -5.331904   1.000000
      5         -0.969152   1.000000
      6          1.756066   1.000000
      7          3.365263   1.000000
      8          3.879541   1.000000
      9          4.239218   1.000000
     10          5.286313   1.000000
     11          5.371420   1.000000
     12          5.506590   1.000000
     13          5.882098   1.000000
     14          6.458104   1.000000
     15          6.971606   1.000000
     16          7.180517   1.000000
     17         13.250469   0.000000
     18         13.725789   0.000000
     19         14.526193   0.000000
     20         15.481996   0.000000
     21         15.981457   0.000000
 
  0.2500000E+00  0.1248928E-14  0.2000000E+00  0.9375000E-02
      1         -8.301407   1.000000
      2         -7.539594   1.000000
      3         -6.576756   1.000000
      4         -4.935821   1.000000
      5         -0.593260   1.000000
      6          1.461814   1.000000
      7          2.149019   1.000000
      8          2.912994   1.000000
      9          3.375975   1.000000
     10          4.317923   1.000000
     11          4.940877   1.000000
     12          5.203337   1.000000
     13          5.489172   1.000000
     14          6.113422   1.000000
     15          6.650771   1.000000
     16          6.917358   1.000000
     17         12.467822   0.000000
     18         12.861811   0.000000
     19         13.957168   0.000000
     20         14.841021   0.000000
     21         15.489297   0.000000
 
  0.3125000E+00  0.1237903E-14  0.2000000E+00  0.9375000E-02
      1         -7.676963   1.000000
      2         -6.937564   1.000000
      3         -6.013438   1.000000
      4         -4.503297   1.000000
      5         -0.363540   1.000000
      6          0.547067   1.000000
      7          1.083749   1.000000
      8          1.915530   1.000000
      9          2.708402   1.000000
     10          3.745223   1.000000
     11          4.569456   1.000000
     12          5.142279   1.000000
     13          5.151730   1.000000
     14          5.799516   1.000000
     15          6.261775   1.000000
     16          6.660238   1.000000
     17         11.815088   0.000000
     18         12.087185   0.000000
     19         13.447546   0.000000
     20         14.325999   0.000000
     21         14.818825   0.000000
 
  0.3750000E+00  0.1273053E-14  0.2000000E+00  0.9375000E-02
      1         -6.956729   1.000000
      2         -6.260879   1.000000
      3         -5.414977   1.000000
      4         -4.167930   1.000000
      5         -0.805120   1.000000
      6         -0.354349   1.000000
      7          0.211722   1.000000
      8          1.582627   1.000000
      9          1.741869   1.000000
     10          3.816230   1.000000
     11          4.287777   1.000000
     12          4.875725   1.000000
     13          4.985086   1.000000
     14          5.553764   1.000000
     15          5.946184   1.000000
     16          6.450858   1.000000
     17         11.321539   0.000000
     18         11.492828   0.000000
     19         13.048753   0.000000
     20         14.018693   0.000000
     21         14.260447   0.000000
 
  0.4375000E+00  0.1206581E-14  0.2000000E+00  0.9375000E-02
      1         -6.215786   1.000000
      2         -5.621714   1.000000
      3         -4.947124   1.000000
      4         -4.134760   1.000000
      5         -1.455624   1.000000
      6         -0.986473   1.000000
      7         -0.409719   1.000000
      8          0.704692   1.000000
      9          2.109687   1.000000
     10          3.676750   1.000000
     11          4.113033   1.000000
     12          4.709165   1.000000
     13          4.894384   1.000000
     14          5.398598   1.000000
     15          5.753284   1.000000
     16          6.315812   1.000000
     17         11.018677   0.000000
     18         11.121183   0.000000
     19         12.808645   0.000000
     20         13.684872   0.000000
     21         14.163694   0.000000
 
  0.5000000E+00  0.1306515E-14  0.2000000E+00  0.4687500E-02
      1         -5.773701   1.000000
      2         -5.347490   1.000000
      3         -4.827173   1.000000
      4         -4.235426   1.000000
      5         -1.689513   1.000000
      6         -1.346517   1.000000
      7         -0.337530   1.000000
      8          0.108833   1.000000
      9          2.526198   1.000000
     10          3.346991   1.000000
     11          4.053900   1.000000
     12          4.652624   1.000000
     13          4.969614   1.000000
     14          5.345674   1.000000
     15          5.655136   1.000000
     16          6.269322   1.000000
     17         10.926820   0.000000
     18         10.985904   0.000000
     19         12.731821   0.000000
     20         13.534582   0.000000
     21         14.372833   0.000000
 
  0.6250000E-01  0.6250000E-01  0.2000000E+00  0.9375000E-02
      1         -9.239760   1.000000
      2         -8.456058   1.000000
      3         -7.457100   1.000000
      4         -5.698911   1.000000
      5         -1.345298   1.000000
      6          1.645110   1.000000
      7          4.067144   1.000000
      8          5.226620   1.000000
      9          5.618743   1.000000
     10          5.910401   1.000000
     11          6.160640   1.000000
     12          6.408430   1.000000
     13          6.662977   1.000000
     14          6.876179   1.000000
     15          7.281869   1.000000
     16          7.360155   1.000000
     17         14.497650   0.000000
     18         14.702290   0.000000
     19         15.015824   0.000000
     20         15.204389   0.000000
     21         15.816591   0.000000
 
  0.1250000E+00  0.6250000E-01  0.2000000E+00  0.1875000E-01
      1         -8.947284   1.000000
      2         -8.169390   1.000000
      3         -7.179856   1.000000
      4         -5.451724   1.000000
      5         -1.090270   1.000000
      6          1.747540   1.000000
      7          3.799639   1.000000
      8          4.199027   1.000000
      9          4.717704   1.000000
     10          5.332619   1.000000
     11          5.452022   1.000000
     12          5.857215   1.000000
     13          6.148867   1.000000
     14          6.478358   1.000000
     15          7.075072   1.000000
     16          7.162597   1.000000
     17         13.931858   0.000000
     18         14.344019   0.000000
     19         14.900505   0.000000
     20         15.244303   0.000000
     21         15.796268   0.000000
 
  0.1875000E+00  0.6250000E-01  0.2000000E+00  0.1875000E-01
      1         -8.514504   1.000000
      2         -7.746738   1.000000
      3         -6.773913   1.000000
      4         -5.099954   1.000000
      5         -0.740367   1.000000
      6          1.688502   1.000000
      7          2.758102   1.000000
      8          3.325195   1.000000
      9          3.759117   1.000000
     10          4.543163   1.000000
     11          5.010226   1.000000
     12          5.335730   1.000000
     13          5.565659   1.000000
     14          6.065585   1.000000
     15          6.776038   1.000000
     16          6.927145   1.000000
     17         13.142036   0.000000
     18         13.506970   0.000000
     19         14.428119   0.000000
     20         15.129557   0.000000
     21         15.758644   0.000000
 
  0.2500000E+00  0.6250000E-01  0.2000000E+00  0.1875000E-01
      1         -7.950841   1.000000
      2         -7.200275   1.000000
      3         -6.256636   1.000000
      4         -4.679897   1.000000
      5         -0.395627   1.000000
      6          1.047623   1.000000
      7          1.609530   1.000000
      8          2.350438   1.000000
      9          3.069847   1.000000
     10          3.840333   1.000000
     11          4.553092   1.000000
     12          5.062977   1.000000
     13          5.149208   1.000000
     14          5.750625   1.000000
     15          6.423699   1.000000
     16          6.625291   1.000000
     17         12.440105   0.000000
     18         12.681337   0.000000
     19         13.920804   0.000000
     20         14.658453   0.000000
     21         15.249591   0.000000
 
  0.3125000E+00  0.6250000E-01  0.2000000E+00  0.1875000E-01
      1         -7.275070   1.000000
      2         -6.555733   1.000000
      3         -5.667328   1.000000
      4         -4.278887   1.000000
      5         -0.460203   1.000000
      6          0.086182   1.000000
      7          0.667395   1.000000
      8          1.656429   1.000000
      9          2.184644   1.000000
     10          3.759578   1.000000
     11          4.152759   1.000000
     12          4.722880   1.000000
     13          4.942391   1.000000
     14          5.570325   1.000000
     15          6.036594   1.000000
     16          6.354548   1.000000
     17         11.847472   0.000000
     18         12.019932   0.000000
     19         13.497015   0.000000
     20         14.305637   0.000000
     21         14.592881   0.000000
 
  0.3750000E+00  0.6250000E-01  0.2000000E+00  0.1875000E-01
      1         -6.530974   1.000000
      2         -5.877414   1.000000
      3         -5.107577   1.000000
      4         -4.084244   1.000000
      5         -1.111658   1.000000
      6         -0.662018   1.000000
      7         -0.145188   1.000000
      8          1.171211   1.000000
      9          1.875414   1.000000
     10          3.724081   1.000000
     11          3.928073   1.000000
     12          4.491327   1.000000
     13          4.772621   1.000000
     14          5.387876   1.000000
     15          5.762258   1.000000
     16          6.170195   1.000000
     17         11.397320   0.000000
     18         11.590290   0.000000
     19         13.214494   0.000000
     20         13.954581   0.000000
     21         14.275355   0.000000
 
  0.4375000E+00  0.6250000E-01  0.2000000E+00  0.1875000E-01
      1         -5.862789   1.000000
      2         -5.369190   1.000000
      3         -4.813654   1.000000
      4         -4.183736   1.000000
      5         -1.587031   1.000000
      6         -1.190026   1.000000
      7         -0.369579   1.000000
      8          0.329697   1.000000
      9          2.415648   1.000000
     10          3.414274   1.000000
     11          3.766956   1.000000
     12          4.325429   1.000000
     13          4.846159   1.000000
     14          5.296797   1.000000
     15          5.591258   1.000000
     16          6.072877   1.000000
     17         11.165372   0.000000
     18         11.372553   0.000000
     19         13.092561   0.000000
     20         13.631089   0.000000
     21         14.395701   0.000000
 
  0.1250000E+00  0.1250000E+00  0.2000000E+00  0.9375000E-02
      1         -8.585956   1.000000
      2         -7.816320   1.000000
      3         -6.840386   1.000000
      4         -5.156209   1.000000
      5         -0.793083   1.000000
      6          1.747008   1.000000
      7          3.262898   1.000000
      8          3.271884   1.000000
      9          4.080307   1.000000
     10          4.426597   1.000000
     11          4.908478   1.000000
     12          5.540423   1.000000
     13          5.554865   1.000000
     14          6.018430   1.000000
     15          6.605145   1.000000
     16          6.988044   1.000000
     17         13.869439   0.000000
     18         14.332172   0.000000
     19         14.377517   0.000000
     20         14.944688   0.000000
     21         15.822613   0.000000
 
  0.1875000E+00  0.1250000E+00  0.2000000E+00  0.1875000E-01
      1         -8.089382   1.000000
      2         -7.333787   1.000000
      3         -6.381487   1.000000
      4         -4.775285   1.000000
      5         -0.444792   1.000000
      6          1.393461   1.000000
      7          2.178713   1.000000
      8          2.543966   1.000000
      9          3.366585   1.000000
     10          3.752323   1.000000
     11          4.404097   1.000000
     12          4.868911   1.000000
     13          5.252856   1.000000
     14          5.542666   1.000000
     15          6.153632   1.000000
     16          6.710139   1.000000
     17         13.416614   0.000000
     18         13.492884   0.000000
     19         14.251062   0.000000
     20         14.940696   0.000000
     21         15.683154   0.000000
 
  0.2500000E+00  0.1250000E+00  0.2000000E+00  0.1875000E-01
      1         -7.470956   1.000000
      2         -6.739729   1.000000
      3         -5.829939   1.000000
      4         -4.367520   1.000000
      5         -0.252848   1.000000
      6          0.566068   1.000000
      7          1.180315   1.000000
      8          1.864561   1.000000
      9          2.467105   1.000000
     10          3.587825   1.000000
     11          3.967579   1.000000
     12          4.323693   1.000000
     13          4.677968   1.000000
     14          5.486894   1.000000
     15          5.794451   1.000000
     16          6.329051   1.000000
     17         12.667527   0.000000
     18         12.929318   0.000000
     19         14.000928   0.000000
     20         14.738430   0.000000
     21         15.241453   0.000000
 
  0.3125000E+00  0.1250000E+00  0.2000000E+00  0.1875000E-01
      1         -6.758716   1.000000
      2         -6.074127   1.000000
      3         -5.249210   1.000000
      4         -4.067628   1.000000
      5         -0.646320   1.000000
      6         -0.261036   1.000000
      7          0.303393   1.000000
      8          1.561068   1.000000
      9          1.797134   1.000000
     10          3.246007   1.000000
     11          3.692795   1.000000
     12          4.140800   1.000000
     13          4.342536   1.000000
     14          5.389501   1.000000
     15          5.478057   1.000000
     16          6.000753   1.000000
     17         12.057581   0.000000
     18         12.492494   0.000000
     19         13.779599   0.000000
     20         14.484549   0.000000
     21         14.727355   0.000000
 
  0.3750000E+00  0.1250000E+00  0.2000000E+00  0.1875000E-01
      1         -6.025906   1.000000
      2         -5.447229   1.000000
      3         -4.803901   1.000000
      4         -4.063905   1.000000
      5         -1.265638   1.000000
      6         -0.821770   1.000000
      7         -0.259872   1.000000
      8          0.729886   1.000000
      9          2.221052   1.000000
     10          2.993523   1.000000
     11          3.388216   1.000000
     12          3.829959   1.000000
     13          4.458678   1.000000
     14          5.137586   1.000000
     15          5.344834   1.000000
     16          5.822795   1.000000
     17         11.689528   0.000000
     18         12.196641   0.000000
     19         13.655678   0.000000
     20         14.136549   0.000000
     21         14.646403   0.000000
 
  0.4375000E+00  0.1250000E+00  0.2000000E+00  0.9375000E-02
      1         -5.584538   1.000000
      2         -5.178459   1.000000
      3         -4.698771   1.000000
      4         -4.173491   1.000000
      5         -1.489542   1.000000
      6         -1.160261   1.000000
      7         -0.154791   1.000000
      8          0.175762   1.000000
      9          2.532930   1.000000
     10          3.023694   1.000000
     11          3.123042   1.000000
     12          3.651818   1.000000
     13          4.463085   1.000000
     14          5.065306   1.000000
     15          5.353757   1.000000
     16          5.730665   1.000000
     17         11.568936   0.000000
     18         12.090628   0.000000
     19         13.628517   0.000000
     20         13.973419   0.000000
     21         14.758259   0.000000
 
  0.1875000E+00  0.1875000E+00  0.2000000E+00  0.9375000E-02
      1         -7.537000   1.000000
      2         -6.802131   1.000000
      3         -5.885815   1.000000
      4         -4.400676   1.000000
      5         -0.201618   1.000000
      6          0.819003   1.000000
      7          1.590818   1.000000
      8          1.801614   1.000000
      9          2.536701   1.000000
     10          3.474761   1.000000
     11          3.912040   1.000000
     12          4.058805   1.000000
     13          4.740169   1.000000
     14          5.221264   1.000000
     15          5.677419   1.000000
     16          6.374532   1.000000
     17         13.169632   0.000000
     18         13.569669   0.000000
     19         13.743156   0.000000
     20         15.181560   0.000000
     21         15.962262   0.000000
 
  0.2500000E+00  0.1875000E+00  0.2000000E+00  0.1875000E-01
      1         -6.876957   1.000000
      2         -6.179130   1.000000
      3         -5.330033   1.000000
      4         -4.070497   1.000000
      5         -0.261616   1.000000
      6          0.074418   1.000000
      7          0.724426   1.000000
      8          1.629793   1.000000
      9          1.821188   1.000000
     10          2.834797   1.000000
     11          3.391016   1.000000
     12          3.975468   1.000000
     13          4.108984   1.000000
     14          4.830055   1.000000
     15          5.607112   1.000000
     16          5.948022   1.000000
     17         12.607069   0.000000
     18         13.197425   0.000000
     19         13.666572   0.000000
     20         15.227580   0.000000
     21         15.577909   0.000000
 
  0.3125000E+00  0.1875000E+00  0.2000000E+00  0.1875000E-01
      1         -6.152104   1.000000
      2         -5.528974   1.000000
      3         -4.818258   1.000000
      4         -3.956150   1.000000
      5         -0.789010   1.000000
      6         -0.425538   1.000000
      7          0.012800   1.000000
      8          0.978879   1.000000
      9          2.061394   1.000000
     10          2.321912   1.000000
     11          2.961001   1.000000
     12          3.416792   1.000000
     13          4.231883   1.000000
     14          4.622913   1.000000
     15          5.372919   1.000000
     16          5.701687   1.000000
     17         12.185343   0.000000
     18         12.759914   0.000000
     19         13.719672   0.000000
     20         15.103664   0.000000
     21         15.194639   0.000000
 
  0.3750000E+00  0.1875000E+00  0.2000000E+00  0.1875000E-01
      1         -5.495194   1.000000
      2         -5.041730   1.000000
      3         -4.572287   1.000000
      4         -4.100246   1.000000
      5         -1.207754   1.000000
      6         -0.855031   1.000000
      7         -0.069431   1.000000
      8          0.373546   1.000000
      9          1.970667   1.000000
     10          2.338544   1.000000
     11          2.921793   1.000000
     12          3.119457   1.000000
     13          4.220544   1.000000
     14          4.386424   1.000000
     15          5.347158   1.000000
     16          5.542221   1.000000
     17         11.990200   0.000000
     18         12.479808   0.000000
     19         13.808978   0.000000
     20         14.912812   0.000000
     21         15.119580   0.000000
 
  0.2500000E+00  0.2500000E+00  0.2000000E+00  0.9375000E-02
      1         -6.197856   1.000000
      2         -5.561630   1.000000
      3         -4.828513   1.000000
      4         -3.916075   1.000000
      5         -0.435901   1.000000
      6         -0.291202   1.000000
      7          0.156586   1.000000
      8          0.984949   1.000000
      9          1.937856   1.000000
     10          2.064111   1.000000
     11          2.778878   1.000000
     12          3.395275   1.000000
     13          3.835439   1.000000
     14          4.567713   1.000000
     15          5.457848   1.000000
     16          5.604795   1.000000
     17         12.365699   0.000000
     18         12.986681   0.000000
     19         13.588463   0.000000
     20         15.451893   0.000000
     21         15.547787   0.000000
 
  0.3125000E+00  0.2500000E+00  0.2000000E+00  0.1875000E-01
      1         -5.499293   1.000000
      2         -4.987555   1.000000
      3         -4.477816   1.000000
      4         -4.024741   1.000000
      5         -0.834042   1.000000
      6         -0.452307   1.000000
      7         -0.123542   1.000000
      8          0.520315   1.000000
      9          1.487515   1.000000
     10          1.742630   1.000000
     11          2.751813   1.000000
     12          3.032434   1.000000
     13          3.471391   1.000000
     14          4.627505   1.000000
     15          5.083306   1.000000
     16          5.547729   1.000000
     17         12.200913   0.000000
     18         12.581082   0.000000
     19         13.865473   0.000000
     20         14.934970   0.000000
     21         15.473648   0.000000
 
  0.3750000E+00  0.2500000E+00  0.2000000E+00  0.9375000E-02
      1         -5.051839   1.000000
      2         -4.736638   1.000000
      3         -4.432600   1.000000
      4         -4.184723   1.000000
      5         -0.963955   1.000000
      6         -0.696688   1.000000
      7         -0.011789   1.000000
      8          0.322369   1.000000
      9          1.266797   1.000000
     10          1.594573   1.000000
     11          2.525731   1.000000
     12          3.269431   1.000000
     13          3.384194   1.000000
     14          4.410655   1.000000
     15          5.098339   1.000000
     16          5.498034   1.000000
     17         12.230430   0.000000
     18         12.325886   0.000000
     19         14.245860   0.000000
     20         14.457929   0.000000
     21         15.412184   0.000000
 
  0.3125000E+00  0.3125000E+00  0.2000000E+00  0.9375000E-02
      1         -4.887046   1.000000
      2         -4.568408   1.000000
      3         -4.359649   1.000000
      4         -4.296281   1.000000
      5         -0.760817   1.000000
      6         -0.454546   1.000000
      7         -0.311940   1.000000
      8          0.515349   1.000000
      9          1.005371   1.000000
     10          1.162627   1.000000
     11          2.524572   1.000000
     12          2.817227   1.000000
     13          3.432795   1.000000
     14          4.658069   1.000000
     15          4.733747   1.000000
     16          5.528748   1.000000
     17         12.215724   0.000000
     18         12.359191   0.000000
     19         14.172775   0.000000
     20         14.697600   0.000000
     21         15.100664   0.000000
 
  0.1262379E-14  0.1262379E-14  0.4000000E+00  0.1562500E-02
      1         -9.301584   1.000000
      2         -9.037903   1.000000
      3         -7.059266   1.000000
      4         -6.430925   1.000000
      5         -0.737233   1.000000
      6          0.326694   1.000000
      7          5.340609   1.000000
      8          6.384048   1.000000
      9          6.384072   1.000000
     10          6.439575   1.000000
     11          6.506314   1.000000
     12          6.506337   1.000000
     13          7.279096   1.000000
     14          7.279115   1.000000
     15          7.442556   1.000000
     16          7.442574   1.000000
     17         14.054196   0.000000
     18         14.218882   0.000000
     19         15.577466   0.000000
     20         15.700898   0.000000
     21         15.939922   0.000000
 
  0.6250000E-01  0.1267020E-14  0.4000000E+00  0.9375000E-02
      1         -9.227932   1.000000
      2         -8.964674   1.000000
      3         -6.990341   1.000000
      4         -6.364227   1.000000
      5         -0.676087   1.000000
      6          0.379754   1.000000
      7          5.302809   1.000000
      8          5.973642   1.000000
      9          6.098179   1.000000
     10          6.246501   1.000000
     11          6.372454   1.000000
     12          6.380593   1.000000
     13          7.018596   1.000000
     14          7.217133   1.000000
     15          7.222083   1.000000
     16          7.397400   1.000000
     17         14.297181   0.000000
     18         14.451544   0.000000
     19         15.390861   0.000000
     20         15.464713   0.000000
     21         15.976550   0.000000
 
  0.1250000E+00  0.1257131E-14  0.4000000E+00  0.9375000E-02
      1         -9.008013   1.000000
      2         -8.746095   1.000000
      3         -6.785512   1.000000
      4         -6.166479   1.000000
      5         -0.498906   1.000000
      6          0.528380   1.000000
      7          4.842810   1.000000
      8          5.097015   1.000000
      9          5.223654   1.000000
     10          5.904778   1.000000
     11          5.962160   1.000000
     12          6.060190   1.000000
     13          6.435026   1.000000
     14          6.834042   1.000000
     15          7.031263   1.000000
     16          7.248212   1.000000
     17         14.133967   0.000000
     18         14.282524   0.000000
     19         15.197710   0.000000
     20         15.443573   0.000000
     21         15.927937   0.000000
 
  0.1875000E+00  0.1255347E-14  0.4000000E+00  0.9375000E-02
      1         -8.645318   1.000000
      2         -8.385846   1.000000
      3         -6.451378   1.000000
      4         -5.845925   1.000000
      5         -0.232145   1.000000
      6          0.724477   1.000000
      7          3.601831   1.000000
      8          3.867604   1.000000
      9          4.509874   1.000000
     10          5.041937   1.000000
     11          5.478579   1.000000
     12          5.651812   1.000000
     13          6.051654   1.000000
     14          6.624248   1.000000
     15          6.751640   1.000000
     16          7.005687   1.000000
     17         13.330235   0.000000
     18         13.479300   0.000000
     19         14.760899   0.000000
     20         15.120780   0.000000
     21         16.006392   0.000000
 
  0.2500000E+00  0.1248928E-14  0.4000000E+00  0.9375000E-02
      1         -8.146863   1.000000
      2         -7.891566   1.000000
      3         -6.002633   1.000000
      4         -5.421308   1.000000
      5          0.030749   1.000000
      6          0.782533   1.000000
      7          2.348754   1.000000
      8          2.747141   1.000000
      9          3.453645   1.000000
     10          3.950399   1.000000
     11          5.055364   1.000000
     12          5.241019   1.000000
     13          5.915268   1.000000
     14          6.420924   1.000000
     15          6.437387   1.000000
     16          6.720571   1.000000
     17         12.554757   0.000000
     18         12.689900   0.000000
     19         14.180741   0.000000
     20         14.560767   0.000000
     21         15.442734   0.000000
 
  0.3125000E+00  0.1237903E-14  0.4000000E+00  0.9375000E-02
      1         -7.526493   1.000000
      2         -7.278419   1.000000
      3         -5.472183   1.000000
      4         -4.936074   1.000000
      5         -0.067260   1.000000
      6          0.262487   1.000000
      7          1.435752   1.000000
      8          2.049553   1.000000
      9          2.499345   1.000000
     10          3.118537   1.000000
     11          4.688699   1.000000
     12          4.882454   1.000000
     13          5.740870   1.000000
     14          6.134185   1.000000
     15          6.144247   1.000000
     16          6.447800   1.000000
     17         11.922974   0.000000
     18         12.040793   0.000000
     19         13.612474   0.000000
     20         14.035999   0.000000
     21         14.876880   0.000000
 
  0.3750000E+00  0.1273053E-14  0.4000000E+00  0.9375000E-02
      1         -6.814006   1.000000
      2         -6.579834   1.000000
      3         -4.942137   1.000000
      4         -4.498835   1.000000
      5         -0.764347   1.000000
      6         -0.587653   1.000000
      7          0.637308   1.000000
      8          1.182751   1.000000
      9          2.341776   1.000000
     10          3.139336   1.000000
     11          4.409952   1.000000
     12          4.608699   1.000000
     13          5.385958   1.000000
     14          5.782721   1.000000
     15          5.911644   1.000000
     16          6.228263   1.000000
     17         11.472889   0.000000
     18         11.569522   0.000000
     19         13.127633   0.000000
     20         13.582391   0.000000
     21         14.582724   0.000000
 
  0.4375000E+00  0.1206581E-14  0.4000000E+00  0.9375000E-02
      1         -6.090651   1.000000
      2         -5.888663   1.000000
      3         -4.614504   1.000000
      4         -4.329057   1.000000
      5         -1.346258   1.000000
      6         -1.101487   1.000000
      7         -0.234663   1.000000
      8          0.238277   1.000000
      9          2.786117   1.000000
     10          3.469352   1.000000
     11          4.236791   1.000000
     12          4.438240   1.000000
     13          4.943338   1.000000
     14          5.393972   1.000000
     15          5.763703   1.000000
     16          6.087552   1.000000
     17         11.218676   0.000000
     18         11.280726   0.000000
     19         12.812355   0.000000
     20         13.264598   0.000000
     21         14.572999   0.000000
 
  0.5000000E+00  0.1306515E-14  0.4000000E+00  0.4687500E-02
      1         -5.677230   1.000000
      2         -5.527936   1.000000
      3         -4.613091   1.000000
      4         -4.402370   1.000000
      5         -1.427458   1.000000
      6         -1.199178   1.000000
      7         -0.585347   1.000000
      8         -0.314533   1.000000
      9          3.131665   1.000000
     10          3.563449   1.000000
     11          4.178161   1.000000
     12          4.380459   1.000000
     13          4.763561   1.000000
     14          5.150282   1.000000
     15          5.713083   1.000000
     16          6.039245   1.000000
     17         11.144582   0.000000
     18         11.177315   0.000000
     19         12.704586   0.000000
     20         13.152104   0.000000
     21         14.670238   0.000000
 
  0.6250000E-01  0.6250000E-01  0.4000000E+00  0.9375000E-02
      1         -9.081147   1.000000
      2         -8.818756   1.000000
      3         -6.853449   1.000000
      4         -6.231975   1.000000
      5         -0.556774   1.000000
      6          0.480901   1.000000
      7          5.151579   1.000000
      8          5.322032   1.000000
      9          5.481663   1.000000
     10          5.876369   1.000000
     11          5.976713   1.000000
     12          6.325364   1.000000
     13          6.685178   1.000000
     14          6.876600   1.000000
     15          7.118694   1.000000
     16          7.230001   1.000000
     17         14.561991   0.000000
     18         14.649106   0.000000
     19         14.999064   0.000000
     20         15.064801   0.000000
     21         15.888246   0.000000
 
  0.1250000E+00  0.6250000E-01  0.4000000E+00  0.1875000E-01
      1         -8.789757   1.000000
      2         -8.529252   1.000000
      3         -6.583781   1.000000
      4         -5.972579   1.000000
      5         -0.332965   1.000000
      6          0.657286   1.000000
      7          4.209459   1.000000
      8          4.424006   1.000000
      9          4.709641   1.000000
     10          5.153032   1.000000
     11          5.622048   1.000000
     12          5.936169   1.000000
     13          6.218876   1.000000
     14          6.543407   1.000000
     15          6.880567   1.000000
     16          6.994383   1.000000
     17         14.002033   0.000000
     18         14.134333   0.000000
     19         14.976812   0.000000
     20         15.108958   0.000000
     21         15.803245   0.000000
 
  0.1875000E+00  0.6250000E-01  0.4000000E+00  0.1875000E-01
      1         -8.358844   1.000000
      2         -8.101632   1.000000
      3         -6.191492   1.000000
      4         -5.598825   1.000000
      5         -0.054903   1.000000
      6          0.812349   1.000000
      7          2.961237   1.000000
      8          3.271660   1.000000
      9          3.853135   1.000000
     10          4.277485   1.000000
     11          5.148181   1.000000
     12          5.342416   1.000000
     13          5.925920   1.000000
     14          6.271953   1.000000
     15          6.596217   1.000000
     16          6.772956   1.000000
     17         13.211124   0.000000
     18         13.332101   0.000000
     19         14.588049   0.000000
     20         14.878775   0.000000
     21         15.737347   0.000000
 
  0.2500000E+00  0.6250000E-01  0.4000000E+00  0.1875000E-01
      1         -7.798340   1.000000
      2         -7.546671   1.000000
      3         -5.698670   1.000000
      4         -5.139466   1.000000
      5          0.086743   1.000000
      6          0.615275   1.000000
      7          1.865860   1.000000
      8          2.387037   1.000000
      9          2.877143   1.000000
     10          3.382861   1.000000
     11          4.645589   1.000000
     12          4.829763   1.000000
     13          5.686168   1.000000
     14          6.021793   1.000000
     15          6.305858   1.000000
     16          6.534436   1.000000
     17         12.516649   0.000000
     18         12.619449   0.000000
     19         14.070098   0.000000
     20         14.442847   0.000000
     21         15.213280   0.000000
 
  0.3125000E+00  0.6250000E-01  0.4000000E+00  0.1875000E-01
      1         -7.128192   1.000000
      2         -6.886552   1.000000
      3         -5.157097   1.000000
      4         -4.663597   1.000000
      5         -0.353021   1.000000
      6         -0.148192   1.000000
      7          1.090788   1.000000
      8          1.653334   1.000000
      9          2.315628   1.000000
     10          3.059858   1.000000
     11          4.251544   1.000000
     12          4.448974   1.000000
     13          5.373319   1.000000
     14          5.762182   1.000000
     15          6.011809   1.000000
     16          6.271957   1.000000
     17         11.971388   0.000000
     18         12.067653   0.000000
     19         13.569366   0.000000
     20         13.958721   0.000000
     21         14.824187   0.000000
 
  0.3750000E+00  0.6250000E-01  0.4000000E+00  0.1875000E-01
      1         -6.395626   1.000000
      2         -6.174885   1.000000
      3         -4.699812   1.000000
      4         -4.337513   1.000000
      5         -1.067363   1.000000
      6         -0.874813   1.000000
      7          0.203096   1.000000
      8          0.707194   1.000000
      9          2.567130   1.000000
     10          3.316807   1.000000
     11          3.997870   1.000000
     12          4.213101   1.000000
     13          5.004357   1.000000
     14          5.444912   1.000000
     15          5.736257   1.000000
     16          6.035009   1.000000
     17         11.612407   0.000000
     18         11.693667   0.000000
     19         13.190721   0.000000
     20         13.535108   0.000000
     21         14.722914   0.000000
 
  0.4375000E+00  0.6250000E-01  0.4000000E+00  0.1875000E-01
      1         -5.754806   1.000000
      2         -5.584382   1.000000
      3         -4.566565   1.000000
      4         -4.344804   1.000000
      5         -1.383036   1.000000
      6         -1.123043   1.000000
      7         -0.476455   1.000000
      8         -0.107817   1.000000
      9          3.024957   1.000000
     10          3.508256   1.000000
     11          3.906576   1.000000
     12          4.124926   1.000000
     13          4.714892   1.000000
     14          5.108034   1.000000
     15          5.578826   1.000000
     16          5.891657   1.000000
     17         11.449602   0.000000
     18         11.496362   0.000000
     19         12.994519   0.000000
     20         13.296940   0.000000
     21         14.813122   0.000000
 
  0.1250000E+00  0.1250000E+00  0.4000000E+00  0.9375000E-02
      1         -8.429962   1.000000
      2         -8.172156   1.000000
      3         -6.255397   1.000000
      4         -5.659238   1.000000
      5         -0.090690   1.000000
      6          0.808646   1.000000
      7          3.417337   1.000000
      8          3.602243   1.000000
      9          3.864018   1.000000
     10          4.153039   1.000000
     11          5.193759   1.000000
     12          5.500162   1.000000
     13          5.979801   1.000000
     14          5.991697   1.000000
     15          6.554015   1.000000
     16          6.799062   1.000000
     17         13.942309   0.000000
     18         14.110699   0.000000
     19         14.505787   0.000000
     20         14.710422   0.000000
     21         15.824288   0.000000
 
  0.1875000E+00  0.1250000E+00  0.4000000E+00  0.1875000E-01
      1         -7.935980   1.000000
      2         -7.682696   1.000000
      3         -5.816155   1.000000
      4         -5.246785   1.000000
      5          0.123102   1.000000
      6          0.790824   1.000000
      7          2.424658   1.000000
      8          2.780113   1.000000
      9          3.029131   1.000000
     10          3.349694   1.000000
     11          4.556863   1.000000
     12          4.806894   1.000000
     13          5.412014   1.000000
     14          5.676447   1.000000
     15          6.313287   1.000000
     16          6.626048   1.000000
     17         13.455971   0.000000
     18         13.517919   0.000000
     19         14.345576   0.000000
     20         14.666895   0.000000
     21         15.580970   0.000000
 
  0.2500000E+00  0.1250000E+00  0.4000000E+00  0.1875000E-01
      1         -7.321960   1.000000
      2         -7.076520   1.000000
      3         -5.300878   1.000000
      4         -4.781447   1.000000
      5         -0.006759   1.000000
      6          0.284160   1.000000
      7          1.534179   1.000000
      8          2.016711   1.000000
      9          2.419086   1.000000
     10          3.047304   1.000000
     11          3.915561   1.000000
     12          4.119295   1.000000
     13          4.953252   1.000000
     14          5.331268   1.000000
     15          6.135835   1.000000
     16          6.364268   1.000000
     17         12.826027   0.000000
     18         12.921970   0.000000
     19         14.146602   0.000000
     20         14.538340   0.000000
     21         15.133077   0.000000
 
  0.3125000E+00  0.1250000E+00  0.4000000E+00  0.1875000E-01
      1         -6.617982   1.000000
      2         -6.387418   1.000000
      3         -4.794314   1.000000
      4         -4.374558   1.000000
      5         -0.627162   1.000000
      6         -0.474815   1.000000
      7          0.686116   1.000000
      8          1.158767   1.000000
      9          2.460050   1.000000
     10          3.151436   1.000000
     11          3.490498   1.000000
     12          3.687323   1.000000
     13          4.594439   1.000000
     14          5.028190   1.000000
     15          5.841910   1.000000
     16          6.060214   1.000000
     17         12.304098   0.000000
     18         12.457146   0.000000
     19         13.884488   0.000000
     20         14.172390   0.000000
     21         14.979431   0.000000
 
  0.3750000E+00  0.1250000E+00  0.4000000E+00  0.1875000E-01
      1         -5.903520   1.000000
      2         -5.706468   1.000000
      3         -4.494196   1.000000
      4         -4.235332   1.000000
      5         -1.159159   1.000000
      6         -0.923921   1.000000
      7         -0.119749   1.000000
      8          0.308929   1.000000
      9          2.771813   1.000000
     10          3.092907   1.000000
     11          3.354968   1.000000
     12          3.790798   1.000000
     13          4.342183   1.000000
     14          4.764267   1.000000
     15          5.499203   1.000000
     16          5.766822   1.000000
     17         11.984417   0.000000
     18         12.153776   0.000000
     19         13.684885   0.000000
     20         13.844941   0.000000
     21         15.120165   0.000000
 
  0.4375000E+00  0.1250000E+00  0.4000000E+00  0.9375000E-02
      1         -5.491797   1.000000
      2         -5.349170   1.000000
      3         -4.505815   1.000000
      4         -4.318797   1.000000
      5         -1.230781   1.000000
      6         -1.019741   1.000000
      7         -0.421190   1.000000
      8         -0.205687   1.000000
      9          2.826636   1.000000
     10          3.060963   1.000000
     11          3.561426   1.000000
     12          3.741405   1.000000
     13          4.390887   1.000000
     14          4.547079   1.000000
     15          5.357576   1.000000
     16          5.613272   1.000000
     17         11.879211   0.000000
     18         12.048241   0.000000
     19         13.619967   0.000000
     20         13.720434   0.000000
     21         15.301595   0.000000
 
  0.1875000E+00  0.1875000E+00  0.4000000E+00  0.9375000E-02
      1         -7.387363   1.000000
      2         -7.140757   1.000000
      3         -5.351044   1.000000
      4         -4.823679   1.000000
      5          0.118497   1.000000
      6          0.476521   1.000000
      7          1.904350   1.000000
      8          2.122917   1.000000
      9          2.366265   1.000000
     10          2.939810   1.000000
     11          3.851817   1.000000
     12          4.109392   1.000000
     13          4.683376   1.000000
     14          4.977895   1.000000
     15          6.183751   1.000000
     16          6.411232   1.000000
     17         13.407087   0.000000
     18         13.549511   0.000000
     19         13.876488   0.000000
     20         14.593041   0.000000
     21         15.724812   0.000000
 
  0.2500000E+00  0.1875000E+00  0.4000000E+00  0.1875000E-01
      1         -6.733917   1.000000
      2         -6.499148   1.000000
      3         -4.853812   1.000000
      4         -4.406095   1.000000
      5         -0.232545   1.000000
      6         -0.109514   1.000000
      7          1.034704   1.000000
      8          1.376858   1.000000
      9          2.376017   1.000000
     10          2.940006   1.000000
     11          3.320157   1.000000
     12          3.392071   1.000000
     13          4.086491   1.000000
     14          4.479527   1.000000
     15          5.993517   1.000000
     16          6.098024   1.000000
     17         12.864089   0.000000
     18         13.010467   0.000000
     19         13.980249   0.000000
     20         14.714119   0.000000
     21         15.432053   0.000000
 
  0.3125000E+00  0.1875000E+00  0.4000000E+00  0.1875000E-01
      1         -6.022099   1.000000
      2         -5.811052   1.000000
      3         -4.459101   1.000000
      4         -4.156093   1.000000
      5         -0.765180   1.000000
      6         -0.606769   1.000000
      7          0.270622   1.000000
      8          0.643519   1.000000
      9          2.417986   1.000000
     10          2.554630   1.000000
     11          2.973997   1.000000
     12          3.521184   1.000000
     13          3.777506   1.000000
     14          4.255198   1.000000
     15          5.616412   1.000000
     16          5.790895   1.000000
     17         12.373050   0.000000
     18         12.505189   0.000000
     19         14.191051   0.000000
     20         14.792790   0.000000
     21         15.172756   0.000000
 
  0.3750000E+00  0.1875000E+00  0.4000000E+00  0.1875000E-01
      1         -5.394391   1.000000
      2         -5.237034   1.000000
      3         -4.376742   1.000000
      4         -4.212213   1.000000
      5         -1.007959   1.000000
      6         -0.782971   1.000000
      7         -0.228883   1.000000
      8          0.027609   1.000000
      9          2.113972   1.000000
     10          2.331978   1.000000
     11          3.138462   1.000000
     12          3.562021   1.000000
     13          3.814051   1.000000
     14          4.293688   1.000000
     15          5.302596   1.000000
     16          5.487136   1.000000
     17         12.119952   0.000000
     18         12.210113   0.000000
     19         14.352801   0.000000
     20         14.762822   0.000000
     21         15.127274   0.000000
 
  0.2500000E+00  0.2500000E+00  0.4000000E+00  0.9375000E-02
      1         -6.065603   1.000000
      2         -5.850410   1.000000
      3         -4.451819   1.000000
      4         -4.130360   1.000000
      5         -0.482590   1.000000
      6         -0.431353   1.000000
      7          0.400050   1.000000
      8          0.696244   1.000000
      9          2.302692   1.000000
     10          2.348570   1.000000
     11          2.914974   1.000000
     12          3.250253   1.000000
     13          3.501584   1.000000
     14          4.073827   1.000000
     15          5.714618   1.000000
     16          5.784119   1.000000
     17         12.458681   0.000000
     18         12.652832   0.000000
     19         14.100656   0.000000
     20         14.999285   0.000000
     21         15.715716   0.000000
 
  0.3125000E+00  0.2500000E+00  0.4000000E+00  0.1875000E-01
      1         -5.388503   1.000000
      2         -5.212780   1.000000
      3         -4.265556   1.000000
      4         -4.112321   1.000000
      5         -0.713880   1.000000
      6         -0.518853   1.000000
      7         -0.091265   1.000000
      8          0.193305   1.000000
      9          1.703438   1.000000
     10          1.914555   1.000000
     11          2.603118   1.000000
     12          2.969983   1.000000
     13          3.681389   1.000000
     14          4.337608   1.000000
     15          5.303869   1.000000
     16          5.477148   1.000000
     17         12.101182   0.000000
     18         12.228027   0.000000
     19         14.505041   0.000000
     20         15.283356   0.000000
     21         15.527577   0.000000
 
  0.3750000E+00  0.2500000E+00  0.4000000E+00  0.9375000E-02
      1         -4.974596   1.000000
      2         -4.861298   1.000000
      3         -4.336004   1.000000
      4         -4.248178   1.000000
      5         -0.715709   1.000000
      6         -0.612286   1.000000
      7         -0.176438   1.000000
      8         -0.051990   1.000000
      9          1.451074   1.000000
     10          1.685377   1.000000
     11          2.459419   1.000000
     12          2.864994   1.000000
     13          3.950598   1.000000
     14          4.504785   1.000000
     15          5.178517   1.000000
     16          5.187798   1.000000
     17         11.995879   0.000000
     18         12.034510   0.000000
     19         14.962670   0.000000
     20         15.040073   0.000000
     21         15.509918   0.000000
 
  0.3125000E+00  0.3125000E+00  0.4000000E+00  0.9375000E-02
      1         -4.809109   1.000000
      2         -4.694877   1.000000
      3         -4.316539   1.000000
      4         -4.299527   1.000000
      5         -0.552999   1.000000
      6         -0.434081   1.000000
      7         -0.339306   1.000000
      8          0.060689   1.000000
      9          1.284613   1.000000
     10          1.402862   1.000000
     11          2.208851   1.000000
     12          2.376777   1.000000
     13          4.092980   1.000000
     14          4.711240   1.000000
     15          4.952217   1.000000
     16          5.140537   1.000000
     17         11.897667   0.000000
     18         11.959270   0.000000
     19         14.911176   0.000000
     20         15.457336   0.000000
     21         15.529927   0.000000
