[1776442077.114597] [d01:1948957:f]        vfs_fuse.c:281  UCX  ERROR inotify_add_watch(/tmp) failed: No space left on device
 running    1 mpi-ranks, with    1 threads/rank, on    1 nodes
 distrk:  each k-point on    1 cores,    1 groups
 distr:  one band on    1 cores,    1 groups
 OpenACC runtime initialized ...    1 GPUs detected
 vasp.6.4.2 20Jul23 (build Mar  2 2025 11:04:54) complex                         
 POSCAR found type information on POSCAR Ag
 POSCAR found :  1 types and       1 ions
 scaLAPACK will be used selectively (only on CPU)
 LDA part: xc-table for Pade appr. of Perdew
 -----------------------------------------------------------------------------
|                                                                             |
|           W    W    AA    RRRRR   N    N  II  N    N   GGGG   !!!           |
|           W    W   A  A   R    R  NN   N  II  NN   N  G    G  !!!           |
|           W    W  A    A  R    R  N N  N  II  N N  N  G       !!!           |
|           W WW W  AAAAAA  RRRRR   N  N N  II  N  N N  G  GGG   !            |
|           WW  WW  A    A  R   R   N   NN  II  N   NN  G    G                |
|           W    W  A    A  R    R  N    N  II  N    N   GGGG   !!!           |
|                                                                             |
|     The requested file  could not be found or opened for reading            |
|     k-point information. Automatic k-point generation is used as a          |
|     fallback, which may lead to unwanted results.                           |
|                                                                             |
 -----------------------------------------------------------------------------

 POSCAR, INCAR and KPOINTS ok, starting setup
 FFT: planning ... GRIDC
 FFT: planning ... GRID_SOFT
 FFT: planning ... GRID
 WAVECAR not read
 entering main loop
       N       E                     dE             d eps       ncg     rms          rms(c)
DAV:   1     0.390534820543E+02    0.39053E+02   -0.54032E+03  4176   0.100E+03
DAV:   2    -0.239152157856E+01   -0.41445E+02   -0.39672E+02  4105   0.198E+02
DAV:   3    -0.270214518797E+01   -0.31062E+00   -0.31055E+00  4560   0.204E+01
DAV:   4    -0.270274683495E+01   -0.60165E-03   -0.60164E-03  4523   0.842E-01
DAV:   5    -0.270275017503E+01   -0.33401E-05   -0.33398E-05  4337   0.572E-02    0.856E+00
DAV:   6    -0.242822188426E+01    0.27453E+00   -0.10378E+00  4021   0.116E+01    0.512E+00
DAV:   7    -0.240813226047E+01    0.20090E-01   -0.35873E-02  4319   0.212E+00    0.248E+00
DAV:   8    -0.240345109425E+01    0.46812E-02   -0.10918E-03  4103   0.350E-01    0.134E-01
DAV:   9    -0.240345747806E+01   -0.63838E-05   -0.51830E-06  4485   0.252E-02    0.145E-02
DAV:  10    -0.240346365743E+01   -0.61794E-05   -0.28644E-06  4388   0.184E-02    0.704E-03
DAV:  11    -0.240346323850E+01    0.41893E-06   -0.69131E-08  2066   0.302E-03
   1 F= -.24034632E+01 E0= -.24033332E+01  d E =-.390183E-03
Warning: ieee_invalid is signaling
Warning: ieee_divide_by_zero is signaling
Warning: ieee_underflow is signaling
Warning: ieee_inexact is signaling
FORTRAN STOP
