Fe7 S16                                 
    1.000000000000000     
    10.8863477489923444    0.0400018834694611   -0.0135858028068055
     0.0199838709462380    5.4363371578105184    0.0109906940208690
    -0.0067635518844249    0.0109751736506470    5.4273076666523892
   Fe   S 
     7    16
Direct
  0.5000000000000000  0.5000000000000000  0.5000000000000000
  0.2500624577680466  0.5023766609109461  0.0021178806017650
  0.7499375422319533  0.4976233390890535 -0.0021178806017650
  0.2511100996318403  0.0095365130771909  0.4984997787532010
  0.7488899003681596 -0.0095365130771909  0.5015002212467987
 -0.0000000000000000 -0.0000000000000000 -0.0000000000000000
  0.5000000000000000 -0.0000000000000000 -0.0000000000000000
  0.1913904878294663  0.1206318840619110  0.8809664067521653
  0.6914359694241016  0.1136209057147290  0.8850203481651692
  0.0618352845343393  0.9081720342212819  0.3860040167688599
  0.5574638982815672  0.8820641213752141  0.3830855079509522
  0.4433228459371757  0.3841908453176908  0.1166996631068701
  0.9404013357767886  0.3808318660003389  0.0938803127056800
  0.3079108624733878  0.6172525509447372  0.6113486883845193
  0.8019884170300701  0.6109056433244471  0.6215198687807276
  0.1980115829699300  0.3890943566755528  0.3784801312192725
  0.6920891375266122  0.3827474490552629  0.3886513116154808
  0.0595986642232116  0.6191681339996611  0.9061196872943199
  0.5566771540628241  0.6158091546823092  0.8833003368931300
  0.4425361017184328  0.1179358786247858  0.6169144920490476
  0.9381647154656606  0.0918279657787181  0.6139959832311400
  0.3085640305758984  0.8863790942852711  0.1149796518348308
  0.8086095121705336  0.8793681159380893  0.1190335932478346
 
  0.00000000E+00  0.00000000E+00  0.00000000E+00
  0.00000000E+00  0.00000000E+00  0.00000000E+00
  0.00000000E+00  0.00000000E+00  0.00000000E+00
  0.00000000E+00  0.00000000E+00  0.00000000E+00
  0.00000000E+00  0.00000000E+00  0.00000000E+00
  0.00000000E+00  0.00000000E+00  0.00000000E+00
  0.00000000E+00  0.00000000E+00  0.00000000E+00
  0.00000000E+00  0.00000000E+00  0.00000000E+00
  0.00000000E+00  0.00000000E+00  0.00000000E+00
  0.00000000E+00  0.00000000E+00  0.00000000E+00
  0.00000000E+00  0.00000000E+00  0.00000000E+00
  0.00000000E+00  0.00000000E+00  0.00000000E+00
  0.00000000E+00  0.00000000E+00  0.00000000E+00
  0.00000000E+00  0.00000000E+00  0.00000000E+00
  0.00000000E+00  0.00000000E+00  0.00000000E+00
  0.00000000E+00  0.00000000E+00  0.00000000E+00
  0.00000000E+00  0.00000000E+00  0.00000000E+00
  0.00000000E+00  0.00000000E+00  0.00000000E+00
  0.00000000E+00  0.00000000E+00  0.00000000E+00
  0.00000000E+00  0.00000000E+00  0.00000000E+00
  0.00000000E+00  0.00000000E+00  0.00000000E+00
  0.00000000E+00  0.00000000E+00  0.00000000E+00
  0.00000000E+00  0.00000000E+00  0.00000000E+00
