  23  23   0   0
  0.1366837E+02  0.1079365E-08  0.5396824E-09  0.5396824E-09  0.5000000E-15
   1.0000000000000000E-004
  CAR 
 FeS2 Full Structural Relaxation (atoms +
     11.29853315    -10.39143205  301      7.62782010      1.00000000
    -10.391  0.0000E+00  0.0000E+00
    -10.319  0.0000E+00  0.0000E+00
    -10.247  0.0000E+00  0.0000E+00
    -10.175  0.0000E+00  0.0000E+00
    -10.102  0.0000E+00  0.0000E+00
    -10.030  0.0000E+00  0.0000E+00
     -9.958  0.0000E+00  0.0000E+00
     -9.885  0.0000E+00  0.0000E+00
     -9.813  0.0000E+00  0.0000E+00
     -9.741  0.0000E+00  0.0000E+00
     -9.668  0.4477E-15  0.3237E-16
     -9.596  0.3025E-09  0.2187E-10
     -9.524  0.3540E-05  0.2559E-06
     -9.452  0.8313E-03  0.6036E-04
     -9.379  0.5845E-02  0.4830E-03
     -9.307  0.3407E-02  0.7293E-03
     -9.235  0.8438E-02  0.1339E-02
     -9.162  0.2357E-01  0.3044E-02
     -9.090  0.1606E-01  0.4205E-02
     -9.018  0.3276E-01  0.6573E-02
     -8.945  0.2969E-01  0.8720E-02
     -8.873  0.2512E-01  0.1054E-01
     -8.801  0.4620E-01  0.1388E-01
     -8.729  0.7710E-02  0.1443E-01
     -8.656  0.1969E-01  0.1586E-01
     -8.584  0.3283E-01  0.1823E-01
     -8.512  0.2380E-01  0.1995E-01
     -8.439  0.4662E-01  0.2332E-01
     -8.367  0.8547E-01  0.2950E-01
     -8.295  0.8400E-01  0.3558E-01
     -8.222  0.8595E-01  0.4179E-01
     -8.150  0.7614E-01  0.4729E-01
     -8.078  0.2018E-01  0.4875E-01
     -8.006  0.2492E-01  0.5056E-01
     -7.933  0.4158E-01  0.5356E-01
     -7.861  0.7510E-01  0.5899E-01
     -7.789  0.1361E+00  0.6884E-01
     -7.716  0.1436E+00  0.7922E-01
     -7.644  0.1512E+00  0.9015E-01
     -7.572  0.1663E+00  0.1022E+00
     -7.499  0.1917E+00  0.1160E+00
     -7.427  0.2046E+00  0.1308E+00
     -7.355  0.1300E+00  0.1402E+00
     -7.283  0.1399E+00  0.1503E+00
     -7.210  0.1166E+00  0.1588E+00
     -7.138  0.1673E-01  0.1600E+00
     -7.066  0.2555E-03  0.1600E+00
     -6.993  0.1403E-06  0.1600E+00
     -6.921  0.1690E-11  0.1600E+00
     -6.849  0.0000E+00  0.1600E+00
     -6.776  0.0000E+00  0.1600E+00
     -6.704  0.0000E+00  0.1600E+00
     -6.632  0.0000E+00  0.1600E+00
     -6.560  0.0000E+00  0.1600E+00
     -6.487  0.0000E+00  0.1600E+00
     -6.415  0.0000E+00  0.1600E+00
     -6.343  0.0000E+00  0.1600E+00
     -6.270  0.0000E+00  0.1600E+00
     -6.198  0.0000E+00  0.1600E+00
     -6.126  0.0000E+00  0.1600E+00
     -6.053  0.0000E+00  0.1600E+00
     -5.981  0.0000E+00  0.1600E+00
     -5.909  0.0000E+00  0.1600E+00
     -5.837  0.0000E+00  0.1600E+00
     -5.764  0.0000E+00  0.1600E+00
     -5.692  0.0000E+00  0.1600E+00
     -5.620  0.7417E-13  0.1600E+00
     -5.547  0.1220E-07  0.1600E+00
     -5.475  0.3599E-04  0.1600E+00
     -5.403  0.2355E-02  0.1602E+00
     -5.330  0.6098E-02  0.1606E+00
     -5.258  0.7723E-02  0.1612E+00
     -5.186  0.1770E-01  0.1625E+00
     -5.114  0.9498E-01  0.1693E+00
     -5.041  0.1724E+00  0.1818E+00
     -4.969  0.2039E+00  0.1965E+00
     -4.897  0.1845E+00  0.2099E+00
     -4.824  0.1796E+00  0.2228E+00
     -4.752  0.1496E+00  0.2337E+00
     -4.680  0.1555E+00  0.2449E+00
     -4.607  0.6918E-01  0.2499E+00
     -4.535  0.5374E-01  0.2538E+00
     -4.463  0.1375E+00  0.2637E+00
     -4.391  0.1518E+00  0.2747E+00
     -4.318  0.1059E+00  0.2824E+00
     -4.246  0.1027E+00  0.2898E+00
     -4.174  0.6600E-01  0.2946E+00
     -4.101  0.4657E-01  0.2979E+00
     -4.029  0.7190E-01  0.3031E+00
     -3.957  0.8766E-01  0.3095E+00
     -3.884  0.1735E-01  0.3107E+00
     -3.812  0.2719E-01  0.3127E+00
     -3.740  0.4181E-01  0.3157E+00
     -3.668  0.2496E-01  0.3175E+00
     -3.595  0.2077E-01  0.3190E+00
     -3.523  0.4898E-02  0.3194E+00
     -3.451  0.3448E-03  0.3194E+00
     -3.378  0.4037E-02  0.3197E+00
     -3.306  0.4254E-02  0.3200E+00
     -3.234  0.1923E-03  0.3200E+00
     -3.161  0.2176E-06  0.3200E+00
     -3.089  0.4615E-11  0.3200E+00
     -3.017  0.1919E-17  0.3200E+00
     -2.945  0.0000E+00  0.3200E+00
     -2.872  0.0000E+00  0.3200E+00
     -2.800  0.0000E+00  0.3200E+00
     -2.728  0.0000E+00  0.3200E+00
     -2.655  0.0000E+00  0.3200E+00
     -2.583  0.0000E+00  0.3200E+00
     -2.511  0.0000E+00  0.3200E+00
     -2.438  0.0000E+00  0.3200E+00
     -2.366  0.0000E+00  0.3200E+00
     -2.294  0.0000E+00  0.3200E+00
     -2.222  0.0000E+00  0.3200E+00
     -2.149  0.0000E+00  0.3200E+00
     -2.077  0.0000E+00  0.3200E+00
     -2.005  0.0000E+00  0.3200E+00
     -1.932  0.0000E+00  0.3200E+00
     -1.860  0.0000E+00  0.3200E+00
     -1.788  0.0000E+00  0.3200E+00
     -1.715  0.0000E+00  0.3200E+00
     -1.643  0.0000E+00  0.3200E+00
     -1.571  0.0000E+00  0.3200E+00
     -1.499  0.0000E+00  0.3200E+00
     -1.426  0.0000E+00  0.3200E+00
     -1.354  0.0000E+00  0.3200E+00
     -1.282  0.0000E+00  0.3200E+00
     -1.209  0.0000E+00  0.3200E+00
     -1.137  0.0000E+00  0.3200E+00
     -1.065  0.0000E+00  0.3200E+00
     -0.992  0.0000E+00  0.3200E+00
     -0.920  0.0000E+00  0.3200E+00
     -0.848  0.0000E+00  0.3200E+00
     -0.776  0.0000E+00  0.3200E+00
     -0.703  0.0000E+00  0.3200E+00
     -0.631  0.0000E+00  0.3200E+00
     -0.559  0.0000E+00  0.3200E+00
     -0.486  0.0000E+00  0.3200E+00
     -0.414  0.0000E+00  0.3200E+00
     -0.342  0.1392E-16  0.3200E+00
     -0.269  0.2272E-10  0.3200E+00
     -0.197  0.6409E-06  0.3200E+00
     -0.125  0.3470E-03  0.3200E+00
     -0.053  0.5463E-02  0.3204E+00
      0.020  0.1802E-01  0.3217E+00
      0.092  0.4405E-01  0.3249E+00
      0.164  0.9502E-01  0.3318E+00
      0.237  0.1564E+00  0.3431E+00
      0.309  0.1530E+00  0.3542E+00
      0.381  0.1474E+00  0.3648E+00
      0.454  0.1463E+00  0.3754E+00
      0.526  0.1783E+00  0.3883E+00
      0.598  0.1593E+00  0.3998E+00
      0.670  0.1364E+00  0.4097E+00
      0.743  0.1405E+00  0.4198E+00
      0.815  0.9507E-01  0.4267E+00
      0.887  0.5281E-01  0.4305E+00
      0.960  0.4635E-01  0.4339E+00
      1.032  0.1317E+00  0.4434E+00
      1.104  0.1407E+00  0.4536E+00
      1.177  0.1018E+00  0.4609E+00
      1.249  0.1018E+00  0.4683E+00
      1.321  0.1853E+00  0.4817E+00
      1.393  0.1633E+00  0.4935E+00
      1.466  0.9049E-01  0.5000E+00
      1.538  0.5840E-01  0.5042E+00
      1.610  0.8517E-01  0.5104E+00
      1.683  0.1149E+00  0.5187E+00
      1.755  0.1300E+00  0.5281E+00
      1.827  0.7958E-01  0.5339E+00
      1.900  0.6644E-01  0.5387E+00
      1.972  0.1173E+00  0.5471E+00
      2.044  0.1269E+00  0.5563E+00
      2.116  0.1279E+00  0.5656E+00
      2.189  0.1283E+00  0.5748E+00
      2.261  0.1114E+00  0.5829E+00
      2.333  0.9703E-01  0.5899E+00
      2.406  0.1083E+00  0.5977E+00
      2.478  0.7640E-01  0.6033E+00
      2.550  0.1327E+00  0.6129E+00
      2.623  0.1307E+00  0.6223E+00
      2.695  0.1322E+00  0.6319E+00
      2.767  0.1348E+00  0.6416E+00
      2.839  0.1280E+00  0.6509E+00
      2.912  0.1253E+00  0.6599E+00
      2.984  0.9073E-01  0.6665E+00
      3.056  0.8877E-01  0.6729E+00
      3.129  0.1517E+00  0.6839E+00
      3.201  0.1633E+00  0.6957E+00
      3.273  0.1746E+00  0.7083E+00
      3.346  0.2359E+00  0.7253E+00
      3.418  0.2614E+00  0.7442E+00
      3.490  0.1955E+00  0.7584E+00
      3.562  0.1711E+00  0.7707E+00
      3.635  0.1635E+00  0.7826E+00
      3.707  0.2337E+00  0.7995E+00
      3.779  0.1531E+00  0.8105E+00
      3.852  0.1330E+00  0.8202E+00
      3.924  0.1930E+00  0.8341E+00
      3.996  0.1938E+00  0.8481E+00
      4.069  0.2022E+00  0.8627E+00
      4.141  0.2270E+00  0.8791E+00
      4.213  0.1366E+00  0.8890E+00
      4.285  0.8921E-01  0.8955E+00
      4.358  0.1547E+00  0.9067E+00
      4.430  0.1800E+00  0.9197E+00
      4.502  0.1871E+00  0.9332E+00
      4.575  0.1797E+00  0.9462E+00
      4.647  0.1734E+00  0.9587E+00
      4.719  0.1613E+00  0.9704E+00
      4.792  0.1769E+00  0.9832E+00
      4.864  0.1229E+00  0.9921E+00
      4.936  0.9199E-01  0.9987E+00
      5.008  0.1390E+00  0.1009E+01
      5.081  0.1106E+00  0.1017E+01
      5.153  0.7457E-01  0.1022E+01
      5.225  0.1156E+00  0.1030E+01
      5.298  0.1471E+00  0.1041E+01
      5.370  0.1434E+00  0.1052E+01
      5.442  0.1190E+00  0.1060E+01
      5.515  0.8389E-01  0.1066E+01
      5.587  0.1164E+00  0.1075E+01
      5.659  0.1061E+00  0.1082E+01
      5.731  0.9980E-01  0.1089E+01
      5.804  0.1066E+00  0.1097E+01
      5.876  0.9456E-01  0.1104E+01
      5.948  0.9190E-01  0.1111E+01
      6.021  0.6915E-01  0.1116E+01
      6.093  0.6871E-01  0.1121E+01
      6.165  0.2373E-01  0.1122E+01
      6.238  0.5815E-01  0.1127E+01
      6.310  0.1751E+00  0.1139E+01
      6.382  0.2646E+00  0.1158E+01
      6.454  0.3841E+00  0.1186E+01
      6.527  0.4923E+00  0.1222E+01
      6.599  0.4673E+00  0.1255E+01
      6.671  0.3868E+00  0.1283E+01
      6.744  0.3923E+00  0.1312E+01
      6.816  0.4262E+00  0.1343E+01
      6.888  0.4207E+00  0.1373E+01
      6.961  0.4257E+00  0.1404E+01
      7.033  0.4073E+00  0.1433E+01
      7.105  0.3537E+00  0.1459E+01
      7.177  0.2723E+00  0.1479E+01
      7.250  0.1955E+00  0.1493E+01
      7.322  0.9253E-01  0.1499E+01
      7.394  0.5449E-01  0.1503E+01
      7.467  0.7106E-01  0.1508E+01
      7.539  0.5198E-01  0.1512E+01
      7.611  0.7874E-01  0.1518E+01
      7.684  0.1341E+00  0.1528E+01
      7.756  0.1141E+00  0.1536E+01
      7.828  0.4598E-01  0.1539E+01
      7.900  0.8109E-02  0.1540E+01
      7.973  0.3443E-02  0.1540E+01
      8.045  0.3958E-02  0.1540E+01
      8.117  0.4414E-02  0.1541E+01
      8.190  0.2185E-03  0.1541E+01
      8.262  0.1808E-05  0.1541E+01
      8.334  0.8470E-03  0.1541E+01
      8.407  0.2136E-01  0.1542E+01
      8.479  0.6856E-01  0.1547E+01
      8.551  0.6544E-01  0.1552E+01
      8.623  0.1254E+00  0.1561E+01
      8.696  0.2616E+00  0.1580E+01
      8.768  0.2262E+00  0.1596E+01
      8.840  0.1660E+00  0.1608E+01
      8.913  0.1895E+00  0.1622E+01
      8.985  0.1519E+00  0.1633E+01
      9.057  0.1632E+00  0.1645E+01
      9.130  0.1822E+00  0.1658E+01
      9.202  0.1851E+00  0.1671E+01
      9.274  0.1470E+00  0.1682E+01
      9.346  0.1997E+00  0.1696E+01
      9.419  0.2063E+00  0.1711E+01
      9.491  0.2398E+00  0.1729E+01
      9.563  0.2214E+00  0.1745E+01
      9.636  0.1953E+00  0.1759E+01
      9.708  0.1555E+00  0.1770E+01
      9.780  0.1209E+00  0.1779E+01
      9.853  0.1091E+00  0.1787E+01
      9.925  0.1172E+00  0.1795E+01
      9.997  0.1255E+00  0.1804E+01
     10.069  0.8378E-01  0.1810E+01
     10.142  0.5812E-01  0.1814E+01
     10.214  0.4527E-01  0.1818E+01
     10.286  0.2419E-01  0.1819E+01
     10.359  0.6942E-02  0.1820E+01
     10.431  0.8332E-03  0.1820E+01
     10.503  0.3540E-05  0.1820E+01
     10.576  0.3025E-09  0.1820E+01
     10.648  0.4472E-15  0.1820E+01
     10.720  0.0000E+00  0.1820E+01
     10.792  0.0000E+00  0.1820E+01
     10.865  0.0000E+00  0.1820E+01
     10.937  0.0000E+00  0.1820E+01
     11.009  0.0000E+00  0.1820E+01
     11.082  0.0000E+00  0.1820E+01
     11.154  0.0000E+00  0.1820E+01
     11.226  0.0000E+00  0.1820E+01
     11.299  0.0000E+00  0.1820E+01
