   23   23  100    1
  0.1366837E+02  0.1079365E-08  0.5396824E-09  0.5396824E-09  0.5000000E-15
   1.0000000000000000E-004
  CAR 
 FeS2 Full Structural Relaxation (atoms +
    152     20     91
 
  0.1262379E-14  0.1262379E-14  0.1262379E-14  0.3125000E-01
      1         -9.405525   1.000000
      2         -8.583278   1.000000
      3         -8.498388   1.000000
      4         -7.389876   1.000000
      5         -7.349018   1.000000
      6         -7.288443   1.000000
      7         -7.259208   1.000000
      8         -7.215814   1.000000
      9         -5.044475   1.000000
     10         -5.005621   1.000000
     11         -4.800319   1.000000
     12         -4.799910   1.000000
     13         -4.335972   1.000000
     14         -4.272912   1.000000
     15         -4.209345   1.000000
     16         -3.377074   1.000000
     17          0.339155   1.000000
     18          0.363752   1.000000
     19          0.604160   1.000000
     20          0.645584   1.000000
     21          0.744027   1.000000
     22          0.967712   1.000000
     23          1.045030   1.000000
     24          1.394770   1.000000
     25          1.622144   1.000000
     26          1.644063   1.000000
     27          1.696513   1.000000
     28          1.726075   1.000000
     29          2.347116   1.000000
     30          2.399362   1.000000
     31          2.422833   1.000000
     32          2.484904   1.000000
     33          2.495523   1.000000
     34          2.669516   1.000000
     35          2.801195   1.000000
     36          2.899016   1.000000
     37          2.968865   1.000000
     38          3.328177   1.000000
     39          3.509319   1.000000
     40          3.519927   1.000000
     41          3.645956   1.000000
     42          3.708199   1.000000
     43          3.740546   1.000000
     44          3.943956   1.000000
     45          3.998566   1.000000
     46          4.015329   1.000000
     47          4.183138   1.000000
     48          4.416745   1.000000
     49          4.640828   1.000000
     50          4.767387   1.000000
     51          4.904756   1.000000
     52          4.976684   1.000000
     53          5.021076   1.000000
     54          5.078729   1.000000
     55          5.373178   1.000000
     56          5.485434   1.000000
     57          6.249819   1.000000
     58          6.287653   1.000000
     59          6.305637   1.000000
     60          6.391975   1.000000
     61          6.565363   1.000000
     62          6.600844   1.000000
     63          6.721030   1.000000
     64          6.756761   1.000000
     65          6.790411   1.000000
     66          6.817043   1.000000
     67          6.842951   1.000000
     68          6.853022   1.000000
     69          6.877662   1.000000
     70          6.918204   1.000000
     71          6.923511   1.000000
     72          7.056762   1.000000
     73          7.077843   1.000000
     74          7.122770   1.000000
     75          7.271947   1.000000
     76          7.624380   0.538761
     77          7.890654   0.000000
     78          8.048226   0.000000
     79          8.624780   0.000000
     80          8.672623   0.000000
     81          8.750996   0.000000
     82          8.770709   0.000000
     83          9.106191   0.000000
     84          9.233556   0.000000
     85          9.643253   0.000000
     86          9.683494   0.000000
     87          9.992428   0.000000
     88         10.042159   0.000000
     89         10.065814   0.000000
     90         10.225567   0.000000
     91         10.312626   0.000000
 
  0.5000000E+00  0.1262379E-14  0.1262379E-14  0.3125000E-01
      1         -9.273017   1.000000
      2         -9.057595   1.000000
      3         -7.779407   1.000000
      4         -7.748857   1.000000
      5         -7.336130   1.000000
      6         -7.333194   1.000000
      7         -7.269891   1.000000
      8         -7.224957   1.000000
      9         -5.027199   1.000000
     10         -4.967858   1.000000
     11         -4.890810   1.000000
     12         -4.692971   1.000000
     13         -4.510360   1.000000
     14         -4.317342   1.000000
     15         -3.827475   1.000000
     16         -3.594762   1.000000
     17          0.452792   1.000000
     18          0.462884   1.000000
     19          0.563159   1.000000
     20          0.592027   1.000000
     21          0.725636   1.000000
     22          0.986894   1.000000
     23          1.184328   1.000000
     24          1.218745   1.000000
     25          1.343539   1.000000
     26          1.470691   1.000000
     27          1.752120   1.000000
     28          1.949618   1.000000
     29          2.249732   1.000000
     30          2.399644   1.000000
     31          2.546216   1.000000
     32          2.565273   1.000000
     33          2.609701   1.000000
     34          2.623178   1.000000
     35          2.926369   1.000000
     36          3.011172   1.000000
     37          3.152904   1.000000
     38          3.344242   1.000000
     39          3.363665   1.000000
     40          3.510111   1.000000
     41          3.520405   1.000000
     42          3.590028   1.000000
     43          3.668941   1.000000
     44          3.860561   1.000000
     45          3.899683   1.000000
     46          3.935744   1.000000
     47          4.304250   1.000000
     48          4.355072   1.000000
     49          4.465290   1.000000
     50          4.637726   1.000000
     51          4.778958   1.000000
     52          4.810238   1.000000
     53          5.204742   1.000000
     54          5.331954   1.000000
     55          5.633123   1.000000
     56          5.757618   1.000000
     57          6.316179   1.000000
     58          6.335545   1.000000
     59          6.452036   1.000000
     60          6.551025   1.000000
     61          6.565420   1.000000
     62          6.590726   1.000000
     63          6.621509   1.000000
     64          6.679872   1.000000
     65          6.726776   1.000000
     66          6.767242   1.000000
     67          6.797319   1.000000
     68          6.807834   1.000000
     69          6.856175   1.000000
     70          6.900587   1.000000
     71          6.908909   1.000000
     72          6.983211   1.000000
     73          7.010490   1.000000
     74          7.111571   1.000000
     75          7.214244   1.000000
     76          7.640565   0.359243
     77          7.715740   0.006446
     78          8.389491   0.000000
     79          8.567561   0.000000
     80          8.580110   0.000000
     81          8.667327   0.000000
     82          8.752200   0.000000
     83          9.044062   0.000000
     84          9.492991   0.000000
     85          9.747384   0.000000
     86          9.859599   0.000000
     87          9.907116   0.000000
     88          9.967738   0.000000
     89         10.127413   0.000000
     90         10.206783   0.000000
     91         10.228260   0.000000
 
  0.1262379E-14  0.2500000E+00  0.1262379E-14  0.6250000E-01
      1         -9.183193   1.000000
      2         -8.393886   1.000000
      3         -8.335291   1.000000
      4         -7.760061   1.000000
      5         -7.448826   1.000000
      6         -7.407429   1.000000
      7         -7.297166   1.000000
      8         -7.271958   1.000000
      9         -4.998169   1.000000
     10         -4.955509   1.000000
     11         -4.862859   1.000000
     12         -4.714340   1.000000
     13         -4.431505   1.000000
     14         -4.311065   1.000000
     15         -4.198897   1.000000
     16         -3.670704   1.000000
     17          0.029909   1.000000
     18          0.109094   1.000000
     19          0.481525   1.000000
     20          0.609922   1.000000
     21          0.770100   1.000000
     22          0.865784   1.000000
     23          1.048345   1.000000
     24          1.304124   1.000000
     25          1.416784   1.000000
     26          1.672815   1.000000
     27          1.726265   1.000000
     28          1.987752   1.000000
     29          2.167128   1.000000
     30          2.339588   1.000000
     31          2.372339   1.000000
     32          2.603019   1.000000
     33          2.794808   1.000000
     34          2.828466   1.000000
     35          3.110710   1.000000
     36          3.316694   1.000000
     37          3.323115   1.000000
     38          3.398581   1.000000
     39          3.540068   1.000000
     40          3.625029   1.000000
     41          3.633981   1.000000
     42          3.726470   1.000000
     43          3.854937   1.000000
     44          3.907702   1.000000
     45          4.085919   1.000000
     46          4.148459   1.000000
     47          4.308166   1.000000
     48          4.405863   1.000000
     49          4.537359   1.000000
     50          4.689238   1.000000
     51          4.761839   1.000000
     52          5.234574   1.000000
     53          5.407611   1.000000
     54          5.553077   1.000000
     55          5.641980   1.000000
     56          5.741877   1.000000
     57          6.283515   1.000000
     58          6.435852   1.000000
     59          6.479549   1.000000
     60          6.537556   1.000000
     61          6.573197   1.000000
     62          6.602526   1.000000
     63          6.616160   1.000000
     64          6.690743   1.000000
     65          6.733134   1.000000
     66          6.753175   1.000000
     67          6.786543   1.000000
     68          6.824049   1.000000
     69          6.852045   1.000000
     70          6.947666   1.000000
     71          7.009724   1.000000
     72          7.039183   1.000000
     73          7.056903   1.000000
     74          7.140344   1.000000
     75          7.187553   1.000000
     76          7.628405   0.493396
     77          7.779606   0.000009
     78          8.416293   0.000000
     79          8.601801   0.000000
     80          8.663000   0.000000
     81          8.848898   0.000000
     82          8.937298   0.000000
     83          9.098370   0.000000
     84          9.279640   0.000000
     85          9.443754   0.000000
     86          9.602440   0.000000
     87          9.677003   0.000000
     88          9.871767   0.000000
     89          9.889226   0.000000
     90          9.913403   0.000000
     91         10.205732   0.000000
 
  0.1262379E-14  0.1262379E-14  0.2500000E+00  0.6250000E-01
      1         -9.181948   1.000000
      2         -8.391898   1.000000
      3         -8.328935   1.000000
      4         -7.769617   1.000000
      5         -7.453603   1.000000
      6         -7.404408   1.000000
      7         -7.286008   1.000000
      8         -7.280028   1.000000
      9         -4.961841   1.000000
     10         -4.939688   1.000000
     11         -4.840079   1.000000
     12         -4.737214   1.000000
     13         -4.429786   1.000000
     14         -4.386387   1.000000
     15         -4.210524   1.000000
     16         -3.664663   1.000000
     17          0.359882   1.000000
     18          0.403264   1.000000
     19          0.443646   1.000000
     20          0.513515   1.000000
     21          0.620128   1.000000
     22          0.713346   1.000000
     23          1.048473   1.000000
     24          1.289993   1.000000
     25          1.298852   1.000000
     26          1.377420   1.000000
     27          1.414277   1.000000
     28          1.918314   1.000000
     29          2.352514   1.000000
     30          2.450752   1.000000
     31          2.539475   1.000000
     32          2.741324   1.000000
     33          2.795451   1.000000
     34          2.864097   1.000000
     35          3.095042   1.000000
     36          3.303814   1.000000
     37          3.363841   1.000000
     38          3.433107   1.000000
     39          3.511274   1.000000
     40          3.549462   1.000000
     41          3.670465   1.000000
     42          3.831827   1.000000
     43          3.858313   1.000000
     44          3.913469   1.000000
     45          3.943228   1.000000
     46          4.099407   1.000000
     47          4.379684   1.000000
     48          4.460045   1.000000
     49          4.595578   1.000000
     50          4.785387   1.000000
     51          4.833783   1.000000
     52          5.303502   1.000000
     53          5.373990   1.000000
     54          5.506217   1.000000
     55          5.670660   1.000000
     56          5.723614   1.000000
     57          6.240833   1.000000
     58          6.319176   1.000000
     59          6.408490   1.000000
     60          6.517468   1.000000
     61          6.538663   1.000000
     62          6.556533   1.000000
     63          6.624839   1.000000
     64          6.713736   1.000000
     65          6.754721   1.000000
     66          6.768326   1.000000
     67          6.802326   1.000000
     68          6.812850   1.000000
     69          6.863572   1.000000
     70          6.925394   1.000000
     71          6.973066   1.000000
     72          7.048118   1.000000
     73          7.062414   1.000000
     74          7.158157   1.000000
     75          7.242334   1.000000
     76          7.609033   0.702423
     77          7.774268   0.000017
     78          8.458321   0.000000
     79          8.580262   0.000000
     80          8.685544   0.000000
     81          8.708802   0.000000
     82          8.815509   0.000000
     83          8.981949   0.000000
     84          9.333759   0.000000
     85          9.355228   0.000000
     86          9.527022   0.000000
     87          9.570406   0.000000
     88          9.854174   0.000000
     89          9.940091   0.000000
     90         10.064317   0.000000
     91         10.133434   0.000000
 
  0.5000000E+00  0.2500000E+00  0.1262379E-14  0.6250000E-01
      1         -9.052765   1.000000
      2         -8.854181   1.000000
      3         -7.729598   1.000000
      4         -7.684798   1.000000
      5         -7.627939   1.000000
      6         -7.561340   1.000000
      7         -7.303415   1.000000
      8         -7.300124   1.000000
      9         -5.009798   1.000000
     10         -4.956187   1.000000
     11         -4.825178   1.000000
     12         -4.714678   1.000000
     13         -4.463774   1.000000
     14         -4.287539   1.000000
     15         -4.098668   1.000000
     16         -3.802220   1.000000
     17          0.194626   1.000000
     18          0.232635   1.000000
     19          0.434989   1.000000
     20          0.501965   1.000000
     21          0.665708   1.000000
     22          0.982625   1.000000
     23          1.155469   1.000000
     24          1.308233   1.000000
     25          1.520024   1.000000
     26          1.601723   1.000000
     27          1.717427   1.000000
     28          1.864155   1.000000
     29          1.956437   1.000000
     30          2.169179   1.000000
     31          2.253918   1.000000
     32          2.690674   1.000000
     33          2.785929   1.000000
     34          2.905904   1.000000
     35          3.184441   1.000000
     36          3.260581   1.000000
     37          3.354684   1.000000
     38          3.374118   1.000000
     39          3.445106   1.000000
     40          3.657345   1.000000
     41          3.696380   1.000000
     42          3.760595   1.000000
     43          3.875461   1.000000
     44          3.984299   1.000000
     45          4.084430   1.000000
     46          4.094592   1.000000
     47          4.361207   1.000000
     48          4.464995   1.000000
     49          4.549897   1.000000
     50          4.647703   1.000000
     51          4.836285   1.000000
     52          5.191699   1.000000
     53          5.380267   1.000000
     54          5.577816   1.000000
     55          5.799544   1.000000
     56          5.894774   1.000000
     57          6.387649   1.000000
     58          6.441155   1.000000
     59          6.461524   1.000000
     60          6.476225   1.000000
     61          6.536663   1.000000
     62          6.570348   1.000000
     63          6.623503   1.000000
     64          6.637361   1.000000
     65          6.685417   1.000000
     66          6.705741   1.000000
     67          6.780338   1.000000
     68          6.816689   1.000000
     69          6.893103   1.000000
     70          6.936274   1.000000
     71          6.975598   1.000000
     72          7.019355   1.000000
     73          7.035574   1.000000
     74          7.127163   1.000000
     75          7.215229   1.000000
     76          7.573600   0.937433
     77          7.664588   0.149182
     78          8.417903   0.000000
     79          8.649200   0.000000
     80          8.662665   0.000000
     81          8.835719   0.000000
     82          8.994715   0.000000
     83          9.018423   0.000000
     84          9.312701   0.000000
     85          9.409671   0.000000
     86          9.530693   0.000000
     87          9.592817   0.000000
     88          9.833792   0.000000
     89          9.944072   0.000000
     90          9.965468   0.000000
     91         10.109040   0.000000
 
  0.5000000E+00  0.1262379E-14  0.2500000E+00  0.6250000E-01
      1         -9.051279   1.000000
      2         -8.852671   1.000000
      3         -7.694284   1.000000
      4         -7.662548   1.000000
      5         -7.656267   1.000000
      6         -7.605344   1.000000
      7         -7.299839   1.000000
      8         -7.287201   1.000000
      9         -5.002002   1.000000
     10         -4.952930   1.000000
     11         -4.856456   1.000000
     12         -4.678072   1.000000
     13         -4.510323   1.000000
     14         -4.260165   1.000000
     15         -4.114449   1.000000
     16         -3.790914   1.000000
     17          0.206830   1.000000
     18          0.308335   1.000000
     19          0.348173   1.000000
     20          0.438736   1.000000
     21          0.731813   1.000000
     22          0.990414   1.000000
     23          1.154754   1.000000
     24          1.302402   1.000000
     25          1.475612   1.000000
     26          1.544215   1.000000
     27          1.750113   1.000000
     28          1.926762   1.000000
     29          1.954478   1.000000
     30          2.168451   1.000000
     31          2.333923   1.000000
     32          2.506740   1.000000
     33          2.777661   1.000000
     34          3.015105   1.000000
     35          3.173044   1.000000
     36          3.224218   1.000000
     37          3.331233   1.000000
     38          3.357263   1.000000
     39          3.447109   1.000000
     40          3.670671   1.000000
     41          3.690856   1.000000
     42          3.821580   1.000000
     43          3.904325   1.000000
     44          4.015753   1.000000
     45          4.099241   1.000000
     46          4.101992   1.000000
     47          4.367376   1.000000
     48          4.422715   1.000000
     49          4.509855   1.000000
     50          4.669555   1.000000
     51          4.787682   1.000000
     52          5.203879   1.000000
     53          5.316028   1.000000
     54          5.690644   1.000000
     55          5.871618   1.000000
     56          5.876941   1.000000
     57          6.377945   1.000000
     58          6.414192   1.000000
     59          6.462726   1.000000
     60          6.466671   1.000000
     61          6.525212   1.000000
     62          6.563947   1.000000
     63          6.623539   1.000000
     64          6.682617   1.000000
     65          6.710096   1.000000
     66          6.716331   1.000000
     67          6.759101   1.000000
     68          6.782706   1.000000
     69          6.862514   1.000000
     70          6.919968   1.000000
     71          6.968291   1.000000
     72          7.009899   1.000000
     73          7.066763   1.000000
     74          7.117216   1.000000
     75          7.230074   1.000000
     76          7.598820   0.793961
     77          7.645505   0.308469
     78          8.478477   0.000000
     79          8.596899   0.000000
     80          8.667460   0.000000
     81          8.857457   0.000000
     82          8.865129   0.000000
     83          9.146253   0.000000
     84          9.311121   0.000000
     85          9.441248   0.000000
     86          9.461303   0.000000
     87          9.587294   0.000000
     88          9.807499   0.000000
     89          9.945008   0.000000
     90         10.066869   0.000000
     91         10.163306   0.000000
 
  0.1262379E-14  0.5000000E+00  0.1262379E-14  0.3125000E-01
      1         -8.610165   1.000000
      2         -8.540499   1.000000
      3         -7.936352   1.000000
      4         -7.929697   1.000000
      5         -7.879315   1.000000
      6         -7.815304   1.000000
      7         -7.243330   1.000000
      8         -7.242955   1.000000
      9         -4.901103   1.000000
     10         -4.879209   1.000000
     11         -4.866109   1.000000
     12         -4.700335   1.000000
     13         -4.483535   1.000000
     14         -4.315821   1.000000
     15         -4.267867   1.000000
     16         -4.016524   1.000000
     17          0.152007   1.000000
     18          0.274019   1.000000
     19          0.304424   1.000000
     20          0.380661   1.000000
     21          0.385742   1.000000
     22          0.482599   1.000000
     23          0.732620   1.000000
     24          0.841166   1.000000
     25          1.424677   1.000000
     26          1.896639   1.000000
     27          2.043064   1.000000
     28          2.130985   1.000000
     29          2.226998   1.000000
     30          2.570335   1.000000
     31          2.695874   1.000000
     32          2.724705   1.000000
     33          2.817788   1.000000
     34          2.906323   1.000000
     35          3.372538   1.000000
     36          3.416346   1.000000
     37          3.482224   1.000000
     38          3.573656   1.000000
     39          3.607506   1.000000
     40          3.688089   1.000000
     41          3.941498   1.000000
     42          3.945038   1.000000
     43          4.024018   1.000000
     44          4.062492   1.000000
     45          4.087625   1.000000
     46          4.171229   1.000000
     47          4.430647   1.000000
     48          4.541909   1.000000
     49          4.652052   1.000000
     50          4.848556   1.000000
     51          4.964278   1.000000
     52          4.999931   1.000000
     53          5.245656   1.000000
     54          5.562172   1.000000
     55          5.651550   1.000000
     56          6.076478   1.000000
     57          6.233780   1.000000
     58          6.344333   1.000000
     59          6.347016   1.000000
     60          6.422383   1.000000
     61          6.569225   1.000000
     62          6.576620   1.000000
     63          6.723036   1.000000
     64          6.782980   1.000000
     65          6.829444   1.000000
     66          6.857612   1.000000
     67          6.863542   1.000000
     68          6.909640   1.000000
     69          6.937440   1.000000
     70          7.021901   1.000000
     71          7.049980   1.000000
     72          7.078774   1.000000
     73          7.112477   1.000000
     74          7.168218   1.000000
     75          7.341122   1.000000
     76          7.578215   0.919698
     77          7.740468   0.000721
     78          8.736225   0.000000
     79          8.769514   0.000000
     80          8.865153   0.000000
     81          8.942937   0.000000
     82          8.991223   0.000000
     83          8.996399   0.000000
     84          9.026611   0.000000
     85          9.036620   0.000000
     86          9.134643   0.000000
     87          9.362195   0.000000
     88          9.410996   0.000000
     89          9.639227   0.000000
     90          9.786999   0.000000
     91         10.002064   0.000000
 
  0.1262379E-14  0.1262379E-14  0.5000000E+00  0.3125000E-01
      1         -8.618490   1.000000
      2         -8.512202   1.000000
      3         -7.946371   1.000000
      4         -7.931531   1.000000
      5         -7.873022   1.000000
      6         -7.829130   1.000000
      7         -7.247393   1.000000
      8         -7.231031   1.000000
      9         -4.888140   1.000000
     10         -4.885583   1.000000
     11         -4.839456   1.000000
     12         -4.719015   1.000000
     13         -4.485007   1.000000
     14         -4.477056   1.000000
     15         -4.087568   1.000000
     16         -4.058494   1.000000
     17          0.142919   1.000000
     18          0.177846   1.000000
     19          0.222045   1.000000
     20          0.282643   1.000000
     21          0.553173   1.000000
     22          0.591851   1.000000
     23          0.667221   1.000000
     24          1.032856   1.000000
     25          1.393437   1.000000
     26          1.694299   1.000000
     27          2.061329   1.000000
     28          2.139292   1.000000
     29          2.363704   1.000000
     30          2.523536   1.000000
     31          2.638786   1.000000
     32          2.678026   1.000000
     33          2.835892   1.000000
     34          2.867814   1.000000
     35          3.313801   1.000000
     36          3.407988   1.000000
     37          3.522768   1.000000
     38          3.562119   1.000000
     39          3.677341   1.000000
     40          3.695714   1.000000
     41          3.910826   1.000000
     42          3.971900   1.000000
     43          4.033249   1.000000
     44          4.057826   1.000000
     45          4.103168   1.000000
     46          4.231195   1.000000
     47          4.451476   1.000000
     48          4.482129   1.000000
     49          4.734234   1.000000
     50          4.817376   1.000000
     51          4.882154   1.000000
     52          5.028289   1.000000
     53          5.245536   1.000000
     54          5.546209   1.000000
     55          5.767887   1.000000
     56          6.046880   1.000000
     57          6.253085   1.000000
     58          6.350349   1.000000
     59          6.428105   1.000000
     60          6.435915   1.000000
     61          6.546475   1.000000
     62          6.565897   1.000000
     63          6.749954   1.000000
     64          6.756507   1.000000
     65          6.815723   1.000000
     66          6.815912   1.000000
     67          6.877314   1.000000
     68          6.922296   1.000000
     69          6.926224   1.000000
     70          6.961757   1.000000
     71          7.017373   1.000000
     72          7.075359   1.000000
     73          7.128815   1.000000
     74          7.196734   1.000000
     75          7.346904   1.000000
     76          7.609980   0.693077
     77          7.721108   0.004163
     78          8.713545   0.000000
     79          8.821616   0.000000
     80          8.894591   0.000000
     81          8.965429   0.000000
     82          8.994911   0.000000
     83          9.006897   0.000000
     84          9.038982   0.000000
     85          9.052771   0.000000
     86          9.170539   0.000000
     87          9.281066   0.000000
     88          9.406413   0.000000
     89          9.623874   0.000000
     90          9.808135   0.000000
     91         10.041001   0.000000
 
  0.5000000E+00  0.5000000E+00  0.1262379E-14  0.3125000E-01
      1         -8.471458   1.000000
      2         -8.432400   1.000000
      3         -8.405498   1.000000
      4         -8.171174   1.000000
      5         -7.450029   1.000000
      6         -7.445443   1.000000
      7         -7.402617   1.000000
      8         -7.398812   1.000000
      9         -4.903906   1.000000
     10         -4.853813   1.000000
     11         -4.816567   1.000000
     12         -4.767449   1.000000
     13         -4.468854   1.000000
     14         -4.387625   1.000000
     15         -4.293240   1.000000
     16         -4.004812   1.000000
     17          0.298613   1.000000
     18          0.336065   1.000000
     19          0.430386   1.000000
     20          0.455863   1.000000
     21          0.497009   1.000000
     22          0.674156   1.000000
     23          0.832464   1.000000
     24          0.881311   1.000000
     25          1.234613   1.000000
     26          1.295737   1.000000
     27          1.313206   1.000000
     28          2.006662   1.000000
     29          2.465884   1.000000
     30          2.504661   1.000000
     31          2.520741   1.000000
     32          2.807356   1.000000
     33          3.306866   1.000000
     34          3.386362   1.000000
     35          3.422221   1.000000
     36          3.429414   1.000000
     37          3.458120   1.000000
     38          3.462482   1.000000
     39          3.639720   1.000000
     40          3.702448   1.000000
     41          3.794736   1.000000
     42          3.875438   1.000000
     43          3.887814   1.000000
     44          3.990956   1.000000
     45          3.997881   1.000000
     46          4.149786   1.000000
     47          4.476419   1.000000
     48          4.697123   1.000000
     49          4.763131   1.000000
     50          4.976204   1.000000
     51          5.011388   1.000000
     52          5.332508   1.000000
     53          5.467176   1.000000
     54          5.591455   1.000000
     55          5.717755   1.000000
     56          5.795770   1.000000
     57          6.191542   1.000000
     58          6.210202   1.000000
     59          6.368292   1.000000
     60          6.485638   1.000000
     61          6.509997   1.000000
     62          6.559917   1.000000
     63          6.631385   1.000000
     64          6.683497   1.000000
     65          6.774491   1.000000
     66          6.813851   1.000000
     67          6.817706   1.000000
     68          6.851054   1.000000
     69          6.940950   1.000000
     70          7.025455   1.000000
     71          7.076424   1.000000
     72          7.088571   1.000000
     73          7.124544   1.000000
     74          7.140695   1.000000
     75          7.284124   1.000000
     76          7.461241   0.999999
     77          7.755269   0.000156
     78          8.628219   0.000000
     79          8.641389   0.000000
     80          8.746192   0.000000
     81          8.754969   0.000000
     82          8.864100   0.000000
     83          9.077635   0.000000
     84          9.112469   0.000000
     85          9.264413   0.000000
     86          9.473586   0.000000
     87          9.488789   0.000000
     88          9.523788   0.000000
     89          9.543227   0.000000
     90          9.598083   0.000000
     91          9.819986   0.000000
 
  0.5000000E+00  0.1262379E-14  0.5000000E+00  0.3125000E-01
      1         -8.469121   1.000000
      2         -8.427943   1.000000
      3         -8.378566   1.000000
      4         -8.198221   1.000000
      5         -7.480856   1.000000
      6         -7.449885   1.000000
      7         -7.397048   1.000000
      8         -7.361068   1.000000
      9         -4.952986   1.000000
     10         -4.905636   1.000000
     11         -4.826233   1.000000
     12         -4.797693   1.000000
     13         -4.470830   1.000000
     14         -4.375156   1.000000
     15         -4.090902   1.000000
     16         -4.047450   1.000000
     17         -0.063013   1.000000
     18          0.012539   1.000000
     19          0.161855   1.000000
     20          0.206365   1.000000
     21          0.784484   1.000000
     22          0.806065   1.000000
     23          1.012478   1.000000
     24          1.313181   1.000000
     25          1.689872   1.000000
     26          1.714785   1.000000
     27          1.720350   1.000000
     28          2.043522   1.000000
     29          2.070778   1.000000
     30          2.120770   1.000000
     31          2.325686   1.000000
     32          2.586522   1.000000
     33          3.216486   1.000000
     34          3.333496   1.000000
     35          3.338088   1.000000
     36          3.425225   1.000000
     37          3.459697   1.000000
     38          3.465213   1.000000
     39          3.583650   1.000000
     40          3.673696   1.000000
     41          3.793962   1.000000
     42          3.857043   1.000000
     43          3.937713   1.000000
     44          4.064421   1.000000
     45          4.122073   1.000000
     46          4.155284   1.000000
     47          4.461898   1.000000
     48          4.593096   1.000000
     49          4.616447   1.000000
     50          4.829344   1.000000
     51          4.987074   1.000000
     52          5.330947   1.000000
     53          5.369562   1.000000
     54          5.668090   1.000000
     55          5.684647   1.000000
     56          5.985814   1.000000
     57          6.376111   1.000000
     58          6.474069   1.000000
     59          6.477362   1.000000
     60          6.538706   1.000000
     61          6.540417   1.000000
     62          6.583045   1.000000
     63          6.609038   1.000000
     64          6.693492   1.000000
     65          6.744270   1.000000
     66          6.757822   1.000000
     67          6.783967   1.000000
     68          6.873685   1.000000
     69          6.915610   1.000000
     70          6.932116   1.000000
     71          7.042757   1.000000
     72          7.086476   1.000000
     73          7.106264   1.000000
     74          7.170086   1.000000
     75          7.263319   1.000000
     76          7.492160   0.999938
     77          7.764939   0.000053
     78          8.686191   0.000000
     79          8.716075   0.000000
     80          8.725145   0.000000
     81          8.911864   0.000000
     82          9.125954   0.000000
     83          9.256790   0.000000
     84          9.263448   0.000000
     85          9.404142   0.000000
     86          9.415341   0.000000
     87          9.464252   0.000000
     88          9.505916   0.000000
     89          9.655820   0.000000
     90          9.681901   0.000000
     91         10.016826   0.000000
 
  0.1262379E-14  0.2500000E+00  0.2500000E+00  0.6250000E-01
      1         -8.969256   1.000000
      2         -8.225296   1.000000
      3         -8.179899   1.000000
      4         -7.698119   1.000000
      5         -7.594227   1.000000
      6         -7.529749   1.000000
      7         -7.473079   1.000000
      8         -7.299297   1.000000
      9         -5.117568   1.000000
     10         -5.051852   1.000000
     11         -4.948975   1.000000
     12         -4.748449   1.000000
     13         -4.498911   1.000000
     14         -4.401349   1.000000
     15         -4.179826   1.000000
     16         -4.001619   1.000000
     17          0.160804   1.000000
     18          0.230418   1.000000
     19          0.328222   1.000000
     20          0.479580   1.000000
     21          0.989010   1.000000
     22          1.038122   1.000000
     23          1.146505   1.000000
     24          1.242779   1.000000
     25          1.338649   1.000000
     26          1.406215   1.000000
     27          1.766309   1.000000
     28          1.888848   1.000000
     29          1.952601   1.000000
     30          2.311676   1.000000
     31          2.666152   1.000000
     32          2.680622   1.000000
     33          2.971430   1.000000
     34          3.076902   1.000000
     35          3.149043   1.000000
     36          3.225914   1.000000
     37          3.394955   1.000000
     38          3.462502   1.000000
     39          3.497272   1.000000
     40          3.674613   1.000000
     41          3.779719   1.000000
     42          3.869054   1.000000
     43          4.054581   1.000000
     44          4.151931   1.000000
     45          4.237046   1.000000
     46          4.345206   1.000000
     47          4.555230   1.000000
     48          4.563572   1.000000
     49          4.669305   1.000000
     50          4.766116   1.000000
     51          4.949415   1.000000
     52          5.181309   1.000000
     53          5.484795   1.000000
     54          5.511823   1.000000
     55          5.760567   1.000000
     56          5.997771   1.000000
     57          6.302860   1.000000
     58          6.417674   1.000000
     59          6.433005   1.000000
     60          6.441891   1.000000
     61          6.511971   1.000000
     62          6.550532   1.000000
     63          6.585569   1.000000
     64          6.634633   1.000000
     65          6.682736   1.000000
     66          6.698291   1.000000
     67          6.732054   1.000000
     68          6.812270   1.000000
     69          6.911424   1.000000
     70          6.929200   1.000000
     71          6.948974   1.000000
     72          7.022168   1.000000
     73          7.076291   1.000000
     74          7.116523   1.000000
     75          7.136261   1.000000
     76          7.473326   0.999994
     77          7.709548   0.010399
     78          8.497481   0.000000
     79          8.633276   0.000000
     80          8.843941   0.000000
     81          8.903391   0.000000
     82          9.038072   0.000000
     83          9.161660   0.000000
     84          9.205914   0.000000
     85          9.260586   0.000000
     86          9.337890   0.000000
     87          9.472122   0.000000
     88          9.658810   0.000000
     89          9.772937   0.000000
     90          9.905031   0.000000
     91         10.006764   0.000000
 
  0.1262379E-14 -0.2500000E+00  0.2500000E+00  0.6250000E-01
      1         -8.965717   1.000000
      2         -8.216966   1.000000
      3         -8.182741   1.000000
      4         -7.693174   1.000000
      5         -7.613926   1.000000
      6         -7.522223   1.000000
      7         -7.492311   1.000000
      8         -7.291360   1.000000
      9         -5.086880   1.000000
     10         -4.953290   1.000000
     11         -4.856918   1.000000
     12         -4.798908   1.000000
     13         -4.653013   1.000000
     14         -4.532425   1.000000
     15         -4.286590   1.000000
     16         -3.753173   1.000000
     17          0.239274   1.000000
     18          0.271934   1.000000
     19          0.334144   1.000000
     20          0.538085   1.000000
     21          0.699373   1.000000
     22          1.038085   1.000000
     23          1.164369   1.000000
     24          1.292091   1.000000
     25          1.331643   1.000000
     26          1.382144   1.000000
     27          1.579551   1.000000
     28          2.066302   1.000000
     29          2.171725   1.000000
     30          2.372361   1.000000
     31          2.599517   1.000000
     32          2.720180   1.000000
     33          2.870842   1.000000
     34          3.024098   1.000000
     35          3.093581   1.000000
     36          3.213657   1.000000
     37          3.316310   1.000000
     38          3.344825   1.000000
     39          3.438469   1.000000
     40          3.643900   1.000000
     41          3.765113   1.000000
     42          3.913774   1.000000
     43          4.047982   1.000000
     44          4.248136   1.000000
     45          4.289758   1.000000
     46          4.450255   1.000000
     47          4.526765   1.000000
     48          4.607574   1.000000
     49          4.731390   1.000000
     50          4.761250   1.000000
     51          4.865386   1.000000
     52          5.238143   1.000000
     53          5.363931   1.000000
     54          5.612213   1.000000
     55          5.658094   1.000000
     56          6.021639   1.000000
     57          6.330898   1.000000
     58          6.376635   1.000000
     59          6.434787   1.000000
     60          6.486837   1.000000
     61          6.507144   1.000000
     62          6.510320   1.000000
     63          6.584448   1.000000
     64          6.643267   1.000000
     65          6.650632   1.000000
     66          6.753510   1.000000
     67          6.772698   1.000000
     68          6.836568   1.000000
     69          6.866313   1.000000
     70          6.901639   1.000000
     71          6.957166   1.000000
     72          7.001581   1.000000
     73          7.055487   1.000000
     74          7.172433   1.000000
     75          7.263858   1.000000
     76          7.612032   0.672398
     77          7.718178   0.005298
     78          8.494544   0.000000
     79          8.642194   0.000000
     80          8.672542   0.000000
     81          8.901891   0.000000
     82          8.991257   0.000000
     83          9.079406   0.000000
     84          9.165286   0.000000
     85          9.310285   0.000000
     86          9.378728   0.000000
     87          9.553929   0.000000
     88          9.634974   0.000000
     89          9.700252   0.000000
     90          9.950341   0.000000
     91         10.017012   0.000000
 
  0.5000000E+00  0.2500000E+00  0.2500000E+00  0.6250000E-01
      1         -8.843418   1.000000
      2         -8.658899   1.000000
      3         -7.654988   1.000000
      4         -7.621856   1.000000
      5         -7.595864   1.000000
      6         -7.573319   1.000000
      7         -7.541051   1.000000
      8         -7.485929   1.000000
      9         -5.098462   1.000000
     10         -5.043014   1.000000
     11         -4.997167   1.000000
     12         -4.727497   1.000000
     13         -4.467738   1.000000
     14         -4.305724   1.000000
     15         -4.242094   1.000000
     16         -4.079378   1.000000
     17          0.169585   1.000000
     18          0.256661   1.000000
     19          0.449914   1.000000
     20          0.539133   1.000000
     21          0.592182   1.000000
     22          0.840150   1.000000
     23          1.285126   1.000000
     24          1.357033   1.000000
     25          1.612964   1.000000
     26          1.630693   1.000000
     27          1.782745   1.000000
     28          1.928959   1.000000
     29          2.051083   1.000000
     30          2.131307   1.000000
     31          2.545310   1.000000
     32          2.655201   1.000000
     33          2.740581   1.000000
     34          2.893084   1.000000
     35          3.059611   1.000000
     36          3.151793   1.000000
     37          3.369381   1.000000
     38          3.550362   1.000000
     39          3.671599   1.000000
     40          3.733430   1.000000
     41          3.936315   1.000000
     42          3.955367   1.000000
     43          4.053206   1.000000
     44          4.140625   1.000000
     45          4.226647   1.000000
     46          4.334229   1.000000
     47          4.376808   1.000000
     48          4.453875   1.000000
     49          4.543204   1.000000
     50          4.775687   1.000000
     51          5.146550   1.000000
     52          5.244607   1.000000
     53          5.266531   1.000000
     54          5.407762   1.000000
     55          5.934096   1.000000
     56          6.047778   1.000000
     57          6.424947   1.000000
     58          6.441842   1.000000
     59          6.462759   1.000000
     60          6.470738   1.000000
     61          6.512596   1.000000
     62          6.531943   1.000000
     63          6.546837   1.000000
     64          6.604610   1.000000
     65          6.679596   1.000000
     66          6.728123   1.000000
     67          6.847386   1.000000
     68          6.862389   1.000000
     69          6.872995   1.000000
     70          6.910132   1.000000
     71          6.982419   1.000000
     72          7.025327   1.000000
     73          7.040787   1.000000
     74          7.122398   1.000000
     75          7.175491   1.000000
     76          7.399284   1.000000
     77          7.641521   0.349187
     78          8.580226   0.000000
     79          8.791360   0.000000
     80          8.843100   0.000000
     81          8.908454   0.000000
     82          9.097371   0.000000
     83          9.119848   0.000000
     84          9.350110   0.000000
     85          9.387885   0.000000
     86          9.428288   0.000000
     87          9.467805   0.000000
     88          9.499700   0.000000
     89          9.589265   0.000000
     90          9.753593   0.000000
     91          9.941991   0.000000
 
  0.5000000E+00 -0.2500000E+00  0.2500000E+00  0.6250000E-01
      1         -8.837820   1.000000
      2         -8.658585   1.000000
      3         -7.669747   1.000000
      4         -7.620851   1.000000
      5         -7.594422   1.000000
      6         -7.564421   1.000000
      7         -7.533068   1.000000
      8         -7.504678   1.000000
      9         -5.106688   1.000000
     10         -4.962091   1.000000
     11         -4.889860   1.000000
     12         -4.741776   1.000000
     13         -4.668137   1.000000
     14         -4.403454   1.000000
     15         -4.341955   1.000000
     16         -3.820905   1.000000
     17          0.141644   1.000000
     18          0.211725   1.000000
     19          0.486923   1.000000
     20          0.559002   1.000000
     21          0.679250   1.000000
     22          0.774385   1.000000
     23          1.313979   1.000000
     24          1.457042   1.000000
     25          1.603408   1.000000
     26          1.656299   1.000000
     27          1.809092   1.000000
     28          1.839051   1.000000
     29          2.049405   1.000000
     30          2.198043   1.000000
     31          2.439858   1.000000
     32          2.516629   1.000000
     33          2.678925   1.000000
     34          2.855892   1.000000
     35          3.120244   1.000000
     36          3.150527   1.000000
     37          3.298951   1.000000
     38          3.463943   1.000000
     39          3.713584   1.000000
     40          3.802951   1.000000
     41          3.897525   1.000000
     42          4.023659   1.000000
     43          4.094858   1.000000
     44          4.144416   1.000000
     45          4.195015   1.000000
     46          4.302324   1.000000
     47          4.347215   1.000000
     48          4.490237   1.000000
     49          4.534207   1.000000
     50          4.891583   1.000000
     51          5.056928   1.000000
     52          5.233574   1.000000
     53          5.356506   1.000000
     54          5.516875   1.000000
     55          5.798322   1.000000
     56          6.043510   1.000000
     57          6.441025   1.000000
     58          6.456172   1.000000
     59          6.457742   1.000000
     60          6.484800   1.000000
     61          6.512443   1.000000
     62          6.513953   1.000000
     63          6.577113   1.000000
     64          6.597277   1.000000
     65          6.641679   1.000000
     66          6.696735   1.000000
     67          6.804038   1.000000
     68          6.869702   1.000000
     69          6.925968   1.000000
     70          6.936798   1.000000
     71          6.948413   1.000000
     72          7.017081   1.000000
     73          7.082002   1.000000
     74          7.126268   1.000000
     75          7.286317   1.000000
     76          7.504314   0.999761
     77          7.689295   0.041038
     78          8.461554   0.000000
     79          8.660008   0.000000
     80          8.884210   0.000000
     81          8.940724   0.000000
     82          9.052359   0.000000
     83          9.156303   0.000000
     84          9.303216   0.000000
     85          9.363615   0.000000
     86          9.429027   0.000000
     87          9.489989   0.000000
     88          9.516935   0.000000
     89          9.742667   0.000000
     90          9.779590   0.000000
     91          9.926552   0.000000
 
  0.1262379E-14  0.5000000E+00  0.2500000E+00  0.6250000E-01
      1         -8.419804   1.000000
      2         -8.360359   1.000000
      3         -7.844410   1.000000
      4         -7.834808   1.000000
      5         -7.781203   1.000000
      6         -7.766407   1.000000
      7         -7.432485   1.000000
      8         -7.414366   1.000000
      9         -5.131385   1.000000
     10         -5.072425   1.000000
     11         -5.054224   1.000000
     12         -4.834697   1.000000
     13         -4.741919   1.000000
     14         -4.439318   1.000000
     15         -4.382400   1.000000
     16         -3.991022   1.000000
     17          0.051661   1.000000
     18          0.096165   1.000000
     19          0.560118   1.000000
     20          0.620149   1.000000
     21          0.691114   1.000000
     22          0.737002   1.000000
     23          0.945818   1.000000
     24          1.084785   1.000000
     25          1.730759   1.000000
     26          1.983445   1.000000
     27          2.022848   1.000000
     28          2.047754   1.000000
     29          2.168027   1.000000
     30          2.221368   1.000000
     31          2.251355   1.000000
     32          2.678483   1.000000
     33          3.056014   1.000000
     34          3.235156   1.000000
     35          3.241393   1.000000
     36          3.312214   1.000000
     37          3.354318   1.000000
     38          3.513822   1.000000
     39          3.567605   1.000000
     40          3.686144   1.000000
     41          3.810640   1.000000
     42          4.084739   1.000000
     43          4.169127   1.000000
     44          4.342517   1.000000
     45          4.470359   1.000000
     46          4.560578   1.000000
     47          4.611423   1.000000
     48          4.715987   1.000000
     49          4.942457   1.000000
     50          4.973273   1.000000
     51          5.051326   1.000000
     52          5.300415   1.000000
     53          5.332531   1.000000
     54          5.507415   1.000000
     55          5.790219   1.000000
     56          5.902612   1.000000
     57          6.259049   1.000000
     58          6.348481   1.000000
     59          6.371875   1.000000
     60          6.448157   1.000000
     61          6.502253   1.000000
     62          6.521817   1.000000
     63          6.553515   1.000000
     64          6.637698   1.000000
     65          6.644432   1.000000
     66          6.692418   1.000000
     67          6.772844   1.000000
     68          6.791493   1.000000
     69          6.862054   1.000000
     70          6.941943   1.000000
     71          6.964537   1.000000
     72          6.988405   1.000000
     73          7.047052   1.000000
     74          7.161299   1.000000
     75          7.201975   1.000000
     76          7.426988   1.000000
     77          7.723617   0.003369
     78          8.653885   0.000000
     79          8.687437   0.000000
     80          8.729534   0.000000
     81          8.767291   0.000000
     82          8.900902   0.000000
     83          9.151300   0.000000
     84          9.230601   0.000000
     85          9.267378   0.000000
     86          9.416863   0.000000
     87          9.458585   0.000000
     88          9.461933   0.000000
     89          9.542148   0.000000
     90          9.672456   0.000000
     91          9.844702   0.000000
 
  0.1262379E-14 -0.2500000E+00  0.5000000E+00  0.6250000E-01
      1         -8.428848   1.000000
      2         -8.332442   1.000000
      3         -7.855999   1.000000
      4         -7.837543   1.000000
      5         -7.782661   1.000000
      6         -7.776495   1.000000
      7         -7.433246   1.000000
      8         -7.405754   1.000000
      9         -5.131845   1.000000
     10         -5.048690   1.000000
     11         -5.022235   1.000000
     12         -4.833158   1.000000
     13         -4.726145   1.000000
     14         -4.519549   1.000000
     15         -4.407096   1.000000
     16         -3.983868   1.000000
     17          0.323265   1.000000
     18          0.433205   1.000000
     19          0.536697   1.000000
     20          0.558998   1.000000
     21          0.621010   1.000000
     22          0.679337   1.000000
     23          0.728646   1.000000
     24          0.980032   1.000000
     25          1.293602   1.000000
     26          1.648000   1.000000
     27          2.069343   1.000000
     28          2.144465   1.000000
     29          2.239117   1.000000
     30          2.276784   1.000000
     31          2.551439   1.000000
     32          2.708466   1.000000
     33          3.114504   1.000000
     34          3.233165   1.000000
     35          3.248785   1.000000
     36          3.362346   1.000000
     37          3.395918   1.000000
     38          3.501317   1.000000
     39          3.627177   1.000000
     40          3.664521   1.000000
     41          3.861916   1.000000
     42          3.969269   1.000000
     43          4.197729   1.000000
     44          4.348682   1.000000
     45          4.400848   1.000000
     46          4.615056   1.000000
     47          4.636152   1.000000
     48          4.757956   1.000000
     49          4.941212   1.000000
     50          5.051240   1.000000
     51          5.159849   1.000000
     52          5.250368   1.000000
     53          5.363629   1.000000
     54          5.563435   1.000000
     55          5.753060   1.000000
     56          5.900068   1.000000
     57          6.265440   1.000000
     58          6.289131   1.000000
     59          6.334544   1.000000
     60          6.353304   1.000000
     61          6.463964   1.000000
     62          6.515724   1.000000
     63          6.541568   1.000000
     64          6.572610   1.000000
     65          6.650314   1.000000
     66          6.682119   1.000000
     67          6.756054   1.000000
     68          6.796921   1.000000
     69          6.848739   1.000000
     70          6.944310   1.000000
     71          6.996273   1.000000
     72          7.023460   1.000000
     73          7.076711   1.000000
     74          7.161508   1.000000
     75          7.200068   1.000000
     76          7.440125   1.000000
     77          7.683316   0.058248
     78          8.637449   0.000000
     79          8.711826   0.000000
     80          8.730513   0.000000
     81          8.765670   0.000000
     82          8.849270   0.000000
     83          8.881273   0.000000
     84          9.158900   0.000000
     85          9.280062   0.000000
     86          9.426352   0.000000
     87          9.474783   0.000000
     88          9.503300   0.000000
     89          9.541013   0.000000
     90          9.568715   0.000000
     91          9.678245   0.000000
 
  0.5000000E+00  0.5000000E+00  0.2500000E+00  0.6250000E-01
      1         -8.298074   1.000000
      2         -8.258035   1.000000
      3         -8.234923   1.000000
      4         -8.036070   1.000000
      5         -7.528186   1.000000
      6         -7.515762   1.000000
      7         -7.492433   1.000000
      8         -7.472719   1.000000
      9         -5.147004   1.000000
     10         -5.062849   1.000000
     11         -5.001527   1.000000
     12         -4.834332   1.000000
     13         -4.692398   1.000000
     14         -4.535408   1.000000
     15         -4.435093   1.000000
     16         -3.994595   1.000000
     17          0.159532   1.000000
     18          0.231456   1.000000
     19          0.344626   1.000000
     20          0.507430   1.000000
     21          1.046118   1.000000
     22          1.068320   1.000000
     23          1.114542   1.000000
     24          1.200071   1.000000
     25          1.232215   1.000000
     26          1.343784   1.000000
     27          1.604569   1.000000
     28          1.753934   1.000000
     29          2.526259   1.000000
     30          2.579773   1.000000
     31          2.782445   1.000000
     32          2.912000   1.000000
     33          2.937453   1.000000
     34          3.086519   1.000000
     35          3.206744   1.000000
     36          3.235514   1.000000
     37          3.296515   1.000000
     38          3.424094   1.000000
     39          3.586702   1.000000
     40          3.739593   1.000000
     41          3.982830   1.000000
     42          4.034149   1.000000
     43          4.080950   1.000000
     44          4.372073   1.000000
     45          4.463186   1.000000
     46          4.560691   1.000000
     47          4.620547   1.000000
     48          4.686816   1.000000
     49          4.729333   1.000000
     50          5.000569   1.000000
     51          5.032464   1.000000
     52          5.113528   1.000000
     53          5.398624   1.000000
     54          5.608911   1.000000
     55          5.814119   1.000000
     56          5.943577   1.000000
     57          6.276993   1.000000
     58          6.349626   1.000000
     59          6.403744   1.000000
     60          6.454786   1.000000
     61          6.483769   1.000000
     62          6.515730   1.000000
     63          6.546238   1.000000
     64          6.578145   1.000000
     65          6.642343   1.000000
     66          6.682765   1.000000
     67          6.744870   1.000000
     68          6.810536   1.000000
     69          6.879554   1.000000
     70          6.975723   1.000000
     71          6.984058   1.000000
     72          7.015810   1.000000
     73          7.084624   1.000000
     74          7.168344   1.000000
     75          7.240059   1.000000
     76          7.376819   1.000000
     77          7.692961   0.032705
     78          8.637851   0.000000
     79          8.678918   0.000000
     80          8.729003   0.000000
     81          8.996159   0.000000
     82          9.116570   0.000000
     83          9.139539   0.000000
     84          9.185115   0.000000
     85          9.260608   0.000000
     86          9.292925   0.000000
     87          9.357601   0.000000
     88          9.600076   0.000000
     89          9.672292   0.000000
     90          9.703925   0.000000
     91          9.760659   0.000000
 
  0.5000000E+00 -0.2500000E+00  0.5000000E+00  0.6250000E-01
      1         -8.299182   1.000000
      2         -8.250948   1.000000
      3         -8.205764   1.000000
      4         -8.067875   1.000000
      5         -7.562685   1.000000
      6         -7.515274   1.000000
      7         -7.473219   1.000000
      8         -7.457441   1.000000
      9         -5.101565   1.000000
     10         -5.048386   1.000000
     11         -5.004380   1.000000
     12         -4.942134   1.000000
     13         -4.668342   1.000000
     14         -4.519533   1.000000
     15         -4.435160   1.000000
     16         -3.989478   1.000000
     17          0.217257   1.000000
     18          0.256357   1.000000
     19          0.324235   1.000000
     20          0.391071   1.000000
     21          1.026818   1.000000
     22          1.068360   1.000000
     23          1.153158   1.000000
     24          1.249130   1.000000
     25          1.295263   1.000000
     26          1.351557   1.000000
     27          1.530077   1.000000
     28          1.705621   1.000000
     29          2.527476   1.000000
     30          2.582690   1.000000
     31          2.740398   1.000000
     32          2.913437   1.000000
     33          2.990690   1.000000
     34          3.093159   1.000000
     35          3.144639   1.000000
     36          3.298487   1.000000
     37          3.352288   1.000000
     38          3.384547   1.000000
     39          3.578933   1.000000
     40          3.674737   1.000000
     41          3.974462   1.000000
     42          4.074646   1.000000
     43          4.099384   1.000000
     44          4.345836   1.000000
     45          4.459896   1.000000
     46          4.568074   1.000000
     47          4.641481   1.000000
     48          4.707904   1.000000
     49          4.729214   1.000000
     50          4.812678   1.000000
     51          5.142630   1.000000
     52          5.247214   1.000000
     53          5.403076   1.000000
     54          5.553019   1.000000
     55          5.861412   1.000000
     56          5.954411   1.000000
     57          6.309335   1.000000
     58          6.333661   1.000000
     59          6.399648   1.000000
     60          6.426637   1.000000
     61          6.463318   1.000000
     62          6.489828   1.000000
     63          6.541882   1.000000
     64          6.600784   1.000000
     65          6.670636   1.000000
     66          6.686658   1.000000
     67          6.771499   1.000000
     68          6.837055   1.000000
     69          6.866607   1.000000
     70          6.890680   1.000000
     71          6.960264   1.000000
     72          7.029539   1.000000
     73          7.075573   1.000000
     74          7.174187   1.000000
     75          7.254979   1.000000
     76          7.403950   1.000000
     77          7.659018   0.188777
     78          8.651388   0.000000
     79          8.695770   0.000000
     80          8.784234   0.000000
     81          8.937975   0.000000
     82          9.111747   0.000000
     83          9.138808   0.000000
     84          9.177355   0.000000
     85          9.263086   0.000000
     86          9.315935   0.000000
     87          9.376119   0.000000
     88          9.588753   0.000000
     89          9.624830   0.000000
     90          9.707440   0.000000
     91          9.784322   0.000000
 
  0.1262379E-14  0.5000000E+00  0.5000000E+00  0.3125000E-01
      1         -7.973593   1.000000
      2         -7.934569   1.000000
      3         -7.933458   1.000000
      4         -7.815584   1.000000
      5         -7.742612   1.000000
      6         -7.726978   1.000000
      7         -7.704115   1.000000
      8         -7.663316   1.000000
      9         -5.381757   1.000000
     10         -5.273361   1.000000
     11         -5.228808   1.000000
     12         -4.936436   1.000000
     13         -4.882624   1.000000
     14         -4.571299   1.000000
     15         -4.537606   1.000000
     16         -4.008060   1.000000
     17          0.121291   1.000000
     18          0.263976   1.000000
     19          0.457793   1.000000
     20          0.512226   1.000000
     21          0.999623   1.000000
     22          1.047502   1.000000
     23          1.094118   1.000000
     24          1.240493   1.000000
     25          1.901158   1.000000
     26          1.973660   1.000000
     27          2.040940   1.000000
     28          2.117653   1.000000
     29          2.193902   1.000000
     30          2.242893   1.000000
     31          2.358105   1.000000
     32          2.398340   1.000000
     33          2.824787   1.000000
     34          2.868360   1.000000
     35          3.136265   1.000000
     36          3.357668   1.000000
     37          3.520274   1.000000
     38          3.561536   1.000000
     39          3.633539   1.000000
     40          3.901707   1.000000
     41          3.928296   1.000000
     42          3.996603   1.000000
     43          4.195993   1.000000
     44          4.905468   1.000000
     45          4.941236   1.000000
     46          4.950432   1.000000
     47          4.977047   1.000000
     48          5.017644   1.000000
     49          5.244805   1.000000
     50          5.262193   1.000000
     51          5.283216   1.000000
     52          5.349913   1.000000
     53          5.417275   1.000000
     54          5.614197   1.000000
     55          5.851185   1.000000
     56          6.028837   1.000000
     57          6.055512   1.000000
     58          6.080215   1.000000
     59          6.104573   1.000000
     60          6.176937   1.000000
     61          6.234619   1.000000
     62          6.330938   1.000000
     63          6.369727   1.000000
     64          6.404223   1.000000
     65          6.492905   1.000000
     66          6.642879   1.000000
     67          6.689875   1.000000
     68          6.768023   1.000000
     69          6.840943   1.000000
     70          6.895338   1.000000
     71          6.928994   1.000000
     72          6.929439   1.000000
     73          6.960814   1.000000
     74          7.095516   1.000000
     75          7.229248   1.000000
     76          7.367954   1.000000
     77          7.550504   0.985623
     78          8.474992   0.000000
     79          8.544948   0.000000
     80          8.725627   0.000000
     81          8.738047   0.000000
     82          8.971843   0.000000
     83          9.004994   0.000000
     84          9.044886   0.000000
     85          9.056253   0.000000
     86          9.119841   0.000000
     87          9.337330   0.000000
     88          9.417756   0.000000
     89          9.429192   0.000000
     90          9.563021   0.000000
     91          9.577883   0.000000
 
  0.5000000E+00  0.5000000E+00  0.5000000E+00  0.3125000E-01
      1         -7.933716   1.000000
      2         -7.852624   1.000000
      3         -7.844393   1.000000
      4         -7.833460   1.000000
      5         -7.832857   1.000000
      6         -7.801361   1.000000
      7         -7.751161   1.000000
      8         -7.687183   1.000000
      9         -5.159257   1.000000
     10         -5.140727   1.000000
     11         -5.127394   1.000000
     12         -5.117473   1.000000
     13         -4.784775   1.000000
     14         -4.778888   1.000000
     15         -4.705125   1.000000
     16         -4.020573   1.000000
     17          0.433261   1.000000
     18          0.495829   1.000000
     19          0.586056   1.000000
     20          0.633264   1.000000
     21          0.698000   1.000000
     22          0.763815   1.000000
     23          0.794341   1.000000
     24          1.122073   1.000000
     25          1.946053   1.000000
     26          2.033886   1.000000
     27          2.050027   1.000000
     28          2.075051   1.000000
     29          2.122988   1.000000
     30          2.304660   1.000000
     31          2.348564   1.000000
     32          2.675274   1.000000
     33          3.073004   1.000000
     34          3.141122   1.000000
     35          3.179860   1.000000
     36          3.190289   1.000000
     37          3.245820   1.000000
     38          3.356643   1.000000
     39          3.674643   1.000000
     40          4.113046   1.000000
     41          4.303774   1.000000
     42          4.352526   1.000000
     43          4.398002   1.000000
     44          4.464994   1.000000
     45          4.498298   1.000000
     46          4.696972   1.000000
     47          4.788674   1.000000
     48          4.967778   1.000000
     49          4.983043   1.000000
     50          5.010263   1.000000
     51          5.084135   1.000000
     52          5.152390   1.000000
     53          5.554919   1.000000
     54          5.663615   1.000000
     55          5.728395   1.000000
     56          5.856330   1.000000
     57          6.275549   1.000000
     58          6.277042   1.000000
     59          6.313370   1.000000
     60          6.343093   1.000000
     61          6.366727   1.000000
     62          6.403951   1.000000
     63          6.451449   1.000000
     64          6.522865   1.000000
     65          6.580560   1.000000
     66          6.609034   1.000000
     67          6.677031   1.000000
     68          6.751036   1.000000
     69          6.751498   1.000000
     70          6.839885   1.000000
     71          6.925130   1.000000
     72          6.994373   1.000000
     73          7.014039   1.000000
     74          7.171152   1.000000
     75          7.231414   1.000000
     76          7.244039   1.000000
     77          7.473033   0.999994
     78          8.663803   0.000000
     79          8.723099   0.000000
     80          8.772127   0.000000
     81          8.795817   0.000000
     82          8.855905   0.000000
     83          8.871172   0.000000
     84          9.066984   0.000000
     85          9.169143   0.000000
     86          9.371809   0.000000
     87          9.477730   0.000000
     88          9.491594   0.000000
     89          9.534369   0.000000
     90          9.553809   0.000000
     91          9.601082   0.000000
