 vasp.6.4.2 20Jul23 (build Mar  2 2025 11:04:54) complex                         
 executed on              LinuxNV date 2026.04.11  15:44:58
 running    1 mpi-ranks, with    2 threads/rank, on    1 nodes
 distrk:  each k-point on    1 cores,    1 groups
 distr:  one band on NCORE=   1 cores,    1 groups
 OpenACC runtime initialized ...    1 GPUs detected


--------------------------------------------------------------------------------------------------------


 INCAR:
   SYSTEM = static single-point for EOS
   PREC = Accurate
   ENCUT = 450
   KSPACING = 0.15
   KGAMMA = .TRUE.
   ISMEAR = 0
   SIGMA = 0.05
   EDIFF = 1E-6
   NSW = 0
   ISIF = 2
   IBRION = -1
   LWAVE = .FALSE.
   LCHARG = .FALSE.

 POTCAR:    PAW_PBE W 08Apr2002                   
 POTCAR:    PAW_PBE W 08Apr2002                   
   SHA256 =  c0897285f1b301314dcc12eb838ce8a777aa860795754598b0626cb818170117 W/POTCAR              
   COPYR  = (c) Copyright 08Apr2002 Georg Kresse                                                    
   COPYR  = This file is part of the software VASP. Any use, copying, and all other rights are regul
   COPYR  = If you do not have a valid VASP license, you may not use, copy or distribute this file. 
   VRHFIN =W : 6s5d                                                                                 
   LEXCH  = PE                                                                                      
   EATOM  =   204.6103 eV,   15.0384 Ry                                                             
                                                                                                    
   TITEL  = PAW_PBE W 08Apr2002                                                                     
   LULTRA =        F    use ultrasoft PP ?                                                          
   IUNSCR =        1    unscreen: 0-lin 1-nonlin 2-no                                               
   RPACOR =    2.330    partial core radius                                                         
   POMASS =  183.850; ZVAL   =    6.000    mass and valenz                                          
   RCORE  =    2.750    outmost cutoff radius                                                       
   RWIGS  =    2.750; RWIGS  =    1.455    wigner-seitz radius (au A)                               
   ENMAX  =  223.057; ENMIN  =  167.293 eV                                                          
   RCLOC  =    2.147    cutoff for local pot                                                        
   LCOR   =        T    correct aug charges                                                         
   LPAW   =        T    paw PP                                                                      
   EAUG   =  373.438                                                                                
   DEXC   =    0.000                                                                                
   RMAX   =    2.801    core radius for proj-oper                                                   
   RAUG   =    1.300    factor for augmentation sphere                                              
   RDEP   =    2.886    radius for radial grids                                                     
   RDEPT  =    2.230    core radius for aug-charge                                                  
                                                                                                    
   Atomic configuration                                                                             
   16 entries                                                                                       
     n  l   j            E        occ.                                                              
     1  0  0.50    -69465.5836   2.0000                                                             
     2  0  0.50    -11986.2642   2.0000                                                             
     2  1  1.50    -10479.8616   6.0000                                                             
     3  0  0.50     -2759.0758   2.0000                                                             
     3  1  1.50     -2313.1857   6.0000                                                             
     3  2  2.50     -1801.1185  10.0000                                                             
     4  0  0.50      -567.6791   2.0000                                                             
     4  1  1.50      -421.4694   6.0000                                                             
     4  2  2.50      -236.3473  10.0000                                                             
     4  3  3.50       -31.2666  14.0000                                                             
     5  0  0.50       -77.1085   2.0000                                                             
     5  1  1.50       -41.3856   6.0000                                                             
     5  2  2.50        -3.3185   5.0000                                                             
     6  0  0.50        -5.1438   1.0000                                                             
     6  1  0.50        -3.8096   0.0000                                                             
     5  3  2.50        -1.3606   0.0000                                                             
   Description                                                                                      
     l       E           TYP  RCUT    TYP  RCUT                                                     
     2     -3.3185288     23  2.500                                                                 
     2     -1.5965414     23  2.500                                                                 
     0     -5.1438054     23  2.500                                                                 
     0      4.9117504     23  2.500                                                                 
     1      2.7211652     23  2.750                                                                 
     1     27.2116520     23  2.750                                                                 
  local pseudopotential read in
  partial core-charges read in
  partial kinetic energy density read in
  atomic valenz-charges read in
  non local Contribution for L=            2  read in
    real space projection operators read in
  non local Contribution for L=            2  read in
    real space projection operators read in
  non local Contribution for L=            0  read in
    real space projection operators read in
  non local Contribution for L=            0  read in
    real space projection operators read in
  non local Contribution for L=            1  read in
    real space projection operators read in
  non local Contribution for L=            1  read in
    real space projection operators read in
    PAW grid and wavefunctions read in
 
   number of l-projection  operators is LMAX  =            6
   number of lm-projection operators is LMMAX =           18
 
  PAW_PBE W 08Apr2002                   :
 energy of atom  1       EATOM= -204.6103
 kinetic energy error for atom=    0.0022 (will be added to EATOM!!)
 
 
 POSCAR: W1
  positions in direct lattice
  No initial velocities read in
 exchange correlation table for  LEXCH =        8
   RHO(1)=    0.500       N(1)  =     2000
   RHO(2)=  100.500       N(2)  =     4000
 


--------------------------------------------------------------------------------------------------------


 ion  position               nearest neighbor table
   1  0.000  0.000  0.000-
 
  LATTYP: Found a body centered cubic cell.
 ALAT       =     3.2971291155
  
  Lattice vectors:
  
 A1 = (   2.6920934456,   0.0000000000,  -0.9517998880)
 A2 = (  -1.3460467176,   2.3314214248,  -0.9517998880)
 A3 = (  -0.0000000000,  -0.0000000104,   2.8553975736)


Analysis of symmetry for initial positions (statically):
=====================================================================
 Subroutine PRICEL returns:
 Original cell was already a primitive cell.
 

 Routine SETGRP: Setting up the symmetry group for a 
 body centered cubic supercell.


 Subroutine GETGRP returns: Found 48 space group operations
 (whereof 48 operations were pure point group operations)
 out of a pool of 48 trial point group operations.


The static configuration has the point symmetry O_h .


Analysis of symmetry for dynamics (positions and initial velocities):
=====================================================================
 Subroutine PRICEL returns:
 Original cell was already a primitive cell.
 

 Routine SETGRP: Setting up the symmetry group for a 
 body centered cubic supercell.


 Subroutine GETGRP returns: Found 48 space group operations
 (whereof 48 operations were pure point group operations)
 out of a pool of 48 trial point group operations.


The dynamic configuration has the point symmetry O_h .


 Subroutine INISYM returns: Found 48 space group operations
 (whereof 48 operations are pure point group operations),
 and found     1 'primitive' translations


----------------------------------------------------------------------------------------

                                     Primitive cell                                     

  volume of cell :      17.9216

  direct lattice vectors                    reciprocal lattice vectors
     2.692093446  0.000000000 -0.951799888     0.371458131  0.214461441  0.000000001
    -1.346046718  2.331421425 -0.951799888     0.000000001  0.428922884  0.000000002
    -0.000000000 -0.000000010  2.855397574     0.123819468  0.214461599  0.350213929

  length of vectors
     2.855396671  2.855396759  2.855397574     0.428922899  0.428922884  0.428922876

  position of ions in fractional coordinates (direct lattice)
     0.000000000  0.000000000  0.000000000

  ion indices of the primitive-cell ions
   primitive index   ion index
                 1           1

----------------------------------------------------------------------------------------

 
 -----------------------------------------------------------------------------
|                                                                             |
|           W    W    AA    RRRRR   N    N  II  N    N   GGGG   !!!           |
|           W    W   A  A   R    R  NN   N  II  NN   N  G    G  !!!           |
|           W    W  A    A  R    R  N N  N  II  N N  N  G       !!!           |
|           W WW W  AAAAAA  RRRRR   N  N N  II  N  N N  G  GGG   !            |
|           WW  WW  A    A  R   R   N   NN  II  N   NN  G    G                |
|           W    W  A    A  R    R  N    N  II  N    N   GGGG   !!!           |
|                                                                             |
|     The requested file  could not be found or opened for reading            |
|     k-point information. Automatic k-point generation is used as a          |
|     fallback, which may lead to unwanted results.                           |
|                                                                             |
 -----------------------------------------------------------------------------

 

Automatic generation of k-mesh.
 Grid dimensions derived from KSPACING:
 generate k-points for:   18   18   18

 Generating k-lattice:

  Cartesian coordinates                     Fractional coordinates (reciprocal lattice)
     0.020636563  0.011914525  0.000000000     0.055555556  0.000000000 -0.000000000
     0.000000000  0.023829049  0.000000000     0.000000000  0.055555556  0.000000000
     0.006878859  0.011914533  0.019456329     0.000000000 -0.000000000  0.055555556

  Length of vectors
     0.023829050  0.023829049  0.023829049

  Shift w.r.t. Gamma in fractional coordinates (k-lattice)
     0.000000000  0.000000000  0.000000000

 
 Subroutine IBZKPT returns following result:
 ===========================================
 
 Found    195 irreducible k-points:
 
 Following reciprocal coordinates:
            Coordinates               Weight
  0.000000  0.000000  0.000000      1.000000
  0.055556  0.000000  0.000000     12.000000
  0.111111  0.000000  0.000000     12.000000
  0.166667  0.000000  0.000000     12.000000
  0.222222  0.000000  0.000000     12.000000
  0.277778  0.000000  0.000000     12.000000
  0.333333  0.000000  0.000000     12.000000
  0.388889  0.000000  0.000000     12.000000
  0.444444  0.000000  0.000000     12.000000
  0.500000  0.000000  0.000000      6.000000
  0.055556  0.055556  0.000000     24.000000
  0.111111  0.055556  0.000000     48.000000
  0.166667  0.055556  0.000000     48.000000
  0.222222  0.055556  0.000000     48.000000
  0.277778  0.055556  0.000000     48.000000
  0.333333  0.055556  0.000000     48.000000
  0.388889  0.055556  0.000000     48.000000
  0.444444  0.055556  0.000000     48.000000
  0.111111  0.111111  0.000000     24.000000
  0.166667  0.111111  0.000000     48.000000
  0.222222  0.111111  0.000000     48.000000
  0.277778  0.111111  0.000000     48.000000
  0.333333  0.111111  0.000000     48.000000
  0.388889  0.111111  0.000000     48.000000
  0.444444  0.111111  0.000000     24.000000
  0.166667  0.166667  0.000000     24.000000
  0.222222  0.166667  0.000000     48.000000
  0.277778  0.166667  0.000000     48.000000
  0.333333  0.166667  0.000000     48.000000
  0.388889  0.166667  0.000000     48.000000
  0.222222  0.222222  0.000000     24.000000
  0.277778  0.222222  0.000000     48.000000
  0.333333  0.222222  0.000000     48.000000
  0.388889  0.222222  0.000000     24.000000
  0.277778  0.277778  0.000000     24.000000
  0.333333  0.277778  0.000000     48.000000
  0.333333  0.333333  0.000000      8.000000
  0.055556  0.055556  0.055556      8.000000
  0.111111  0.055556  0.055556     24.000000
  0.166667  0.055556  0.055556     24.000000
  0.222222  0.055556  0.055556     24.000000
  0.277778  0.055556  0.055556     24.000000
  0.333333  0.055556  0.055556     24.000000
  0.388889  0.055556  0.055556     24.000000
  0.444444  0.055556  0.055556     12.000000
 -0.055556  0.055556  0.055556      6.000000
  0.111111  0.111111  0.055556     24.000000
  0.166667  0.111111  0.055556     48.000000
  0.222222  0.111111  0.055556     48.000000
  0.277778  0.111111  0.055556     48.000000
  0.333333  0.111111  0.055556     48.000000
  0.388889  0.111111  0.055556     48.000000
 -0.111111  0.111111  0.055556     24.000000
  0.166667  0.166667  0.055556     24.000000
  0.222222  0.166667  0.055556     48.000000
  0.277778  0.166667  0.055556     48.000000
  0.333333  0.166667  0.055556     48.000000
  0.388889  0.166667  0.055556     24.000000
 -0.166667  0.166667  0.055556     24.000000
 -0.111111  0.166667  0.055556     24.000000
  0.222222  0.222222  0.055556     24.000000
  0.277778  0.222222  0.055556     48.000000
  0.333333  0.222222  0.055556     48.000000
 -0.222222  0.222222  0.055556     24.000000
 -0.166667  0.222222  0.055556     48.000000
  0.277778  0.277778  0.055556     24.000000
  0.333333  0.277778  0.055556     24.000000
 -0.277778  0.277778  0.055556     24.000000
 -0.222222  0.277778  0.055556     48.000000
 -0.166667  0.277778  0.055556     24.000000
 -0.333333  0.333333  0.055556     24.000000
 -0.277778  0.333333  0.055556     48.000000
 -0.222222  0.333333  0.055556     48.000000
 -0.388889  0.388889  0.055556     24.000000
 -0.333333  0.388889  0.055556     48.000000
 -0.277778  0.388889  0.055556     48.000000
 -0.222222  0.388889  0.055556     24.000000
 -0.444444  0.444444  0.055556     24.000000
 -0.388889  0.444444  0.055556     48.000000
 -0.333333  0.444444  0.055556     48.000000
 -0.277778  0.444444  0.055556     48.000000
  0.500000  0.500000  0.055556     12.000000
 -0.444444  0.500000  0.055556     48.000000
 -0.388889  0.500000  0.055556     48.000000
 -0.333333  0.500000  0.055556     48.000000
 -0.277778  0.500000  0.055556     24.000000
 -0.444444 -0.444444  0.055556     24.000000
 -0.388889 -0.444444  0.055556     48.000000
 -0.333333 -0.444444  0.055556     48.000000
 -0.388889 -0.388889  0.055556     24.000000
 -0.333333 -0.388889  0.055556     24.000000
  0.111111  0.111111  0.111111      8.000000
  0.166667  0.111111  0.111111     24.000000
  0.222222  0.111111  0.111111     24.000000
  0.277778  0.111111  0.111111     24.000000
  0.333333  0.111111  0.111111     24.000000
  0.388889  0.111111  0.111111     12.000000
 -0.111111  0.111111  0.111111      6.000000
  0.166667  0.166667  0.111111     24.000000
  0.222222  0.166667  0.111111     48.000000
  0.277778  0.166667  0.111111     48.000000
  0.333333  0.166667  0.111111     48.000000
 -0.166667  0.166667  0.111111     24.000000
  0.222222  0.222222  0.111111     24.000000
  0.277778  0.222222  0.111111     48.000000
  0.333333  0.222222  0.111111     24.000000
 -0.222222  0.222222  0.111111     24.000000
 -0.166667  0.222222  0.111111     24.000000
  0.277778  0.277778  0.111111     24.000000
 -0.277778  0.277778  0.111111     24.000000
 -0.222222  0.277778  0.111111     48.000000
 -0.333333  0.333333  0.111111     24.000000
 -0.277778  0.333333  0.111111     48.000000
 -0.222222  0.333333  0.111111     24.000000
 -0.388889  0.388889  0.111111     24.000000
 -0.333333  0.388889  0.111111     48.000000
 -0.277778  0.388889  0.111111     48.000000
 -0.444444  0.444444  0.111111     24.000000
 -0.388889  0.444444  0.111111     48.000000
 -0.333333  0.444444  0.111111     48.000000
 -0.277778  0.444444  0.111111     24.000000
  0.500000  0.500000  0.111111     12.000000
 -0.444444  0.500000  0.111111     48.000000
 -0.388889  0.500000  0.111111     48.000000
 -0.333333  0.500000  0.111111     48.000000
 -0.444444 -0.444444  0.111111     24.000000
 -0.388889 -0.444444  0.111111     48.000000
 -0.333333 -0.444444  0.111111     24.000000
 -0.388889 -0.388889  0.111111     24.000000
  0.166667  0.166667  0.166667      8.000000
  0.222222  0.166667  0.166667     24.000000
  0.277778  0.166667  0.166667     24.000000
  0.333333  0.166667  0.166667     12.000000
 -0.166667  0.166667  0.166667      6.000000
  0.222222  0.222222  0.166667     24.000000
  0.277778  0.222222  0.166667     48.000000
 -0.222222  0.222222  0.166667     24.000000
  0.277778  0.277778  0.166667      8.000000
 -0.277778  0.277778  0.166667     24.000000
 -0.222222  0.277778  0.166667     24.000000
 -0.333333  0.333333  0.166667     24.000000
 -0.277778  0.333333  0.166667     48.000000
 -0.388889  0.388889  0.166667     24.000000
 -0.333333  0.388889  0.166667     48.000000
 -0.277778  0.388889  0.166667     24.000000
 -0.444444  0.444444  0.166667     24.000000
 -0.388889  0.444444  0.166667     48.000000
 -0.333333  0.444444  0.166667     48.000000
  0.500000  0.500000  0.166667     12.000000
 -0.444444  0.500000  0.166667     48.000000
 -0.388889  0.500000  0.166667     48.000000
 -0.333333  0.500000  0.166667     24.000000
 -0.444444 -0.444444  0.166667     24.000000
 -0.388889 -0.444444  0.166667     48.000000
 -0.388889 -0.388889  0.166667      8.000000
  0.222222  0.222222  0.222222      8.000000
  0.277778  0.222222  0.222222     12.000000
 -0.222222  0.222222  0.222222      6.000000
 -0.277778  0.277778  0.222222     24.000000
 -0.333333  0.333333  0.222222     24.000000
 -0.277778  0.333333  0.222222     24.000000
 -0.388889  0.388889  0.222222     24.000000
 -0.333333  0.388889  0.222222     48.000000
 -0.444444  0.444444  0.222222     24.000000
 -0.388889  0.444444  0.222222     48.000000
 -0.333333  0.444444  0.222222     24.000000
  0.500000  0.500000  0.222222     12.000000
 -0.444444  0.500000  0.222222     48.000000
 -0.388889  0.500000  0.222222     48.000000
 -0.444444 -0.444444  0.222222     24.000000
 -0.388889 -0.444444  0.222222     24.000000
 -0.277778  0.277778  0.277778      6.000000
 -0.333333  0.333333  0.277778     24.000000
 -0.388889  0.388889  0.277778     24.000000
 -0.333333  0.388889  0.277778     24.000000
 -0.444444  0.444444  0.277778     24.000000
 -0.388889  0.444444  0.277778     48.000000
  0.500000  0.500000  0.277778     12.000000
 -0.444444  0.500000  0.277778     48.000000
 -0.388889  0.500000  0.277778     24.000000
 -0.444444 -0.444444  0.277778     24.000000
 -0.333333  0.333333  0.333333      6.000000
 -0.388889  0.388889  0.333333     24.000000
 -0.444444  0.444444  0.333333     24.000000
 -0.388889  0.444444  0.333333     24.000000
  0.500000  0.500000  0.333333     12.000000
 -0.444444  0.500000  0.333333     48.000000
 -0.444444 -0.444444  0.333333      8.000000
 -0.388889  0.388889  0.388889      6.000000
 -0.444444  0.444444  0.388889     24.000000
  0.500000  0.500000  0.388889     12.000000
 -0.444444  0.500000  0.388889     24.000000
 -0.444444  0.444444  0.444444      6.000000
  0.500000  0.500000  0.444444     12.000000
  0.500000  0.500000  0.500000      1.000000
 
 Following cartesian coordinates:
            Coordinates               Weight
  0.000000  0.000000  0.000000      1.000000
  0.021462  0.012391  0.000000     12.000000
  0.042924  0.024782  0.000000     12.000000
  0.064386  0.037173  0.000000     12.000000
  0.085848  0.049564  0.000000     12.000000
  0.107310  0.061956  0.000000     12.000000
  0.128772  0.074347  0.000000     12.000000
  0.150234  0.086738  0.000000     12.000000
  0.171696  0.099129  0.000000     12.000000
  0.193158  0.111520  0.000000      6.000000
  0.021462  0.037173  0.000000     24.000000
  0.042924  0.049564  0.000000     48.000000
  0.064386  0.061956  0.000000     48.000000
  0.085848  0.074347  0.000000     48.000000
  0.107310  0.086738  0.000000     48.000000
  0.128772  0.099129  0.000000     48.000000
  0.150234  0.111520  0.000000     48.000000
  0.171696  0.123911  0.000000     48.000000
  0.042924  0.074347  0.000000     24.000000
  0.064386  0.086738  0.000000     48.000000
  0.085848  0.099129  0.000000     48.000000
  0.107310  0.111520  0.000000     48.000000
  0.128772  0.123911  0.000000     48.000000
  0.150234  0.136302  0.000000     48.000000
  0.171696  0.148693  0.000000     24.000000
  0.064386  0.111520  0.000000     24.000000
  0.085848  0.123911  0.000000     48.000000
  0.107310  0.136302  0.000000     48.000000
  0.128772  0.148693  0.000000     48.000000
  0.150234  0.161084  0.000000     48.000000
  0.085848  0.148693  0.000000     24.000000
  0.107310  0.161084  0.000000     48.000000
  0.128772  0.173475  0.000000     48.000000
  0.150234  0.185867  0.000000     24.000000
  0.107310  0.185867  0.000000     24.000000
  0.128772  0.198258  0.000000     48.000000
  0.128772  0.223040  0.000000      8.000000
  0.028616  0.049564  0.020235      8.000000
  0.050078  0.061956  0.020235     24.000000
  0.071540  0.074347  0.020235     24.000000
  0.093002  0.086738  0.020235     24.000000
  0.114464  0.099129  0.020235     24.000000
  0.135926  0.111520  0.020235     24.000000
  0.157388  0.123911  0.020235     24.000000
  0.178850  0.136302  0.020235     12.000000
 -0.014308  0.024782  0.020235      6.000000
  0.050078  0.086738  0.020235     24.000000
  0.071540  0.099129  0.020235     48.000000
  0.093002  0.111520  0.020235     48.000000
  0.114464  0.123911  0.020235     48.000000
  0.135926  0.136302  0.020235     48.000000
  0.157388  0.148693  0.020235     48.000000
 -0.035770  0.037173  0.020235     24.000000
  0.071540  0.123911  0.020235     24.000000
  0.093002  0.136302  0.020235     48.000000
  0.114464  0.148693  0.020235     48.000000
  0.135926  0.161084  0.020235     48.000000
  0.157388  0.173475  0.020235     24.000000
 -0.057232  0.049564  0.020235     24.000000
 -0.035770  0.061956  0.020235     24.000000
  0.093002  0.161084  0.020235     24.000000
  0.114464  0.173475  0.020235     48.000000
  0.135926  0.185867  0.020235     48.000000
 -0.078694  0.061956  0.020235     24.000000
 -0.057232  0.074347  0.020235     48.000000
  0.114464  0.198258  0.020235     24.000000
  0.135926  0.210649  0.020235     24.000000
 -0.100156  0.074347  0.020235     24.000000
 -0.078694  0.086738  0.020235     48.000000
 -0.057232  0.099129  0.020235     24.000000
 -0.121618  0.086738  0.020235     24.000000
 -0.100156  0.099129  0.020235     48.000000
 -0.078694  0.111520  0.020235     48.000000
 -0.143080  0.099129  0.020235     24.000000
 -0.121618  0.111520  0.020235     48.000000
 -0.100156  0.123911  0.020235     48.000000
 -0.078694  0.136302  0.020235     24.000000
 -0.164542  0.111520  0.020235     24.000000
 -0.143080  0.123911  0.020235     48.000000
 -0.121618  0.136302  0.020235     48.000000
 -0.100156  0.148693  0.020235     48.000000
  0.200312  0.346951  0.020235     12.000000
 -0.164542  0.136302  0.020235     48.000000
 -0.143080  0.148693  0.020235     48.000000
 -0.121618  0.161084  0.020235     48.000000
 -0.100156  0.173475  0.020235     24.000000
 -0.164542 -0.284995  0.020235     24.000000
 -0.143080 -0.272604  0.020235     48.000000
 -0.121618 -0.260213  0.020235     48.000000
 -0.143080 -0.247822  0.020235     24.000000
 -0.121618 -0.235431  0.020235     24.000000
  0.057232  0.099129  0.040469      8.000000
  0.078694  0.111520  0.040469     24.000000
  0.100156  0.123911  0.040469     24.000000
  0.121618  0.136302  0.040469     24.000000
  0.143080  0.148693  0.040469     24.000000
  0.164542  0.161084  0.040469     12.000000
 -0.028616  0.049564  0.040469      6.000000
  0.078694  0.136302  0.040469     24.000000
  0.100156  0.148693  0.040469     48.000000
  0.121618  0.161084  0.040469     48.000000
  0.143080  0.173475  0.040469     48.000000
 -0.050078  0.061956  0.040469     24.000000
  0.100156  0.173475  0.040469     24.000000
  0.121618  0.185867  0.040469     48.000000
  0.143080  0.198258  0.040469     24.000000
 -0.071540  0.074347  0.040469     24.000000
 -0.050078  0.086738  0.040469     24.000000
  0.121618  0.210649  0.040469     24.000000
 -0.093002  0.086738  0.040469     24.000000
 -0.071540  0.099129  0.040469     48.000000
 -0.114464  0.099129  0.040469     24.000000
 -0.093002  0.111520  0.040469     48.000000
 -0.071540  0.123911  0.040469     24.000000
 -0.135926  0.111520  0.040469     24.000000
 -0.114464  0.123911  0.040469     48.000000
 -0.093002  0.136302  0.040469     48.000000
 -0.157388  0.123911  0.040469     24.000000
 -0.135926  0.136302  0.040469     48.000000
 -0.114464  0.148693  0.040469     48.000000
 -0.093002  0.161084  0.040469     24.000000
  0.207466  0.359342  0.040469     12.000000
 -0.157388  0.148693  0.040469     48.000000
 -0.135926  0.161084  0.040469     48.000000
 -0.114464  0.173475  0.040469     48.000000
 -0.157388 -0.272604  0.040469     24.000000
 -0.135926 -0.260213  0.040469     48.000000
 -0.114464 -0.247822  0.040469     24.000000
 -0.135926 -0.235431  0.040469     24.000000
  0.085848  0.148693  0.060704      8.000000
  0.107310  0.161084  0.060704     24.000000
  0.128772  0.173476  0.060704     24.000000
  0.150234  0.185867  0.060704     12.000000
 -0.042924  0.074347  0.060704      6.000000
  0.107310  0.185867  0.060704     24.000000
  0.128772  0.198258  0.060704     48.000000
 -0.064386  0.086738  0.060704     24.000000
  0.128772  0.223040  0.060704      8.000000
 -0.085848  0.099129  0.060704     24.000000
 -0.064386  0.111520  0.060704     24.000000
 -0.107310  0.111520  0.060704     24.000000
 -0.085848  0.123911  0.060704     48.000000
 -0.128772  0.123911  0.060704     24.000000
 -0.107310  0.136302  0.060704     48.000000
 -0.085848  0.148693  0.060704     24.000000
 -0.150234  0.136302  0.060704     24.000000
 -0.128772  0.148693  0.060704     48.000000
 -0.107310  0.161084  0.060704     48.000000
  0.214620  0.371733  0.060704     12.000000
 -0.150234  0.161084  0.060704     48.000000
 -0.128772  0.173476  0.060704     48.000000
 -0.107310  0.185867  0.060704     24.000000
 -0.150234 -0.260213  0.060704     24.000000
 -0.128772 -0.247822  0.060704     48.000000
 -0.128772 -0.223040  0.060704      8.000000
  0.114464  0.198258  0.080938      8.000000
  0.135926  0.210649  0.080938     12.000000
 -0.057232  0.099129  0.080938      6.000000
 -0.078694  0.111520  0.080938     24.000000
 -0.100156  0.123911  0.080938     24.000000
 -0.078694  0.136302  0.080938     24.000000
 -0.121618  0.136302  0.080938     24.000000
 -0.100156  0.148693  0.080938     48.000000
 -0.143080  0.148693  0.080938     24.000000
 -0.121618  0.161084  0.080938     48.000000
 -0.100156  0.173476  0.080938     24.000000
  0.221774  0.384124  0.080938     12.000000
 -0.143080  0.173476  0.080938     48.000000
 -0.121618  0.185867  0.080938     48.000000
 -0.143080 -0.247822  0.080938     24.000000
 -0.121618 -0.235431  0.080938     24.000000
 -0.071540  0.123911  0.101173      6.000000
 -0.093002  0.136302  0.101173     24.000000
 -0.114464  0.148693  0.101173     24.000000
 -0.093002  0.161084  0.101173     24.000000
 -0.135926  0.161084  0.101173     24.000000
 -0.114464  0.173476  0.101173     48.000000
  0.228928  0.396515  0.101173     12.000000
 -0.135926  0.185867  0.101173     48.000000
 -0.114464  0.198258  0.101173     24.000000
 -0.135926 -0.235431  0.101173     24.000000
 -0.085848  0.148693  0.121407      6.000000
 -0.107310  0.161084  0.121407     24.000000
 -0.128772  0.173476  0.121407     24.000000
 -0.107310  0.185867  0.121407     24.000000
  0.236082  0.408907  0.121407     12.000000
 -0.128772  0.198258  0.121407     48.000000
 -0.128772 -0.223040  0.121407      8.000000
 -0.100156  0.173476  0.141642      6.000000
 -0.121618  0.185867  0.141642     24.000000
  0.243236  0.421298  0.141642     12.000000
 -0.121618  0.210649  0.141642     24.000000
 -0.114464  0.198258  0.161877      6.000000
  0.250390  0.433689  0.161877     12.000000
  0.257544  0.446080  0.182111      1.000000
 


--------------------------------------------------------------------------------------------------------




 Dimension of arrays:
   k-points           NKPTS =    195   k-points in BZ     NKDIM =    195   number of bands    NBANDS=      7
   number of dos      NEDOS =    301   number of ions     NIONS =      1
   non local maximal  LDIM  =      6   non local SUM 2l+1 LMDIM =     18
   total plane-waves  NPLWV =   8000
   max r-space proj   IRMAX =      1   max aug-charges    IRDMAX=  25677
   dimension x,y,z NGX =    20 NGY =   20 NGZ =   20
   dimension x,y,z NGXF=    40 NGYF=   40 NGZF=   40
   support grid    NGXF=    40 NGYF=   40 NGZF=   40
   ions per type =               1
   NGX,Y,Z   is equivalent  to a cutoff of  11.64, 11.64, 11.64 a.u.
   NGXF,Y,Z  is equivalent  to a cutoff of  23.29, 23.29, 23.29 a.u.

 SYSTEM =  static single-point for EOS             
 POSCAR =  W1                                      

 Startparameter for this run:
   NWRITE =      2    write-flag & timer
   PREC   = accura    normal or accurate (medium, high low for compatibility)
   ISTART =      0    job   : 0-new  1-cont  2-samecut
   ICHARG =      2    charge: 1-file 2-atom 10-const
   ISPIN  =      1    spin polarized calculation?
   LNONCOLLINEAR =      F non collinear calculations
   LSORBIT =      F    spin-orbit coupling
   INIWAV =      1    electr: 0-lowe 1-rand  2-diag
   LASPH  =      F    aspherical Exc in radial PAW
 Electronic Relaxation 1
   ENCUT  =  450.0 eV  33.07 Ry    5.75 a.u.   4.94  4.94  4.94*2*pi/ulx,y,z
   ENINI  =  450.0     initial cutoff
   ENAUG  =  373.4 eV  augmentation charge cutoff
   NELM   =     60;   NELMIN=  2; NELMDL= -5     # of ELM steps 
   EDIFF  = 0.1E-05   stopping-criterion for ELM
   LREAL  =      F    real-space projection
   NLSPLINE    = F    spline interpolate recip. space projectors
   LCOMPAT=      F    compatible to vasp.4.4
   GGA_COMPAT  = T    GGA compatible to vasp.4.4-vasp.4.6
   LMAXPAW     = -100 max onsite density
   LMAXMIX     =    2 max onsite mixed and CHGCAR
   VOSKOWN=      0    Vosko Wilk Nusair interpolation
   ROPT   =    0.00000
 Ionic relaxation
   EDIFFG = 0.1E-04   stopping-criterion for IOM
   NSW    =      0    number of steps for IOM
   NBLOCK =      1;   KBLOCK =      1    inner block; outer block 
   IBRION =     -1    ionic relax: 0-MD 1-quasi-New 2-CG
   NFREE  =      0    steps in history (QN), initial steepest desc. (CG)
   ISIF   =      2    stress and relaxation
   IWAVPR =     10    prediction:  0-non 1-charg 2-wave 3-comb
   ISYM   =      2    0-nonsym 1-usesym 2-fastsym
   LCORR  =      T    Harris-Foulkes like correction to forces

   POTIM  = 0.5000    time-step for ionic-motion
   TEIN   =    0.0    initial temperature
   TEBEG  =    0.0;   TEEND  =   0.0 temperature during run
   SMASS  =  -3.00    Nose mass-parameter (am)
   estimated Nose-frequenzy (Omega)   =  0.10E-29 period in steps = 0.13E+47 mass=  -0.186E-27a.u.
   SCALEE = 1.0000    scale energy and forces
   NPACO  =    256;   APACO  = 10.0  distance and # of slots for P.C.
   PSTRESS=    0.0 pullay stress

  Mass of Ions in am
   POMASS = 183.85
  Ionic Valenz
   ZVAL   =   6.00
  Atomic Wigner-Seitz radii
   RWIGS  =  -1.00
  virtual crystal weights 
   VCA    =   1.00
   NELECT =       6.0000    total number of electrons
   NUPDOWN=      -1.0000    fix difference up-down

 DOS related values:
   EMIN   =  10.00;   EMAX   =-10.00  energy-range for DOS
   EFERMI =   0.00;   METHOD = LEGACY      
   ISMEAR =     0;   SIGMA  =   0.05  broadening in eV -4-tet -1-fermi 0-gaus

 Electronic relaxation 2 (details)
   IALGO  =     38    algorithm
   LDIAG  =      T    sub-space diagonalisation (order eigenvalues)
   LSUBROT=      F    optimize rotation matrix (better conditioning)
   TURBO    =      0    0=normal 1=particle mesh
   IRESTART =      0    0=no restart 2=restart with 2 vectors
   NREBOOT  =      0    no. of reboots
   NMIN     =      0    reboot dimension
   EREF     =   0.00    reference energy to select bands
   IMIX   =      4    mixing-type and parameters
     AMIX     =   0.40;   BMIX     =  1.00
     AMIX_MAG =   1.60;   BMIX_MAG =  1.00
     AMIN     =   0.10
     WC   =   100.;   INIMIX=   1;  MIXPRE=   1;  MAXMIX= -45

 Intra band minimization:
   WEIMIN = 0.0000     energy-eigenvalue tresh-hold
   EBREAK =  0.36E-07  absolut break condition
   DEPER  =   0.30     relativ break condition  

   TIME   =   0.40     timestep for ELM

  volume/ion in A,a.u.               =      17.92       120.94
  Fermi-wavevector in a.u.,A,eV,Ry     =   1.136753  2.148152 17.581547  1.292207
  Thomas-Fermi vector in A             =   2.273458
 
 Write flags
   LWAVE        =      F    write WAVECAR
   LDOWNSAMPLE  =      F    k-point downsampling of WAVECAR
   LCHARG       =      F    write CHGCAR
   LVTOT        =      F    write LOCPOT, total local potential
   LVHAR        =      F    write LOCPOT, Hartree potential only
   LELF         =      F    write electronic localiz. function (ELF)
   LORBIT       =      0    0 simple, 1 ext, 2 COOP (PROOUT), +10 PAW based schemes


 Dipole corrections
   LMONO  =      F    monopole corrections only (constant potential shift)
   LDIPOL =      F    correct potential (dipole corrections)
   IDIPOL =      0    1-x, 2-y, 3-z, 4-all directions 
   EPSILON=  1.0000000 bulk dielectric constant

 Exchange correlation treatment:
   GGA     =    --    GGA type
   LEXCH   =     8    internal setting for exchange type
   LIBXC   =     F    Libxc                    
   VOSKOWN =     0    Vosko Wilk Nusair interpolation
   LHFCALC =     F    Hartree Fock is set to
   LHFONE  =     F    Hartree Fock one center treatment
   AEXX    =    0.0000 exact exchange contribution

 Linear response parameters
   LEPSILON=     F    determine dielectric tensor
   LRPA    =     F    only Hartree local field effects (RPA)
   LNABLA  =     F    use nabla operator in PAW spheres
   LVEL    =     F    velocity operator in full k-point grid
   CSHIFT  =0.1000    complex shift for real part using Kramers Kronig
   OMEGAMAX=  -1.0    maximum frequency
   DEG_THRESHOLD= 0.2000000E-02 threshold for treating states as degnerate
   RTIME   =   -0.100 relaxation time in fs
  (WPLASMAI=    0.000 imaginary part of plasma frequency in eV, 0.658/RTIME)
   DFIELD  = 0.0000000 0.0000000 0.0000000 field for delta impulse in time
 
  Optional k-point grid parameters
   LKPOINTS_OPT  =     F    use optional k-point grid
   KPOINTS_OPT_MODE=     1    mode for optional k-point grid
 
 Orbital magnetization related:
   ORBITALMAG=     F  switch on orbital magnetization
   LCHIMAG   =     F  perturbation theory with respect to B field
   DQ        =  0.001000  dq finite difference perturbation B field
   LLRAUG    =     F  two centre corrections for induced B field
   LBONE     =     F  B-component reconstruction in AE one-centre
   LVGVCALC  =     T  calculate vGv susceptibility
   LVGVAPPL  =     F  apply vGv susceptibility instead of pGv for G=0

 Random number generation:
   RANDOM_GENERATOR = DEFAULT
   PCG_SEED         = not used


--------------------------------------------------------------------------------------------------------


 Static calculation
 charge density and potential will be updated during run
 non-spin polarized calculation
 Variant of blocked Davidson
 Davidson routine will perform the subspace rotation
 perform sub-space diagonalisation
    after iterative eigenvector-optimisation
 modified Broyden-mixing scheme, WC =      100.0
 initial mixing is a Kerker type mixing with AMIX =  0.4000 and BMIX =      1.0000
 Hartree-type preconditioning will be used
 using additional bands             4
 reciprocal scheme for non local part
 use partial core corrections
 calculate Harris-corrections to forces 
   (improved forces if not selfconsistent)
 use gradient corrections 
 use of overlap-Matrix (Vanderbilt PP)
 Gauss-broadening in eV      SIGMA  =   0.05


--------------------------------------------------------------------------------------------------------


  energy-cutoff  :      450.00
  volume of cell :       17.92
      direct lattice vectors                 reciprocal lattice vectors
     2.692093446  0.000000000 -0.951799888     0.371458131  0.214461441  0.000000001
    -1.346046718  2.331421425 -0.951799888     0.000000001  0.428922884  0.000000002
    -0.000000000 -0.000000010  2.855397574     0.123819468  0.214461599  0.350213929

  length of vectors
     2.855396671  2.855396759  2.855397574     0.428922899  0.428922884  0.428922876


 
 k-points in units of 2pi/SCALE and weight: read from INCAR                         
   0.00000000  0.00000000  0.00000000       0.000
   0.02146203  0.01239111  0.00000000       0.002
   0.04292405  0.02478221  0.00000000       0.002
   0.06438608  0.03717332  0.00000000       0.002
   0.08584810  0.04956442  0.00000000       0.002
   0.10731013  0.06195553  0.00000000       0.002
   0.12877215  0.07434663  0.00000000       0.002
   0.15023418  0.08673774  0.00000000       0.002
   0.17169620  0.09912884  0.00000000       0.002
   0.19315823  0.11151995  0.00000000       0.001
   0.02146203  0.03717332  0.00000000       0.004
   0.04292405  0.04956442  0.00000000       0.008
   0.06438608  0.06195553  0.00000000       0.008
   0.08584810  0.07434663  0.00000000       0.008
   0.10731013  0.08673774  0.00000000       0.008
   0.12877215  0.09912884  0.00000000       0.008
   0.15023418  0.11151995  0.00000000       0.008
   0.17169620  0.12391106  0.00000000       0.008
   0.04292405  0.07434663  0.00000000       0.004
   0.06438608  0.08673774  0.00000000       0.008
   0.08584810  0.09912884  0.00000000       0.008
   0.10731013  0.11151995  0.00000000       0.008
   0.12877215  0.12391106  0.00000000       0.008
   0.15023418  0.13630216  0.00000000       0.008
   0.17169620  0.14869327  0.00000000       0.004
   0.06438608  0.11151995  0.00000000       0.004
   0.08584810  0.12391106  0.00000000       0.008
   0.10731013  0.13630216  0.00000000       0.008
   0.12877215  0.14869327  0.00000000       0.008
   0.15023418  0.16108437  0.00000000       0.008
   0.08584810  0.14869327  0.00000000       0.004
   0.10731013  0.16108437  0.00000000       0.008
   0.12877215  0.17347548  0.00000000       0.008
   0.15023418  0.18586658  0.00000000       0.004
   0.10731013  0.18586658  0.00000000       0.004
   0.12877215  0.19825769  0.00000000       0.008
   0.12877215  0.22303990  0.00000000       0.001
   0.02861604  0.04956443  0.02023458       0.001
   0.05007806  0.06195554  0.02023458       0.004
   0.07154009  0.07434664  0.02023458       0.004
   0.09300212  0.08673775  0.02023458       0.004
   0.11446414  0.09912885  0.02023458       0.004
   0.13592617  0.11151996  0.02023458       0.004
   0.15738819  0.12391106  0.02023458       0.004
   0.17885022  0.13630217  0.02023458       0.002
  -0.01430801  0.02478222  0.02023458       0.001
   0.05007806  0.08673775  0.02023458       0.004
   0.07154009  0.09912885  0.02023458       0.008
   0.09300212  0.11151996  0.02023458       0.008
   0.11446414  0.12391106  0.02023458       0.008
   0.13592617  0.13630217  0.02023458       0.008
   0.15738819  0.14869328  0.02023458       0.008
  -0.03577004  0.03717333  0.02023458       0.004
   0.07154009  0.12391106  0.02023458       0.004
   0.09300212  0.13630217  0.02023458       0.008
   0.11446414  0.14869328  0.02023458       0.008
   0.13592617  0.16108438  0.02023458       0.008
   0.15738819  0.17347549  0.02023458       0.004
  -0.05723206  0.04956443  0.02023458       0.004
  -0.03577004  0.06195554  0.02023458       0.004
   0.09300212  0.16108438  0.02023458       0.004
   0.11446414  0.17347549  0.02023458       0.008
   0.13592617  0.18586659  0.02023458       0.008
  -0.07869409  0.06195554  0.02023458       0.004
  -0.05723206  0.07434664  0.02023458       0.008
   0.11446414  0.19825770  0.02023458       0.004
   0.13592617  0.21064880  0.02023458       0.004
  -0.10015611  0.07434664  0.02023458       0.004
  -0.07869409  0.08673775  0.02023458       0.008
  -0.05723206  0.09912885  0.02023458       0.004
  -0.12161814  0.08673775  0.02023458       0.004
  -0.10015611  0.09912885  0.02023458       0.008
  -0.07869409  0.11151996  0.02023458       0.008
  -0.14308016  0.09912885  0.02023458       0.004
  -0.12161814  0.11151996  0.02023458       0.008
  -0.10015611  0.12391106  0.02023458       0.008
  -0.07869409  0.13630217  0.02023458       0.004
  -0.16454219  0.11151996  0.02023458       0.004
  -0.14308016  0.12391106  0.02023458       0.008
  -0.12161814  0.13630217  0.02023458       0.008
  -0.10015611  0.14869328  0.02023458       0.008
   0.20031224  0.34695096  0.02023458       0.002
  -0.16454219  0.13630217  0.02023458       0.008
  -0.14308016  0.14869328  0.02023458       0.008
  -0.12161814  0.16108438  0.02023458       0.008
  -0.10015611  0.17347549  0.02023458       0.004
  -0.16454219 -0.28499542  0.02023458       0.004
  -0.14308016 -0.27260431  0.02023458       0.008
  -0.12161814 -0.26021321  0.02023458       0.008
  -0.14308016 -0.24782210  0.02023458       0.004
  -0.12161814 -0.23543100  0.02023458       0.004
   0.05723208  0.09912886  0.04046917       0.001
   0.07869410  0.11151997  0.04046917       0.004
   0.10015613  0.12391107  0.04046917       0.004
   0.12161815  0.13630218  0.04046917       0.004
   0.14308018  0.14869328  0.04046917       0.004
   0.16454221  0.16108439  0.04046917       0.002
  -0.02861602  0.04956444  0.04046917       0.001
   0.07869410  0.13630218  0.04046917       0.004
   0.10015613  0.14869328  0.04046917       0.008
   0.12161815  0.16108439  0.04046917       0.008
   0.14308018  0.17347550  0.04046917       0.008
  -0.05007805  0.06195555  0.04046917       0.004
   0.10015613  0.17347550  0.04046917       0.004
   0.12161815  0.18586660  0.04046917       0.008
   0.14308018  0.19825771  0.04046917       0.004
  -0.07154007  0.07434665  0.04046917       0.004
  -0.05007805  0.08673776  0.04046917       0.004
   0.12161815  0.21064881  0.04046917       0.004
  -0.09300210  0.08673776  0.04046917       0.004
  -0.07154007  0.09912886  0.04046917       0.008
  -0.11446412  0.09912886  0.04046917       0.004
  -0.09300210  0.11151997  0.04046917       0.008
  -0.07154007  0.12391107  0.04046917       0.004
  -0.13592615  0.11151997  0.04046917       0.004
  -0.11446412  0.12391107  0.04046917       0.008
  -0.09300210  0.13630218  0.04046917       0.008
  -0.15738818  0.12391107  0.04046917       0.004
  -0.13592615  0.13630218  0.04046917       0.008
  -0.11446412  0.14869328  0.04046917       0.008
  -0.09300210  0.16108439  0.04046917       0.004
   0.20746626  0.35934208  0.04046917       0.002
  -0.15738818  0.14869329  0.04046917       0.008
  -0.13592615  0.16108439  0.04046917       0.008
  -0.11446412  0.17347550  0.04046917       0.008
  -0.15738818 -0.27260430  0.04046916       0.004
  -0.13592615 -0.26021320  0.04046916       0.008
  -0.11446413 -0.24782209  0.04046916       0.004
  -0.13592615 -0.23543099  0.04046916       0.004
   0.08584812  0.14869329  0.06070375       0.001
   0.10731014  0.16108440  0.06070375       0.004
   0.12877217  0.17347550  0.06070375       0.004
   0.15023419  0.18586661  0.06070375       0.002
  -0.04292403  0.07434666  0.06070375       0.001
   0.10731014  0.18586661  0.06070375       0.004
   0.12877217  0.19825772  0.06070375       0.008
  -0.06438606  0.08673777  0.06070375       0.004
   0.12877217  0.22303993  0.06070375       0.001
  -0.08584809  0.09912887  0.06070375       0.004
  -0.06438606  0.11151998  0.06070375       0.004
  -0.10731011  0.11151998  0.06070375       0.004
  -0.08584809  0.12391108  0.06070375       0.008
  -0.12877214  0.12391108  0.06070375       0.004
  -0.10731011  0.13630219  0.06070375       0.008
  -0.08584809  0.14869329  0.06070375       0.004
  -0.15023416  0.13630219  0.06070375       0.004
  -0.12877214  0.14869329  0.06070375       0.008
  -0.10731011  0.16108440  0.06070375       0.008
   0.21462027  0.37173319  0.06070375       0.002
  -0.15023416  0.16108440  0.06070375       0.008
  -0.12877214  0.17347551  0.06070375       0.008
  -0.10731011  0.18586661  0.06070375       0.004
  -0.15023416 -0.26021319  0.06070375       0.004
  -0.12877214 -0.24782208  0.06070375       0.008
  -0.12877214 -0.22303987  0.06070375       0.001
   0.11446416  0.19825772  0.08093833       0.001
   0.13592618  0.21064883  0.08093833       0.002
  -0.05723205  0.09912888  0.08093833       0.001
  -0.07869407  0.11151999  0.08093833       0.004
  -0.10015610  0.12391109  0.08093833       0.004
  -0.07869407  0.13630220  0.08093833       0.004
  -0.12161812  0.13630220  0.08093833       0.004
  -0.10015610  0.14869330  0.08093833       0.008
  -0.14308015  0.14869330  0.08093833       0.004
  -0.12161812  0.16108441  0.08093833       0.008
  -0.10015610  0.17347551  0.08093833       0.004
   0.22177428  0.38412431  0.08093833       0.002
  -0.14308015  0.17347551  0.08093833       0.008
  -0.12161812  0.18586662  0.08093833       0.008
  -0.14308015 -0.24782207  0.08093833       0.004
  -0.12161812 -0.23543097  0.08093833       0.004
  -0.07154006  0.12391110  0.10117291       0.001
  -0.09300208  0.13630221  0.10117291       0.004
  -0.11446411  0.14869331  0.10117291       0.004
  -0.09300208  0.16108442  0.10117291       0.004
  -0.13592613  0.16108442  0.10117291       0.004
  -0.11446411  0.17347552  0.10117291       0.008
   0.22892830  0.39651542  0.10117291       0.002
  -0.13592613  0.18586663  0.10117291       0.008
  -0.11446411  0.19825773  0.10117291       0.004
  -0.13592613 -0.23543096  0.10117291       0.004
  -0.08584807  0.14869332  0.12140750       0.001
  -0.10731010  0.16108443  0.12140750       0.004
  -0.12877212  0.17347553  0.12140750       0.004
  -0.10731010  0.18586664  0.12140750       0.004
   0.23608231  0.40890654  0.12140750       0.002
  -0.12877212  0.19825774  0.12140750       0.008
  -0.12877212 -0.22303985  0.12140749       0.001
  -0.10015608  0.17347554  0.14164208       0.001
  -0.12161811  0.18586665  0.14164208       0.004
   0.24323632  0.42129765  0.14164208       0.002
  -0.12161811  0.21064886  0.14164208       0.004
  -0.11446409  0.19825776  0.16187666       0.001
   0.25039034  0.43368877  0.16187666       0.002
   0.25754435  0.44607988  0.18211124       0.000
 
 k-points in reciprocal lattice and weights: read from INCAR                         
   0.00000000  0.00000000  0.00000000       0.000
   0.05555556  0.00000000  0.00000000       0.002
   0.11111111  0.00000000  0.00000000       0.002
   0.16666667  0.00000000  0.00000000       0.002
   0.22222222  0.00000000  0.00000000       0.002
   0.27777778  0.00000000  0.00000000       0.002
   0.33333333  0.00000000  0.00000000       0.002
   0.38888889  0.00000000  0.00000000       0.002
   0.44444444  0.00000000  0.00000000       0.002
   0.50000000  0.00000000  0.00000000       0.001
   0.05555556  0.05555556  0.00000000       0.004
   0.11111111  0.05555556  0.00000000       0.008
   0.16666667  0.05555556  0.00000000       0.008
   0.22222222  0.05555556  0.00000000       0.008
   0.27777778  0.05555556  0.00000000       0.008
   0.33333333  0.05555556  0.00000000       0.008
   0.38888889  0.05555556  0.00000000       0.008
   0.44444444  0.05555556  0.00000000       0.008
   0.11111111  0.11111111  0.00000000       0.004
   0.16666667  0.11111111  0.00000000       0.008
   0.22222222  0.11111111  0.00000000       0.008
   0.27777778  0.11111111  0.00000000       0.008
   0.33333333  0.11111111  0.00000000       0.008
   0.38888889  0.11111111  0.00000000       0.008
   0.44444444  0.11111111  0.00000000       0.004
   0.16666667  0.16666667  0.00000000       0.004
   0.22222222  0.16666667  0.00000000       0.008
   0.27777778  0.16666667  0.00000000       0.008
   0.33333333  0.16666667  0.00000000       0.008
   0.38888889  0.16666667  0.00000000       0.008
   0.22222222  0.22222222  0.00000000       0.004
   0.27777778  0.22222222  0.00000000       0.008
   0.33333333  0.22222222  0.00000000       0.008
   0.38888889  0.22222222  0.00000000       0.004
   0.27777778  0.27777778  0.00000000       0.004
   0.33333333  0.27777778  0.00000000       0.008
   0.33333333  0.33333333  0.00000000       0.001
   0.05555556  0.05555556  0.05555556       0.001
   0.11111111  0.05555556  0.05555556       0.004
   0.16666667  0.05555556  0.05555556       0.004
   0.22222222  0.05555556  0.05555556       0.004
   0.27777778  0.05555556  0.05555556       0.004
   0.33333333  0.05555556  0.05555556       0.004
   0.38888889  0.05555556  0.05555556       0.004
   0.44444444  0.05555556  0.05555556       0.002
  -0.05555556  0.05555556  0.05555556       0.001
   0.11111111  0.11111111  0.05555556       0.004
   0.16666667  0.11111111  0.05555556       0.008
   0.22222222  0.11111111  0.05555556       0.008
   0.27777778  0.11111111  0.05555556       0.008
   0.33333333  0.11111111  0.05555556       0.008
   0.38888889  0.11111111  0.05555556       0.008
  -0.11111111  0.11111111  0.05555556       0.004
   0.16666667  0.16666667  0.05555556       0.004
   0.22222222  0.16666667  0.05555556       0.008
   0.27777778  0.16666667  0.05555556       0.008
   0.33333333  0.16666667  0.05555556       0.008
   0.38888889  0.16666667  0.05555556       0.004
  -0.16666667  0.16666667  0.05555556       0.004
  -0.11111111  0.16666667  0.05555556       0.004
   0.22222222  0.22222222  0.05555556       0.004
   0.27777778  0.22222222  0.05555556       0.008
   0.33333333  0.22222222  0.05555556       0.008
  -0.22222222  0.22222222  0.05555556       0.004
  -0.16666667  0.22222222  0.05555556       0.008
   0.27777778  0.27777778  0.05555556       0.004
   0.33333333  0.27777778  0.05555556       0.004
  -0.27777778  0.27777778  0.05555556       0.004
  -0.22222222  0.27777778  0.05555556       0.008
  -0.16666667  0.27777778  0.05555556       0.004
  -0.33333333  0.33333333  0.05555556       0.004
  -0.27777778  0.33333333  0.05555556       0.008
  -0.22222222  0.33333333  0.05555556       0.008
  -0.38888889  0.38888889  0.05555556       0.004
  -0.33333333  0.38888889  0.05555556       0.008
  -0.27777778  0.38888889  0.05555556       0.008
  -0.22222222  0.38888889  0.05555556       0.004
  -0.44444444  0.44444444  0.05555556       0.004
  -0.38888889  0.44444444  0.05555556       0.008
  -0.33333333  0.44444444  0.05555556       0.008
  -0.27777778  0.44444444  0.05555556       0.008
   0.50000000  0.50000000  0.05555556       0.002
  -0.44444444  0.50000000  0.05555556       0.008
  -0.38888889  0.50000000  0.05555556       0.008
  -0.33333333  0.50000000  0.05555556       0.008
  -0.27777778  0.50000000  0.05555556       0.004
  -0.44444444 -0.44444444  0.05555556       0.004
  -0.38888889 -0.44444444  0.05555556       0.008
  -0.33333333 -0.44444444  0.05555556       0.008
  -0.38888889 -0.38888889  0.05555556       0.004
  -0.33333333 -0.38888889  0.05555556       0.004
   0.11111111  0.11111111  0.11111111       0.001
   0.16666667  0.11111111  0.11111111       0.004
   0.22222222  0.11111111  0.11111111       0.004
   0.27777778  0.11111111  0.11111111       0.004
   0.33333333  0.11111111  0.11111111       0.004
   0.38888889  0.11111111  0.11111111       0.002
  -0.11111111  0.11111111  0.11111111       0.001
   0.16666667  0.16666667  0.11111111       0.004
   0.22222222  0.16666667  0.11111111       0.008
   0.27777778  0.16666667  0.11111111       0.008
   0.33333333  0.16666667  0.11111111       0.008
  -0.16666667  0.16666667  0.11111111       0.004
   0.22222222  0.22222222  0.11111111       0.004
   0.27777778  0.22222222  0.11111111       0.008
   0.33333333  0.22222222  0.11111111       0.004
  -0.22222222  0.22222222  0.11111111       0.004
  -0.16666667  0.22222222  0.11111111       0.004
   0.27777778  0.27777778  0.11111111       0.004
  -0.27777778  0.27777778  0.11111111       0.004
  -0.22222222  0.27777778  0.11111111       0.008
  -0.33333333  0.33333333  0.11111111       0.004
  -0.27777778  0.33333333  0.11111111       0.008
  -0.22222222  0.33333333  0.11111111       0.004
  -0.38888889  0.38888889  0.11111111       0.004
  -0.33333333  0.38888889  0.11111111       0.008
  -0.27777778  0.38888889  0.11111111       0.008
  -0.44444444  0.44444444  0.11111111       0.004
  -0.38888889  0.44444444  0.11111111       0.008
  -0.33333333  0.44444444  0.11111111       0.008
  -0.27777778  0.44444444  0.11111111       0.004
   0.50000000  0.50000000  0.11111111       0.002
  -0.44444444  0.50000000  0.11111111       0.008
  -0.38888889  0.50000000  0.11111111       0.008
  -0.33333333  0.50000000  0.11111111       0.008
  -0.44444444 -0.44444444  0.11111111       0.004
  -0.38888889 -0.44444444  0.11111111       0.008
  -0.33333333 -0.44444444  0.11111111       0.004
  -0.38888889 -0.38888889  0.11111111       0.004
   0.16666667  0.16666667  0.16666667       0.001
   0.22222222  0.16666667  0.16666667       0.004
   0.27777778  0.16666667  0.16666667       0.004
   0.33333333  0.16666667  0.16666667       0.002
  -0.16666667  0.16666667  0.16666667       0.001
   0.22222222  0.22222222  0.16666667       0.004
   0.27777778  0.22222222  0.16666667       0.008
  -0.22222222  0.22222222  0.16666667       0.004
   0.27777778  0.27777778  0.16666667       0.001
  -0.27777778  0.27777778  0.16666667       0.004
  -0.22222222  0.27777778  0.16666667       0.004
  -0.33333333  0.33333333  0.16666667       0.004
  -0.27777778  0.33333333  0.16666667       0.008
  -0.38888889  0.38888889  0.16666667       0.004
  -0.33333333  0.38888889  0.16666667       0.008
  -0.27777778  0.38888889  0.16666667       0.004
  -0.44444444  0.44444444  0.16666667       0.004
  -0.38888889  0.44444444  0.16666667       0.008
  -0.33333333  0.44444444  0.16666667       0.008
   0.50000000  0.50000000  0.16666667       0.002
  -0.44444444  0.50000000  0.16666667       0.008
  -0.38888889  0.50000000  0.16666667       0.008
  -0.33333333  0.50000000  0.16666667       0.004
  -0.44444444 -0.44444444  0.16666667       0.004
  -0.38888889 -0.44444444  0.16666667       0.008
  -0.38888889 -0.38888889  0.16666667       0.001
   0.22222222  0.22222222  0.22222222       0.001
   0.27777778  0.22222222  0.22222222       0.002
  -0.22222222  0.22222222  0.22222222       0.001
  -0.27777778  0.27777778  0.22222222       0.004
  -0.33333333  0.33333333  0.22222222       0.004
  -0.27777778  0.33333333  0.22222222       0.004
  -0.38888889  0.38888889  0.22222222       0.004
  -0.33333333  0.38888889  0.22222222       0.008
  -0.44444444  0.44444444  0.22222222       0.004
  -0.38888889  0.44444444  0.22222222       0.008
  -0.33333333  0.44444444  0.22222222       0.004
   0.50000000  0.50000000  0.22222222       0.002
  -0.44444444  0.50000000  0.22222222       0.008
  -0.38888889  0.50000000  0.22222222       0.008
  -0.44444444 -0.44444444  0.22222222       0.004
  -0.38888889 -0.44444444  0.22222222       0.004
  -0.27777778  0.27777778  0.27777778       0.001
  -0.33333333  0.33333333  0.27777778       0.004
  -0.38888889  0.38888889  0.27777778       0.004
  -0.33333333  0.38888889  0.27777778       0.004
  -0.44444444  0.44444444  0.27777778       0.004
  -0.38888889  0.44444444  0.27777778       0.008
   0.50000000  0.50000000  0.27777778       0.002
  -0.44444444  0.50000000  0.27777778       0.008
  -0.38888889  0.50000000  0.27777778       0.004
  -0.44444444 -0.44444444  0.27777778       0.004
  -0.33333333  0.33333333  0.33333333       0.001
  -0.38888889  0.38888889  0.33333333       0.004
  -0.44444444  0.44444444  0.33333333       0.004
  -0.38888889  0.44444444  0.33333333       0.004
   0.50000000  0.50000000  0.33333333       0.002
  -0.44444444  0.50000000  0.33333333       0.008
  -0.44444444 -0.44444444  0.33333333       0.001
  -0.38888889  0.38888889  0.38888889       0.001
  -0.44444444  0.44444444  0.38888889       0.004
   0.50000000  0.50000000  0.38888889       0.002
  -0.44444444  0.50000000  0.38888889       0.004
  -0.44444444  0.44444444  0.44444444       0.001
   0.50000000  0.50000000  0.44444444       0.002
   0.50000000  0.50000000  0.50000000       0.000
 
 position of ions in fractional coordinates (direct lattice) 
   0.00000000  0.00000000  0.00000000
 
 position of ions in cartesian coordinates  (Angst):
   0.00000000  0.00000000  0.00000000
 


--------------------------------------------------------------------------------------------------------


 k-point   1 :   0.0000 0.0000 0.0000  plane waves:     381
 k-point   2 :   0.0556 0.0000 0.0000  plane waves:     380
 k-point   3 :   0.1111 0.0000 0.0000  plane waves:     382
 k-point   4 :   0.1667 0.0000 0.0000  plane waves:     388
 k-point   5 :   0.2222 0.0000 0.0000  plane waves:     380
 k-point   6 :   0.2778 0.0000 0.0000  plane waves:     386
 k-point   7 :   0.3333 0.0000 0.0000  plane waves:     388
 k-point   8 :   0.3889 0.0000 0.0000  plane waves:     384
 k-point   9 :   0.4444 0.0000 0.0000  plane waves:     388
 k-point  10 :   0.5000 0.0000 0.0000  plane waves:     392
 k-point  11 :   0.0556 0.0556 0.0000  plane waves:     379
 k-point  12 :   0.1111 0.0556 0.0000  plane waves:     386
 k-point  13 :   0.1667 0.0556 0.0000  plane waves:     382
 k-point  14 :   0.2222 0.0556 0.0000  plane waves:     382
 k-point  15 :   0.2778 0.0556 0.0000  plane waves:     380
 k-point  16 :   0.3333 0.0556 0.0000  plane waves:     385
 k-point  17 :   0.3889 0.0556 0.0000  plane waves:     390
 k-point  18 :   0.4444 0.0556 0.0000  plane waves:     388
 k-point  19 :   0.1111 0.1111 0.0000  plane waves:     389
 k-point  20 :   0.1667 0.1111 0.0000  plane waves:     383
 k-point  21 :   0.2222 0.1111 0.0000  plane waves:     382
 k-point  22 :   0.2778 0.1111 0.0000  plane waves:     382
 k-point  23 :   0.3333 0.1111 0.0000  plane waves:     387
 k-point  24 :   0.3889 0.1111 0.0000  plane waves:     386
 k-point  25 :   0.4444 0.1111 0.0000  plane waves:     393
 k-point  26 :   0.1667 0.1667 0.0000  plane waves:     385
 k-point  27 :   0.2222 0.1667 0.0000  plane waves:     383
 k-point  28 :   0.2778 0.1667 0.0000  plane waves:     384
 k-point  29 :   0.3333 0.1667 0.0000  plane waves:     391
 k-point  30 :   0.3889 0.1667 0.0000  plane waves:     391
 k-point  31 :   0.2222 0.2222 0.0000  plane waves:     390
 k-point  32 :   0.2778 0.2222 0.0000  plane waves:     390
 k-point  33 :   0.3333 0.2222 0.0000  plane waves:     391
 k-point  34 :   0.3889 0.2222 0.0000  plane waves:     391
 k-point  35 :   0.2778 0.2778 0.0000  plane waves:     386
 k-point  36 :   0.3333 0.2778 0.0000  plane waves:     387
 k-point  37 :   0.3333 0.3333 0.0000  plane waves:     378
 k-point  38 :   0.0556 0.0556 0.0556  plane waves:     387
 k-point  39 :   0.1111 0.0556 0.0556  plane waves:     387
 k-point  40 :   0.1667 0.0556 0.0556  plane waves:     381
 k-point  41 :   0.2222 0.0556 0.0556  plane waves:     382
 k-point  42 :   0.2778 0.0556 0.0556  plane waves:     386
 k-point  43 :   0.3333 0.0556 0.0556  plane waves:     384
 k-point  44 :   0.3889 0.0556 0.0556  plane waves:     388
 k-point  45 :   0.4444 0.0556 0.0556  plane waves:     392
 k-point  46 :  -0.0556 0.0556 0.0556  plane waves:     377
 k-point  47 :   0.1111 0.1111 0.0556  plane waves:     383
 k-point  48 :   0.1667 0.1111 0.0556  plane waves:     383
 k-point  49 :   0.2222 0.1111 0.0556  plane waves:     381
 k-point  50 :   0.2778 0.1111 0.0556  plane waves:     386
 k-point  51 :   0.3333 0.1111 0.0556  plane waves:     386
 k-point  52 :   0.3889 0.1111 0.0556  plane waves:     387
 k-point  53 :  -0.1111 0.1111 0.0556  plane waves:     383
 k-point  54 :   0.1667 0.1667 0.0556  plane waves:     381
 k-point  55 :   0.2222 0.1667 0.0556  plane waves:     383
 k-point  56 :   0.2778 0.1667 0.0556  plane waves:     389
 k-point  57 :   0.3333 0.1667 0.0556  plane waves:     389
 k-point  58 :   0.3889 0.1667 0.0556  plane waves:     385
 k-point  59 :  -0.1667 0.1667 0.0556  plane waves:     384
 k-point  60 :  -0.1111 0.1667 0.0556  plane waves:     385
 k-point  61 :   0.2222 0.2222 0.0556  plane waves:     388
 k-point  62 :   0.2778 0.2222 0.0556  plane waves:     386
 k-point  63 :   0.3333 0.2222 0.0556  plane waves:     386
 k-point  64 :  -0.2222 0.2222 0.0556  plane waves:     382
 k-point  65 :  -0.1667 0.2222 0.0556  plane waves:     382
 k-point  66 :   0.2778 0.2778 0.0556  plane waves:     384
 k-point  67 :   0.3333 0.2778 0.0556  plane waves:     384
 k-point  68 :  -0.2778 0.2778 0.0556  plane waves:     381
 k-point  69 :  -0.2222 0.2778 0.0556  plane waves:     382
 k-point  70 :  -0.1667 0.2778 0.0556  plane waves:     386
 k-point  71 :  -0.3333 0.3333 0.0556  plane waves:     385
 k-point  72 :  -0.2778 0.3333 0.0556  plane waves:     384
 k-point  73 :  -0.2222 0.3333 0.0556  plane waves:     382
 k-point  74 :  -0.3889 0.3889 0.0556  plane waves:     388
 k-point  75 :  -0.3333 0.3889 0.0556  plane waves:     389
 k-point  76 :  -0.2778 0.3889 0.0556  plane waves:     384
 k-point  77 :  -0.2222 0.3889 0.0556  plane waves:     388
 k-point  78 :  -0.4444 0.4444 0.0556  plane waves:     390
 k-point  79 :  -0.3889 0.4444 0.0556  plane waves:     393
 k-point  80 :  -0.3333 0.4444 0.0556  plane waves:     389
 k-point  81 :  -0.2778 0.4444 0.0556  plane waves:     389
 k-point  82 :   0.5000 0.5000 0.0556  plane waves:     388
 k-point  83 :  -0.4444 0.5000 0.0556  plane waves:     388
 k-point  84 :  -0.3889 0.5000 0.0556  plane waves:     393
 k-point  85 :  -0.3333 0.5000 0.0556  plane waves:     390
 k-point  86 :  -0.2778 0.5000 0.0556  plane waves:     390
 k-point  87 :  -0.4444-0.4444 0.0556  plane waves:     391
 k-point  88 :  -0.3889-0.4444 0.0556  plane waves:     395
 k-point  89 :  -0.3333-0.4444 0.0556  plane waves:     389
 k-point  90 :  -0.3889-0.3889 0.0556  plane waves:     386
 k-point  91 :  -0.3333-0.3889 0.0556  plane waves:     387
 k-point  92 :   0.1111 0.1111 0.1111  plane waves:     384
 k-point  93 :   0.1667 0.1111 0.1111  plane waves:     380
 k-point  94 :   0.2222 0.1111 0.1111  plane waves:     388
 k-point  95 :   0.2778 0.1111 0.1111  plane waves:     388
 k-point  96 :   0.3333 0.1111 0.1111  plane waves:     386
 k-point  97 :   0.3889 0.1111 0.1111  plane waves:     382
 k-point  98 :  -0.1111 0.1111 0.1111  plane waves:     385
 k-point  99 :   0.1667 0.1667 0.1111  plane waves:     387
 k-point 100 :   0.2222 0.1667 0.1111  plane waves:     390
 k-point 101 :   0.2778 0.1667 0.1111  plane waves:     387
 k-point 102 :   0.3333 0.1667 0.1111  plane waves:     384
 k-point 103 :  -0.1667 0.1667 0.1111  plane waves:     382
 k-point 104 :   0.2222 0.2222 0.1111  plane waves:     388
 k-point 105 :   0.2778 0.2222 0.1111  plane waves:     386
 k-point 106 :   0.3333 0.2222 0.1111  plane waves:     382
 k-point 107 :  -0.2222 0.2222 0.1111  plane waves:     381
 k-point 108 :  -0.1667 0.2222 0.1111  plane waves:     385
 k-point 109 :   0.2778 0.2778 0.1111  plane waves:     386
 k-point 110 :  -0.2778 0.2778 0.1111  plane waves:     385
 k-point 111 :  -0.2222 0.2778 0.1111  plane waves:     386
 k-point 112 :  -0.3333 0.3333 0.1111  plane waves:     389
 k-point 113 :  -0.2778 0.3333 0.1111  plane waves:     385
 k-point 114 :  -0.2222 0.3333 0.1111  plane waves:     386
 k-point 115 :  -0.3889 0.3889 0.1111  plane waves:     391
 k-point 116 :  -0.3333 0.3889 0.1111  plane waves:     391
 k-point 117 :  -0.2778 0.3889 0.1111  plane waves:     392
 k-point 118 :  -0.4444 0.4444 0.1111  plane waves:     392
 k-point 119 :  -0.3889 0.4444 0.1111  plane waves:     394
 k-point 120 :  -0.3333 0.4444 0.1111  plane waves:     394
 k-point 121 :  -0.2778 0.4444 0.1111  plane waves:     394
 k-point 122 :   0.5000 0.5000 0.1111  plane waves:     390
 k-point 123 :  -0.4444 0.5000 0.1111  plane waves:     392
 k-point 124 :  -0.3889 0.5000 0.1111  plane waves:     392
 k-point 125 :  -0.3333 0.5000 0.1111  plane waves:     395
 k-point 126 :  -0.4444-0.4444 0.1111  plane waves:     390
 k-point 127 :  -0.3889-0.4444 0.1111  plane waves:     392
 k-point 128 :  -0.3333-0.4444 0.1111  plane waves:     390
 k-point 129 :  -0.3889-0.3889 0.1111  plane waves:     389
 k-point 130 :   0.1667 0.1667 0.1667  plane waves:     390
 k-point 131 :   0.2222 0.1667 0.1667  plane waves:     389
 k-point 132 :   0.2778 0.1667 0.1667  plane waves:     385
 k-point 133 :   0.3333 0.1667 0.1667  plane waves:     380
 k-point 134 :  -0.1667 0.1667 0.1667  plane waves:     390
 k-point 135 :   0.2222 0.2222 0.1667  plane waves:     385
 k-point 136 :   0.2778 0.2222 0.1667  plane waves:     388
 k-point 137 :  -0.2222 0.2222 0.1667  plane waves:     388
 k-point 138 :   0.2778 0.2778 0.1667  plane waves:     384
 k-point 139 :  -0.2778 0.2778 0.1667  plane waves:     389
 k-point 140 :  -0.2222 0.2778 0.1667  plane waves:     391
 k-point 141 :  -0.3333 0.3333 0.1667  plane waves:     387
 k-point 142 :  -0.2778 0.3333 0.1667  plane waves:     393
 k-point 143 :  -0.3889 0.3889 0.1667  plane waves:     395
 k-point 144 :  -0.3333 0.3889 0.1667  plane waves:     394
 k-point 145 :  -0.2778 0.3889 0.1667  plane waves:     394
 k-point 146 :  -0.4444 0.4444 0.1667  plane waves:     391
 k-point 147 :  -0.3889 0.4444 0.1667  plane waves:     390
 k-point 148 :  -0.3333 0.4444 0.1667  plane waves:     395
 k-point 149 :   0.5000 0.5000 0.1667  plane waves:     380
 k-point 150 :  -0.4444 0.5000 0.1667  plane waves:     390
 k-point 151 :  -0.3889 0.5000 0.1667  plane waves:     393
 k-point 152 :  -0.3333 0.5000 0.1667  plane waves:     396
 k-point 153 :  -0.4444-0.4444 0.1667  plane waves:     394
 k-point 154 :  -0.3889-0.4444 0.1667  plane waves:     392
 k-point 155 :  -0.3889-0.3889 0.1667  plane waves:     391
 k-point 156 :   0.2222 0.2222 0.2222  plane waves:     381
 k-point 157 :   0.2778 0.2222 0.2222  plane waves:     378
 k-point 158 :  -0.2222 0.2222 0.2222  plane waves:     390
 k-point 159 :  -0.2778 0.2778 0.2222  plane waves:     396
 k-point 160 :  -0.3333 0.3333 0.2222  plane waves:     396
 k-point 161 :  -0.2778 0.3333 0.2222  plane waves:     397
 k-point 162 :  -0.3889 0.3889 0.2222  plane waves:     396
 k-point 163 :  -0.3333 0.3889 0.2222  plane waves:     396
 k-point 164 :  -0.4444 0.4444 0.2222  plane waves:     394
 k-point 165 :  -0.3889 0.4444 0.2222  plane waves:     394
 k-point 166 :  -0.3333 0.4444 0.2222  plane waves:     398
 k-point 167 :   0.5000 0.5000 0.2222  plane waves:     392
 k-point 168 :  -0.4444 0.5000 0.2222  plane waves:     396
 k-point 169 :  -0.3889 0.5000 0.2222  plane waves:     397
 k-point 170 :  -0.4444-0.4444 0.2222  plane waves:     396
 k-point 171 :  -0.3889-0.4444 0.2222  plane waves:     396
 k-point 172 :  -0.2778 0.2778 0.2778  plane waves:     394
 k-point 173 :  -0.3333 0.3333 0.2778  plane waves:     399
 k-point 174 :  -0.3889 0.3889 0.2778  plane waves:     399
 k-point 175 :  -0.3333 0.3889 0.2778  plane waves:     399
 k-point 176 :  -0.4444 0.4444 0.2778  plane waves:     395
 k-point 177 :  -0.3889 0.4444 0.2778  plane waves:     397
 k-point 178 :   0.5000 0.5000 0.2778  plane waves:     398
 k-point 179 :  -0.4444 0.5000 0.2778  plane waves:     394
 k-point 180 :  -0.3889 0.5000 0.2778  plane waves:     396
 k-point 181 :  -0.4444-0.4444 0.2778  plane waves:     393
 k-point 182 :  -0.3333 0.3333 0.3333  plane waves:     402
 k-point 183 :  -0.3889 0.3889 0.3333  plane waves:     396
 k-point 184 :  -0.4444 0.4444 0.3333  plane waves:     390
 k-point 185 :  -0.3889 0.4444 0.3333  plane waves:     391
 k-point 186 :   0.5000 0.5000 0.3333  plane waves:     394
 k-point 187 :  -0.4444 0.5000 0.3333  plane waves:     390
 k-point 188 :  -0.4444-0.4444 0.3333  plane waves:     385
 k-point 189 :  -0.3889 0.3889 0.3889  plane waves:     390
 k-point 190 :  -0.4444 0.4444 0.3889  plane waves:     388
 k-point 191 :   0.5000 0.5000 0.3889  plane waves:     390
 k-point 192 :  -0.4444 0.5000 0.3889  plane waves:     386
 k-point 193 :  -0.4444 0.4444 0.4444  plane waves:     382
 k-point 194 :   0.5000 0.5000 0.4444  plane waves:     380
 k-point 195 :   0.5000 0.5000 0.5000  plane waves:     370

 maximum and minimum number of plane-waves per node :       402      370

 maximum number of plane-waves:       402
 maximum index in each direction: 
   IXMAX=    5   IYMAX=    5   IZMAX=    4
   IXMIN=   -5   IYMIN=   -5   IZMIN=   -5


 serial   3D FFT for wavefunctions
 parallel 3D FFT for charge:
    minimum data exchange during FFTs selected (reduces bandwidth)


 total amount of memory used by VASP MPI-rank0    56265. kBytes
=======================================================================

   base      :      30000. kBytes
   nonl-proj :      11294. kBytes
   fftplans  :       2284. kBytes
   grid      :       3500. kBytes
   one-center:         15. kBytes
   wavefun   :       9172. kBytes
 
     INWAV:  cpu time      0.0000: real time      0.0000
 Broyden mixing: mesh for mixing (old mesh)
   NGX =  9   NGY =  9   NGZ =  9
  (NGX  = 40   NGY  = 40   NGZ  = 40)
  gives a total of    729 points

 initial charge density was supplied:
 charge density of overlapping atoms calculated
 number of electron       6.0000000 magnetization 
 keeping initial charge density in first step


--------------------------------------------------------------------------------------------------------


 Maximum index for augmentation-charges         24693 (set IRDMAX)


--------------------------------------------------------------------------------------------------------


 First call to EWALD:  gamma=   0.677
 Maximum number of real-space cells 3x 3x 3
 Maximum number of reciprocal cells 3x 3x 3

    FEWALD:  cpu time      0.0182: real time      0.0367


--------------------------------------- Ionic step        1  -------------------------------------------




--------------------------------------- Iteration      1(   1)  ---------------------------------------


    POTLOK:  cpu time      0.0220: real time      0.0975
    SETDIJ:  cpu time      0.0192: real time      0.0271
     EDDAV:  cpu time      2.7911: real time      9.7409
       DOS:  cpu time      0.0021: real time      0.0220
    --------------------------------------------
      LOOP:  cpu time      2.8344: real time      9.8876

 eigenvalue-minimisations  :  2737
 total energy-change (2. order) : 0.5063761E+01  (-0.2663519E+03)
 number of electron       6.0000000 magnetization 
 augmentation part        6.0000000 magnetization 

 Free energy of the ion-electron system (eV)
  ---------------------------------------------------
  alpha Z        PSCENC =        40.66777036
  Ewald energy   TEWEN  =      -286.08998980
  -Hartree energ DENC   =        -7.48450617
  -exchange      EXHF   =         0.00000000
  -V(xc)+E(xc)   XCENC  =       -48.16342040
  PAW double counting   =       241.86431167     -182.72649807
  entropy T*S    EENTRO =        -0.00042202
  eigenvalues    EBANDS =        42.38841246
  atomic energy  EATOM  =       204.60810279
  Solvation  Ediel_sol  =         0.00000000
  ---------------------------------------------------
  free energy    TOTEN  =         5.06376082 eV

  energy without entropy =        5.06418284  energy(sigma->0) =        5.06397183


--------------------------------------------------------------------------------------------------------




--------------------------------------- Iteration      1(   2)  ---------------------------------------


     EDDAV:  cpu time      3.3645: real time     11.5584
       DOS:  cpu time      0.0022: real time      0.0022
    --------------------------------------------
      LOOP:  cpu time      3.3668: real time     11.5606

 eigenvalue-minimisations  :  3766
 total energy-change (2. order) :-0.1842441E+02  (-0.1768676E+02)
 number of electron       6.0000000 magnetization 
 augmentation part        6.0000000 magnetization 

 Free energy of the ion-electron system (eV)
  ---------------------------------------------------
  alpha Z        PSCENC =        40.66777036
  Ewald energy   TEWEN  =      -286.08998980
  -Hartree energ DENC   =        -7.48450617
  -exchange      EXHF   =         0.00000000
  -V(xc)+E(xc)   XCENC  =       -48.16342040
  PAW double counting   =       241.86431167     -182.72649807
  entropy T*S    EENTRO =        -0.00059509
  eigenvalues    EBANDS =        23.96418008
  atomic energy  EATOM  =       204.60810279
  Solvation  Ediel_sol  =         0.00000000
  ---------------------------------------------------
  free energy    TOTEN  =       -13.36064463 eV

  energy without entropy =      -13.36004954  energy(sigma->0) =      -13.36034709


--------------------------------------------------------------------------------------------------------




--------------------------------------- Iteration      1(   3)  ---------------------------------------


     EDDAV:  cpu time      2.9628: real time     10.4584
       DOS:  cpu time      0.0024: real time      0.0223
    --------------------------------------------
      LOOP:  cpu time      2.9651: real time     10.4808

 eigenvalue-minimisations  :  3199
 total energy-change (2. order) :-0.2606588E+00  (-0.2584969E+00)
 number of electron       6.0000000 magnetization 
 augmentation part        6.0000000 magnetization 

 Free energy of the ion-electron system (eV)
  ---------------------------------------------------
  alpha Z        PSCENC =        40.66777036
  Ewald energy   TEWEN  =      -286.08998980
  -Hartree energ DENC   =        -7.48450617
  -exchange      EXHF   =         0.00000000
  -V(xc)+E(xc)   XCENC  =       -48.16342040
  PAW double counting   =       241.86431167     -182.72649807
  entropy T*S    EENTRO =        -0.00128915
  eigenvalues    EBANDS =        23.70421532
  atomic energy  EATOM  =       204.60810279
  Solvation  Ediel_sol  =         0.00000000
  ---------------------------------------------------
  free energy    TOTEN  =       -13.62130345 eV

  energy without entropy =      -13.62001430  energy(sigma->0) =      -13.62065888


--------------------------------------------------------------------------------------------------------




--------------------------------------- Iteration      1(   4)  ---------------------------------------


     EDDAV:  cpu time      3.7445: real time     13.1590
       DOS:  cpu time      0.0022: real time      0.0022
    --------------------------------------------
      LOOP:  cpu time      3.7467: real time     13.1613

 eigenvalue-minimisations  :  4221
 total energy-change (2. order) :-0.9241427E-03  (-0.9204075E-03)
 number of electron       6.0000000 magnetization 
 augmentation part        6.0000000 magnetization 

 Free energy of the ion-electron system (eV)
  ---------------------------------------------------
  alpha Z        PSCENC =        40.66777036
  Ewald energy   TEWEN  =      -286.08998980
  -Hartree energ DENC   =        -7.48450617
  -exchange      EXHF   =         0.00000000
  -V(xc)+E(xc)   XCENC  =       -48.16342040
  PAW double counting   =       241.86431167     -182.72649807
  entropy T*S    EENTRO =        -0.00128622
  eigenvalues    EBANDS =        23.70328825
  atomic energy  EATOM  =       204.60810279
  Solvation  Ediel_sol  =         0.00000000
  ---------------------------------------------------
  free energy    TOTEN  =       -13.62222760 eV

  energy without entropy =      -13.62094137  energy(sigma->0) =      -13.62158448


--------------------------------------------------------------------------------------------------------




--------------------------------------- Iteration      1(   5)  ---------------------------------------


     EDDAV:  cpu time      2.9725: real time     10.5055
       DOS:  cpu time      0.0023: real time      0.0023
    CHARGE:  cpu time      0.2437: real time      0.8058
    MIXING:  cpu time      0.0015: real time      0.0072
    --------------------------------------------
      LOOP:  cpu time      3.2201: real time     11.3207

 eigenvalue-minimisations  :  3234
 total energy-change (2. order) :-0.1139275E-05  (-0.1139353E-05)
 number of electron       6.0000001 magnetization 
 augmentation part        0.5913077 magnetization 

 Broyden mixing:
  rms(total) = 0.16740E+01    rms(broyden)= 0.16740E+01
  rms(prec ) = 0.24856E+01
  weight for this iteration     100.00

 Free energy of the ion-electron system (eV)
  ---------------------------------------------------
  alpha Z        PSCENC =        40.66777036
  Ewald energy   TEWEN  =      -286.08998980
  -Hartree energ DENC   =        -7.48450617
  -exchange      EXHF   =         0.00000000
  -V(xc)+E(xc)   XCENC  =       -48.16342040
  PAW double counting   =       241.86431167     -182.72649807
  entropy T*S    EENTRO =        -0.00128622
  eigenvalues    EBANDS =        23.70328711
  atomic energy  EATOM  =       204.60810279
  Solvation  Ediel_sol  =         0.00000000
  ---------------------------------------------------
  free energy    TOTEN  =       -13.62222873 eV

  energy without entropy =      -13.62094251  energy(sigma->0) =      -13.62158562


--------------------------------------------------------------------------------------------------------




--------------------------------------- Iteration      1(   6)  ---------------------------------------


    POTLOK:  cpu time      0.0059: real time      0.0051
    SETDIJ:  cpu time      0.0100: real time      0.0268
     EDDAV:  cpu time      3.0331: real time     10.8220
       DOS:  cpu time      0.0022: real time      0.0142
    CHARGE:  cpu time      0.2498: real time      0.8286
    MIXING:  cpu time      0.0025: real time      0.0073
    --------------------------------------------
      LOOP:  cpu time      3.3036: real time     11.7040

 eigenvalue-minimisations  :  3304
 total energy-change (2. order) : 0.5954398E+00  (-0.6078220E-01)
 number of electron       6.0000001 magnetization 
 augmentation part        0.6332958 magnetization 

 Broyden mixing:
  rms(total) = 0.76025E+00    rms(broyden)= 0.76025E+00
  rms(prec ) = 0.11938E+01
  weight for this iteration     100.00

 eigenvalues of (default mixing * dielectric matrix)
  average eigenvalue GAMMA=   1.8263
  1.8263

 Free energy of the ion-electron system (eV)
  ---------------------------------------------------
  alpha Z        PSCENC =        40.66777036
  Ewald energy   TEWEN  =      -286.08998980
  -Hartree energ DENC   =        -4.93401721
  -exchange      EXHF   =         0.00000000
  -V(xc)+E(xc)   XCENC  =       -47.89024176
  PAW double counting   =       383.44946196     -324.99348824
  entropy T*S    EENTRO =        -0.00109923
  eigenvalues    EBANDS =        22.15671223
  atomic energy  EATOM  =       204.60810279
  Solvation  Ediel_sol  =         0.00000000
  ---------------------------------------------------
  free energy    TOTEN  =       -13.02678889 eV

  energy without entropy =      -13.02568967  energy(sigma->0) =      -13.02623928


--------------------------------------------------------------------------------------------------------




--------------------------------------- Iteration      1(   7)  ---------------------------------------


    POTLOK:  cpu time      0.0060: real time      0.0129
    SETDIJ:  cpu time      0.0110: real time      0.0187
     EDDAV:  cpu time      3.1308: real time     11.1561
       DOS:  cpu time      0.0023: real time      0.0023
    CHARGE:  cpu time      0.2412: real time      0.8067
    MIXING:  cpu time      0.0027: real time      0.0074
    --------------------------------------------
      LOOP:  cpu time      3.3940: real time     12.0041

 eigenvalue-minimisations  :  3465
 total energy-change (2. order) : 0.2050247E+00  (-0.6185187E-01)
 number of electron       6.0000001 magnetization 
 augmentation part        0.6798502 magnetization 

 Broyden mixing:
  rms(total) = 0.60983E-01    rms(broyden)= 0.60972E-01
  rms(prec ) = 0.85212E-01
  weight for this iteration     100.00

 eigenvalues of (default mixing * dielectric matrix)
  average eigenvalue GAMMA=   1.9118
  1.9118  1.9118

 Free energy of the ion-electron system (eV)
  ---------------------------------------------------
  alpha Z        PSCENC =        40.66777036
  Ewald energy   TEWEN  =      -286.08998980
  -Hartree energ DENC   =        -3.03084650
  -exchange      EXHF   =         0.00000000
  -V(xc)+E(xc)   XCENC  =       -47.56518345
  PAW double counting   =       566.70677080     -508.84275212
  entropy T*S    EENTRO =        -0.00143956
  eigenvalues    EBANDS =        20.72580326
  atomic energy  EATOM  =       204.60810279
  Solvation  Ediel_sol  =         0.00000000
  ---------------------------------------------------
  free energy    TOTEN  =       -12.82176423 eV

  energy without entropy =      -12.82032467  energy(sigma->0) =      -12.82104445


--------------------------------------------------------------------------------------------------------




--------------------------------------- Iteration      1(   8)  ---------------------------------------


    POTLOK:  cpu time      0.0059: real time      0.0202
    SETDIJ:  cpu time      0.0091: real time      0.0130
     EDDAV:  cpu time      2.7822: real time      9.6594
       DOS:  cpu time      0.0023: real time      0.0023
    CHARGE:  cpu time      0.2396: real time      0.8119
    MIXING:  cpu time      0.0026: real time      0.0066
    --------------------------------------------
      LOOP:  cpu time      3.0417: real time     10.5133

 eigenvalue-minimisations  :  2968
 total energy-change (2. order) : 0.1319928E-02  (-0.2440165E-03)
 number of electron       6.0000001 magnetization 
 augmentation part        0.6790280 magnetization 

 Broyden mixing:
  rms(total) = 0.14290E-01    rms(broyden)= 0.14289E-01
  rms(prec ) = 0.34576E-01
  weight for this iteration     100.00

 eigenvalues of (default mixing * dielectric matrix)
  average eigenvalue GAMMA=   1.8069
  1.0298  1.8601  2.5309

 Free energy of the ion-electron system (eV)
  ---------------------------------------------------
  alpha Z        PSCENC =        40.66777036
  Ewald energy   TEWEN  =      -286.08998980
  -Hartree energ DENC   =        -3.09241314
  -exchange      EXHF   =         0.00000000
  -V(xc)+E(xc)   XCENC  =       -47.56865946
  PAW double counting   =       569.31977437     -511.50252077
  entropy T*S    EENTRO =        -0.00144823
  eigenvalues    EBANDS =        20.83893958
  atomic energy  EATOM  =       204.60810279
  Solvation  Ediel_sol  =         0.00000000
  ---------------------------------------------------
  free energy    TOTEN  =       -12.82044430 eV

  energy without entropy =      -12.81899607  energy(sigma->0) =      -12.81972019


--------------------------------------------------------------------------------------------------------




--------------------------------------- Iteration      1(   9)  ---------------------------------------


    POTLOK:  cpu time      0.0050: real time      0.0047
    SETDIJ:  cpu time      0.0122: real time      0.0218
     EDDAV:  cpu time      3.4710: real time     12.4700
       DOS:  cpu time      0.0022: real time      0.0022
    CHARGE:  cpu time      0.2418: real time      0.8167
    MIXING:  cpu time      0.0032: real time      0.0074
    --------------------------------------------
      LOOP:  cpu time      3.7354: real time     13.3226

 eigenvalue-minimisations  :  3913
 total energy-change (2. order) : 0.2741176E-03  (-0.5477981E-04)
 number of electron       6.0000001 magnetization 
 augmentation part        0.6808249 magnetization 

 Broyden mixing:
  rms(total) = 0.16599E-02    rms(broyden)= 0.16582E-02
  rms(prec ) = 0.46402E-02
  weight for this iteration     100.00

 eigenvalues of (default mixing * dielectric matrix)
  average eigenvalue GAMMA=   1.9415
  2.7576  0.9708  2.1473  1.8904

 Free energy of the ion-electron system (eV)
  ---------------------------------------------------
  alpha Z        PSCENC =        40.66777036
  Ewald energy   TEWEN  =      -286.08998980
  -Hartree energ DENC   =        -3.05698146
  -exchange      EXHF   =         0.00000000
  -V(xc)+E(xc)   XCENC  =       -47.55591889
  PAW double counting   =       580.37047664     -522.59506809
  entropy T*S    EENTRO =        -0.00142045
  eigenvalues    EBANDS =        20.83285871
  atomic energy  EATOM  =       204.60810279
  Solvation  Ediel_sol  =         0.00000000
  ---------------------------------------------------
  free energy    TOTEN  =       -12.82017018 eV

  energy without entropy =      -12.81874973  energy(sigma->0) =      -12.81945996


--------------------------------------------------------------------------------------------------------




--------------------------------------- Iteration      1(  10)  ---------------------------------------


    POTLOK:  cpu time      0.0056: real time      0.0044
    SETDIJ:  cpu time      0.0056: real time      0.0195
     EDDAV:  cpu time      2.9041: real time     10.3888
       DOS:  cpu time      0.0023: real time      0.0023
    --------------------------------------------
      LOOP:  cpu time      2.9177: real time     10.4149

 eigenvalue-minimisations  :  3164
 total energy-change (2. order) :-0.7010119E-06  (-0.6451880E-06)
 number of electron       6.0000001 magnetization 
 augmentation part        0.6808249 magnetization 

 Free energy of the ion-electron system (eV)
  ---------------------------------------------------
  alpha Z        PSCENC =        40.66777036
  Ewald energy   TEWEN  =      -286.08998980
  -Hartree energ DENC   =        -3.06301558
  -exchange      EXHF   =         0.00000000
  -V(xc)+E(xc)   XCENC  =       -47.55692829
  PAW double counting   =       581.59763192     -523.81783387
  entropy T*S    EENTRO =        -0.00142186
  eigenvalues    EBANDS =        20.83551345
  atomic energy  EATOM  =       204.60810279
  Solvation  Ediel_sol  =         0.00000000
  ---------------------------------------------------
  free energy    TOTEN  =       -12.82017088 eV

  energy without entropy =      -12.81874902  energy(sigma->0) =      -12.81945995


--------------------------------------------------------------------------------------------------------




 average (electrostatic) potential at core
  the test charge radii are     1.1823
  (the norm of the test charge is              1.0000)
       1 -39.5606
 
 
 
 E-fermi :   6.4994     XC(G=0): -12.5173     alpha+bet :-12.9311

 Fermi energy:         6.4994187572

 k-point     1 :       0.0000    0.0000    0.0000
  band No.  band energies     occupation 
      1      -2.3895      2.00000
      2       5.4449      2.00000
      3       5.4449      2.00000
      4       5.4449      2.00000
      5       8.4277      0.00000
      6       8.4277      0.00000
      7      21.3378      0.00000

 k-point     2 :       0.0556    0.0000    0.0000
  band No.  band energies     occupation 
      1      -2.2625      2.00000
      2       5.3709      2.00000
      3       5.4300      2.00000
      4       5.5674      2.00000
      5       8.3155      0.00000
      6       8.4306      0.00000
      7      21.4380      0.00000

 k-point     3 :       0.1111    0.0000    0.0000
  band No.  band energies     occupation 
      1      -1.8923      2.00000
      2       5.1649      2.00000
      3       5.3633      2.00000
      4       5.9307      2.00000
      5       8.0669      0.00000
      6       8.4440      0.00000
      7      21.6705      0.00000

 k-point     4 :       0.1667    0.0000    0.0000
  band No.  band energies     occupation 
      1      -1.3140      2.00000
      2       4.8681      2.00000
      3       5.2050      2.00000
      4       6.5225      0.51394
      5       7.8691      0.00000
      6       8.4791      0.00000
      7      21.7855      0.00000

 k-point     5 :       0.2222    0.0000    0.0000
  band No.  band energies     occupation 
      1      -0.5995      2.00000
      2       4.5301      2.00000
      3       4.9891      2.00000
      4       7.3194      0.00000
      5       7.8448      0.00000
      6       8.5475      0.00000
      7      21.4088      0.00000

 k-point     6 :       0.2778    0.0000    0.0000
  band No.  band energies     occupation 
      1       0.1215      2.00000
      2       4.1968      2.00000
      3       4.8840      2.00000
      4       7.9751      0.00000
      5       8.2828      0.00000
      6       8.6537      0.00000
      7      20.5558      0.00000

 k-point     7 :       0.3333    0.0000    0.0000
  band No.  band energies     occupation 
      1       0.6667      2.00000
      2       3.9045      2.00000
      3       5.1082      2.00000
      4       8.1679      0.00000
      5       8.7899      0.00000
      6       9.3473      0.00000
      7      18.9809      0.00000

 k-point     8 :       0.3889    0.0000    0.0000
  band No.  band energies     occupation 
      1       0.9339      2.00000
      2       3.6791      2.00000
      3       5.7266      2.00000
      4       8.3178      0.00000
      5       8.9321      0.00000
      6      10.3973      0.00000
      7      17.3485      0.00000

 k-point     9 :       0.4444    0.0000    0.0000
  band No.  band energies     occupation 
      1       1.0088      2.00000
      2       3.5375      2.00000
      3       6.4940      1.12287
      4       8.3315      0.00000
      5       9.0431      0.00000
      6      11.2296      0.00000
      7      16.1446      0.00000

 k-point    10 :       0.5000    0.0000    0.0000
  band No.  band energies     occupation 
      1       1.0180      2.00000
      2       3.4893      2.00000
      3       6.8940      0.00000
      4       8.2672      0.00000
      5       9.0855      0.00000
      6      11.5606      0.00000
      7      15.6869      0.00000

 k-point    11 :       0.0556    0.0556    0.0000
  band No.  band energies     occupation 
      1      -2.0136      2.00000
      2       5.2706      2.00000
      3       5.3343      2.00000
      4       5.8267      2.00000
      5       8.1209      0.00000
      6       8.4527      0.00000
      7      21.6266      0.00000

 k-point    12 :       0.1111    0.0556    0.0000
  band No.  band energies     occupation 
      1      -1.5370      2.00000
      2       5.0253      2.00000
      3       5.2042      2.00000
      4       6.3198      2.00000
      5       7.8694      0.00000
      6       8.5059      0.00000
      7      21.9008      0.00000

 k-point    13 :       0.1667    0.0556    0.0000
  band No.  band energies     occupation 
      1      -0.8820      2.00000
      2       4.7025      2.00000
      3       5.0060      2.00000
      4       7.0257      0.00000
      5       7.7411      0.00000
      6       8.5840      0.00000
      7      21.8119      0.00000

 k-point    14 :       0.2222    0.0556    0.0000
  band No.  band energies     occupation 
      1      -0.1437      2.00000
      2       4.3642      2.00000
      3       4.8163      2.00000
      4       7.7683      0.00000
      5       7.9464      0.00000
      6       8.6846      0.00000
      7      21.0135      0.00000

 k-point    15 :       0.2778    0.0556    0.0000
  band No.  band energies     occupation 
      1       0.5170      2.00000
      2       4.0522      2.00000
      3       4.8364      2.00000
      4       7.9689      0.00000
      5       8.8000      0.00000
      6       8.9611      0.00000
      7      19.6591      0.00000

 k-point    16 :       0.3333    0.0556    0.0000
  band No.  band energies     occupation 
      1       0.9280      2.00000
      2       3.7963      2.00000
      3       5.2393      2.00000
      4       8.1819      0.00000
      5       8.9261      0.00000
      6      10.0397      0.00000
      7      18.0268      0.00000

 k-point    17 :       0.3889    0.0556    0.0000
  band No.  band energies     occupation 
      1       1.0810      2.00000
      2       3.6160      2.00000
      3       5.9391      2.00000
      4       8.2935      0.00000
      5       9.0684      0.00000
      6      11.0146      0.00000
      7      16.5791      0.00000

 k-point    18 :       0.4444    0.0556    0.0000
  band No.  band energies     occupation 
      1       1.1099      2.00000
      2       3.5231      2.00000
      3       6.5495      0.15631
      4       8.2502      0.00000
      5       9.1948      0.00000
      6      11.6321      0.00000
      7      15.6948      0.00000

 k-point    19 :       0.1111    0.1111    0.0000
  band No.  band energies     occupation 
      1      -0.9775      2.00000
      2       4.8298      2.00000
      3       4.9305      2.00000
      4       6.9582      0.00000
      5       7.6607      0.00000
      6       8.6311      0.00000
      7      22.2723      0.00000

 k-point    20 :       0.1667    0.1111    0.0000
  band No.  band energies     occupation 
      1      -0.2751      2.00000
      2       4.5302      2.00000
      3       4.6848      2.00000
      4       7.5889      0.00000
      5       7.8058      0.00000
      6       8.7677      0.00000
      7      21.5287      0.00000

 k-point    21 :       0.2222    0.1111    0.0000
  band No.  band energies     occupation 
      1       0.4531      2.00000
      2       4.2047      2.00000
      3       4.5594      2.00000
      4       7.6973      0.00000
      5       8.7868      0.00000
      6       8.9106      0.00000
      7      20.1342      0.00000

 k-point    22 :       0.2778    0.1111    0.0000
  band No.  band energies     occupation 
      1       1.0218      2.00000
      2       3.9319      2.00000
      3       4.7051      2.00000
      4       7.9174      0.00000
      5       8.9797      0.00000
      6       9.9167      0.00000
      7      18.5670      0.00000

 k-point    23 :       0.3333    0.1111    0.0000
  band No.  band energies     occupation 
      1       1.3008      2.00000
      2       3.7317      2.00000
      3       5.2033      2.00000
      4       8.1324      0.00000
      5       9.0883      0.00000
      6      10.9991      0.00000
      7      16.9983      0.00000

 k-point    24 :       0.3889    0.1111    0.0000
  band No.  band energies     occupation 
      1       1.3727      2.00000
      2       3.6088      2.00000
      3       5.8179      2.00000
      4       8.1913      0.00000
      5       9.2704      0.00000
      6      11.8626      0.00000
      7      15.7506      0.00000

 k-point    25 :       0.4444    0.1111    0.0000
  band No.  band energies     occupation 
      1       1.3791      2.00000
      2       3.5673      2.00000
      3       6.1116      2.00000
      4       8.1590      0.00000
      5       9.3885      0.00000
      6      12.2113      0.00000
      7      15.2489      0.00000

 k-point    26 :       0.1667    0.1667    0.0000
  band No.  band energies     occupation 
      1       0.4379      2.00000
      2       4.3002      2.00000
      3       4.4160      2.00000
      4       7.5782      0.00000
      5       8.7488      0.00000
      6       8.9545      0.00000
      7      20.3650      0.00000

 k-point    27 :       0.2222    0.1667    0.0000
  band No.  band energies     occupation 
      1       1.1226      2.00000
      2       4.0093      2.00000
      3       4.3743      2.00000
      4       7.7093      0.00000
      5       9.0155      0.00000
      6       9.9059      0.00000
      7      18.9167      0.00000

 k-point    28 :       0.2778    0.1667    0.0000
  band No.  band energies     occupation 
      1       1.5838      2.00000
      2       3.8123      2.00000
      3       4.5925      2.00000
      4       7.9360      0.00000
      5       9.0727      0.00000
      6      11.0768      0.00000
      7      17.3527      0.00000

 k-point    29 :       0.3333    0.1667    0.0000
  band No.  band energies     occupation 
      1       1.7556      2.00000
      2       3.6963      2.00000
      3       5.0570      2.00000
      4       8.1187      0.00000
      5       9.1816      0.00000
      6      12.1605      0.00000
      7      15.8881      0.00000

 k-point    30 :       0.3889    0.1667    0.0000
  band No.  band energies     occupation 
      1       1.7825      2.00000
      2       3.6404      2.00000
      3       5.4523      2.00000
      4       8.1476      0.00000
      5       9.3732      0.00000
      6      12.8963      0.00000
      7      14.9062      0.00000

 k-point    31 :       0.2222    0.2222    0.0000
  band No.  band energies     occupation 
      1       1.7327      2.00000
      2       3.8057      2.00000
      3       4.3720      2.00000
      4       7.8470      0.00000
      5       9.0631      0.00000
      6      11.1181      0.00000
      7      17.5042      0.00000

 k-point    32 :       0.2778    0.2222    0.0000
  band No.  band energies     occupation 
      1       2.1078      2.00000
      2       3.7088      2.00000
      3       4.5512      2.00000
      4       8.0703      0.00000
      5       9.0745      0.00000
      6      12.3528      0.00000
      7      16.0340      0.00000

 k-point    33 :       0.3333    0.2222    0.0000
  band No.  band energies     occupation 
      1       2.2284      2.00000
      2       3.6977      2.00000
      3       4.8204      2.00000
      4       8.2342      0.00000
      5       9.1834      0.00000
      6      13.4236      0.00000
      7      14.8057      0.00000

 k-point    34 :       0.3889    0.2222    0.0000
  band No.  band energies     occupation 
      1       2.2445      2.00000
      2       3.7007      2.00000
      3       4.9509      2.00000
      4       8.2683      0.00000
      5       9.2963      0.00000
      6      14.0028      0.00000
      7      14.1908      0.00000

 k-point    35 :       0.2778    0.2778    0.0000
  band No.  band energies     occupation 
      1       2.4644      2.00000
      2       3.7096      2.00000
      3       4.5284      2.00000
      4       8.3131      0.00000
      5       9.0517      0.00000
      6      13.5847      0.00000
      7      14.8569      0.00000

 k-point    36 :       0.3333    0.2778    0.0000
  band No.  band energies     occupation 
      1       2.6025      2.00000
      2       3.8074      2.00000
      3       4.4832      2.00000
      4       8.5140      0.00000
      5       9.0821      0.00000
      6      13.7736      0.00000
      7      14.9292      0.00000

 k-point    37 :       0.3333    0.3333    0.0000
  band No.  band energies     occupation 
      1       2.7407      2.00000
      2       4.0992      2.00000
      3       4.0992      2.00000
      4       8.8476      0.00000
      5       8.8476      0.00000
      6      13.4597      0.00000
      7      16.2516      0.00000

 k-point    38 :       0.0556    0.0556    0.0556
  band No.  band energies     occupation 
      1      -1.6544      2.00000
      2       5.0980      2.00000
      3       5.0980      2.00000
      4       6.3069      2.00000
      5       8.2268      0.00000
      6       8.2268      0.00000
      7      21.8457      0.00000

 k-point    39 :       0.1111    0.0556    0.0556
  band No.  band energies     occupation 
      1      -1.0885      2.00000
      2       4.7794      2.00000
      3       4.8965      2.00000
      4       6.9752      0.00000
      5       8.0291      0.00000
      6       8.3614      0.00000
      7      22.1209      0.00000

 k-point    40 :       0.1667    0.0556    0.0556
  band No.  band energies     occupation 
      1      -0.3786      2.00000
      2       4.4376      2.00000
      3       4.6762      2.00000
      4       7.8051      0.00000
      5       7.9923      0.00000
      6       8.5062      0.00000
      7      21.6995      0.00000

 k-point    41 :       0.2222    0.0556    0.0556
  band No.  band energies     occupation 
      1       0.3542      2.00000
      2       4.1151      2.00000
      3       4.5648      2.00000
      4       8.0451      0.00000
      5       8.6575      0.00000
      6       8.8407      0.00000
      7      20.7706      0.00000

 k-point    42 :       0.2778    0.0556    0.0556
  band No.  band energies     occupation 
      1       0.9204      2.00000
      2       3.8403      2.00000
      3       4.7674      2.00000
      4       8.2084      0.00000
      5       8.8119      0.00000
      6       9.9265      0.00000
      7      18.7860      0.00000

 k-point    43 :       0.3333    0.0556    0.0556
  band No.  band energies     occupation 
      1       1.1948      2.00000
      2       3.6323      2.00000
      3       5.3664      2.00000
      4       8.3506      0.00000
      5       8.9551      0.00000
      6      10.9840      0.00000
      7      17.0546      0.00000

 k-point    44 :       0.3889    0.0556    0.0556
  band No.  band energies     occupation 
      1       1.2659      2.00000
      2       3.5030      2.00000
      3       6.1058      2.00000
      4       8.3905      0.00000
      5       9.0606      0.00000
      6      11.8126      0.00000
      7      15.7782      0.00000

 k-point    45 :       0.4444    0.0556    0.0556
  band No.  band energies     occupation 
      1       1.2728      2.00000
      2       3.4592      2.00000
      3       6.4721      1.56001
      4       8.3635      0.00000
      5       9.1000      0.00000
      6      12.1399      0.00000
      7      15.2917      0.00000

 k-point    46 :      -0.0556    0.0556    0.0556
  band No.  band energies     occupation 
      1      -2.1364      2.00000
      2       5.4236      2.00000
      3       5.4236      2.00000
      4       5.5647      2.00000
      5       8.0788      0.00000
      6       8.5520      0.00000
      7      21.6558      0.00000

 k-point    47 :       0.1111    0.1111    0.0556
  band No.  band energies     occupation 
      1      -0.4578      2.00000
      2       4.5138      2.00000
      3       4.5630      2.00000
      4       7.8151      0.00000
      5       8.0255      0.00000
      6       8.4531      0.00000
      7      22.2778      0.00000

 k-point    48 :       0.1667    0.1111    0.0556
  band No.  band energies     occupation 
      1       0.2811      2.00000
      2       4.2004      2.00000
      3       4.3332      2.00000
      4       8.0348      0.00000
      5       8.6382      0.00000
      6       8.8146      0.00000
      7      21.1256      0.00000

 k-point    49 :       0.2222    0.1111    0.0556
  band No.  band energies     occupation 
      1       0.9789      2.00000
      2       3.9138      2.00000
      3       4.3106      2.00000
      4       8.1451      0.00000
      5       8.8085      0.00000
      6       9.9218      0.00000
      7      19.4087      0.00000

 k-point    50 :       0.2778    0.1111    0.0556
  band No.  band energies     occupation 
      1       1.4261      2.00000
      2       3.6922      2.00000
      3       4.6624      2.00000
      4       8.3043      0.00000
      5       8.9475      0.00000
      6      11.0514      0.00000
      7      17.5332      0.00000

 k-point    51 :       0.3333    0.1111    0.0556
  band No.  band energies     occupation 
      1       1.5802      2.00000
      2       3.5421      2.00000
      3       5.3309      2.00000
      4       8.4212      0.00000
      5       9.0615      0.00000
      6      12.0526      0.00000
      7      15.9364      0.00000

 k-point    52 :       0.3889    0.1111    0.0556
  band No.  band energies     occupation 
      1       1.6011      2.00000
      2       3.4663      2.00000
      3       5.9013      2.00000
      4       8.4385      0.00000
      5       9.1466      0.00000
      6      12.6854      0.00000
      7      14.9679      0.00000

 k-point    53 :      -0.1111    0.1111    0.0556
  band No.  band energies     occupation 
      1      -1.7685      2.00000
      2       5.2601      2.00000
      3       5.3792      2.00000
      4       5.8900      2.00000
      5       7.7249      0.00000
      6       8.6522      0.00000
      7      21.9330      0.00000

 k-point    54 :       0.1667    0.1667    0.0556
  band No.  band energies     occupation 
      1       1.0159      2.00000
      2       3.9920      2.00000
      3       4.0800      2.00000
      4       8.0951      0.00000
      5       8.8299      0.00000
      6       9.9317      0.00000
      7      19.6706      0.00000

 k-point    55 :       0.2222    0.1667    0.0556
  band No.  band energies     occupation 
      1       1.6484      2.00000
      2       3.7696      2.00000
      3       4.1353      2.00000
      4       8.2252      0.00000
      5       8.9711      0.00000
      6      11.1197      0.00000
      7      17.8812      0.00000

 k-point    56 :       0.2778    0.1667    0.0556
  band No.  band energies     occupation 
      1       1.9695      2.00000
      2       3.6177      2.00000
      3       4.5653      2.00000
      4       8.3887      0.00000
      5       9.0582      0.00000
      6      12.2670      0.00000
      7      16.1465      0.00000

 k-point    57 :       0.3333    0.1667    0.0556
  band No.  band energies     occupation 
      1       2.0394      2.00000
      2       3.5316      2.00000
      3       5.1481      2.00000
      4       8.4909      0.00000
      5       9.1425      0.00000
      6      13.1901      0.00000
      7      14.8161      0.00000

 k-point    58 :       0.3889    0.1667    0.0556
  band No.  band energies     occupation 
      1       2.0413      2.00000
      2       3.5036      2.00000
      3       5.4228      2.00000
      4       8.5064      0.00000
      5       9.1998      0.00000
      6      13.5997      0.00000
      7      14.2609      0.00000

 k-point    59 :      -0.1667    0.1667    0.0556
  band No.  band energies     occupation 
      1      -1.1939      2.00000
      2       4.9725      2.00000
      3       5.2383      2.00000
      4       6.4787      1.44162
      5       7.4598      0.00000
      6       8.7358      0.00000
      7      22.0575      0.00000

 k-point    60 :      -0.1111    0.1667    0.0556
  band No.  band energies     occupation 
      1      -1.2993      2.00000
      2       5.1616      2.00000
      3       5.2584      2.00000
      4       6.2817      2.00000
      5       7.3293      0.00000
      6       8.8045      0.00000
      7      22.3233      0.00000

 k-point    61 :       0.2222    0.2222    0.0556
  band No.  band energies     occupation 
      1       2.1841      2.00000
      2       3.6916      2.00000
      3       4.1726      2.00000
      4       8.3642      0.00000
      5       9.0550      0.00000
      6      12.3514      0.00000
      7      16.2567      0.00000

 k-point    62 :       0.2778    0.2222    0.0556
  band No.  band energies     occupation 
      1       2.4203      2.00000
      2       3.6573      2.00000
      3       4.5005      2.00000
      4       8.5317      0.00000
      5       9.0900      0.00000
      6      13.4703      0.00000
      7      14.8488      0.00000

 k-point    63 :       0.3333    0.2222    0.0556
  band No.  band energies     occupation 
      1       2.4661      2.00000
      2       3.6419      2.00000
      3       4.8340      2.00000
      4       8.6284      0.00000
      5       9.1458      0.00000
      6      13.7602      0.00000
      7      14.4712      0.00000

 k-point    64 :      -0.2222    0.2222    0.0556
  band No.  band energies     occupation 
      1      -0.4832      2.00000
      2       4.6410      2.00000
      3       5.0061      2.00000
      4       7.2761      0.00000
      5       7.4204      0.00000
      6       8.8218      0.00000
      7      21.4515      0.00000

 k-point    65 :      -0.1667    0.2222    0.0556
  band No.  band energies     occupation 
      1      -0.6540      2.00000
      2       4.8969      2.00000
      3       5.0546      2.00000
      4       6.9605      0.00000
      5       7.1253      0.00000
      6       8.9285      0.00000
      7      22.0439      0.00000

 k-point    66 :       0.2778    0.2778    0.0556
  band No.  band energies     occupation 
      1       2.6502      2.00000
      2       3.8250      2.00000
      3       4.4544      2.00000
      4       8.7217      0.00000
      5       9.0721      0.00000
      6      13.5912      0.00000
      7      14.8905      0.00000

 k-point    67 :       0.3333    0.2778    0.0556
  band No.  band energies     occupation 
      1       2.7048      2.00000
      2       3.9362      2.00000
      3       4.4264      2.00000
      4       8.8307      0.00000
      5       9.0521      0.00000
      6      13.2200      0.00000
      7      15.6013      0.00000

 k-point    68 :      -0.2778    0.2778    0.0556
  band No.  band energies     occupation 
      1       0.2367      2.00000
      2       4.3131      2.00000
      3       4.8473      2.00000
      4       7.5907      0.00000
      5       8.2413      0.00000
      6       8.9106      0.00000
      7      20.1849      0.00000

 k-point    69 :      -0.2222    0.2778    0.0556
  band No.  band energies     occupation 
      1       0.0763      2.00000
      2       4.5677      2.00000
      3       4.8201      2.00000
      4       7.1859      0.00000
      5       7.8532      0.00000
      6       9.0280      0.00000
      7      20.7063      0.00000

 k-point    70 :      -0.1667    0.2778    0.0556
  band No.  band energies     occupation 
      1       0.0247      2.00000
      2       4.6905      2.00000
      3       4.7973      2.00000
      4       6.9992      0.00000
      5       7.7391      0.00000
      6       9.0764      0.00000
      7      20.9893      0.00000

 k-point    71 :      -0.3333    0.3333    0.0556
  band No.  band energies     occupation 
      1       0.7846      2.00000
      2       4.0249      2.00000
      3       4.9843      2.00000
      4       7.8677      0.00000
      5       9.0046      0.00000
      6       9.3090      0.00000
      7      18.7456      0.00000

 k-point    72 :      -0.2778    0.3333    0.0556
  band No.  band energies     occupation 
      1       0.7375      2.00000
      2       4.2606      2.00000
      3       4.7277      2.00000
      4       7.4507      0.00000
      5       8.8532      0.00000
      6       9.1380      0.00000
      7      19.3038      0.00000

 k-point    73 :      -0.2222    0.3333    0.0556
  band No.  band energies     occupation 
      1       0.7364      2.00000
      2       4.3319      2.00000
      3       4.6735      2.00000
      4       7.1213      0.00000
      5       8.6703      0.00000
      6       9.2164      0.00000
      7      19.6911      0.00000

 k-point    74 :      -0.3889    0.3889    0.0556
  band No.  band energies     occupation 
      1       1.0530      2.00000
      2       3.8024      2.00000
      3       5.4808      2.00000
      4       8.0899      0.00000
      5       9.1617      0.00000
      6      10.3637      0.00000
      7      17.2960      0.00000

 k-point    75 :      -0.3333    0.3889    0.0556
  band No.  band energies     occupation 
      1       1.1549      2.00000
      2       4.0178      2.00000
      3       4.9487      2.00000
      4       7.7640      0.00000
      5       9.1801      0.00000
      6      10.0154      0.00000
      7      17.8990      0.00000

 k-point    76 :      -0.2778    0.3889    0.0556
  band No.  band energies     occupation 
      1       1.3115      2.00000
      2       4.0833      2.00000
      3       4.6535      2.00000
      4       7.4123      0.00000
      5       9.0859      0.00000
      6       9.9658      0.00000
      7      18.3603      0.00000

 k-point    77 :      -0.2222    0.3889    0.0556
  band No.  band energies     occupation 
      1       1.3919      2.00000
      2       4.0013      2.00000
      3       4.6546      2.00000
      4       7.2509      0.00000
      5       9.0369      0.00000
      6       9.9794      0.00000
      7      18.5490      0.00000

 k-point    78 :      -0.4444    0.4444    0.0556
  band No.  band energies     occupation 
      1       1.1260      2.00000
      2       3.6625      2.00000
      3       6.0984      2.00000
      4       8.0950      0.00000
      5       9.4342      0.00000
      6      11.2015      0.00000
      7      16.1205      0.00000

 k-point    79 :      -0.3889    0.4444    0.0556
  band No.  band energies     occupation 
      1       1.3077      2.00000
      2       3.8486      2.00000
      3       5.4279      2.00000
      4       7.8964      0.00000
      5       9.4766      0.00000
      6      11.0127      0.00000
      7      16.5543      0.00000

 k-point    80 :      -0.3333    0.4444    0.0556
  band No.  band energies     occupation 
      1       1.6057      2.00000
      2       3.9570      2.00000
      3       4.8547      2.00000
      4       7.6840      0.00000
      5       9.2557      0.00000
      6      11.0849      0.00000
      7      16.9670      0.00000

 k-point    81 :      -0.2778    0.4444    0.0556
  band No.  band energies     occupation 
      1       1.8839      2.00000
      2       3.8092      2.00000
      3       4.6786      2.00000
      4       7.5294      0.00000
      5       9.0646      0.00000
      6      11.1798      0.00000
      7      17.2488      0.00000

 k-point    82 :       0.5000    0.5000    0.0556
  band No.  band energies     occupation 
      1       1.1340      2.00000
      2       3.6149      2.00000
      3       6.4044      1.99283
      4       8.0229      0.00000
      5       9.5956      0.00000
      6      11.5352      0.00000
      7      15.6445      0.00000

 k-point    83 :      -0.4444    0.5000    0.0556
  band No.  band energies     occupation 
      1       1.3331      2.00000
      2       3.7611      2.00000
      3       5.8466      2.00000
      4       7.8251      0.00000
      5       9.8441      0.00000
      6      11.6600      0.00000
      7      15.6285      0.00000

 k-point    84 :      -0.3889    0.5000    0.0556
  band No.  band energies     occupation 
      1       1.6797      2.00000
      2       3.8875      2.00000
      3       5.1869      2.00000
      4       7.7317      0.00000
      5       9.6336      0.00000
      6      12.0473      0.00000
      7      15.7104      0.00000

 k-point    85 :      -0.3333    0.5000    0.0556
  band No.  band energies     occupation 
      1       2.1002      2.00000
      2       3.8141      2.00000
      3       4.7404      2.00000
      4       7.7629      0.00000
      5       9.2427      0.00000
      6      12.3831      0.00000
      7      15.8888      0.00000

 k-point    86 :      -0.2778    0.5000    0.0556
  band No.  band energies     occupation 
      1       2.3469      2.00000
      2       3.6357      2.00000
      3       4.6437      2.00000
      4       7.8180      0.00000
      5       9.0388      0.00000
      6      12.5018      0.00000
      7      15.9941      0.00000

 k-point    87 :      -0.4444   -0.4444    0.0556
  band No.  band energies     occupation 
      1       1.6845      2.00000
      2       3.8629      2.00000
      3       5.3531      2.00000
      4       7.6929      0.00000
      5       9.8779      0.00000
      6      12.4730      0.00000
      7      15.1371      0.00000

 k-point    88 :      -0.3889   -0.4444    0.0556
  band No.  band energies     occupation 
      1       2.1397      2.00000
      2       3.8763      2.00000
      3       4.8080      2.00000
      4       7.8127      0.00000
      5       9.5707      0.00000
      6      13.3118      0.00000
      7      14.8344      0.00000

 k-point    89 :      -0.3333   -0.4444    0.0556
  band No.  band energies     occupation 
      1       2.5799      2.00000
      2       3.6943      2.00000
      3       4.4905      2.00000
      4       8.0986      0.00000
      5       9.1614      0.00000
      6      13.7077      0.00000
      7      14.9115      0.00000

 k-point    90 :      -0.3889   -0.3889    0.0556
  band No.  band energies     occupation 
      1       2.6260      2.00000
      2       3.8198      2.00000
      3       4.3590      2.00000
      4       8.1834      0.00000
      5       9.3015      0.00000
      6      14.1311      0.00000
      7      14.6288      0.00000

 k-point    91 :      -0.3333   -0.3889    0.0556
  band No.  band energies     occupation 
      1       2.9081      2.00000
      2       3.7527      2.00000
      3       4.1225      2.00000
      4       8.5458      0.00000
      5       8.9984      0.00000
      6      13.8785      0.00000
      7      15.4330      0.00000

 k-point    92 :       0.1111    0.1111    0.1111
  band No.  band energies     occupation 
      1       0.2241      2.00000
      2       4.2213      2.00000
      3       4.2213      2.00000
      4       8.3550      0.00000
      5       8.3550      0.00000
      6       8.8281      0.00000
      7      21.9571      0.00000

 k-point    93 :       0.1667    0.1111    0.1111
  band No.  band energies     occupation 
      1       0.9830      2.00000
      2       3.9316      2.00000
      3       4.0219      2.00000
      4       8.3658      0.00000
      5       8.6277      0.00000
      6       9.9576      0.00000
      7      20.3163      0.00000

 k-point    94 :       0.2222    0.1111    0.1111
  band No.  band energies     occupation 
      1       1.6252      2.00000
      2       3.7040      2.00000
      3       4.0950      2.00000
      4       8.4554      0.00000
      5       8.8424      0.00000
      6      11.1356      0.00000
      7      18.1213      0.00000

 k-point    95 :       0.2778    0.1111    0.1111
  band No.  band energies     occupation 
      1       1.9293      2.00000
      2       3.5417      2.00000
      3       4.6033      2.00000
      4       8.5610      0.00000
      5       9.0016      0.00000
      6      12.2471      0.00000
      7      16.2181      0.00000

 k-point    96 :       0.3333    0.1111    0.1111
  band No.  band energies     occupation 
      1       1.9835      2.00000
      2       3.4448      2.00000
      3       5.2856      2.00000
      4       8.6190      0.00000
      5       9.1021      0.00000
      6      13.1075      0.00000
      7      14.8361      0.00000

 k-point    97 :       0.3889    0.1111    0.1111
  band No.  band energies     occupation 
      1       1.9809      2.00000
      2       3.4126      2.00000
      3       5.6120      2.00000
      4       8.6254      0.00000
      5       9.1369      0.00000
      6      13.4638      0.00000
      7      14.2916      0.00000

 k-point    98 :      -0.1111    0.1111    0.1111
  band No.  band energies     occupation 
      1      -1.4079      2.00000
      2       5.4054      2.00000
      3       5.4054      2.00000
      4       5.9187      2.00000
      5       7.1800      0.00000
      6       8.8767      0.00000
      7      22.4470      0.00000

 k-point    99 :       0.1667    0.1667    0.1111
  band No.  band energies     occupation 
      1       1.7375      2.00000
      2       3.7648      2.00000
      3       3.7927      2.00000
      4       8.5159      0.00000
      5       8.7958      0.00000
      6      11.1753      0.00000
      7      18.4408      0.00000

 k-point   100 :       0.2222    0.1667    0.1111
  band No.  band energies     occupation 
      1       2.2933      2.00000
      2       3.6027      2.00000
      3       3.9540      2.00000
      4       8.6265      0.00000
      5       8.9717      0.00000
      6      12.3778      0.00000
      7      16.4847      0.00000

 k-point   101 :       0.2778    0.1667    0.1111
  band No.  band energies     occupation 
      1       2.4531      2.00000
      2       3.4994      2.00000
      3       4.5344      2.00000
      4       8.7239      0.00000
      5       9.0876      0.00000
      6      13.4106      0.00000
      7      14.8885      0.00000

 k-point   102 :       0.3333    0.1667    0.1111
  band No.  band energies     occupation 
      1       2.4516      2.00000
      2       3.4506      2.00000
      3       5.0564      2.00000
      4       8.7670      0.00000
      5       9.1517      0.00000
      6      13.7691      0.00000
      7      14.2321      0.00000

 k-point   103 :      -0.1667    0.1667    0.1111
  band No.  band energies     occupation 
      1      -0.8449      2.00000
      2       5.2498      2.00000
      3       5.3424      2.00000
      4       6.3921      1.99760
      5       6.7463      0.00000
      6       9.0378      0.00000
      7      22.6956      0.00000

 k-point   104 :       0.2222    0.2222    0.1111
  band No.  band energies     occupation 
      1       2.7222      2.00000
      2       3.6433      2.00000
      3       4.0360      2.00000
      4       8.7613      0.00000
      5       9.0749      0.00000
      6      13.5108      0.00000
      7      14.9689      0.00000

 k-point   105 :       0.2778    0.2222    0.1111
  band No.  band energies     occupation 
      1       2.8158      2.00000
      2       3.6504      2.00000
      3       4.4463      2.00000
      4       8.8707      0.00000
      5       9.1284      0.00000
      6      13.5192      0.00000
      7      14.7825      0.00000

 k-point   106 :       0.3333    0.2222    0.1111
  band No.  band energies     occupation 
      1       2.8184      2.00000
      2       3.6442      2.00000
      3       4.6688      2.00000
      4       8.9091      0.00000
      5       9.1528      0.00000
      6      13.1166      0.00000
      7      15.1932      0.00000

 k-point   107 :      -0.2222    0.2222    0.1111
  band No.  band energies     occupation 
      1      -0.1472      2.00000
      2       4.9591      2.00000
      3       5.0631      2.00000
      4       6.6860      0.00000
      5       7.1678      0.00000
      6       9.1456      0.00000
      7      21.3184      0.00000

 k-point   108 :      -0.1667    0.2222    0.1111
  band No.  band energies     occupation 
      1      -0.2211      2.00000
      2       5.1463      2.00000
      3       5.2175      2.00000
      4       6.4118      1.98684
      5       6.9080      0.00000
      6       9.1922      0.00000
      7      21.6785      0.00000

 k-point   109 :       0.2778    0.2778    0.1111
  band No.  band energies     occupation 
      1       2.9289      2.00000
      2       3.9517      2.00000
      3       4.3129      2.00000
      4       9.0052      0.00000
      5       9.1125      0.00000
      6      12.8623      0.00000
      7      15.8321      0.00000

 k-point   110 :      -0.2778    0.2778    0.1111
  band No.  band energies     occupation 
      1       0.5659      2.00000
      2       4.6538      2.00000
      3       4.7426      2.00000
      4       6.9508      0.00000
      5       8.1301      0.00000
      6       9.2115      0.00000
      7      19.9268      0.00000

 k-point   111 :      -0.2222    0.2778    0.1111
  band No.  band energies     occupation 
      1       0.4877      2.00000
      2       4.7300      2.00000
      3       5.0372      2.00000
      4       6.5150      0.65936
      5       7.7394      0.00000
      6       9.2769      0.00000
      7      20.3876      0.00000

 k-point   112 :      -0.3333    0.3333    0.1111
  band No.  band energies     occupation 
      1       1.1193      2.00000
      2       4.3808      2.00000
      3       4.6585      2.00000
      4       7.3344      0.00000
      5       9.2030      0.00000
      6       9.3014      0.00000
      7      18.6322      0.00000

 k-point   113 :      -0.2778    0.3333    0.1111
  band No.  band energies     occupation 
      1       1.1425      2.00000
      2       4.3741      2.00000
      3       4.8233      2.00000
      4       6.8793      0.00000
      5       8.7042      0.00000
      6       9.3830      0.00000
      7      19.1970      0.00000

 k-point   114 :      -0.2222    0.3333    0.1111
  band No.  band energies     occupation 
      1       1.1608      2.00000
      2       4.2808      2.00000
      3       5.0386      2.00000
      4       6.6340      0.00014
      5       8.5396      0.00000
      6       9.4154      0.00000
      7      19.4324      0.00000

 k-point   115 :      -0.3889    0.3889    0.1111
  band No.  band energies     occupation 
      1       1.3902      2.00000
      2       4.1683      2.00000
      3       4.9059      2.00000
      4       7.5739      0.00000
      5       9.6141      0.00000
      6      10.2689      0.00000
      7      17.3131      0.00000

 k-point   116 :      -0.3333    0.3889    0.1111
  band No.  band energies     occupation 
      1       1.5697      2.00000
      2       4.2510      2.00000
      3       4.6853      2.00000
      4       7.2420      0.00000
      5       9.3198      0.00000
      6      10.0592      0.00000
      7      17.9641      0.00000

 k-point   117 :      -0.2778    0.3889    0.1111
  band No.  band energies     occupation 
      1       1.7361      2.00000
      2       3.9453      2.00000
      3       4.9522      2.00000
      4       6.9752      0.00000
      5       8.9878      0.00000
      6      10.1033      0.00000
      7      18.3785      0.00000

 k-point   118 :      -0.4444    0.4444    0.1111
  band No.  band energies     occupation 
      1       1.4554      2.00000
      2       4.0343      2.00000
      3       5.2992      2.00000
      4       7.5257      0.00000
      5      10.2020      0.00000
      6      11.1212      0.00000
      7      16.0915      0.00000

 k-point   119 :      -0.3889    0.4444    0.1111
  band No.  band energies     occupation 
      1       1.7196      2.00000
      2       4.2424      2.00000
      3       4.7682      2.00000
      4       7.3308      0.00000
      5       9.8823      0.00000
      6      11.0838      0.00000
      7      16.6127      0.00000

 k-point   120 :      -0.3333    0.4444    0.1111
  band No.  band energies     occupation 
      1       2.0584      2.00000
      2       3.8886      2.00000
      3       4.8122      2.00000
      4       7.2787      0.00000
      5       9.2876      0.00000
      6      11.2548      0.00000
      7      17.0806      0.00000

 k-point   121 :      -0.2778    0.4444    0.1111
  band No.  band energies     occupation 
      1       2.2576      2.00000
      2       3.6178      2.00000
      3       4.9111      2.00000
      4       7.2995      0.00000
      5       9.0092      0.00000
      6      11.3210      0.00000
      7      17.2821      0.00000

 k-point   122 :       0.5000    0.5000    0.1111
  band No.  band energies     occupation 
      1       1.4588      2.00000
      2       3.9886      2.00000
      3       5.4992      2.00000
      4       7.4388      0.00000
      5      10.5516      0.00000
      6      11.4627      0.00000
      7      15.5311      0.00000

 k-point   123 :      -0.4444    0.5000    0.1111
  band No.  band energies     occupation 
      1       1.7345      2.00000
      2       4.2103      2.00000
      3       4.9699      2.00000
      4       7.2329      0.00000
      5      10.4799      0.00000
      6      11.8353      0.00000
      7      15.5290      0.00000

 k-point   124 :      -0.3889    0.5000    0.1111
  band No.  band energies     occupation 
      1       2.1316      2.00000
      2       4.0814      2.00000
      3       4.6471      2.00000
      4       7.3335      0.00000
      5       9.8449      0.00000
      6      12.3754      0.00000
      7      15.7227      0.00000

 k-point   125 :      -0.3333    0.5000    0.1111
  band No.  band energies     occupation 
      1       2.5641      2.00000
      2       3.5768      2.00000
      3       4.6655      2.00000
      4       7.6465      0.00000
      5       9.2285      0.00000
      6      12.6394      0.00000
      7      15.9879      0.00000

 k-point   126 :      -0.4444   -0.4444    0.1111
  band No.  band energies     occupation 
      1       2.1295      2.00000
      2       4.2526      2.00000
      3       4.5202      2.00000
      4       7.3087      0.00000
      5      10.1764      0.00000
      6      12.9774      0.00000
      7      14.9858      0.00000

 k-point   127 :      -0.3889   -0.4444    0.1111
  band No.  band energies     occupation 
      1       2.6168      2.00000
      2       3.8779      2.00000
      3       4.2913      2.00000
      4       7.7762      0.00000
      5       9.6213      0.00000
      6      13.8011      0.00000
      7      14.8527      0.00000

 k-point   128 :      -0.3333   -0.4444    0.1111
  band No.  band energies     occupation 
      1       3.0296      2.00000
      2       3.4341      2.00000
      3       4.2600      2.00000
      4       8.1891      0.00000
      5       9.1918      0.00000
      6      13.9166      0.00000
      7      15.1296      0.00000

 k-point   129 :      -0.3889   -0.3889    0.1111
  band No.  band energies     occupation 
      1       3.1582      2.00000
      2       3.7580      2.00000
      3       3.7595      2.00000
      4       8.4546      0.00000
      5       9.1922      0.00000
      6      14.1463      0.00000
      7      15.3722      0.00000

 k-point   130 :       0.1667    0.1667    0.1667
  band No.  band energies     occupation 
      1       2.5175      2.00000
      2       3.6095      2.00000
      3       3.6095      2.00000
      4       8.8263      0.00000
      5       8.8263      0.00000
      6      12.4277      0.00000
      7      16.6756      0.00000

 k-point   131 :       0.2222    0.1667    0.1667
  band No.  band energies     occupation 
      1       2.9702      2.00000
      2       3.5132      2.00000
      3       3.8466      2.00000
      4       8.8895      0.00000
      5       9.0306      0.00000
      6      13.5302      0.00000
      7      15.0468      0.00000

 k-point   132 :       0.2778    0.1667    0.1667
  band No.  band energies     occupation 
      1       2.9689      2.00000
      2       3.4624      2.00000
      3       4.4673      2.00000
      4       8.9407      0.00000
      5       9.1436      0.00000
      6      13.5022      0.00000
      7      14.7425      0.00000

 k-point   133 :       0.3333    0.1667    0.1667
  band No.  band energies     occupation 
      1       2.9430      2.00000
      2       3.4467      2.00000
      3       4.7597      2.00000
      4       8.9567      0.00000
      5       9.1793      0.00000
      6      13.0901      0.00000
      7      15.0556      0.00000

 k-point   134 :      -0.1667    0.1667    0.1667
  band No.  band energies     occupation 
      1      -0.3024      2.00000
      2       5.4940      2.00000
      3       5.4940      2.00000
      4       6.0168      2.00000
      5       6.4896      1.21951
      6       9.2377      0.00000
      7      22.1118      0.00000

 k-point   135 :       0.2222    0.2222    0.1667
  band No.  band energies     occupation 
      1       3.2724      2.00000
      2       3.6373      2.00000
      3       3.9584      2.00000
      4       9.0237      0.00000
      5       9.1200      0.00000
      6      13.4136      0.00000
      7      14.9830      0.00000

 k-point   136 :       0.2778    0.2222    0.1667
  band No.  band energies     occupation 
      1       3.2607      2.00000
      2       3.6679      2.00000
      3       4.3216      2.00000
      4       9.0798      0.00000
      5       9.1781      0.00000
      6      12.6975      0.00000
      7      15.7592      0.00000

 k-point   137 :      -0.2222    0.2222    0.1667
  band No.  band energies     occupation 
      1       0.3671      2.00000
      2       5.1303      2.00000
      3       5.4171      2.00000
      4       5.9666      2.00000
      5       7.0784      0.00000
      6       9.3339      0.00000
      7      20.9290      0.00000

 k-point   138 :       0.2778    0.2778    0.1667
  band No.  band energies     occupation 
      1       3.2891      2.00000
      2       4.0512      2.00000
      3       4.0512      2.00000
      4       9.1601      0.00000
      5       9.1601      0.00000
      6      12.3823      0.00000
      7      16.7782      0.00000

 k-point   139 :      -0.2778    0.2778    0.1667
  band No.  band energies     occupation 
      1       1.0552      2.00000
      2       4.5553      2.00000
      3       5.1893      2.00000
      4       6.3884      1.99831
      5       7.9914      0.00000
      6       9.3667      0.00000
      7      19.8666      0.00000

 k-point   140 :      -0.2222    0.2778    0.1667
  band No.  band energies     occupation 
      1       1.0290      2.00000
      2       4.6133      2.00000
      3       5.5002      2.00000
      4       6.0776      2.00000
      5       7.6888      0.00000
      6       9.3781      0.00000
      7      20.1573      0.00000

 k-point   141 :      -0.3333    0.3333    0.1667
  band No.  band energies     occupation 
      1       1.6041      2.00000
      2       4.2202      2.00000
      3       4.9548      2.00000
      4       6.8322      0.00000
      5       9.0549      0.00000
      6       9.4997      0.00000
      7      18.8142      0.00000

 k-point   142 :      -0.2778    0.3333    0.1667
  band No.  band energies     occupation 
      1       1.6476      2.00000
      2       4.0962      2.00000
      3       5.3804      2.00000
      4       6.4892      1.22704
      5       8.5516      0.00000
      6       9.4943      0.00000
      7      19.3656      0.00000

 k-point   143 :      -0.3889    0.3889    0.1667
  band No.  band energies     occupation 
      1       1.8715      2.00000
      2       4.2266      2.00000
      3       4.7645      2.00000
      4       7.0191      0.00000
      5      10.0361      0.00000
      6      10.1297      0.00000
      7      17.5194      0.00000

 k-point   144 :      -0.3333    0.3889    0.1667
  band No.  band energies     occupation 
      1       2.0706      2.00000
      2       3.8287      2.00000
      3       5.1883      2.00000
      4       6.8576      0.00000
      5       9.2680      0.00000
      6      10.1747      0.00000
      7      18.2703      0.00000

 k-point   145 :      -0.2778    0.3889    0.1667
  band No.  band energies     occupation 
      1       2.1767      2.00000
      2       3.6501      2.00000
      3       5.3800      2.00000
      4       6.8323      0.00000
      5       8.9086      0.00000
      6      10.2081      0.00000
      7      18.5876      0.00000

 k-point   146 :      -0.4444    0.4444    0.1667
  band No.  band energies     occupation 
      1       1.9156      2.00000
      2       4.4437      2.00000
      3       4.6424      2.00000
      4       6.9185      0.00000
      5      10.9567      0.00000
      6      11.0007      0.00000
      7      16.1092      0.00000

 k-point   147 :      -0.3889    0.4444    0.1667
  band No.  band energies     occupation 
      1       2.2027      2.00000
      2       3.8951      2.00000
      3       4.9958      2.00000
      4       6.9210      0.00000
      5      10.0329      0.00000
      6      11.2817      0.00000
      7      16.7904      0.00000

 k-point   148 :      -0.3333    0.4444    0.1667
  band No.  band energies     occupation 
      1       2.5192      2.00000
      2       3.4343      2.00000
      3       5.1473      2.00000
      4       7.2258      0.00000
      5       9.2513      0.00000
      6      11.4197      0.00000
      7      17.3111      0.00000

 k-point   149 :       0.5000    0.5000    0.1667
  band No.  band energies     occupation 
      1       1.9075      2.00000
      2       4.5706      2.00000
      3       4.6004      2.00000
      4       6.8262      0.00000
      5      11.3535      0.00000
      6      11.5323      0.00000
      7      15.3659      0.00000

 k-point   150 :      -0.4444    0.5000    0.1667
  band No.  band energies     occupation 
      1       2.1888      2.00000
      2       4.0905      2.00000
      3       4.8418      2.00000
      4       6.8385      0.00000
      5      10.7281      0.00000
      6      12.2958      0.00000
      7      15.4304      0.00000

 k-point   151 :      -0.3889    0.5000    0.1667
  band No.  band energies     occupation 
      1       2.5646      2.00000
      2       3.5776      2.00000
      3       4.8357      2.00000
      4       7.3719      0.00000
      5       9.8796      0.00000
      6      12.7221      0.00000
      7      15.8215      0.00000

 k-point   152 :      -0.3333    0.5000    0.1667
  band No.  band energies     occupation 
      1       2.9202      2.00000
      2       3.1717      2.00000
      3       4.7999      2.00000
      4       7.8348      0.00000
      5       9.3318      0.00000
      6      12.8324      0.00000
      7      16.1010      0.00000

 k-point   153 :      -0.4444   -0.4444    0.1667
  band No.  band energies     occupation 
      1       2.5362      2.00000
      2       3.7344      2.00000
      3       4.6574      2.00000
      4       7.3881      0.00000
      5      10.2431      0.00000
      6      13.6191      0.00000
      7      14.8261      0.00000

 k-point   154 :      -0.3889   -0.4444    0.1667
  band No.  band energies     occupation 
      1       2.9403      2.00000
      2       3.3587      2.00000
      3       4.4286      2.00000
      4       8.1982      0.00000
      5       9.5722      0.00000
      6      14.1203      0.00000
      7      15.0928      0.00000

 k-point   155 :      -0.3889   -0.3889    0.1667
  band No.  band energies     occupation 
      1       3.2162      2.00000
      2       3.2162      2.00000
      3       4.1873      2.00000
      4       9.0100      0.00000
      5       9.0100      0.00000
      6      14.3059      0.00000
      7      16.1005      0.00000

 k-point   156 :       0.2222    0.2222    0.2222
  band No.  band energies     occupation 
      1       3.6478      2.00000
      2       3.6478      2.00000
      3       3.9929      2.00000
      4       9.1644      0.00000
      5       9.1644      0.00000
      6      12.5559      0.00000
      7      15.9914      0.00000

 k-point   157 :       0.2778    0.2222    0.2222
  band No.  band energies     occupation 
      1       3.6539      2.00000
      2       3.7204      2.00000
      3       4.0891      2.00000
      4       9.1821      0.00000
      5       9.2073      0.00000
      6      12.2188      0.00000
      7      16.6636      0.00000

 k-point   158 :      -0.2222    0.2222    0.2222
  band No.  band energies     occupation 
      1       0.9863      2.00000
      2       4.8193      2.00000
      3       5.7932      2.00000
      4       5.7932      2.00000
      5       7.2450      0.00000
      6       9.3831      0.00000
      7      20.4812      0.00000

 k-point   159 :      -0.2778    0.2778    0.2222
  band No.  band energies     occupation 
      1       1.6059      2.00000
      2       4.2123      2.00000
      3       5.8376      2.00000
      4       6.1636      2.00000
      5       7.9179      0.00000
      6       9.3775      0.00000
      7      20.0386      0.00000

 k-point   160 :      -0.3333    0.3333    0.2222
  band No.  band energies     occupation 
      1       2.1004      2.00000
      2       3.7394      2.00000
      3       5.7094      2.00000
      4       6.5781      0.02602
      5       8.9084      0.00000
      6       9.5754      0.00000
      7      19.2961      0.00000

 k-point   161 :      -0.2778    0.3333    0.2222
  band No.  band energies     occupation 
      1       2.1149      2.00000
      2       3.7026      2.00000
      3       5.9888      2.00000
      4       6.4981      1.02979
      5       8.5303      0.00000
      6       9.5068      0.00000
      7      19.7681      0.00000

 k-point   162 :      -0.3889    0.3889    0.2222
  band No.  band energies     occupation 
      1       2.3319      2.00000
      2       3.5638      2.00000
      3       5.5674      2.00000
      4       6.7123      0.00000
      5       9.9714      0.00000
      6      10.3223      0.00000
      7      17.8892      0.00000

 k-point   163 :      -0.3333    0.3889    0.2222
  band No.  band energies     occupation 
      1       2.4620      2.00000
      2       3.3188      2.00000
      3       5.8674      2.00000
      4       6.9023      0.00000
      5       9.1921      0.00000
      6      10.2535      0.00000
      7      18.7227      0.00000

 k-point   164 :      -0.4444    0.4444    0.2222
  band No.  band energies     occupation 
      1       2.3219      2.00000
      2       3.6483      2.00000
      3       5.4683      2.00000
      4       6.6078      0.00217
      5      10.8571      0.00000
      6      11.5409      0.00000
      7      16.1877      0.00000

 k-point   165 :      -0.3889    0.4444    0.2222
  band No.  band energies     occupation 
      1       2.5283      2.00000
      2       3.2405      2.00000
      3       5.6775      2.00000
      4       7.0417      0.00000
      5      10.0064      0.00000
      6      11.4889      0.00000
      7      17.0287      0.00000

 k-point   166 :      -0.3333    0.4444    0.2222
  band No.  band energies     occupation 
      1       2.7197      2.00000
      2       2.9799      2.00000
      3       5.6565      2.00000
      4       7.5375      0.00000
      5       9.3883      0.00000
      6      11.5230      0.00000
      7      17.4627      0.00000

 k-point   167 :       0.5000    0.5000    0.2222
  band No.  band energies     occupation 
      1       2.2893      2.00000
      2       3.7191      2.00000
      3       5.4333      2.00000
      4       6.5323      0.35187
      5      11.2223      0.00000
      6      12.3963      0.00000
      7      15.1657      0.00000

 k-point   168 :      -0.4444    0.5000    0.2222
  band No.  band energies     occupation 
      1       2.4524      2.00000
      2       3.3295      2.00000
      3       5.5395      2.00000
      4       7.0328      0.00000
      5      10.7125      0.00000
      6      12.8146      0.00000
      7      15.3617      0.00000

 k-point   169 :      -0.3889    0.5000    0.2222
  band No.  band energies     occupation 
      1       2.6834      2.00000
      2       2.9803      2.00000
      3       5.4030      2.00000
      4       7.9377      0.00000
      5       9.8625      0.00000
      6      12.9699      0.00000
      7      15.9532      0.00000

 k-point   170 :      -0.4444   -0.4444    0.2222
  band No.  band energies     occupation 
      1       2.6121      2.00000
      2       3.0482      2.00000
      3       5.2953      2.00000
      4       8.0333      0.00000
      5      10.1812      0.00000
      6      14.2212      0.00000
      7      14.6958      0.00000

 k-point   171 :      -0.3889   -0.4444    0.2222
  band No.  band energies     occupation 
      1       2.7661      2.00000
      2       2.8561      2.00000
      3       5.1859      2.00000
      4       8.8087      0.00000
      5       9.6010      0.00000
      6      14.3178      0.00000
      7      15.3133      0.00000

 k-point   172 :      -0.2778    0.2778    0.2778
  band No.  band energies     occupation 
      1       2.0916      2.00000
      2       3.7287      2.00000
      3       6.3747      1.99958
      4       6.3747      1.99958
      5       8.1315      0.00000
      6       9.3592      0.00000
      7      20.3686      0.00000

 k-point   173 :      -0.3333    0.3333    0.2778
  band No.  band energies     occupation 
      1       2.4229      2.00000
      2       3.2605      2.00000
      3       6.5572      0.10208
      4       6.7595      0.00000
      5       8.8461      0.00000
      6       9.6129      0.00000
      7      20.0024      0.00000

 k-point   174 :      -0.3889    0.3889    0.2778
  band No.  band energies     occupation 
      1       2.5385      2.00000
      2       2.9781      2.00000
      3       6.5355      0.30748
      4       6.9299      0.00000
      5       9.8279      0.00000
      6      10.4959      0.00000
      7      18.2550      0.00000

 k-point   175 :      -0.3333    0.3889    0.2778
  band No.  band energies     occupation 
      1       2.5647      2.00000
      2       2.8643      2.00000
      3       6.6479      0.00003
      4       7.3406      0.00000
      5       9.3210      0.00000
      6      10.3255      0.00000
      7      18.9490      0.00000

 k-point   176 :      -0.4444    0.4444    0.2778
  band No.  band energies     occupation 
      1       2.4337      2.00000
      2       2.9635      2.00000
      3       6.4836      1.34541
      4       6.8957      0.00000
      5      10.7099      0.00000
      6      11.9183      0.00000
      7      16.2744      0.00000

 k-point   177 :      -0.3889    0.4444    0.2778
  band No.  band energies     occupation 
      1       2.5076      2.00000
      2       2.6845      2.00000
      3       6.5372      0.28550
      4       7.7368      0.00000
      5       9.9765      0.00000
      6      11.6391      0.00000
      7      17.1533      0.00000

 k-point   178 :       0.5000    0.5000    0.2778
  band No.  band energies     occupation 
      1       2.3699      2.00000
      2       2.9857      2.00000
      3       6.4617      1.71423
      4       6.8589      0.00000
      5      11.0861      0.00000
      6      13.0693      0.00000
      7      14.9444      0.00000

 k-point   179 :      -0.4444    0.5000    0.2778
  band No.  band energies     occupation 
      1       2.3680      2.00000
      2       2.6899      2.00000
      3       6.4501      1.83738
      4       7.8479      0.00000
      5      10.6226      0.00000
      6      13.1810      0.00000
      7      15.3197      0.00000

 k-point   180 :      -0.3889    0.5000    0.2778
  band No.  band energies     occupation 
      1       2.4313      2.00000
      2       2.5219      2.00000
      3       6.3849      1.99880
      4       8.6331      0.00000
      5      10.0149      0.00000
      6      13.1470      0.00000
      7      15.9098      0.00000

 k-point   181 :      -0.4444   -0.4444    0.2778
  band No.  band energies     occupation 
      1       2.3769      2.00000
      2       2.4908      2.00000
      3       6.3249      2.00000
      4       8.9968      0.00000
      5      10.0738      0.00000
      6      14.6433      0.00000
      7      14.6767      0.00000

 k-point   182 :      -0.3333    0.3333    0.3333
  band No.  band energies     occupation 
      1       2.5084      2.00000
      2       2.8257      2.00000
      3       7.2717      0.00000
      4       7.2718      0.00000
      5       9.0653      0.00000
      6       9.8596      0.00000
      7      19.9877      0.00000

 k-point   183 :      -0.3889    0.3889    0.3333
  band No.  band energies     occupation 
      1       2.4390      2.00000
      2       2.5056      2.00000
      3       7.5822      0.00000
      4       7.6602      0.00000
      5       9.7579      0.00000
      6      10.7014      0.00000
      7      18.2341      0.00000

 k-point   184 :      -0.4444    0.4444    0.3333
  band No.  band energies     occupation 
      1       2.2422      2.00000
      2       2.4198      2.00000
      3       7.6425      0.00000
      4       7.7735      0.00000
      5      10.5798      0.00000
      6      12.1598      0.00000
      7      16.2394      0.00000

 k-point   185 :      -0.3889    0.4444    0.3333
  band No.  band energies     occupation 
      1       2.2256      2.00000
      2       2.2999      2.00000
      3       7.6592      0.00000
      4       8.5151      0.00000
      5      10.1322      0.00000
      6      11.8418      0.00000
      7      16.8825      0.00000

 k-point   186 :       0.5000    0.5000    0.3333
  band No.  band energies     occupation 
      1       2.1666      2.00000
      2       2.3942      2.00000
      3       7.6469      0.00000
      4       7.7865      0.00000
      5      10.9610      0.00000
      6      13.5266      0.00000
      7      14.7076      0.00000

 k-point   187 :      -0.4444    0.5000    0.3333
  band No.  band energies     occupation 
      1       2.0941      2.00000
      2       2.1978      2.00000
      3       7.6387      0.00000
      4       8.9406      0.00000
      5      10.5427      0.00000
      6      13.4036      0.00000
      7      15.2412      0.00000

 k-point   188 :      -0.4444   -0.4444    0.3333
  band No.  band energies     occupation 
      1       2.0807      2.00000
      2       2.0807      2.00000
      3       7.6099      0.00000
      4       9.9696      0.00000
      5       9.9696      0.00000
      6      14.7027      0.00000
      7      14.9633      0.00000

 k-point   189 :      -0.3889    0.3889    0.3889
  band No.  band energies     occupation 
      1       2.1562      2.00000
      2       2.2228      2.00000
      3       8.4738      0.00000
      4       8.4738      0.00000
      5       9.9230      0.00000
      6      11.2469      0.00000
      7      17.4103      0.00000

 k-point   190 :      -0.4444    0.4444    0.3889
  band No.  band energies     occupation 
      1       1.9542      2.00000
      2       2.0335      2.00000
      3       8.8577      0.00000
      4       8.9174      0.00000
      5      10.4931      0.00000
      6      12.4291      0.00000
      7      15.9137      0.00000

 k-point   191 :       0.5000    0.5000    0.3889
  band No.  band energies     occupation 
      1       1.8892      2.00000
      2       1.9608      2.00000
      3       8.9241      0.00000
      4       9.0272      0.00000
      5      10.8610      0.00000
      6      13.7935      0.00000
      7      14.4440      0.00000

 k-point   192 :      -0.4444    0.5000    0.3889
  band No.  band energies     occupation 
      1       1.8301      2.00000
      2       1.8664      2.00000
      3       8.9686      0.00000
      4       9.8968      0.00000
      5      10.5840      0.00000
      6      13.6147      0.00000
      7      14.9882      0.00000

 k-point   193 :      -0.4444    0.4444    0.4444
  band No.  band energies     occupation 
      1       1.7458      2.00000
      2       1.7901      2.00000
      3       9.8709      0.00000
      4       9.8709      0.00000
      5      10.5446      0.00000
      6      12.9977      0.00000
      7      15.1542      0.00000

 k-point   194 :       0.5000    0.5000    0.4444
  band No.  band energies     occupation 
      1       1.6822      2.00000
      2       1.6965      2.00000
      3      10.1412      0.00000
      4      10.2172      0.00000
      5      10.7967      0.00000
      6      13.9224      0.00000
      7      14.1433      0.00000

 k-point   195 :       0.5000    0.5000    0.5000
  band No.  band energies     occupation 
      1       1.6077      2.00000
      2       1.6077      2.00000
      3      10.7745      0.00000
      4      10.7746      0.00000
      5      10.7746      0.00000
      6      13.9595      0.00000
      7      13.9595      0.00000


--------------------------------------------------------------------------------------------------------


 soft charge-density along one line, spin component            1
         0         1         2         3         4         5         6         7         8         9
 total charge-density along one line
 
 pseudopotential strength for first ion, spin component:            1
 -7.207   0.013   0.000  -0.000  -0.000  -8.232   0.015   0.000
  0.013  -7.216  -0.000  -0.000   0.000   0.015  -8.243  -0.000
  0.000  -0.000  -7.198  -0.000  -0.000   0.000  -0.000  -8.221
 -0.000  -0.000  -0.000  -7.216  -0.013  -0.000  -0.000  -0.000
 -0.000   0.000  -0.000  -0.013  -7.207  -0.000   0.000  -0.000
 -8.232   0.015   0.000  -0.000  -0.000  -9.384   0.018   0.000
  0.015  -8.243  -0.000  -0.000   0.000   0.018  -9.396  -0.000
  0.000  -0.000  -8.221  -0.000  -0.000   0.000  -0.000  -9.371
 -0.000  -0.000  -0.000  -8.243  -0.015  -0.000  -0.000  -0.000
 -0.000   0.000  -0.000  -0.015  -8.232  -0.000   0.000  -0.000
  0.000   0.000  -0.000   0.000  -0.000   0.000   0.000  -0.000
  0.000   0.000  -0.000   0.000  -0.000   0.000   0.000  -0.000
 -0.000  -0.000  -0.000   0.000   0.000  -0.000  -0.000  -0.000
  0.000  -0.000   0.000   0.000   0.000   0.000  -0.000   0.000
 -0.000   0.000   0.000   0.000  -0.000  -0.000   0.000   0.000
 -0.000  -0.000  -0.000   0.000   0.000  -0.000  -0.000   0.000
  0.000  -0.000   0.000   0.000   0.000   0.000  -0.000   0.000
 -0.000   0.000   0.000   0.000  -0.000  -0.000   0.000   0.000
 total augmentation occupancy for first ion, spin component:            1
  5.885   0.453  -0.000  -0.000   0.000  -3.202  -0.121   0.000   0.000  -0.000  -0.000   0.000   0.000   0.000   0.000   0.000
  0.453   5.565  -0.000  -0.000   0.000  -0.121  -3.116   0.000   0.000  -0.000   0.000  -0.000   0.000   0.000   0.000   0.000
 -0.000  -0.000   6.205  -0.000   0.000   0.000   0.000  -3.288   0.000  -0.000  -0.000   0.000   0.000   0.000   0.000   0.000
 -0.000  -0.000  -0.000   5.565  -0.453   0.000   0.000   0.000  -3.116   0.121   0.000  -0.000   0.000   0.000   0.000   0.000
  0.000   0.000   0.000  -0.453   5.885  -0.000  -0.000  -0.000   0.121  -3.202   0.000  -0.000   0.000   0.000   0.000   0.000
 -3.202  -0.121   0.000   0.000  -0.000   1.796   0.011  -0.000  -0.000   0.000   0.000  -0.000   0.000   0.000   0.000   0.000
 -0.121  -3.116   0.000   0.000  -0.000   0.011   1.788  -0.000  -0.000   0.000  -0.000   0.000   0.000   0.000   0.000   0.000
  0.000   0.000  -3.288   0.000  -0.000  -0.000  -0.000   1.804  -0.000   0.000   0.000  -0.000   0.000   0.000   0.000   0.000
  0.000   0.000   0.000  -3.116   0.121  -0.000  -0.000  -0.000   1.788  -0.011  -0.000   0.000   0.000   0.000   0.000   0.000
 -0.000  -0.000  -0.000   0.121  -3.202   0.000   0.000   0.000  -0.011   1.796  -0.000   0.000   0.000   0.000   0.000   0.000
 -0.000   0.000  -0.000   0.000   0.000   0.000  -0.000   0.000  -0.000  -0.000   2.071  -0.230   0.000   0.000   0.000   0.000
  0.000  -0.000   0.000  -0.000  -0.000  -0.000   0.000  -0.000   0.000   0.000  -0.230   0.030   0.000   0.000   0.000   0.000
  0.000   0.000   0.000   0.000   0.000   0.000   0.000   0.000   0.000   0.000   0.000   0.000   0.304  -0.000   0.000  -0.019
  0.000   0.000   0.000   0.000   0.000   0.000   0.000   0.000   0.000   0.000   0.000   0.000  -0.000   0.304  -0.000   0.000
  0.000   0.000   0.000   0.000   0.000   0.000   0.000   0.000   0.000   0.000   0.000   0.000   0.000  -0.000   0.304  -0.000
  0.000   0.000   0.000   0.000   0.000   0.000   0.000   0.000   0.000   0.000   0.000   0.000  -0.019   0.000  -0.000   0.001
  0.000   0.000   0.000   0.000   0.000   0.000   0.000   0.000   0.000   0.000   0.000   0.000   0.000  -0.019   0.000  -0.000
  0.000   0.000   0.000   0.000   0.000   0.000   0.000   0.000   0.000   0.000   0.000   0.000  -0.000   0.000  -0.019   0.000


------------------------ aborting loop because EDIFF is reached ----------------------------------------


    CHARGE:  cpu time      0.2494: real time      0.7747
    FORLOC:  cpu time      0.0033: real time      0.0145
    FORNL :  cpu time      0.6993: real time      2.3249
    STRESS:  cpu time      5.8205: real time     18.7667
    FORCOR:  cpu time      0.0057: real time      0.0121
    FORHAR:  cpu time      0.0013: real time      0.0027
    MIXING:  cpu time      0.0075: real time      0.0087
    OFIELD:  cpu time      0.0000: real time      0.0000

  FORCE on cell =-STRESS in cart. coord.  units (eV):
  Direction    XX          YY          ZZ          XY          YZ          ZX
  --------------------------------------------------------------------------------------
  Alpha Z    40.66777    40.66777    40.66777
  Ewald     -95.36331   -95.36331   -95.36336     0.00001     0.00001     0.00001
  Hartree     1.02220     1.02220     1.02220     0.00000    -0.00000    -0.00000
  E(xc)     -25.95545   -25.95545   -25.95545     0.00000     0.00000     0.00000
  Local       9.59678     9.59678     9.59679    -0.00000     0.00000     0.00000
  n-local   -13.89313   -16.23563    -9.31062    -0.13804    -1.03795    -0.36320
  augment     5.27233     5.27233     5.27233     0.00000    -0.00000    -0.00000
  Kinetic    77.54965    76.99650    69.67318     1.68448     0.61261    -0.72018
  Fock        0.00000     0.00000     0.00000     0.00000     0.00000     0.00000
  -------------------------------------------------------------------------------------
  Total      -3.16638    -3.16638    -3.16638    -0.00000     0.00000     0.00000
  in kB    -283.07136  -283.07138  -283.07161    -0.00000     0.00013     0.00007
  external pressure =     -283.07 kB  Pullay stress =        0.00 kB


 VOLUME and BASIS-vectors are now :
 -----------------------------------------------------------------------------
  energy-cutoff  :      450.00
  volume of cell :       17.92
      direct lattice vectors                 reciprocal lattice vectors
     2.692093446  0.000000000 -0.951799888     0.371458131  0.214461441  0.000000001
    -1.346046718  2.331421425 -0.951799888     0.000000001  0.428922884  0.000000002
    -0.000000000 -0.000000010  2.855397574     0.123819468  0.214461599  0.350213929

  length of vectors
     2.855396671  2.855396759  2.855397574     0.428922899  0.428922884  0.428922876


 FORCES acting on ions
    electron-ion (+dipol)            ewald-force                    non-local-force                 convergence-correction
 -----------------------------------------------------------------------------------------------
   -.752E-15 0.317E-15 -.184E-15   0.123E-15 -.611E-16 -.524E-15   -.579E-23 0.000E+00 0.000E+00   0.353E-15 0.477E-15 0.195E-15
 -----------------------------------------------------------------------------------------------
   -.752E-15 0.317E-15 -.184E-15   0.123E-15 -.611E-16 -.524E-15   -.579E-23 0.000E+00 0.000E+00   0.353E-15 0.477E-15 0.195E-15
 
 
 POSITION                                       TOTAL-FORCE (eV/Angst)
 -----------------------------------------------------------------------------------
      0.00000      0.00000      0.00000         0.000000      0.000000      0.000000
 -----------------------------------------------------------------------------------
    total drift:                               -0.000000      0.000000     -0.000000


--------------------------------------------------------------------------------------------------------



  FREE ENERGIE OF THE ION-ELECTRON SYSTEM (eV)
  ---------------------------------------------------
  free  energy   TOTEN  =       -12.82017088 eV

  energy  without entropy=      -12.81874902  energy(sigma->0) =      -12.81945995
 


--------------------------------------------------------------------------------------------------------


    POTLOK:  cpu time      0.0206: real time      0.0396


--------------------------------------------------------------------------------------------------------


     LOOP+:  cpu time     39.3822: real time    136.5012
    4ORBIT:  cpu time      0.0000: real time      0.0000

 total amount of memory used by VASP MPI-rank0    56265. kBytes
=======================================================================

   base      :      30000. kBytes
   nonl-proj :      11294. kBytes
   fftplans  :       2284. kBytes
   grid      :       3500. kBytes
   one-center:         15. kBytes
   wavefun   :       9172. kBytes
 
  
  
 General timing and accounting informations for this job:
 ========================================================
  
                  Total CPU time used (sec):       41.347
                            User time (sec):       39.999
                          System time (sec):        1.348
                         Elapsed time (sec):      143.144
  
                   Maximum memory used (kb):     1472280.
                   Average memory used (kb):          N/A
  
                          Minor page faults:       372097
                          Major page faults:            0
                 Voluntary context switches:        30413
