    2    2    1    1
  0.3348149E+02  0.4060800E-09  0.4060800E-09  0.4060800E-09  0.5000000E-15
   1.0000000000000000E-004
  CAR 
 unknown system                          
      2    120      5
 
  0.1262379E-14  0.1262379E-14  0.1262379E-14  0.2962963E-03
      1         -2.583828   1.000000
      2          5.595817   0.000000
      3          5.595817   0.000000
      4          6.158080   0.000000
      5          6.158080   0.000000
 
  0.6666667E-01  0.1262379E-14  0.1262379E-14  0.1777778E-02
      1         -2.542123   1.000000
      2          4.916140   0.000000
      3          5.636220   0.000000
      4          6.191845   0.000000
      5          6.191845   0.000000
 
  0.1333333E+00  0.1262379E-14  0.1262379E-14  0.1777778E-02
      1         -2.417138   1.000000
      2          4.007399   0.000000
      3          5.757426   0.000000
      4          6.293211   0.000000
      5          6.293211   0.000000
 
  0.2000000E+00  0.1262379E-14  0.1262379E-14  0.1777778E-02
      1         -2.209373   1.000000
      2          3.108685   0.000000
      3          5.959424   0.000000
      4          6.462405   0.000000
      5          6.462405   0.000000
 
  0.2666667E+00  0.1262379E-14  0.1262379E-14  0.1777778E-02
      1         -1.919638   1.000000
      2          2.250291   0.000000
      3          6.242201   0.000000
      4          6.699792   0.000000
      5          6.699792   0.000000
 
  0.3333333E+00  0.1262379E-14  0.1262379E-14  0.1777778E-02
      1         -1.549080   1.000000
      2          1.446051   0.000000
      3          6.605729   0.000000
      4          7.005846   0.000000
      5          7.005846   0.000000
 
  0.4000000E+00  0.1262379E-14  0.1262379E-14  0.1777778E-02
      1         -1.099238   1.000000
      2          0.704159   1.000000
      3          7.049973   0.000000
      4          7.381139   0.000000
      5          7.381139   0.000000
 
  0.4666667E+00  0.1262379E-14  0.1262379E-14  0.1777778E-02
      1         -0.572024   1.000000
      2          0.030135   1.000000
      3          7.574878   0.000000
      4          7.826268   0.000000
      5          7.826268   0.000000
 
  0.6666667E-01  0.6666667E-01  0.1262379E-14  0.3555556E-02
      1         -2.500431   1.000000
      2          4.797422   0.000000
      3          5.167915   0.000000
      4          6.225602   0.000000
      5          6.452518   0.000000
 
  0.1333333E+00  0.6666667E-01  0.1262379E-14  0.7111111E-02
      1         -2.375532   1.000000
      2          4.023586   0.000000
      3          5.160178   0.000000
      4          6.326948   0.000000
      5          6.622583   0.000000
 
  0.2000000E+00  0.6666667E-01  0.1262379E-14  0.7111111E-02
      1         -2.167897   1.000000
      2          3.140356   0.000000
      3          5.337444   0.000000
      4          6.496105   0.000000
      5          6.825293   0.000000
 
  0.2666667E+00  0.6666667E-01  0.1262379E-14  0.7111111E-02
      1         -1.878356   1.000000
      2          2.286520   0.000000
      3          5.598961   0.000000
      4          6.733431   0.000000
      5          7.096063   0.000000
 
  0.3333333E+00  0.6666667E-01  0.1262379E-14  0.7111111E-02
      1         -1.508045   1.000000
      2          1.484201   0.000000
      3          5.937667   0.000000
      4          7.039394   0.000000
      5          7.440064   0.000000
 
  0.4000000E+00  0.6666667E-01  0.1262379E-14  0.7111111E-02
      1         -1.058510   1.000000
      2          0.743339   1.000000
      3          6.351685   0.000000
      4          7.414546   0.000000
      5          7.858545   0.000000
 
  0.4666667E+00  0.6666667E-01  0.1262379E-14  0.7111111E-02
      1         -0.531683   1.000000
      2          0.069986   1.000000
      3          6.839956   0.000000
      4          7.401522   0.000000
      5          7.859466   0.000000
 
  0.1333333E+00  0.1333333E+00  0.1262379E-14  0.3555556E-02
      1         -2.250871   1.000000
      2          3.921566   0.000000
      3          4.482373   0.000000
      4          6.428231   0.000000
      5          6.878652   0.000000
 
  0.2000000E+00  0.1333333E+00  0.1262379E-14  0.7111111E-02
      1         -2.043642   1.000000
      2          3.221718   0.000000
      3          4.474974   0.000000
      4          6.597271   0.000000
      5          7.121288   0.000000
 
  0.2666667E+00  0.1333333E+00  0.1262379E-14  0.7111111E-02
      1         -1.754668   1.000000
      2          2.392578   0.000000
      3          4.710319   0.000000
      4          6.834399   0.000000
      5          7.419117   0.000000
 
  0.3333333E+00  0.1333333E+00  0.1262379E-14  0.7111111E-02
      1         -1.385106   1.000000
      2          1.597832   0.000000
      3          5.040305   0.000000
      4          7.140052   0.000000
      5          7.787273   0.000000
 
  0.4000000E+00  0.1333333E+00  0.1262379E-14  0.7111111E-02
      1         -0.936503   1.000000
      2          0.860510   0.949503
      3          5.449947   0.000000
      4          7.126771   0.000000
      5          7.514728   0.000000
 
  0.4666667E+00  0.1333333E+00  0.1262379E-14  0.7111111E-02
      1         -0.410855   1.000000
      2          0.189298   1.000000
      3          5.935415   0.000000
      4          6.494843   0.000000
      5          7.958920   0.000000
 
  0.2000000E+00  0.2000000E+00  0.1262379E-14  0.3555556E-02
      1         -1.837094   1.000000
      2          3.185167   0.000000
      3          3.804619   0.000000
      4          6.766085   0.000000
      5          7.385899   0.000000
 
  0.2666667E+00  0.2000000E+00  0.1262379E-14  0.7111111E-02
      1         -1.549069   1.000000
      2          2.551731   0.000000
      3          3.846118   0.000000
      4          7.002828   0.000000
      5          7.698030   0.000000
 
  0.3333333E+00  0.2000000E+00  0.1262379E-14  0.7111111E-02
      1         -1.180771   1.000000
      2          1.783319   0.000000
      3          4.152888   0.000000
      4          6.943029   0.000000
      5          7.307859   0.000000
 
  0.4000000E+00  0.2000000E+00  0.1262379E-14  0.7111111E-02
      1         -0.733760   1.000000
      2          1.054299   0.000061
      3          4.558197   0.000000
      4          6.238780   0.000000
      5          7.681542   0.000000
 
  0.4666667E+00  0.2000000E+00  0.1262379E-14  0.7111111E-02
      1         -0.210145   1.000000
      2          0.387269   1.000000
      3          5.043851   0.000000
      4          5.604928   0.000000
      5          8.124131   0.000000
 
  0.2666667E+00  0.2666667E+00  0.1262379E-14  0.3555556E-02
      1         -1.262417   1.000000
      2          2.595669   0.000000
      3          3.213926   0.000000
      4          6.879480   0.000000
      5          7.238903   0.000000
 
  0.3333333E+00  0.2666667E+00  0.1262379E-14  0.7111111E-02
      1         -0.895908   1.000000
      2          2.024450   0.000000
      3          3.328515   0.000000
      4          6.105436   0.000000
      5          7.542805   0.000000
 
  0.4000000E+00  0.2666667E+00  0.1262379E-14  0.7111111E-02
      1         -0.451232   1.000000
      2          1.320900   0.000000
      3          3.714288   0.000000
      4          5.398057   0.000000
      5          7.914573   0.000000
 
  0.4666667E+00  0.2666667E+00  0.1262379E-14  0.7111111E-02
      1          0.069312   1.000000
      2          0.662215   1.000000
      3          4.198020   0.000000
      4          4.761099   0.000000
      5          8.353826   0.000000
 
  0.3333333E+00  0.3333333E+00  0.1262379E-14  0.3555556E-02
      1         -0.531827   1.000000
      2          2.153878   0.000000
      3          2.748754   0.000000
      4          5.327954   0.000000
      5          7.844688   0.000000
 
  0.4000000E+00  0.3333333E+00  0.1262379E-14  0.7111111E-02
      1         -0.090393   1.000000
      2          1.644816   0.000000
      3          2.947167   0.000000
      4          4.616923   0.000000
      5          8.212755   0.000000
 
  0.4666667E+00  0.3333333E+00  0.1262379E-14  0.7111111E-02
      1          0.425485   1.000000
      2          1.010143   0.004768
      3          3.414506   0.000000
      4          3.977096   0.000000
      5          8.644767   0.000000
 
  0.4000000E+00  0.4000000E+00  0.1262379E-14  0.3555556E-02
      1          0.346335   1.000000
      2          1.859612   0.000000
      3          2.429642   0.000000
      4          3.902764   0.000000
      5          8.573243   0.000000
 
  0.4666667E+00  0.4000000E+00  0.1262379E-14  0.7111111E-02
      1          0.854034   0.965865
      2          1.415824   0.000000
      3          2.714503   0.000000
      4          3.262748   0.000000
      5          8.987542   0.000000
 
  0.4666667E+00  0.4666667E+00  0.1262379E-14  0.3555556E-02
      1          1.339288   0.000000
      2          1.712576   0.000000
      3          2.267634   0.000000
      4          2.636375   0.000000
      5          9.347417   0.000000
 
  0.6666667E-01  0.6666667E-01  0.6666667E-01  0.2370370E-02
      1         -2.458769   1.000000
      2          4.835182   0.000000
      3          4.835182   0.000000
      4          5.858428   0.000000
      5          7.145550   0.000000
 
  0.1333333E+00  0.6666667E-01  0.6666667E-01  0.7111111E-02
      1         -2.333951   1.000000
      2          4.044210   0.000000
      3          4.948435   0.000000
      4          5.846781   0.000000
      5          7.254918   0.000000
 
  0.2000000E+00  0.6666667E-01  0.6666667E-01  0.7111111E-02
      1         -2.126449   1.000000
      2          3.172301   0.000000
      3          5.137106   0.000000
      4          5.998922   0.000000
      5          7.437518   0.000000
 
  0.2666667E+00  0.6666667E-01  0.6666667E-01  0.7111111E-02
      1         -1.837100   1.000000
      2          2.322720   0.000000
      3          5.401077   0.000000
      4          6.241441   0.000000
      5          7.693811   0.000000
 
  0.3333333E+00  0.6666667E-01  0.6666667E-01  0.7111111E-02
      1         -1.467038   1.000000
      2          1.522298   0.000000
      3          5.740179   0.000000
      4          6.560410   0.000000
      5          8.024400   0.000000
 
  0.4000000E+00  0.6666667E-01  0.6666667E-01  0.7111111E-02
      1         -1.017813   1.000000
      2          0.782475   0.999940
      3          6.154200   0.000000
      4          6.951382   0.000000
      5          7.843089   0.000000
 
  0.4666667E+00  0.6666667E-01  0.6666667E-01  0.7111111E-02
      1         -0.491375   1.000000
      2          0.109800   1.000000
      3          6.642905   0.000000
      4          7.205996   0.000000
      5          7.412124   0.000000
 
  0.1333333E+00  0.1333333E+00  0.6666667E-01  0.7111111E-02
      1         -2.209370   1.000000
      2          3.958820   0.000000
      3          4.425405   0.000000
      4          5.755178   0.000000
      5          7.652884   0.000000
 
  0.2000000E+00  0.1333333E+00  0.6666667E-01  0.1422222E-01
      1         -2.002280   1.000000
      2          3.255069   0.000000
      3          4.456539   0.000000
      4          5.893387   0.000000
      5          7.893328   0.000000
 
  0.2666667E+00  0.1333333E+00  0.6666667E-01  0.1422222E-01
      1         -1.713495   1.000000
      2          2.428724   0.000000
      3          4.698856   0.000000
      4          6.135270   0.000000
      5          8.171762   0.000000
 
  0.3333333E+00  0.1333333E+00  0.6666667E-01  0.1422222E-01
      1         -1.344186   1.000000
      2          1.635777   0.000000
      3          5.030400   0.000000
      4          6.457778   0.000000
      5          7.821885   0.000000
 
  0.4000000E+00  0.1333333E+00  0.6666667E-01  0.1422222E-01
      1         -0.895898   1.000000
      2          0.899512   0.704335
      3          5.440231   0.000000
      4          6.854104   0.000000
      5          7.117680   0.000000
 
  0.4666667E+00  0.1333333E+00  0.6666667E-01  0.1422222E-01
      1         -0.370646   1.000000
      2          0.228995   1.000000
      3          5.925585   0.000000
      4          6.485105   0.000000
      5          7.320886   0.000000
 
  0.2000000E+00  0.2000000E+00  0.6666667E-01  0.7111111E-02
      1         -1.795868   1.000000
      2          3.222191   0.000000
      3          3.816550   0.000000
      4          6.030818   0.000000
      5          8.184349   0.000000
 
  0.2666667E+00  0.2000000E+00  0.6666667E-01  0.1422222E-01
      1         -1.508040   1.000000
      2          2.587991   0.000000
      3          3.867934   0.000000
      4          6.272710   0.000000
      5          7.734118   0.000000
 
  0.3333333E+00  0.2000000E+00  0.6666667E-01  0.1422222E-01
      1         -1.139996   1.000000
      2          1.821007   0.000000
      3          4.176326   0.000000
      4          6.595109   0.000000
      5          6.963834   0.000000
 
  0.4000000E+00  0.2000000E+00  0.6666667E-01  0.1422222E-01
      1         -0.693311   1.000000
      2          1.093066   0.000000
      3          4.581579   0.000000
      4          6.260337   0.000000
      5          6.991016   0.000000
 
  0.4666667E+00  0.2000000E+00  0.6666667E-01  0.1422222E-01
      1         -0.170109   1.000000
      2          0.426768   1.000000
      3          5.066722   0.000000
      4          5.627153   0.000000
      5          7.456720   0.000000
 
  0.2666667E+00  0.2666667E+00  0.6666667E-01  0.7111111E-02
      1         -1.221586   1.000000
      2          2.632555   0.000000
      3          3.243953   0.000000
      4          6.513379   0.000000
      5          6.905632   0.000000
 
  0.3333333E+00  0.2666667E+00  0.6666667E-01  0.1422222E-01
      1         -0.855342   1.000000
      2          2.061757   0.000000
      3          3.361128   0.000000
      4          6.134240   0.000000
      5          6.833577   0.000000
 
  0.4000000E+00  0.2666667E+00  0.6666667E-01  0.1422222E-01
      1         -0.411010   1.000000
      2          1.359300   0.000000
      3          3.746874   0.000000
      4          5.428303   0.000000
      5          7.226094   0.000000
 
  0.4666667E+00  0.2666667E+00  0.6666667E-01  0.1422222E-01
      1          0.109095   1.000000
      2          0.701417   1.000000
      3          4.230047   0.000000
      4          4.792345   0.000000
      5          7.686413   0.000000
 
  0.3333333E+00  0.3333333E+00  0.6666667E-01  0.7111111E-02
      1         -0.491546   1.000000
      2          2.190673   0.000000
      3          2.784935   0.000000
      4          5.359986   0.000000
      5          7.149867   0.000000
 
  0.4000000E+00  0.3333333E+00  0.6666667E-01  0.1422222E-01
      1         -0.050478   1.000000
      2          1.682610   0.000000
      3          2.983499   0.000000
      4          4.650660   0.000000
      5          7.536067   0.000000
 
  0.4666667E+00  0.3333333E+00  0.6666667E-01  0.1422222E-01
      1          0.464914   1.000000
      2          1.048907   0.000113
      3          3.450191   0.000000
      4          4.011948   0.000000
      5          7.985350   0.000000
 
  0.4000000E+00  0.4000000E+00  0.6666667E-01  0.7111111E-02
      1          0.385832   1.000000
      2          1.896353   0.000000
      3          2.468275   0.000000
      4          3.938318   0.000000
      5          7.910801   0.000000
 
  0.4666667E+00  0.4000000E+00  0.6666667E-01  0.1422222E-01
      1          0.892960   0.764927
      2          1.453858   0.000000
      3          2.752246   0.000000
      4          3.299490   0.000000
      5          8.336031   0.000000
 
  0.4666667E+00  0.4666667E+00  0.6666667E-01  0.7111111E-02
      1          1.377395   0.000000
      2          1.749290   0.000000
      3          2.307186   0.000000
      4          2.674492   0.000000
      5          8.694967   0.000000
 
  0.1333333E+00  0.1333333E+00  0.1333333E+00  0.2370370E-02
      1         -2.085031   1.000000
      2          4.070583   0.000000
      3          4.070583   0.000000
      4          5.276893   0.000000
      5          8.590623   0.000000
 
  0.2000000E+00  0.1333333E+00  0.1333333E+00  0.7111111E-02
      1         -1.878353   1.000000
      2          3.345146   0.000000
      3          4.256880   0.000000
      4          5.274387   0.000000
      5          8.775787   0.000000
 
  0.2666667E+00  0.1333333E+00  0.1333333E+00  0.7111111E-02
      1         -1.590139   1.000000
      2          2.534739   0.000000
      3          4.517746   0.000000
      4          5.481766   0.000000
      5          8.434212   0.000000
 
  0.3333333E+00  0.1333333E+00  0.1333333E+00  0.7111111E-02
      1         -1.221593   1.000000
      2          1.748806   0.000000
      3          4.853229   0.000000
      4          5.797432   0.000000
      5          7.651252   0.000000
 
  0.4000000E+00  0.1333333E+00  0.1333333E+00  0.7111111E-02
      1         -0.774262   1.000000
      2          1.016137   0.002875
      3          5.263387   0.000000
      4          6.196282   0.000000
      5          6.942302   0.000000
 
  0.4666667E+00  0.1333333E+00  0.1333333E+00  0.7111111E-02
      1         -0.250222   1.000000
      2          0.347839   1.000000
      3          5.748273   0.000000
      4          6.307916   0.000000
      5          6.668585   0.000000
 
  0.2000000E+00  0.2000000E+00  0.1333333E+00  0.7111111E-02
      1         -1.672350   1.000000
      2          3.333286   0.000000
      3          3.802640   0.000000
      4          5.196070   0.000000
      5          8.590551   0.000000
 
  0.2666667E+00  0.2000000E+00  0.1333333E+00  0.1422222E-01
      1         -1.385116   1.000000
      2          2.694991   0.000000
      3          3.904994   0.000000
      4          5.390406   0.000000
      5          7.773758   0.000000
 
  0.3333333E+00  0.2000000E+00  0.1333333E+00  0.1422222E-01
      1         -1.017843   1.000000
      2          1.933302   0.000000
      3          4.221508   0.000000
      4          5.703429   0.000000
      5          7.004844   0.000000
 
  0.4000000E+00  0.2000000E+00  0.1333333E+00  0.1422222E-01
      1         -0.572153   1.000000
      2          1.208977   0.000000
      3          4.627352   0.000000
      4          6.101849   0.000000
      5          6.301981   0.000000
 
  0.4666667E+00  0.2000000E+00  0.1333333E+00  0.1422222E-01
      1         -0.050208   1.000000
      2          0.545010   1.000000
      3          5.111204   0.000000
      4          5.670020   0.000000
      5          6.574191   0.000000
 
  0.2666667E+00  0.2666667E+00  0.1333333E+00  0.7111111E-02
      1         -1.099265   1.000000
      2          2.743237   0.000000
      3          3.323142   0.000000
      4          5.584270   0.000000
      5          6.977445   0.000000
 
  0.3333333E+00  0.2666667E+00  0.1333333E+00  0.1422222E-01
      1         -0.733827   1.000000
      2          2.173102   0.000000
      3          3.452514   0.000000
      4          5.895510   0.000000
      5          6.215258   0.000000
 
  0.4000000E+00  0.2666667E+00  0.1333333E+00  0.1422222E-01
      1         -0.290536   1.000000
      2          1.474120   0.000000
      3          3.838965   0.000000
      4          5.513659   0.000000
      5          6.290429   0.000000
 
  0.4666667E+00  0.2666667E+00  0.1333333E+00  0.1422222E-01
      1          0.228227   1.000000
      2          0.818759   0.997606
      3          4.320627   0.000000
      4          4.880634   0.000000
      5          6.757036   0.000000
 
  0.3333333E+00  0.3333333E+00  0.1333333E+00  0.7111111E-02
      1         -0.370889   1.000000
      2          2.301090   0.000000
      3          2.890054   0.000000
      4          5.453365   0.000000
      5          6.202666   0.000000
 
  0.4000000E+00  0.3333333E+00  0.1333333E+00  0.1422222E-01
      1          0.069062   1.000000
      2          1.795694   0.000000
      3          3.090324   0.000000
      4          4.749745   0.000000
      5          6.590575   0.000000
 
  0.4666667E+00  0.3333333E+00  0.1333333E+00  0.1422222E-01
      1          0.582971   1.000000
      2          1.164936   0.000000
      3          3.555296   0.000000
      4          4.114535   0.000000
      5          7.044788   0.000000
 
  0.4000000E+00  0.4000000E+00  0.1333333E+00  0.7111111E-02
      1          0.504112   1.000000
      2          2.006604   0.000000
      3          2.582579   0.000000
      4          4.043679   0.000000
      5          6.965650   0.000000
 
  0.4666667E+00  0.4000000E+00  0.1333333E+00  0.1422222E-01
      1          1.009506   0.005024
      2          1.567739   0.000000
      3          2.864385   0.000000
      4          3.408645   0.000000
      5          7.392994   0.000000
 
  0.4666667E+00  0.4666667E+00  0.1333333E+00  0.7111111E-02
      1          1.491517   0.000000
      2          1.859461   0.000000
      3          2.424750   0.000000
      4          2.787995   0.000000
      5          7.748205   0.000000
 
  0.2000000E+00  0.2000000E+00  0.2000000E+00  0.2370370E-02
      1         -1.467046   1.000000
      2          3.518509   0.000000
      3          3.518509   0.000000
      4          4.746869   0.000000
      5          8.537559   0.000000
 
  0.2666667E+00  0.2000000E+00  0.2000000E+00  0.7111111E-02
      1         -1.180806   1.000000
      2          2.860829   0.000000
      3          3.777954   0.000000
      4          4.803594   0.000000
      5          7.682746   0.000000
 
  0.3333333E+00  0.2000000E+00  0.2000000E+00  0.7111111E-02
      1         -0.814840   1.000000
      2          2.116765   0.000000
      3          4.111745   0.000000
      4          5.084130   0.000000
      5          6.900877   0.000000
 
  0.4000000E+00  0.2000000E+00  0.2000000E+00  0.7111111E-02
      1         -0.370848   1.000000
      2          1.400602   0.000000
      3          4.520032   0.000000
      4          5.475465   0.000000
      5          6.193395   0.000000
 
  0.4666667E+00  0.2000000E+00  0.2000000E+00  0.7111111E-02
      1          0.148913   1.000000
      2          0.741146   1.000000
      3          5.002981   0.000000
      4          5.560744   0.000000
      5          5.947476   0.000000
 
  0.2666667E+00  0.2666667E+00  0.2000000E+00  0.7111111E-02
      1         -0.895975   1.000000
      2          2.927793   0.000000
      3          3.388718   0.000000
      4          4.785951   0.000000
      5          7.066178   0.000000
 
  0.3333333E+00  0.2666667E+00  0.2000000E+00  0.1422222E-01
      1         -0.531916   1.000000
      2          2.355904   0.000000
      3          3.566449   0.000000
      4          5.052843   0.000000
      5          6.321966   0.000000
 
  0.4000000E+00  0.2666667E+00  0.2000000E+00  0.1422222E-01
      1         -0.090400   1.000000
      2          1.663965   0.000000
      3          3.958498   0.000000
      4          5.438508   0.000000
      5          5.625255   0.000000
 
  0.4666667E+00  0.2666667E+00  0.2000000E+00  0.1422222E-01
      1          0.426025   1.000000
      2          1.013365   0.003644
      3          4.438758   0.000000
      4          4.995714   0.000000
      5          5.904791   0.000000
 
  0.3333333E+00  0.3333333E+00  0.2000000E+00  0.7111111E-02
      1         -0.170430   1.000000
      2          2.485214   0.000000
      3          3.048588   0.000000
      4          5.316198   0.000000
      5          5.597358   0.000000
 
  0.4000000E+00  0.3333333E+00  0.2000000E+00  0.1422222E-01
      1          0.267600   1.000000
      2          1.982991   0.000000
      3          3.258152   0.000000
      4          4.905607   0.000000
      5          5.694843   0.000000
 
  0.4666667E+00  0.3333333E+00  0.2000000E+00  0.1422222E-01
      1          0.778949   0.999960
      2          1.357351   0.000000
      3          3.721406   0.000000
      4          4.276597   0.000000
      5          6.148207   0.000000
 
  0.4000000E+00  0.4000000E+00  0.2000000E+00  0.7111111E-02
      1          0.700501   1.000000
      2          2.190459   0.000000
      3          2.766537   0.000000
      4          4.214039   0.000000
      5          6.060034   0.000000
 
  0.4666667E+00  0.4000000E+00  0.2000000E+00  0.1422222E-01
      1          1.202936   0.000000
      2          1.756749   0.000000
      3          3.046880   0.000000
      4          3.586287   0.000000
      5          6.485153   0.000000
 
  0.4666667E+00  0.4666667E+00  0.2000000E+00  0.7111111E-02
      1          1.681007   0.000000
      2          2.043187   0.000000
      3          2.616592   0.000000
      4          2.973899   0.000000
      5          6.835431   0.000000
 
  0.2666667E+00  0.2666667E+00  0.2666667E+00  0.2370370E-02
      1         -0.612630   1.000000
      2          3.186350   0.000000
      3          3.186350   0.000000
      4          4.391296   0.000000
      5          7.082459   0.000000
 
  0.3333333E+00  0.2666667E+00  0.2666667E+00  0.7111111E-02
      1         -0.250554   1.000000
      2          2.598185   0.000000
      3          3.519075   0.000000
      4          4.521873   0.000000
      5          6.301821   0.000000
 
  0.4000000E+00  0.2666667E+00  0.2666667E+00  0.7111111E-02
      1          0.188350   1.000000
      2          1.924988   0.000000
      3          3.926166   0.000000
      4          4.876011   0.000000
      5          5.595608   0.000000
 
  0.4666667E+00  0.2666667E+00  0.2666667E+00  0.7111111E-02
      1          0.701221   1.000000
      2          1.283359   0.000000
      3          4.407824   0.000000
      4          4.964259   0.000000
      5          5.332184   0.000000
 
  0.3333333E+00  0.3333333E+00  0.2666667E+00  0.7111111E-02
      1          0.108817   1.000000
      2          2.743184   0.000000
      3          3.196786   0.000000
      4          4.576333   0.000000
      5          5.761003   0.000000
 
  0.4000000E+00  0.3333333E+00  0.2666667E+00  0.1422222E-01
      1          0.544010   1.000000
      2          2.241564   0.000000
      3          3.450105   0.000000
      4          4.912872   0.000000
      5          5.089998   0.000000
 
  0.4666667E+00  0.3333333E+00  0.2666667E+00  0.1422222E-01
      1          1.051505   0.000084
      2          1.624281   0.000000
      3          3.916242   0.000000
      4          4.467816   0.000000
      5          5.355096   0.000000
 
  0.4000000E+00  0.4000000E+00  0.2666667E+00  0.7111111E-02
      1          0.973774   0.058963
      2          2.448074   0.000000
      3          3.003058   0.000000
      4          4.437226   0.000000
      5          5.236672   0.000000
 
  0.4666667E+00  0.4000000E+00  0.2666667E+00  0.1422222E-01
      1          1.471858   0.000000
      2          2.019416   0.000000
      3          3.288920   0.000000
      4          3.822374   0.000000
      5          5.650988   0.000000
 
  0.4666667E+00  0.4666667E+00  0.2666667E+00  0.7111111E-02
      1          1.944661   0.000000
      2          2.300625   0.000000
      3          2.874371   0.000000
      4          3.225437   0.000000
      5          5.989774   0.000000
 
  0.3333333E+00  0.3333333E+00  0.3333333E+00  0.2370370E-02
      1          0.465267   1.000000
      2          3.075192   0.000000
      3          3.075192   0.000000
      4          4.245206   0.000000
      5          5.853326   0.000000
 
  0.4000000E+00  0.3333333E+00  0.3333333E+00  0.7111111E-02
      1          0.896474   0.733304
      2          2.559243   0.000000
      3          3.481467   0.000000
      4          4.443495   0.000000
      5          5.148112   0.000000
 
  0.4666667E+00  0.3333333E+00  0.3333333E+00  0.7111111E-02
      1          1.398194   0.000000
      2          1.961366   0.000000
      3          3.962247   0.000000
      4          4.517738   0.000000
      5          4.846575   0.000000
 
  0.4000000E+00  0.4000000E+00  0.3333333E+00  0.7111111E-02
      1          1.321869   0.000000
      2          2.779635   0.000000
      3          3.228917   0.000000
      4          4.559468   0.000000
      5          4.680623   0.000000
 
  0.4666667E+00  0.4000000E+00  0.3333333E+00  0.1422222E-01
      1          1.813737   0.000000
      2          2.352362   0.000000
      3          3.554537   0.000000
      4          4.086612   0.000000
      5          4.927585   0.000000
 
  0.4666667E+00  0.4666667E+00  0.3333333E+00  0.7111111E-02
      1          2.280220   0.000000
      2          2.631975   0.000000
      3          3.178637   0.000000
      4          3.527177   0.000000
      5          5.224496   0.000000
 
  0.4000000E+00  0.4000000E+00  0.4000000E+00  0.2370370E-02
      1          1.741047   0.000000
      2          3.185394   0.000000
      3          3.185394   0.000000
      4          4.276531   0.000000
      5          4.850211   0.000000
 
  0.4666667E+00  0.4000000E+00  0.4000000E+00  0.7111111E-02
      1          2.223123   0.000000
      2          2.742968   0.000000
      3          3.665601   0.000000
      4          4.220489   0.000000
      5          4.485893   0.000000
 
  0.4666667E+00  0.4666667E+00  0.4000000E+00  0.7111111E-02
      1          2.682426   0.000000
      2          3.037482   0.000000
      3          3.471406   0.000000
      4          3.840507   0.000000
      5          4.568931   0.000000
 
  0.4666667E+00  0.4666667E+00  0.4666667E+00  0.2370370E-02
      1          3.132837   0.000000
      2          3.517410   0.000000
      3          3.517410   0.000000
      4          4.072001   0.000000
      5          4.072001   0.000000
