 running    1 mpi-ranks, with    2 threads/rank, on    1 nodes
 distrk:  each k-point on    1 cores,    1 groups
 distr:  one band on    1 cores,    1 groups
 OpenACC runtime initialized ...    1 GPUs detected
 vasp.6.4.2 20Jul23 (build Mar  2 2025 11:04:54) complex                         
 POSCAR found type information on POSCAR Na
 POSCAR found :  1 types and       2 ions
 scaLAPACK will be used selectively (only on CPU)
 LDA part: xc-table for Pade appr. of Perdew
 POSCAR, INCAR and KPOINTS ok, starting setup
 FFT: planning ... GRIDC
 FFT: planning ... GRID_SOFT
 FFT: planning ... GRID
 WAVECAR not read
 entering main loop
       N       E                     dE             d eps       ncg     rms          rms(c)
DAV:   1    -0.174977186321E+01   -0.17498E+01   -0.35243E+02  1200   0.168E+02
DAV:   2    -0.258692519328E+01   -0.83715E+00   -0.78580E+00  1495   0.135E+01
DAV:   3    -0.259735470045E+01   -0.10430E-01   -0.10425E-01  1755   0.198E+00
DAV:   4    -0.259740097354E+01   -0.46273E-04   -0.46272E-04  1660   0.107E-01
DAV:   5    -0.259740153608E+01   -0.56253E-06   -0.56241E-06  1740   0.898E-03    0.303E-01
DAV:   6    -0.259676093887E+01    0.64060E-03   -0.98725E-05  1585   0.816E-02    0.202E-01
DAV:   7    -0.259600811040E+01    0.75283E-03   -0.22594E-04  1335   0.139E-01    0.103E-02
DAV:   8    -0.259598501143E+01    0.23099E-04   -0.39417E-06  1590   0.122E-02    0.237E-03
DAV:   9    -0.259598367614E+01    0.13353E-05   -0.45823E-07  1430   0.454E-03    0.194E-04
DAV:  10    -0.259598378298E+01   -0.10684E-06   -0.58526E-09   765   0.577E-04
   1 F= -.25959838E+01 E0= -.25954754E+01  d E =-.101676E-02
