Mg7 B16                                 
    1.000000000000000     
     6.1006079357893528   -0.0000000000000000   -0.0000000000000000
    -3.0503039678946742    5.2832807431470803   -0.0000000000000000
    -0.0000000000000000   -0.0000000000000000    7.0792571636648960
   Mg   B 
     7    16
Direct
     0.0000000000000000    0.0000000000000000    0.5000000000000000
     0.0000000000000000    0.5000000000000000    0.0000000000000000
     0.0000000000000000    0.5000000000000000    0.5000000000000000
     0.5000000000000000    0.0000000000000000    0.0000000000000000
     0.5000000000000000    0.0000000000000000    0.5000000000000000
     0.5000000000000000    0.5000000000000000    0.0000000000000000
     0.5000000000000000    0.5000000000000000    0.5000000000000000
     0.3317174907257953    0.1658584953628827    0.2514622127184891
     0.3317174907257953    0.1658584953628827    0.7485377872815109
     0.3333335000000019    0.6666664999999981    0.2493381687342236
     0.3333335000000019    0.6666664999999981    0.7506618312657765
     0.8341415046370934    0.1658584953628827    0.2514622127184891
     0.8341415046370934    0.1658584953628827    0.7485377872815109
     0.8341415046371173    0.6682825092742286    0.2514622127184891
     0.8341415046371173    0.6682825092742286    0.7485377872815109
     0.1658584953628827    0.3317174907257713    0.2514622127184891
     0.1658584953628827    0.3317174907257713    0.7485377872815109
     0.1658584953629067    0.8341415046371173    0.2514622127184891
     0.1658584953629067    0.8341415046371173    0.7485377872815109
     0.6666664999999981    0.3333335000000019    0.2493381687342236
     0.6666664999999981    0.3333335000000019    0.7506618312657765
     0.6682825092742047    0.8341415046371173    0.2514622127184891
     0.6682825092742047    0.8341415046371173    0.7485377872815109
 
  0.00000000E+00  0.00000000E+00  0.00000000E+00
  0.00000000E+00  0.00000000E+00  0.00000000E+00
  0.00000000E+00  0.00000000E+00  0.00000000E+00
  0.00000000E+00  0.00000000E+00  0.00000000E+00
  0.00000000E+00  0.00000000E+00  0.00000000E+00
  0.00000000E+00  0.00000000E+00  0.00000000E+00
  0.00000000E+00  0.00000000E+00  0.00000000E+00
  0.00000000E+00  0.00000000E+00  0.00000000E+00
  0.00000000E+00  0.00000000E+00  0.00000000E+00
  0.00000000E+00  0.00000000E+00  0.00000000E+00
  0.00000000E+00  0.00000000E+00  0.00000000E+00
  0.00000000E+00  0.00000000E+00  0.00000000E+00
  0.00000000E+00  0.00000000E+00  0.00000000E+00
  0.00000000E+00  0.00000000E+00  0.00000000E+00
  0.00000000E+00  0.00000000E+00  0.00000000E+00
  0.00000000E+00  0.00000000E+00  0.00000000E+00
  0.00000000E+00  0.00000000E+00  0.00000000E+00
  0.00000000E+00  0.00000000E+00  0.00000000E+00
  0.00000000E+00  0.00000000E+00  0.00000000E+00
  0.00000000E+00  0.00000000E+00  0.00000000E+00
  0.00000000E+00  0.00000000E+00  0.00000000E+00
  0.00000000E+00  0.00000000E+00  0.00000000E+00
  0.00000000E+00  0.00000000E+00  0.00000000E+00
