       N       E                     dE             d eps       ncg     rms          rms(c)
DAV:   1     0.366301031208E+02    0.36630E+02   -0.42677E+03  2978   0.803E+02
DAV:   2    -0.124115580596E-01   -0.36643E+02   -0.36305E+02  3217   0.156E+02
DAV:   3    -0.150706210434E+01   -0.14947E+01   -0.14850E+01  4446   0.268E+01
DAV:   4    -0.156009177312E+01   -0.53030E-01   -0.52951E-01  4498   0.459E+00
DAV:   5    -0.156073215061E+01   -0.64038E-03   -0.64021E-03  4829   0.357E-01    0.976E+00
DAV:   6    -0.156567158003E+01   -0.49394E-02   -0.73241E-03  3964   0.114E+00    0.545E+00
DAV:   7    -0.156864312574E+01   -0.29715E-02   -0.13047E-02  3762   0.148E+00    0.298E-01
DAV:   8    -0.156867716054E+01   -0.34035E-04   -0.18831E-03  4723   0.286E-01    0.107E-01
DAV:   9    -0.156870961543E+01   -0.32455E-04   -0.39398E-05  4045   0.731E-02    0.453E-02
DAV:  10    -0.156872399488E+01   -0.14379E-04   -0.10927E-05  3826   0.279E-02    0.250E-02
DAV:  11    -0.156872371785E+01    0.27703E-06   -0.59565E-07  3011   0.605E-03
   1 F= -.15687237E+01 E0= -.15674221E+01  d E =-.260331E-02
