<?xml version="1.0" encoding="ISO-8859-1"?>
<modeling>
 <generator>
  <i name="program" type="string">vasp </i>
  <i name="version" type="string">6.4.2  </i>
  <i name="subversion" type="string">20Jul23 (build Mar  2 2025 11:04:54) complex                          parallel </i>
  <i name="platform" type="string">LinuxNV </i>
  <i name="date" type="string">2026 04 07 </i>
  <i name="time" type="string">00:13:25 </i>
 </generator>
 <incar>
  <i type="string" name="SYSTEM">static single-point for EOS</i>
  <i type="string" name="PREC">Accurate</i>
  <i type="int" name="IBRION">    -1</i>
  <i name="EDIFF">      0.00000100</i>
  <i type="int" name="NSW">     0</i>
  <i type="int" name="ISIF">     2</i>
  <i name="ENCUT">    430.00000000</i>
  <i type="int" name="ISMEAR">     0</i>
  <i name="SIGMA">      0.05000000</i>
  <i name="KSPACING">      0.10000000</i>
  <i type="logical" name="KGAMMA"> T  </i>
  <i type="logical" name="LWAVE"> F  </i>
  <i type="logical" name="LCHARG"> F  </i>
 </incar>
 <primitive_cell>
  <structure name="primitive_cell" >
   <crystal>
    <varray name="basis" >
     <v>       3.93831421       0.00000000       2.27378631 </v>
     <v>       1.31277177       3.71307543       2.27378631 </v>
     <v>      -0.00000001      -0.00000001       4.54757371 </v>
    </varray>
    <i name="volume">     66.50034254 </i>
    <varray name="rec_basis" >
     <v>       0.25391575      -0.08977287       0.00000000 </v>
     <v>      -0.00000000       0.26931853       0.00000000 </v>
     <v>      -0.12695784      -0.08977281       0.21989748 </v>
    </varray>
   </crystal>
   <varray name="positions" >
    <v>       0.00000000       0.00000000       0.00000000 </v>
   </varray>
  </structure>
  <varray name="primitive_index" >
   <v type="int" >        1 </v>
  </varray>
 </primitive_cell>
 <kpoints>
  <generation param="Gamma">
   <v type="int" name="divisions">      17       17       17 </v>
   <v name="usershift">      0.00000000       0.00000000       0.00000000 </v>
   <v name="genvec1">      0.05882353      -0.00000000      -0.00000000 </v>
   <v name="genvec2">     -0.00000000       0.05882353       0.00000000 </v>
   <v name="genvec3">     -0.00000000      -0.00000000       0.05882353 </v>
   <v name="shift">      0.00000000       0.00000000       0.00000000 </v>
  </generation>
  <varray name="kpointlist" >
   <v>       0.00000000       0.00000000       0.00000000 </v>
   <v>       0.05882353       0.00000000       0.00000000 </v>
   <v>       0.11764706       0.00000000       0.00000000 </v>
   <v>       0.17647059       0.00000000       0.00000000 </v>
   <v>       0.23529412       0.00000000       0.00000000 </v>
   <v>       0.29411765       0.00000000       0.00000000 </v>
   <v>       0.35294118       0.00000000       0.00000000 </v>
   <v>       0.41176471       0.00000000       0.00000000 </v>
   <v>       0.47058824       0.00000000       0.00000000 </v>
   <v>       0.05882353       0.05882353       0.00000000 </v>
   <v>       0.11764706       0.05882353       0.00000000 </v>
   <v>       0.17647059       0.05882353       0.00000000 </v>
   <v>       0.23529412       0.05882353       0.00000000 </v>
   <v>       0.29411765       0.05882353       0.00000000 </v>
   <v>       0.35294118       0.05882353       0.00000000 </v>
   <v>       0.41176471       0.05882353       0.00000000 </v>
   <v>       0.47058824       0.05882353       0.00000000 </v>
   <v>      -0.47058824       0.05882353       0.00000000 </v>
   <v>      -0.41176471       0.05882353       0.00000000 </v>
   <v>      -0.35294118       0.05882353       0.00000000 </v>
   <v>      -0.29411765       0.05882353       0.00000000 </v>
   <v>      -0.23529412       0.05882353       0.00000000 </v>
   <v>      -0.17647059       0.05882353       0.00000000 </v>
   <v>      -0.11764706       0.05882353       0.00000000 </v>
   <v>      -0.05882353       0.05882353       0.00000000 </v>
   <v>       0.11764706       0.11764706       0.00000000 </v>
   <v>       0.17647059       0.11764706       0.00000000 </v>
   <v>       0.23529412       0.11764706       0.00000000 </v>
   <v>       0.29411765       0.11764706       0.00000000 </v>
   <v>       0.35294118       0.11764706       0.00000000 </v>
   <v>       0.41176471       0.11764706       0.00000000 </v>
   <v>       0.47058824       0.11764706       0.00000000 </v>
   <v>      -0.47058824       0.11764706       0.00000000 </v>
   <v>      -0.41176471       0.11764706       0.00000000 </v>
   <v>      -0.35294118       0.11764706       0.00000000 </v>
   <v>      -0.29411765       0.11764706       0.00000000 </v>
   <v>      -0.23529412       0.11764706       0.00000000 </v>
   <v>      -0.17647059       0.11764706       0.00000000 </v>
   <v>      -0.11764706       0.11764706       0.00000000 </v>
   <v>       0.17647059       0.17647059       0.00000000 </v>
   <v>       0.23529412       0.17647059       0.00000000 </v>
   <v>       0.29411765       0.17647059       0.00000000 </v>
   <v>       0.35294118       0.17647059       0.00000000 </v>
   <v>       0.41176471       0.17647059       0.00000000 </v>
   <v>       0.47058824       0.17647059       0.00000000 </v>
   <v>      -0.47058824       0.17647059       0.00000000 </v>
   <v>      -0.41176471       0.17647059       0.00000000 </v>
   <v>      -0.35294118       0.17647059       0.00000000 </v>
   <v>      -0.29411765       0.17647059       0.00000000 </v>
   <v>      -0.23529412       0.17647059       0.00000000 </v>
   <v>      -0.17647059       0.17647059       0.00000000 </v>
   <v>       0.23529412       0.23529412       0.00000000 </v>
   <v>       0.29411765       0.23529412       0.00000000 </v>
   <v>       0.35294118       0.23529412       0.00000000 </v>
   <v>       0.41176471       0.23529412       0.00000000 </v>
   <v>       0.47058824       0.23529412       0.00000000 </v>
   <v>      -0.47058824       0.23529412       0.00000000 </v>
   <v>      -0.41176471       0.23529412       0.00000000 </v>
   <v>      -0.35294118       0.23529412       0.00000000 </v>
   <v>      -0.29411765       0.23529412       0.00000000 </v>
   <v>      -0.23529412       0.23529412       0.00000000 </v>
   <v>       0.29411765       0.29411765       0.00000000 </v>
   <v>       0.35294118       0.29411765       0.00000000 </v>
   <v>       0.41176471       0.29411765       0.00000000 </v>
   <v>       0.47058824       0.29411765       0.00000000 </v>
   <v>      -0.47058824       0.29411765       0.00000000 </v>
   <v>      -0.41176471       0.29411765       0.00000000 </v>
   <v>      -0.35294118       0.29411765       0.00000000 </v>
   <v>      -0.29411765       0.29411765       0.00000000 </v>
   <v>       0.35294118       0.35294118       0.00000000 </v>
   <v>       0.41176471       0.35294118       0.00000000 </v>
   <v>       0.47058824       0.35294118       0.00000000 </v>
   <v>      -0.47058824       0.35294118       0.00000000 </v>
   <v>      -0.41176471       0.35294118       0.00000000 </v>
   <v>      -0.35294118       0.35294118       0.00000000 </v>
   <v>       0.41176471       0.41176471       0.00000000 </v>
   <v>       0.47058824       0.41176471       0.00000000 </v>
   <v>      -0.47058824       0.41176471       0.00000000 </v>
   <v>      -0.41176471       0.41176471       0.00000000 </v>
   <v>       0.47058824       0.47058824       0.00000000 </v>
   <v>      -0.47058824       0.47058824       0.00000000 </v>
   <v>       0.17647059       0.11764706       0.05882353 </v>
   <v>       0.23529412       0.11764706       0.05882353 </v>
   <v>       0.29411765       0.11764706       0.05882353 </v>
   <v>       0.35294118       0.11764706       0.05882353 </v>
   <v>       0.41176471       0.11764706       0.05882353 </v>
   <v>       0.47058824       0.11764706       0.05882353 </v>
   <v>      -0.47058824       0.11764706       0.05882353 </v>
   <v>       0.23529412       0.17647059       0.05882353 </v>
   <v>       0.29411765       0.17647059       0.05882353 </v>
   <v>       0.35294118       0.17647059       0.05882353 </v>
   <v>       0.41176471       0.17647059       0.05882353 </v>
   <v>       0.47058824       0.17647059       0.05882353 </v>
   <v>      -0.47058824       0.17647059       0.05882353 </v>
   <v>      -0.41176471       0.17647059       0.05882353 </v>
   <v>      -0.35294118       0.17647059       0.05882353 </v>
   <v>      -0.29411765       0.17647059       0.05882353 </v>
   <v>      -0.23529412       0.17647059       0.05882353 </v>
   <v>      -0.17647059       0.17647059       0.05882353 </v>
   <v>      -0.11764706       0.17647059       0.05882353 </v>
   <v>       0.29411765       0.23529412       0.05882353 </v>
   <v>       0.35294118       0.23529412       0.05882353 </v>
   <v>       0.41176471       0.23529412       0.05882353 </v>
   <v>       0.47058824       0.23529412       0.05882353 </v>
   <v>      -0.47058824       0.23529412       0.05882353 </v>
   <v>      -0.41176471       0.23529412       0.05882353 </v>
   <v>      -0.35294118       0.23529412       0.05882353 </v>
   <v>      -0.29411765       0.23529412       0.05882353 </v>
   <v>      -0.23529412       0.23529412       0.05882353 </v>
   <v>      -0.17647059       0.23529412       0.05882353 </v>
   <v>       0.35294118       0.29411765       0.05882353 </v>
   <v>       0.41176471       0.29411765       0.05882353 </v>
   <v>       0.47058824       0.29411765       0.05882353 </v>
   <v>      -0.47058824       0.29411765       0.05882353 </v>
   <v>      -0.41176471       0.29411765       0.05882353 </v>
   <v>      -0.35294118       0.29411765       0.05882353 </v>
   <v>      -0.29411765       0.29411765       0.05882353 </v>
   <v>      -0.23529412       0.29411765       0.05882353 </v>
   <v>       0.41176471       0.35294118       0.05882353 </v>
   <v>       0.47058824       0.35294118       0.05882353 </v>
   <v>      -0.47058824       0.35294118       0.05882353 </v>
   <v>      -0.41176471       0.35294118       0.05882353 </v>
   <v>      -0.35294118       0.35294118       0.05882353 </v>
   <v>      -0.29411765       0.35294118       0.05882353 </v>
   <v>       0.47058824       0.41176471       0.05882353 </v>
   <v>      -0.47058824       0.41176471       0.05882353 </v>
   <v>      -0.41176471       0.41176471       0.05882353 </v>
   <v>      -0.35294118       0.41176471       0.05882353 </v>
   <v>      -0.47058824       0.47058824       0.05882353 </v>
   <v>      -0.41176471       0.47058824       0.05882353 </v>
   <v>       0.35294118       0.23529412       0.11764706 </v>
   <v>       0.41176471       0.23529412       0.11764706 </v>
   <v>       0.47058824       0.23529412       0.11764706 </v>
   <v>      -0.47058824       0.23529412       0.11764706 </v>
   <v>      -0.41176471       0.23529412       0.11764706 </v>
   <v>       0.41176471       0.29411765       0.11764706 </v>
   <v>       0.47058824       0.29411765       0.11764706 </v>
   <v>      -0.47058824       0.29411765       0.11764706 </v>
   <v>      -0.41176471       0.29411765       0.11764706 </v>
   <v>      -0.35294118       0.29411765       0.11764706 </v>
   <v>      -0.29411765       0.29411765       0.11764706 </v>
   <v>      -0.23529412       0.29411765       0.11764706 </v>
   <v>      -0.17647059       0.29411765       0.11764706 </v>
   <v>       0.47058824       0.35294118       0.11764706 </v>
   <v>      -0.47058824       0.35294118       0.11764706 </v>
   <v>      -0.41176471       0.35294118       0.11764706 </v>
   <v>      -0.35294118       0.35294118       0.11764706 </v>
   <v>      -0.29411765       0.35294118       0.11764706 </v>
   <v>      -0.23529412       0.35294118       0.11764706 </v>
   <v>      -0.47058824       0.41176471       0.11764706 </v>
   <v>      -0.41176471       0.41176471       0.11764706 </v>
   <v>      -0.35294118       0.41176471       0.11764706 </v>
   <v>      -0.29411765       0.41176471       0.11764706 </v>
   <v>      -0.41176471       0.47058824       0.11764706 </v>
   <v>      -0.35294118       0.47058824       0.11764706 </v>
   <v>      -0.47058824       0.35294118       0.17647059 </v>
   <v>      -0.41176471       0.35294118       0.17647059 </v>
   <v>      -0.35294118       0.35294118       0.17647059 </v>
   <v>      -0.41176471       0.41176471       0.17647059 </v>
   <v>      -0.35294118       0.41176471       0.17647059 </v>
   <v>      -0.29411765       0.41176471       0.17647059 </v>
   <v>      -0.23529412       0.41176471       0.17647059 </v>
   <v>      -0.35294118       0.47058824       0.17647059 </v>
   <v>      -0.29411765       0.47058824       0.17647059 </v>
   <v>      -0.29411765       0.47058824       0.23529412 </v>
  </varray>
  <varray name="weights" >
   <v>       0.00020354 </v>
   <v>       0.00162833 </v>
   <v>       0.00162833 </v>
   <v>       0.00162833 </v>
   <v>       0.00162833 </v>
   <v>       0.00162833 </v>
   <v>       0.00162833 </v>
   <v>       0.00162833 </v>
   <v>       0.00162833 </v>
   <v>       0.00122125 </v>
   <v>       0.00488500 </v>
   <v>       0.00488500 </v>
   <v>       0.00488500 </v>
   <v>       0.00488500 </v>
   <v>       0.00488500 </v>
   <v>       0.00488500 </v>
   <v>       0.00488500 </v>
   <v>       0.00488500 </v>
   <v>       0.00488500 </v>
   <v>       0.00488500 </v>
   <v>       0.00488500 </v>
   <v>       0.00488500 </v>
   <v>       0.00488500 </v>
   <v>       0.00488500 </v>
   <v>       0.00244250 </v>
   <v>       0.00122125 </v>
   <v>       0.00488500 </v>
   <v>       0.00488500 </v>
   <v>       0.00488500 </v>
   <v>       0.00488500 </v>
   <v>       0.00488500 </v>
   <v>       0.00488500 </v>
   <v>       0.00488500 </v>
   <v>       0.00488500 </v>
   <v>       0.00488500 </v>
   <v>       0.00488500 </v>
   <v>       0.00488500 </v>
   <v>       0.00488500 </v>
   <v>       0.00244250 </v>
   <v>       0.00122125 </v>
   <v>       0.00488500 </v>
   <v>       0.00488500 </v>
   <v>       0.00488500 </v>
   <v>       0.00488500 </v>
   <v>       0.00488500 </v>
   <v>       0.00488500 </v>
   <v>       0.00488500 </v>
   <v>       0.00488500 </v>
   <v>       0.00488500 </v>
   <v>       0.00488500 </v>
   <v>       0.00244250 </v>
   <v>       0.00122125 </v>
   <v>       0.00488500 </v>
   <v>       0.00488500 </v>
   <v>       0.00488500 </v>
   <v>       0.00488500 </v>
   <v>       0.00488500 </v>
   <v>       0.00488500 </v>
   <v>       0.00488500 </v>
   <v>       0.00488500 </v>
   <v>       0.00244250 </v>
   <v>       0.00122125 </v>
   <v>       0.00488500 </v>
   <v>       0.00488500 </v>
   <v>       0.00488500 </v>
   <v>       0.00488500 </v>
   <v>       0.00488500 </v>
   <v>       0.00488500 </v>
   <v>       0.00244250 </v>
   <v>       0.00122125 </v>
   <v>       0.00488500 </v>
   <v>       0.00488500 </v>
   <v>       0.00488500 </v>
   <v>       0.00488500 </v>
   <v>       0.00244250 </v>
   <v>       0.00122125 </v>
   <v>       0.00488500 </v>
   <v>       0.00488500 </v>
   <v>       0.00244250 </v>
   <v>       0.00122125 </v>
   <v>       0.00244250 </v>
   <v>       0.00488500 </v>
   <v>       0.00977000 </v>
   <v>       0.00977000 </v>
   <v>       0.00977000 </v>
   <v>       0.00977000 </v>
   <v>       0.00977000 </v>
   <v>       0.00977000 </v>
   <v>       0.00488500 </v>
   <v>       0.00977000 </v>
   <v>       0.00977000 </v>
   <v>       0.00977000 </v>
   <v>       0.00977000 </v>
   <v>       0.00977000 </v>
   <v>       0.00977000 </v>
   <v>       0.00977000 </v>
   <v>       0.00977000 </v>
   <v>       0.00977000 </v>
   <v>       0.00977000 </v>
   <v>       0.00488500 </v>
   <v>       0.00488500 </v>
   <v>       0.00977000 </v>
   <v>       0.00977000 </v>
   <v>       0.00977000 </v>
   <v>       0.00977000 </v>
   <v>       0.00977000 </v>
   <v>       0.00977000 </v>
   <v>       0.00977000 </v>
   <v>       0.00977000 </v>
   <v>       0.00488500 </v>
   <v>       0.00488500 </v>
   <v>       0.00977000 </v>
   <v>       0.00977000 </v>
   <v>       0.00977000 </v>
   <v>       0.00977000 </v>
   <v>       0.00977000 </v>
   <v>       0.00977000 </v>
   <v>       0.00488500 </v>
   <v>       0.00488500 </v>
   <v>       0.00977000 </v>
   <v>       0.00977000 </v>
   <v>       0.00977000 </v>
   <v>       0.00977000 </v>
   <v>       0.00488500 </v>
   <v>       0.00488500 </v>
   <v>       0.00977000 </v>
   <v>       0.00977000 </v>
   <v>       0.00488500 </v>
   <v>       0.00488500 </v>
   <v>       0.00488500 </v>
   <v>       0.00488500 </v>
   <v>       0.00977000 </v>
   <v>       0.00977000 </v>
   <v>       0.00977000 </v>
   <v>       0.00977000 </v>
   <v>       0.00488500 </v>
   <v>       0.00977000 </v>
   <v>       0.00977000 </v>
   <v>       0.00977000 </v>
   <v>       0.00977000 </v>
   <v>       0.00977000 </v>
   <v>       0.00977000 </v>
   <v>       0.00488500 </v>
   <v>       0.00488500 </v>
   <v>       0.00977000 </v>
   <v>       0.00977000 </v>
   <v>       0.00977000 </v>
   <v>       0.00977000 </v>
   <v>       0.00488500 </v>
   <v>       0.00488500 </v>
   <v>       0.00977000 </v>
   <v>       0.00977000 </v>
   <v>       0.00488500 </v>
   <v>       0.00488500 </v>
   <v>       0.00488500 </v>
   <v>       0.00488500 </v>
   <v>       0.00977000 </v>
   <v>       0.00977000 </v>
   <v>       0.00488500 </v>
   <v>       0.00977000 </v>
   <v>       0.00977000 </v>
   <v>       0.00488500 </v>
   <v>       0.00488500 </v>
   <v>       0.00488500 </v>
   <v>       0.00488500 </v>
  </varray>
 </kpoints>
 <parameters>
  <separator name="general" >
   <i type="string" name="SYSTEM">static single-point for EOS</i>
   <i type="logical" name="LCOMPAT"> F  </i>
  </separator>
  <separator name="electronic" >
   <i type="string" name="PREC">accura</i>
   <i name="ENMAX">    430.00000000</i>
   <i name="ENAUG">    366.80400000</i>
   <i name="EDIFF">      0.00000100</i>
   <i type="int" name="IALGO">    38</i>
   <i type="int" name="IWAVPR">    10</i>
   <i type="int" name="NBANDS">     9</i>
   <i type="int" name="NBANDSLOW">    -1</i>
   <i type="int" name="NBANDSHIGH">    -1</i>
   <i name="NELECT">     10.00000000</i>
   <i type="int" name="TURBO">     0</i>
   <i type="int" name="IRESTART">     0</i>
   <i type="int" name="NREBOOT">     0</i>
   <i type="int" name="NMIN">     0</i>
   <i name="EREF">      0.00000000</i>
   <separator name="electronic smearing" >
    <i type="int" name="ISMEAR">     0</i>
    <i name="SIGMA">      0.05000000</i>
    <i name="KSPACING">      0.10000000</i>
    <i type="logical" name="KGAMMA"> T  </i>
    <i type="logical" name="KBLOWUP"> T  </i>
   </separator>
   <separator name="electronic projectors" >
    <i type="logical" name="LREAL"> F  </i>
    <v name="ROPT">      0.00000000</v>
    <i type="int" name="LMAXPAW">  -100</i>
    <i type="int" name="LMAXMIX">     2</i>
    <i type="logical" name="NLSPLINE"> F  </i>
   </separator>
   <separator name="electronic startup" >
    <i type="int" name="ISTART">     0</i>
    <i type="int" name="ICHARG">     2</i>
    <i type="int" name="INIWAV">     1</i>
   </separator>
   <separator name="electronic spin" >
    <i type="int" name="ISPIN">     1</i>
    <i type="logical" name="LNONCOLLINEAR"> F  </i>
    <v name="MAGMOM">      1.00000000</v>
    <i name="NUPDOWN">     -1.00000000</i>
    <i type="logical" name="LSORBIT"> F  </i>
    <v name="SAXIS">      0.00000000      0.00000000      1.00000000</v>
    <i type="logical" name="LSPIRAL"> F  </i>
    <v name="QSPIRAL">      0.00000000      0.00000000      0.00000000</v>
    <i type="logical" name="LZEROZ"> F  </i>
   </separator>
   <separator name="electronic exchange-correlation" >
    <i type="logical" name="LASPH"> F  </i>
    <i type="logical" name="LMETAGGA"> F  </i>
   </separator>
   <separator name="electronic convergence" >
    <i type="int" name="NELM">    60</i>
    <i type="int" name="NELMDL">    -5</i>
    <i type="int" name="NELMIN">     2</i>
    <i name="ENINI">    430.00000000</i>
    <separator name="electronic convergence detail" >
     <i type="logical" name="LDIAG"> T  </i>
     <i type="logical" name="LSUBROT"> F  </i>
     <i name="WEIMIN">      0.00000000</i>
     <i name="EBREAK">      0.00000003</i>
     <i name="DEPER">      0.30000000</i>
     <i type="int" name="NRMM">     4</i>
     <i name="TIME">      0.40000000</i>
    </separator>
   </separator>
   <separator name="electronic mixer" >
    <i name="AMIX">      0.40000000</i>
    <i name="BMIX">      1.00000000</i>
    <i name="AMIN">      0.10000000</i>
    <i name="AMIX_MAG">      1.60000000</i>
    <i name="BMIX_MAG">      1.00000000</i>
    <separator name="electronic mixer details" >
     <i type="int" name="IMIX">     4</i>
     <i type="logical" name="MIXFIRST"> F  </i>
     <i type="int" name="MAXMIX">   -45</i>
     <i name="WC">    100.00000000</i>
     <i type="int" name="INIMIX">     1</i>
     <i type="int" name="MIXPRE">     1</i>
     <i type="int" name="MREMOVE">     5</i>
    </separator>
   </separator>
   <separator name="electronic dipolcorrection" >
    <i type="logical" name="LDIPOL"> F  </i>
    <i type="logical" name="LMONO"> F  </i>
    <i type="int" name="IDIPOL">     0</i>
    <i name="EPSILON">      1.00000000</i>
    <v name="DIPOL">   -100.00000000   -100.00000000   -100.00000000</v>
    <i name="EFIELD">      0.00000000</i>
   </separator>
  </separator>
  <separator name="grids" >
   <i type="int" name="NGX">    32</i>
   <i type="int" name="NGY">    32</i>
   <i type="int" name="NGZ">    32</i>
   <i type="int" name="NGXF">    64</i>
   <i type="int" name="NGYF">    64</i>
   <i type="int" name="NGZF">    64</i>
   <i type="logical" name="ADDGRID"> F  </i>
  </separator>
  <separator name="ionic" >
   <i type="int" name="NSW">     0</i>
   <i type="int" name="IBRION">    -1</i>
   <i type="int" name="MDALGO">     0</i>
   <i type="int" name="ISIF">     2</i>
   <i name="PSTRESS">      0.00000000</i>
   <i name="EDIFFG">      0.00001000</i>
   <i type="int" name="NFREE">     0</i>
   <i name="POTIM">      0.50000000</i>
   <i name="SMASS">     -3.00000000</i>
   <i name="SCALEE">      1.00000000</i>
  </separator>
  <separator name="ionic md" >
   <i name="TEBEG">      0.00010000</i>
   <i name="TEEND">      0.00010000</i>
   <i type="int" name="NBLOCK">     1</i>
   <i type="int" name="KBLOCK">     1</i>
   <i type="int" name="NPACO">   256</i>
   <i name="APACO">     10.00000000</i>
  </separator>
  <separator name="symmetry" >
   <i type="int" name="ISYM">     2</i>
   <i name="SYMPREC">      0.00001000</i>
  </separator>
  <separator name="dos" >
   <i type="int" name="LORBIT">     0</i>
   <v name="RWIGS">     -1.00000000</v>
   <i type="int" name="NEDOS">   301</i>
   <i name="EMIN">     10.00000000</i>
   <i name="EMAX">    -10.00000000</i>
   <i name="EFERMI">      0.00000000</i>
  </separator>
  <separator name="writing" >
   <i type="int" name="NWRITE">     2</i>
   <i type="logical" name="LWAVE"> F  </i>
   <i type="logical" name="LDOWNSAMPLE"> F  </i>
   <i type="logical" name="LCHARG"> F  </i>
   <i type="logical" name="LPARD"> F  </i>
   <i type="logical" name="LVTOT"> F  </i>
   <i type="logical" name="LVHAR"> F  </i>
   <i type="logical" name="LELF"> F  </i>
   <i type="logical" name="LOPTICS"> F  </i>
   <v name="STM">      0.00000000      0.00000000      0.00000000      0.00000000      0.00000000      0.00000000      0.00000000</v>
  </separator>
  <separator name="performance" >
   <i type="int" name="NPAR">     1</i>
   <i type="int" name="NSIM">     4</i>
   <i type="int" name="NBLK">    -1</i>
   <i type="logical" name="LPLANE"> T  </i>
   <i type="logical" name="LSCALAPACK"> T  </i>
   <i type="logical" name="LSCAAWARE"> F  </i>
   <i type="logical" name="LSCALU"> F  </i>
   <i type="logical" name="LASYNC"> F  </i>
   <i type="logical" name="LORBITALREAL"> F  </i>
  </separator>
  <separator name="miscellaneous" >
   <i type="int" name="IDIOT">     3</i>
   <i type="int" name="PHON_NSTRUCT">    -1</i>
   <i type="logical" name="LMUSIC"> F  </i>
   <v name="POMASS">     87.62000000</v>
   <v name="DARWINR">      0.00000000</v>
   <v name="DARWINV">      1.00000000</v>
   <i type="logical" name="LCORR"> T  </i>
  </separator>
  <i type="logical" name="GGA_COMPAT"> T  </i>
  <i type="logical" name="LBERRY"> F  </i>
  <i type="int" name="ICORELEVEL">     0</i>
  <i type="logical" name="LDAU"> F  </i>
  <i type="int" name="I_CONSTRAINED_M">     0</i>
  <separator name="electronic exchange-correlation" >
   <i type="string" name="GGA">--</i>
   <i type="int" name="VOSKOWN">     0</i>
   <i type="logical" name="LHFCALC"> F  </i>
   <i type="string" name="PRECFOCK"></i>
   <i type="logical" name="LSYMGRAD"> F  </i>
   <i type="logical" name="LHFONE"> F  </i>
   <i type="logical" name="LRHFCALC"> F  </i>
   <i type="logical" name="LTHOMAS"> F  </i>
   <i type="logical" name="LMODELHF"> F  </i>
   <i type="logical" name="LFOCKACE"> F  </i>
   <i name="ENCUT4O">     -1.00000000</i>
   <i type="int" name="EXXOEP">     0</i>
   <i type="int" name="FOURORBIT">     0</i>
   <i name="AEXX">      0.00000000</i>
   <i name="HFALPHA">      0.00000000</i>
   <i name="MCALPHA">      0.00000000</i>
   <i name="ALDAX">      1.00000000</i>
   <i name="AGGAX">      1.00000000</i>
   <i name="ALDAC">      1.00000000</i>
   <i name="AGGAC">      1.00000000</i>
   <i type="int" name="NKREDX">     1</i>
   <i type="int" name="NKREDY">     1</i>
   <i type="int" name="NKREDZ">     1</i>
   <i type="logical" name="SHIFTRED"> F  </i>
   <i type="logical" name="ODDONLY"> F  </i>
   <i type="logical" name="EVENONLY"> F  </i>
   <i type="int" name="LMAXFOCK">     0</i>
   <i type="int" name="NMAXFOCKAE">     0</i>
   <i type="logical" name="LFOCKAEDFT"> F  </i>
   <i name="HFSCREEN">      0.00000000</i>
   <i name="HFSCREENC">      0.00000000</i>
   <i type="int" name="NBANDSGWLOW">     0</i>
  </separator>
  <separator name="vdW DFT" >
   <i type="logical" name="LUSE_VDW"> F  </i>
   <i type="int" name="IVDW_NL">     1</i>
   <i type="logical" name="LSPIN_VDW"> F  </i>
   <i name="Zab_VDW">     -0.84910000</i>
   <i name="PARAM1">      0.12340000</i>
   <i name="PARAM2">      1.00000000</i>
   <i name="PARAM3">      0.00000000</i>
  </separator>
  <separator name="model GW" >
   <i type="int" name="MODEL_GW">     0</i>
   <i name="MODEL_EPS0">     39.90020552</i>
   <i name="MODEL_ALPHA">      1.00000000</i>
  </separator>
  <separator name="linear response parameters" >
   <i type="logical" name="LEPSILON"> F  </i>
   <i type="logical" name="LRPA"> F  </i>
   <i type="logical" name="LNABLA"> F  </i>
   <i type="logical" name="LVEL"> F  </i>
   <i name="CSHIFT">      0.10000000</i>
   <i name="OMEGAMAX">     -1.00000000</i>
   <i name="DEG_THRESHOLD">      0.00200000</i>
   <i name="RTIME">     -0.10000000</i>
   <i name="WPLASMAI">      0.00000000</i>
   <v name="DFIELD">      0.00000000      0.00000000      0.00000000</v>
   <v name="WPLASMA">      0.00000000      0.00000000      0.00000000      0.00000000      0.00000000      0.00000000      0.00000000      0.00000000      0.00000000</v>
  </separator>
  <separator name="orbital magnetization" >
   <i type="logical" name="NUCIND"> F  </i>
   <v name="MAGPOS">      0.00000000      0.00000000      0.00000000</v>
   <i type="logical" name="LNICSALL"> T  </i>
   <i type="logical" name="ORBITALMAG"> F  </i>
   <i type="logical" name="LMAGBLOCH"> F  </i>
   <i type="logical" name="LCHIMAG"> F  </i>
   <i type="logical" name="LGAUGE"> T  </i>
   <i type="int" name="MAGATOM">     0</i>
   <v name="MAGDIPOL">      0.00000000      0.00000000      0.00000000</v>
   <v name="AVECCONST">      0.00000000      0.00000000      0.00000000</v>
  </separator>
  <separator name="response functions" >
   <i type="logical" name="LALL_IN_ONE"> F  </i>
   <i type="int" name="IALL_IN_ONE">    -1</i>
   <i type="int" name="NBANDS_WAVE">    -1</i>
   <i type="logical" name="LFINITE_TEMPERATURE"> F  </i>
   <i type="logical" name="LADDER"> F  </i>
   <i type="logical" name="LRPAFORCE"> F  </i>
   <i type="logical" name="LFXC"> F  </i>
   <i type="logical" name="LHARTREE"> T  </i>
   <i type="int" name="IBSE">     0</i>
   <v type="int" name="KPOINT">    -1     0     0     0</v>
   <i type="logical" name="LTCTC"> F  </i>
   <i type="logical" name="LTCTE"> F  </i>
   <i type="logical" name="LTETE"> F  </i>
   <i type="logical" name="LTRIPLET"> F  </i>
   <i type="logical" name="LFXCEPS"> F  </i>
   <i type="logical" name="LFXHEG"> F  </i>
   <i type="int" name="NATURALO">     2</i>
   <i type="logical" name="LHOLEGF"> F  </i>
   <i type="logical" name="L2ORDER"> F  </i>
   <i type="logical" name="LDMP1"> F  </i>
   <i type="logical" name="LMP2LT"> F  </i>
   <i type="logical" name="LSMP2LT"> F  </i>
   <i type="logical" name="LGWLF"> F  </i>
   <i name="ENCUTGW">     -1.60000002</i>
   <i name="ENCUTGWSOFT">     -1.60000002</i>
   <i name="ENCUTLF">     -1.00000000</i>
   <i type="logical" name="LESF_SPLINES"> F  </i>
   <i type="int" name="LMAXMP2">    -1</i>
   <i name="SCISSOR">      0.00000000</i>
   <i type="int" name="NOMEGA">     0</i>
   <i type="int" name="NOMEGAR">     0</i>
   <i type="int" name="NBANDSGW">    -1</i>
   <i type="int" name="NBANDSO">    -1</i>
   <i type="int" name="NBANDSV">    -1</i>
   <i type="int" name="NELMGW">     1</i>
   <i type="int" name="NELMHF">     1</i>
   <i type="int" name="DIM">     3</i>
   <i type="int" name="IESPILON">     4</i>
   <i type="int" name="ANTIRES">     0</i>
   <i name="OMEGAMAX">    -30.00000000</i>
   <i name="OMEGAMIN">    -30.00000000</i>
   <i name="OMEGATL">   -200.00000000</i>
   <i type="int" name="OMEGAGRID">     0</i>
   <i name="CSHIFT">     -0.10000000</i>
   <i type="logical" name="LSELFENERGY"> F  </i>
   <i type="logical" name="LSPECTRAL"> F  </i>
   <i type="logical" name="LSPECTRALGW"> F  </i>
   <i type="logical" name="LSINGLES"> F  </i>
   <i type="logical" name="LFERMIGW"> F  </i>
   <i type="logical" name="ODDONLYGW"> F  </i>
   <i type="logical" name="EVENONLYGW"> F  </i>
   <i type="int" name="NKREDLFX">     1</i>
   <i type="int" name="NKREDLFY">     1</i>
   <i type="int" name="NKREDLFZ">     1</i>
   <i type="int" name="MAXMEM">  2800</i>
   <i type="int" name="TELESCOPE">     0</i>
   <i type="int" name="NTAUPAR">    -1</i>
   <i type="int" name="NOMEGAPAR">    -1</i>
   <i name="DAMP_NEWTON">      0.80000001</i>
   <i name="LAMBDA">      1.00000000</i>
  </separator>
  <separator name="External order field" >
   <i name="OFIELD_KAPPA">      0.00000000</i>
   <v name="OFIELD_K">      0.00000000      0.00000000      0.00000000</v>
   <i name="OFIELD_Q6_NEAR">      0.00000000</i>
   <i name="OFIELD_Q6_FAR">      0.00000000</i>
   <i name="OFIELD_A">      0.00000000</i>
  </separator>
  <separator name="optional k-points parameters" >
   <i type="int" name="KPOINTS_OPT_MODE">     1</i>
   <i type="logical" name="LKPOINTS_OPT"> F  </i>
  </separator>
 </parameters>
 <atominfo>
  <atoms>       1 </atoms>
  <types>       1 </types>
  <array name="atoms" >
   <dimension dim="1">ion</dimension>
   <field type="string">element</field>
   <field type="int">atomtype</field>
   <set>
    <rc><c>Sr</c><c>   1</c></rc>
   </set>
  </array>
  <array name="atomtypes" >
   <dimension dim="1">type</dimension>
   <field type="int">atomspertype</field>
   <field type="string">element</field>
   <field>mass</field>
   <field>valence</field>
   <field type="string">pseudopotential</field>
   <set>
    <rc><c>   1</c><c>Sr</c><c>     87.62000000</c><c>     10.00000000</c><c>  PAW_PBE Sr_sv 07Sep2000               </c></rc>
   </set>
  </array>
 </atominfo>
 <structure name="initialpos" >
  <crystal>
   <varray name="basis" >
    <v>       3.93831421       0.00000000       2.27378631 </v>
    <v>       1.31277177       3.71307543       2.27378631 </v>
    <v>      -0.00000001      -0.00000001       4.54757371 </v>
   </varray>
   <i name="volume">     66.50034254 </i>
   <varray name="rec_basis" >
    <v>       0.25391575      -0.08977287       0.00000000 </v>
    <v>      -0.00000000       0.26931853       0.00000000 </v>
    <v>      -0.12695784      -0.08977281       0.21989748 </v>
   </varray>
  </crystal>
  <varray name="positions" >
   <v>       0.00000000       0.00000000       0.00000000 </v>
  </varray>
 </structure>
 <calculation>
  <scstep>
   <time name="dav">    2.20    2.20</time>
   <time name="total">    2.23    2.23</time>
   <energy>
    <i name="alphaZ">     28.19111795 </i>
    <i name="ewald">   -513.28400179 </i>
    <i name="hartreedc">   -228.40689688 </i>
    <i name="XCdc">     34.23430209 </i>
    <i name="pawpsdc">    631.17397051 </i>
    <i name="pawaedc">   -617.19253826 </i>
    <i name="eentropy">     -0.00036880 </i>
    <i name="bandstr">   -141.11502137 </i>
    <i name="atom">    843.02953968 </i>
    <i name="e_fr_energy">     36.63010312 </i>
    <i name="e_wo_entrp">     36.63047192 </i>
    <i name="e_0_energy">     36.63028752 </i>
   </energy>
  </scstep>
  <scstep>
   <time name="dav">    2.22    2.22</time>
   <time name="total">    2.22    2.22</time>
   <energy>
    <i name="e_fr_energy">     -0.01241156 </i>
    <i name="e_wo_entrp">     -0.01035088 </i>
    <i name="e_0_energy">     -0.01138122 </i>
   </energy>
  </scstep>
  <scstep>
   <time name="dav">    2.90    2.90</time>
   <time name="total">    2.90    2.90</time>
   <energy>
    <i name="e_fr_energy">     -1.50706210 </i>
    <i name="e_wo_entrp">     -1.50451547 </i>
    <i name="e_0_energy">     -1.50578879 </i>
   </energy>
  </scstep>
  <scstep>
   <time name="dav">    2.97    2.97</time>
   <time name="total">    2.97    2.97</time>
   <energy>
    <i name="e_fr_energy">     -1.56009177 </i>
    <i name="e_wo_entrp">     -1.55753017 </i>
    <i name="e_0_energy">     -1.55881097 </i>
   </energy>
  </scstep>
  <scstep>
   <time name="dav">    3.16    3.16</time>
   <time name="total">    3.35    3.35</time>
   <energy>
    <i name="e_fr_energy">     -1.56073215 </i>
    <i name="e_wo_entrp">     -1.55817118 </i>
    <i name="e_0_energy">     -1.55945166 </i>
   </energy>
  </scstep>
  <scstep>
   <time name="dav">    2.68    2.68</time>
   <time name="total">    2.88    2.88</time>
   <energy>
    <i name="e_fr_energy">     -1.56567158 </i>
    <i name="e_wo_entrp">     -1.56310844 </i>
    <i name="e_0_energy">     -1.56439001 </i>
   </energy>
  </scstep>
  <scstep>
   <time name="dav">    2.52    2.52</time>
   <time name="total">    2.72    2.71</time>
   <energy>
    <i name="e_fr_energy">     -1.56864313 </i>
    <i name="e_wo_entrp">     -1.56605775 </i>
    <i name="e_0_energy">     -1.56735044 </i>
   </energy>
  </scstep>
  <scstep>
   <time name="dav">    3.02    3.02</time>
   <time name="total">    3.22    3.21</time>
   <energy>
    <i name="e_fr_energy">     -1.56867716 </i>
    <i name="e_wo_entrp">     -1.56607626 </i>
    <i name="e_0_energy">     -1.56737671 </i>
   </energy>
  </scstep>
  <scstep>
   <time name="dav">    2.73    2.73</time>
   <time name="total">    2.93    2.92</time>
   <energy>
    <i name="e_fr_energy">     -1.56870962 </i>
    <i name="e_wo_entrp">     -1.56610844 </i>
    <i name="e_0_energy">     -1.56740903 </i>
   </energy>
  </scstep>
  <scstep>
   <time name="dav">    2.59    2.59</time>
   <time name="total">    2.79    2.78</time>
   <energy>
    <i name="e_fr_energy">     -1.56872399 </i>
    <i name="e_wo_entrp">     -1.56612081 </i>
    <i name="e_0_energy">     -1.56742240 </i>
   </energy>
  </scstep>
  <scstep>
   <time name="dav">    2.21    2.21</time>
   <time name="total">    2.23    2.22</time>
   <energy>
    <i name="alphaZ">     28.19111795 </i>
    <i name="ewald">   -513.28400179 </i>
    <i name="hartreedc">   -223.87306599 </i>
    <i name="XCdc">     34.06226295 </i>
    <i name="pawpsdc">    701.82589360 </i>
    <i name="pawaedc">   -691.19680723 </i>
    <i name="eentropy">     -0.00260331 </i>
    <i name="bandstr">   -180.32105958 </i>
    <i name="atom">    843.02953968 </i>
    <i name="e_fr_energy">     -1.56872372 </i>
    <i name="e_wo_entrp">     -1.56612041 </i>
    <i name="e_0_energy">     -1.56742206 </i>
   </energy>
  </scstep>
  <structure>
   <crystal>
    <varray name="basis" >
     <v>       3.93831421       0.00000000       2.27378631 </v>
     <v>       1.31277177       3.71307543       2.27378631 </v>
     <v>      -0.00000001      -0.00000001       4.54757371 </v>
    </varray>
    <i name="volume">     66.50034254 </i>
    <varray name="rec_basis" >
     <v>       0.25391575      -0.08977287       0.00000000 </v>
     <v>      -0.00000000       0.26931853       0.00000000 </v>
     <v>      -0.12695784      -0.08977281       0.21989748 </v>
    </varray>
   </crystal>
   <varray name="positions" >
    <v>       0.00000000       0.00000000       0.00000000 </v>
   </varray>
  </structure>
  <varray name="forces" >
   <v>       0.00000000       0.00000000       0.00000000 </v>
  </varray>
  <varray name="stress" >
   <v>     -16.57467340      -0.00000166       0.00000236 </v>
   <v>      -0.00000166     -16.57464830       0.00000168 </v>
   <v>       0.00000236       0.00000168     -16.57467467 </v>
  </varray>
  <energy>
   <i name="e_fr_energy">     -1.56872372 </i>
   <i name="e_wo_entrp">     -1.56612041 </i>
   <i name="e_0_energy">     -1.56742206 </i>
  </energy>
  <time name="totalsc">   36.12   35.80</time>
  <eigenvalues>
   <array>
    <dimension dim="1">band</dimension>
    <dimension dim="2">kpoint</dimension>
    <dimension dim="3">spin</dimension>
    <field>eigene</field>
    <field>occ</field>
    <set>
     <set comment="spin 1">
      <set comment="kpoint 1">
       <r>  -36.0294    1.0000 </r>
       <r>  -17.9342    1.0000 </r>
       <r>  -17.9342    1.0000 </r>
       <r>  -17.9342    1.0000 </r>
       <r>   -2.3689    1.0000 </r>
       <r>    3.1096    0.0000 </r>
       <r>    3.1096    0.0000 </r>
       <r>    3.1096    0.0000 </r>
       <r>    4.2969    0.0000 </r>
      </set>
      <set comment="kpoint 2">
       <r>  -36.0292    1.0000 </r>
       <r>  -17.9375    1.0000 </r>
       <r>  -17.9346    1.0000 </r>
       <r>  -17.9346    1.0000 </r>
       <r>   -2.3221    1.0000 </r>
       <r>    3.0353    0.0000 </r>
       <r>    3.1319    0.0000 </r>
       <r>    3.1319    0.0000 </r>
       <r>    4.2685    0.0000 </r>
      </set>
      <set comment="kpoint 3">
       <r>  -36.0287    1.0000 </r>
       <r>  -17.9468    1.0000 </r>
       <r>  -17.9360    1.0000 </r>
       <r>  -17.9360    1.0000 </r>
       <r>   -2.1831    1.0000 </r>
       <r>    2.8359    0.0000 </r>
       <r>    3.1884    0.0000 </r>
       <r>    3.1884    0.0000 </r>
       <r>    4.2050    0.0000 </r>
      </set>
      <set comment="kpoint 4">
       <r>  -36.0279    1.0000 </r>
       <r>  -17.9610    1.0000 </r>
       <r>  -17.9380    1.0000 </r>
       <r>  -17.9380    1.0000 </r>
       <r>   -1.9570    1.0000 </r>
       <r>    2.5590    0.0000 </r>
       <r>    3.2438    0.0000 </r>
       <r>    3.2438    0.0000 </r>
       <r>    4.1671    0.0000 </r>
      </set>
      <set comment="kpoint 5">
       <r>  -36.0270    1.0000 </r>
       <r>  -17.9779    1.0000 </r>
       <r>  -17.9404    1.0000 </r>
       <r>  -17.9404    1.0000 </r>
       <r>   -1.6526    1.0000 </r>
       <r>    2.2436    0.0000 </r>
       <r>    3.2464    0.0000 </r>
       <r>    3.2464    0.0000 </r>
       <r>    4.2301    0.0000 </r>
      </set>
      <set comment="kpoint 6">
       <r>  -36.0260    1.0000 </r>
       <r>  -17.9954    1.0000 </r>
       <r>  -17.9430    1.0000 </r>
       <r>  -17.9430    1.0000 </r>
       <r>   -1.2833    1.0000 </r>
       <r>    1.9100    0.0000 </r>
       <r>    3.1861    0.0000 </r>
       <r>    3.1861    0.0000 </r>
       <r>    4.4151    0.0000 </r>
      </set>
      <set comment="kpoint 7">
       <r>  -36.0251    1.0000 </r>
       <r>  -18.0110    1.0000 </r>
       <r>  -17.9452    1.0000 </r>
       <r>  -17.9452    1.0000 </r>
       <r>   -0.8701    1.0000 </r>
       <r>    1.5649    0.0000 </r>
       <r>    3.1027    0.0000 </r>
       <r>    3.1027    0.0000 </r>
       <r>    4.6734    0.0000 </r>
      </set>
      <set comment="kpoint 8">
       <r>  -36.0244    1.0000 </r>
       <r>  -18.0227    1.0000 </r>
       <r>  -17.9469    1.0000 </r>
       <r>  -17.9469    1.0000 </r>
       <r>   -0.4498    1.0000 </r>
       <r>    1.2170    0.0000 </r>
       <r>    3.0320    0.0000 </r>
       <r>    3.0320    0.0000 </r>
       <r>    4.9328    0.0000 </r>
      </set>
      <set comment="kpoint 9">
       <r>  -36.0241    1.0000 </r>
       <r>  -18.0289    1.0000 </r>
       <r>  -17.9478    1.0000 </r>
       <r>  -17.9478    1.0000 </r>
       <r>   -0.1156    1.0000 </r>
       <r>    0.9288    0.8394 </r>
       <r>    2.9929    0.0000 </r>
       <r>    2.9929    0.0000 </r>
       <r>    5.1045    0.0000 </r>
      </set>
      <set comment="kpoint 10">
       <r>  -36.0292    1.0000 </r>
       <r>  -17.9374    1.0000 </r>
       <r>  -17.9354    1.0000 </r>
       <r>  -17.9354    1.0000 </r>
       <r>   -2.3065    1.0000 </r>
       <r>    3.0182    0.0000 </r>
       <r>    3.1371    0.0000 </r>
       <r>    3.1371    0.0000 </r>
       <r>    4.1958    0.0000 </r>
      </set>
      <set comment="kpoint 11">
       <r>  -36.0287    1.0000 </r>
       <r>  -17.9443    1.0000 </r>
       <r>  -17.9370    1.0000 </r>
       <r>  -17.9362    1.0000 </r>
       <r>   -2.1982    1.0000 </r>
       <r>    2.8680    0.0000 </r>
       <r>    3.1813    0.0000 </r>
       <r>    3.1853    0.0000 </r>
       <r>    4.0792    0.0000 </r>
      </set>
      <set comment="kpoint 12">
       <r>  -36.0281    1.0000 </r>
       <r>  -17.9568    1.0000 </r>
       <r>  -17.9392    1.0000 </r>
       <r>  -17.9377    1.0000 </r>
       <r>   -2.0011    1.0000 </r>
       <r>    2.6265    0.0000 </r>
       <r>    3.2368    0.0000 </r>
       <r>    3.2439    0.0000 </r>
       <r>    3.9808    0.0000 </r>
      </set>
      <set comment="kpoint 13">
       <r>  -36.0272    1.0000 </r>
       <r>  -17.9726    1.0000 </r>
       <r>  -17.9417    1.0000 </r>
       <r>  -17.9399    1.0000 </r>
       <r>   -1.7224    1.0000 </r>
       <r>    2.3349    0.0000 </r>
       <r>    3.2441    0.0000 </r>
       <r>    3.2602    0.0000 </r>
       <r>    3.9979    0.0000 </r>
      </set>
      <set comment="kpoint 14">
       <r>  -36.0262    1.0000 </r>
       <r>  -17.9897    1.0000 </r>
       <r>  -17.9443    1.0000 </r>
       <r>  -17.9425    1.0000 </r>
       <r>   -1.3738    1.0000 </r>
       <r>    2.0173    0.0000 </r>
       <r>    3.1637    0.0000 </r>
       <r>    3.2268    0.0000 </r>
       <r>    4.1662    0.0000 </r>
      </set>
      <set comment="kpoint 15">
       <r>  -36.0253    1.0000 </r>
       <r>  -18.0058    1.0000 </r>
       <r>  -17.9465    1.0000 </r>
       <r>  -17.9452    1.0000 </r>
       <r>   -0.9728    1.0000 </r>
       <r>    1.6832    0.0000 </r>
       <r>    3.0600    0.0000 </r>
       <r>    3.1569    0.0000 </r>
       <r>    4.4331    0.0000 </r>
      </set>
      <set comment="kpoint 16">
       <r>  -36.0245    1.0000 </r>
       <r>  -18.0186    1.0000 </r>
       <r>  -17.9480    1.0000 </r>
       <r>  -17.9476    1.0000 </r>
       <r>   -0.5486    1.0000 </r>
       <r>    1.3377    0.0000 </r>
       <r>    2.9755    0.0000 </r>
       <r>    3.0851    0.0000 </r>
       <r>    4.7349    0.0000 </r>
      </set>
      <set comment="kpoint 17">
       <r>  -36.0241    1.0000 </r>
       <r>  -18.0265    1.0000 </r>
       <r>  -17.9494    1.0000 </r>
       <r>  -17.9487    1.0000 </r>
       <r>   -0.1639    1.0000 </r>
       <r>    1.0134    0.0807 </r>
       <r>    2.9254    0.0000 </r>
       <r>    3.0357    0.0000 </r>
       <r>    5.0012    0.0000 </r>
      </set>
      <set comment="kpoint 18">
       <r>  -36.0240    1.0000 </r>
       <r>  -18.0286    1.0000 </r>
       <r>  -17.9503    1.0000 </r>
       <r>  -17.9484    1.0000 </r>
       <r>   -0.0195    1.0000 </r>
       <r>    0.8865    0.9857 </r>
       <r>    2.9122    0.0000 </r>
       <r>    3.0217    0.0000 </r>
       <r>    5.0939    0.0000 </r>
      </set>
      <set comment="kpoint 19">
       <r>  -36.0242    1.0000 </r>
       <r>  -18.0245    1.0000 </r>
       <r>  -17.9502    1.0000 </r>
       <r>  -17.9473    1.0000 </r>
       <r>   -0.2802    1.0000 </r>
       <r>    1.1149    0.0000 </r>
       <r>    2.9347    0.0000 </r>
       <r>    3.0480    0.0000 </r>
       <r>    4.9031    0.0000 </r>
      </set>
      <set comment="kpoint 20">
       <r>  -36.0248    1.0000 </r>
       <r>  -18.0147    1.0000 </r>
       <r>  -17.9492    1.0000 </r>
       <r>  -17.9453    1.0000 </r>
       <r>   -0.6899    1.0000 </r>
       <r>    1.4558    0.0000 </r>
       <r>    2.9899    0.0000 </r>
       <r>    3.1126    0.0000 </r>
       <r>    4.6073    0.0000 </r>
      </set>
      <set comment="kpoint 21">
       <r>  -36.0256    1.0000 </r>
       <r>  -18.0006    1.0000 </r>
       <r>  -17.9473    1.0000 </r>
       <r>  -17.9429    1.0000 </r>
       <r>   -1.1108    1.0000 </r>
       <r>    1.7993    0.0000 </r>
       <r>    3.0684    0.0000 </r>
       <r>    3.2042    0.0000 </r>
       <r>    4.3139    0.0000 </r>
      </set>
      <set comment="kpoint 22">
       <r>  -36.0265    1.0000 </r>
       <r>  -17.9840    1.0000 </r>
       <r>  -17.9447    1.0000 </r>
       <r>  -17.9403    1.0000 </r>
       <r>   -1.4969    1.0000 </r>
       <r>    2.1282    0.0000 </r>
       <r>    3.1472    0.0000 </r>
       <r>    3.2921    0.0000 </r>
       <r>    4.0831    0.0000 </r>
      </set>
      <set comment="kpoint 23">
       <r>  -36.0275    1.0000 </r>
       <r>  -17.9672    1.0000 </r>
       <r>  -17.9419    1.0000 </r>
       <r>  -17.9379    1.0000 </r>
       <r>   -1.8239    1.0000 </r>
       <r>    2.4378    0.0000 </r>
       <r>    3.1925    0.0000 </r>
       <r>    3.3146    0.0000 </r>
       <r>    3.9889    0.0000 </r>
      </set>
      <set comment="kpoint 24">
       <r>  -36.0283    1.0000 </r>
       <r>  -17.9525    1.0000 </r>
       <r>  -17.9391    1.0000 </r>
       <r>  -17.9360    1.0000 </r>
       <r>   -2.0764    1.0000 </r>
       <r>    2.7141    0.0000 </r>
       <r>    3.1862    0.0000 </r>
       <r>    3.2514    0.0000 </r>
       <r>    4.0465    0.0000 </r>
      </set>
      <set comment="kpoint 25">
       <r>  -36.0289    1.0000 </r>
       <r>  -17.9421    1.0000 </r>
       <r>  -17.9366    1.0000 </r>
       <r>  -17.9349    1.0000 </r>
       <r>   -2.2445    1.0000 </r>
       <r>    2.9267    0.0000 </r>
       <r>    3.1533    0.0000 </r>
       <r>    3.1741    0.0000 </r>
       <r>    4.1649    0.0000 </r>
      </set>
      <set comment="kpoint 26">
       <r>  -36.0285    1.0000 </r>
       <r>  -17.9464    1.0000 </r>
       <r>  -17.9389    1.0000 </r>
       <r>  -17.9388    1.0000 </r>
       <r>   -2.1213    1.0000 </r>
       <r>    2.7833    0.0000 </r>
       <r>    3.2211    0.0000 </r>
       <r>    3.2211    0.0000 </r>
       <r>    3.9068    0.0000 </r>
      </set>
      <set comment="kpoint 27">
       <r>  -36.0279    1.0000 </r>
       <r>  -17.9557    1.0000 </r>
       <r>  -17.9413    1.0000 </r>
       <r>  -17.9406    1.0000 </r>
       <r>   -1.9551    1.0000 </r>
       <r>    2.6021    0.0000 </r>
       <r>    3.2724    0.0000 </r>
       <r>    3.2839    0.0000 </r>
       <r>    3.7507    0.0000 </r>
      </set>
      <set comment="kpoint 28">
       <r>  -36.0271    1.0000 </r>
       <r>  -17.9695    1.0000 </r>
       <r>  -17.9441    1.0000 </r>
       <r>  -17.9426    1.0000 </r>
       <r>   -1.7053    1.0000 </r>
       <r>    2.3637    0.0000 </r>
       <r>    3.2161    0.0000 </r>
       <r>    3.3308    0.0000 </r>
       <r>    3.7592    0.0000 </r>
      </set>
      <set comment="kpoint 29">
       <r>  -36.0262    1.0000 </r>
       <r>  -17.9851    1.0000 </r>
       <r>  -17.9468    1.0000 </r>
       <r>  -17.9453    1.0000 </r>
       <r>   -1.3815    1.0000 </r>
       <r>    2.0901    0.0000 </r>
       <r>    3.0585    0.0000 </r>
       <r>    3.3274    0.0000 </r>
       <r>    3.9513    0.0000 </r>
      </set>
      <set comment="kpoint 30">
       <r>  -36.0253    1.0000 </r>
       <r>  -18.0004    1.0000 </r>
       <r>  -17.9490    1.0000 </r>
       <r>  -17.9484    1.0000 </r>
       <r>   -0.9982    1.0000 </r>
       <r>    1.7894    0.0000 </r>
       <r>    2.9083    0.0000 </r>
       <r>    3.2763    0.0000 </r>
       <r>    4.2301    0.0000 </r>
      </set>
      <set comment="kpoint 31">
       <r>  -36.0245    1.0000 </r>
       <r>  -18.0133    1.0000 </r>
       <r>  -17.9516    1.0000 </r>
       <r>  -17.9504    1.0000 </r>
       <r>   -0.5780    1.0000 </r>
       <r>    1.4646    0.0000 </r>
       <r>    2.8015    0.0000 </r>
       <r>    3.2076    0.0000 </r>
       <r>    4.5458    0.0000 </r>
      </set>
      <set comment="kpoint 32">
       <r>  -36.0239    1.0000 </r>
       <r>  -18.0220    1.0000 </r>
       <r>  -17.9544    1.0000 </r>
       <r>  -17.9510    1.0000 </r>
       <r>   -0.1629    1.0000 </r>
       <r>    1.1308    0.0000 </r>
       <r>    2.7397    0.0000 </r>
       <r>    3.1498    0.0000 </r>
       <r>    4.8591    0.0000 </r>
      </set>
      <set comment="kpoint 33">
       <r>  -36.0237    1.0000 </r>
       <r>  -18.0256    1.0000 </r>
       <r>  -17.9563    1.0000 </r>
       <r>  -17.9504    1.0000 </r>
       <r>    0.1125    1.0000 </r>
       <r>    0.8964    0.9718 </r>
       <r>    2.7119    0.0000 </r>
       <r>    3.1209    0.0000 </r>
       <r>    5.0658    0.0000 </r>
      </set>
      <set comment="kpoint 34">
       <r>  -36.0238    1.0000 </r>
       <r>  -18.0235    1.0000 </r>
       <r>  -17.9572    1.0000 </r>
       <r>  -17.9490    1.0000 </r>
       <r>   -0.0422    1.0000 </r>
       <r>    1.0381    0.0178 </r>
       <r>    2.7110    0.0000 </r>
       <r>    3.1305    0.0000 </r>
       <r>    4.8735    0.0000 </r>
      </set>
      <set comment="kpoint 35">
       <r>  -36.0243    1.0000 </r>
       <r>  -18.0161    1.0000 </r>
       <r>  -17.9568    1.0000 </r>
       <r>  -17.9468    1.0000 </r>
       <r>   -0.4351    1.0000 </r>
       <r>    1.3699    0.0000 </r>
       <r>    2.7425    0.0000 </r>
       <r>    3.1820    0.0000 </r>
       <r>    4.5641    0.0000 </r>
      </set>
      <set comment="kpoint 36">
       <r>  -36.0250    1.0000 </r>
       <r>  -18.0045    1.0000 </r>
       <r>  -17.9551    1.0000 </r>
       <r>  -17.9441    1.0000 </r>
       <r>   -0.8602    1.0000 </r>
       <r>    1.7064    0.0000 </r>
       <r>    2.8150    0.0000 </r>
       <r>    3.2724    0.0000 </r>
       <r>    4.2415    0.0000 </r>
      </set>
      <set comment="kpoint 37">
       <r>  -36.0259    1.0000 </r>
       <r>  -17.9901    1.0000 </r>
       <r>  -17.9522    1.0000 </r>
       <r>  -17.9414    1.0000 </r>
       <r>   -1.2595    1.0000 </r>
       <r>    2.0148    0.0000 </r>
       <r>    2.9247    0.0000 </r>
       <r>    3.3863    0.0000 </r>
       <r>    3.9590    0.0000 </r>
      </set>
      <set comment="kpoint 38">
       <r>  -36.0268    1.0000 </r>
       <r>  -17.9752    1.0000 </r>
       <r>  -17.9484    1.0000 </r>
       <r>  -17.9389    1.0000 </r>
       <r>   -1.6057    1.0000 </r>
       <r>    2.2895    0.0000 </r>
       <r>    3.0470    0.0000 </r>
       <r>    3.4519    0.0000 </r>
       <r>    3.8036    0.0000 </r>
      </set>
      <set comment="kpoint 39">
       <r>  -36.0277    1.0000 </r>
       <r>  -17.9621    1.0000 </r>
       <r>  -17.9439    1.0000 </r>
       <r>  -17.9370    1.0000 </r>
       <r>   -1.8816    1.0000 </r>
       <r>    2.5262    0.0000 </r>
       <r>    3.1427    0.0000 </r>
       <r>    3.3627    0.0000 </r>
       <r>    3.8812    0.0000 </r>
      </set>
      <set comment="kpoint 40">
       <r>  -36.0274    1.0000 </r>
       <r>  -17.9601    1.0000 </r>
       <r>  -17.9441    1.0000 </r>
       <r>  -17.9441    1.0000 </r>
       <r>   -1.8207    1.0000 </r>
       <r>    2.4817    0.0000 </r>
       <r>    3.3651    0.0000 </r>
       <r>    3.3651    0.0000 </r>
       <r>    3.4961    0.0000 </r>
      </set>
      <set comment="kpoint 41">
       <r>  -36.0267    1.0000 </r>
       <r>  -17.9702    1.0000 </r>
       <r>  -17.9471    1.0000 </r>
       <r>  -17.9467    1.0000 </r>
       <r>   -1.6024    1.0000 </r>
       <r>    2.3033    0.0000 </r>
       <r>    3.1927    0.0000 </r>
       <r>    3.4451    0.0000 </r>
       <r>    3.5649    0.0000 </r>
      </set>
      <set comment="kpoint 42">
       <r>  -36.0259    1.0000 </r>
       <r>  -17.9833    1.0000 </r>
       <r>  -17.9500    1.0000 </r>
       <r>  -17.9497    1.0000 </r>
       <r>   -1.3079    1.0000 </r>
       <r>    2.0933    0.0000 </r>
       <r>    2.9330    0.0000 </r>
       <r>    3.4814    0.0000 </r>
       <r>    3.7980    0.0000 </r>
      </set>
      <set comment="kpoint 43">
       <r>  -36.0250    1.0000 </r>
       <r>  -17.9966    1.0000 </r>
       <r>  -17.9534    1.0000 </r>
       <r>  -17.9523    1.0000 </r>
       <r>   -0.9489    1.0000 </r>
       <r>    1.8537    0.0000 </r>
       <r>    2.7213    0.0000 </r>
       <r>    3.4582    0.0000 </r>
       <r>    4.0815    0.0000 </r>
      </set>
      <set comment="kpoint 44">
       <r>  -36.0243    1.0000 </r>
       <r>  -18.0083    1.0000 </r>
       <r>  -17.9575    1.0000 </r>
       <r>  -17.9538    1.0000 </r>
       <r>   -0.5426    1.0000 </r>
       <r>    1.5776    0.0000 </r>
       <r>    2.5785    0.0000 </r>
       <r>    3.3983    0.0000 </r>
       <r>    4.3937    0.0000 </r>
      </set>
      <set comment="kpoint 45">
       <r>  -36.0237    1.0000 </r>
       <r>  -18.0166    1.0000 </r>
       <r>  -17.9616    1.0000 </r>
       <r>  -17.9543    1.0000 </r>
       <r>   -0.1168    1.0000 </r>
       <r>    1.2672    0.0000 </r>
       <r>    2.4977    0.0000 </r>
       <r>    3.3337    0.0000 </r>
       <r>    4.6790    0.0000 </r>
      </set>
      <set comment="kpoint 46">
       <r>  -36.0234    1.0000 </r>
       <r>  -18.0206    1.0000 </r>
       <r>  -17.9649    1.0000 </r>
       <r>  -17.9536    1.0000 </r>
       <r>    0.2565    1.0000 </r>
       <r>    0.9699    0.4323 </r>
       <r>    2.4524    0.0000 </r>
       <r>    3.2880    0.0000 </r>
       <r>    4.8134    0.0000 </r>
      </set>
      <set comment="kpoint 47">
       <r>  -36.0234    1.0000 </r>
       <r>  -18.0200    1.0000 </r>
       <r>  -17.9670    1.0000 </r>
       <r>  -17.9519    1.0000 </r>
       <r>    0.2555    1.0000 </r>
       <r>    0.9891    0.2373 </r>
       <r>    2.4228    0.0000 </r>
       <r>    3.2752    0.0000 </r>
       <r>    4.8977    0.0000 </r>
      </set>
      <set comment="kpoint 48">
       <r>  -36.0238    1.0000 </r>
       <r>  -18.0148    1.0000 </r>
       <r>  -17.9673    1.0000 </r>
       <r>  -17.9494    1.0000 </r>
       <r>   -0.1143    1.0000 </r>
       <r>    1.3163    0.0000 </r>
       <r>    2.4196    0.0000 </r>
       <r>    3.3024    0.0000 </r>
       <r>    4.5575    0.0000 </r>
      </set>
      <set comment="kpoint 49">
       <r>  -36.0244    1.0000 </r>
       <r>  -18.0062    1.0000 </r>
       <r>  -17.9655    1.0000 </r>
       <r>  -17.9465    1.0000 </r>
       <r>   -0.5398    1.0000 </r>
       <r>    1.6466    0.0000 </r>
       <r>    2.4758    0.0000 </r>
       <r>    3.3721    0.0000 </r>
       <r>    4.2250    0.0000 </r>
      </set>
      <set comment="kpoint 50">
       <r>  -36.0251    1.0000 </r>
       <r>  -17.9957    1.0000 </r>
       <r>  -17.9615    1.0000 </r>
       <r>  -17.9435    1.0000 </r>
       <r>   -0.9484    1.0000 </r>
       <r>    1.9162    0.0000 </r>
       <r>    2.6190    0.0000 </r>
       <r>    3.4828    0.0000 </r>
       <r>    3.9170    0.0000 </r>
      </set>
      <set comment="kpoint 51">
       <r>  -36.0260    1.0000 </r>
       <r>  -17.9849    1.0000 </r>
       <r>  -17.9555    1.0000 </r>
       <r>  -17.9408    1.0000 </r>
       <r>   -1.3098    1.0000 </r>
       <r>    2.1211    0.0000 </r>
       <r>    2.8323    0.0000 </r>
       <r>    3.6244    0.0000 </r>
       <r>    3.6607    0.0000 </r>
      </set>
      <set comment="kpoint 52">
       <r>  -36.0262    1.0000 </r>
       <r>  -17.9763    1.0000 </r>
       <r>  -17.9504    1.0000 </r>
       <r>  -17.9504    1.0000 </r>
       <r>   -1.4174    1.0000 </r>
       <r>    2.1756    0.0000 </r>
       <r>    3.0402    0.0000 </r>
       <r>    3.5742    0.0000 </r>
       <r>    3.5743    0.0000 </r>
      </set>
      <set comment="kpoint 53">
       <r>  -36.0254    1.0000 </r>
       <r>  -17.9860    1.0000 </r>
       <r>  -17.9538    1.0000 </r>
       <r>  -17.9536    1.0000 </r>
       <r>   -1.1566    1.0000 </r>
       <r>    2.0193    0.0000 </r>
       <r>    2.7901    0.0000 </r>
       <r>    3.6705    0.0000 </r>
       <r>    3.7567    0.0000 </r>
      </set>
      <set comment="kpoint 54">
       <r>  -36.0247    1.0000 </r>
       <r>  -17.9966    1.0000 </r>
       <r>  -17.9578    1.0000 </r>
       <r>  -17.9561    1.0000 </r>
       <r>   -0.8292    1.0000 </r>
       <r>    1.8482    0.0000 </r>
       <r>    2.5487    0.0000 </r>
       <r>    3.6940    0.0000 </r>
       <r>    4.0149    0.0000 </r>
      </set>
      <set comment="kpoint 55">
       <r>  -36.0240    1.0000 </r>
       <r>  -18.0060    1.0000 </r>
       <r>  -17.9629    1.0000 </r>
       <r>  -17.9577    1.0000 </r>
       <r>   -0.4484    1.0000 </r>
       <r>    1.6474    0.0000 </r>
       <r>    2.3654    0.0000 </r>
       <r>    3.6532    0.0000 </r>
       <r>    4.3053    0.0000 </r>
      </set>
      <set comment="kpoint 56">
       <r>  -36.0234    1.0000 </r>
       <r>  -18.0125    1.0000 </r>
       <r>  -17.9684    1.0000 </r>
       <r>  -17.9582    1.0000 </r>
       <r>   -0.0332    1.0000 </r>
       <r>    1.3984    0.0000 </r>
       <r>    2.2549    0.0000 </r>
       <r>    3.5847    0.0000 </r>
       <r>    4.5415    0.0000 </r>
      </set>
      <set comment="kpoint 57">
       <r>  -36.0231    1.0000 </r>
       <r>  -18.0154    1.0000 </r>
       <r>  -17.9738    1.0000 </r>
       <r>  -17.9574    1.0000 </r>
       <r>    0.3844    1.0000 </r>
       <r>    1.1072    0.0000 </r>
       <r>    2.1876    0.0000 </r>
       <r>    3.5192    0.0000 </r>
       <r>    4.5503    0.0000 </r>
      </set>
      <set comment="kpoint 58">
       <r>  -36.0230    1.0000 </r>
       <r>  -18.0146    1.0000 </r>
       <r>  -17.9778    1.0000 </r>
       <r>  -17.9556    1.0000 </r>
       <r>    0.5911    1.0000 </r>
       <r>    0.9668    0.4664 </r>
       <r>    2.1254    0.0000 </r>
       <r>    3.4750    0.0000 </r>
       <r>    4.5562    0.0000 </r>
      </set>
      <set comment="kpoint 59">
       <r>  -36.0233    1.0000 </r>
       <r>  -18.0108    1.0000 </r>
       <r>  -17.9793    1.0000 </r>
       <r>  -17.9529    1.0000 </r>
       <r>    0.2550    1.0000 </r>
       <r>    1.2988    0.0000 </r>
       <r>    2.0743    0.0000 </r>
       <r>    3.4606    0.0000 </r>
       <r>    4.6690    0.0000 </r>
      </set>
      <set comment="kpoint 60">
       <r>  -36.0237    1.0000 </r>
       <r>  -18.0057    1.0000 </r>
       <r>  -17.9771    1.0000 </r>
       <r>  -17.9496    1.0000 </r>
       <r>   -0.1643    1.0000 </r>
       <r>    1.6308    0.0000 </r>
       <r>    2.0978    0.0000 </r>
       <r>    3.4755    0.0000 </r>
       <r>    4.2932    0.0000 </r>
      </set>
      <set comment="kpoint 61">
       <r>  -36.0244    1.0000 </r>
       <r>  -18.0007    1.0000 </r>
       <r>  -17.9706    1.0000 </r>
       <r>  -17.9464    1.0000 </r>
       <r>   -0.5764    1.0000 </r>
       <r>    1.8193    0.0000 </r>
       <r>    2.3005    0.0000 </r>
       <r>    3.5023    0.0000 </r>
       <r>    4.0405    0.0000 </r>
      </set>
      <set comment="kpoint 62">
       <r>  -36.0248    1.0000 </r>
       <r>  -17.9927    1.0000 </r>
       <r>  -17.9570    1.0000 </r>
       <r>  -17.9570    1.0000 </r>
       <r>   -0.9329    1.0000 </r>
       <r>    1.9031    0.0000 </r>
       <r>    2.6036    0.0000 </r>
       <r>    3.8532    0.0000 </r>
       <r>    3.8532    0.0000 </r>
      </set>
      <set comment="kpoint 63">
       <r>  -36.0242    1.0000 </r>
       <r>  -18.0009    1.0000 </r>
       <r>  -17.9606    1.0000 </r>
       <r>  -17.9598    1.0000 </r>
       <r>   -0.6448    1.0000 </r>
       <r>    1.7789    0.0000 </r>
       <r>    2.3908    0.0000 </r>
       <r>    3.9623    0.0000 </r>
       <r>    4.0561    0.0000 </r>
      </set>
      <set comment="kpoint 64">
       <r>  -36.0236    1.0000 </r>
       <r>  -18.0080    1.0000 </r>
       <r>  -17.9656    1.0000 </r>
       <r>  -17.9616    1.0000 </r>
       <r>   -0.3029    1.0000 </r>
       <r>    1.6500    0.0000 </r>
       <r>    2.1936    0.0000 </r>
       <r>    3.9647    0.0000 </r>
       <r>    4.3111    0.0000 </r>
      </set>
      <set comment="kpoint 65">
       <r>  -36.0231    1.0000 </r>
       <r>  -18.0123    1.0000 </r>
       <r>  -17.9720    1.0000 </r>
       <r>  -17.9622    1.0000 </r>
       <r>    0.0787    1.0000 </r>
       <r>    1.4894    0.0000 </r>
       <r>    2.0503    0.0000 </r>
       <r>    3.8984    0.0000 </r>
       <r>    4.4968    0.0000 </r>
      </set>
      <set comment="kpoint 66">
       <r>  -36.0228    1.0000 </r>
       <r>  -18.0129    1.0000 </r>
       <r>  -17.9793    1.0000 </r>
       <r>  -17.9614    1.0000 </r>
       <r>    0.4827    1.0000 </r>
       <r>    1.2725    0.0000 </r>
       <r>    1.9561    0.0000 </r>
       <r>    3.8085    0.0000 </r>
       <r>    4.3808    0.0000 </r>
      </set>
      <set comment="kpoint 67">
       <r>  -36.0227    1.0000 </r>
       <r>  -18.0099    1.0000 </r>
       <r>  -17.9864    1.0000 </r>
       <r>  -17.9595    1.0000 </r>
       <r>    0.8808    0.9906 </r>
       <r>    1.0033    0.1323 </r>
       <r>    1.8624    0.0000 </r>
       <r>    3.7195    0.0000 </r>
       <r>    4.2481    0.0000 </r>
      </set>
      <set comment="kpoint 68">
       <r>  -36.0228    1.0000 </r>
       <r>  -18.0048    1.0000 </r>
       <r>  -17.9912    1.0000 </r>
       <r>  -17.9566    1.0000 </r>
       <r>    0.6371    1.0000 </r>
       <r>    1.3033    0.0000 </r>
       <r>    1.7560    0.0000 </r>
       <r>    3.6394    0.0000 </r>
       <r>    4.4388    0.0000 </r>
      </set>
      <set comment="kpoint 69">
       <r>  -36.0232    1.0000 </r>
       <r>  -18.0038    1.0000 </r>
       <r>  -17.9875    1.0000 </r>
       <r>  -17.9532    1.0000 </r>
       <r>    0.2409    1.0000 </r>
       <r>    1.6524    0.0000 </r>
       <r>    1.7200    0.0000 </r>
       <r>    3.5629    0.0000 </r>
       <r>    4.4604    0.0000 </r>
      </set>
      <set comment="kpoint 70">
       <r>  -36.0237    1.0000 </r>
       <r>  -18.0073    1.0000 </r>
       <r>  -17.9628    1.0000 </r>
       <r>  -17.9628    1.0000 </r>
       <r>   -0.4035    1.0000 </r>
       <r>    1.6859    0.0000 </r>
       <r>    2.2254    0.0000 </r>
       <r>    4.2056    0.0000 </r>
       <r>    4.2056    0.0000 </r>
      </set>
      <set comment="kpoint 71">
       <r>  -36.0232    1.0000 </r>
       <r>  -18.0131    1.0000 </r>
       <r>  -17.9663    1.0000 </r>
       <r>  -17.9649    1.0000 </r>
       <r>   -0.1149    1.0000 </r>
       <r>    1.5986    0.0000 </r>
       <r>    2.0546    0.0000 </r>
       <r>    4.3146    0.0000 </r>
       <r>    4.4267    0.0000 </r>
      </set>
      <set comment="kpoint 72">
       <r>  -36.0228    1.0000 </r>
       <r>  -18.0162    1.0000 </r>
       <r>  -17.9716    1.0000 </r>
       <r>  -17.9657    1.0000 </r>
       <r>    0.2081    1.0000 </r>
       <r>    1.5129    0.0000 </r>
       <r>    1.9027    0.0000 </r>
       <r>    4.2691    0.0000 </r>
       <r>    4.5908    0.0000 </r>
      </set>
      <set comment="kpoint 73">
       <r>  -36.0225    1.0000 </r>
       <r>  -18.0156    1.0000 </r>
       <r>  -17.9788    1.0000 </r>
       <r>  -17.9651    1.0000 </r>
       <r>    0.5489    1.0000 </r>
       <r>    1.3998    0.0000 </r>
       <r>    1.7873    0.0000 </r>
       <r>    4.1476    0.0000 </r>
       <r>    4.3865    0.0000 </r>
      </set>
      <set comment="kpoint 74">
       <r>  -36.0224    1.0000 </r>
       <r>  -18.0112    1.0000 </r>
       <r>  -17.9871    1.0000 </r>
       <r>  -17.9632    1.0000 </r>
       <r>    0.8829    0.9889 </r>
       <r>    1.2400    0.0000 </r>
       <r>    1.6832    0.0000 </r>
       <r>    3.9933    0.0000 </r>
       <r>    4.1244    0.0000 </r>
      </set>
      <set comment="kpoint 75">
       <r>  -36.0225    1.0000 </r>
       <r>  -18.0038    1.0000 </r>
       <r>  -17.9951    1.0000 </r>
       <r>  -17.9602    1.0000 </r>
       <r>    0.9644    0.4936 </r>
       <r>    1.2085    0.0000 </r>
       <r>    1.6082    0.0000 </r>
       <r>    3.8211    0.0000 </r>
       <r>    4.1178    0.0000 </r>
      </set>
      <set comment="kpoint 76">
       <r>  -36.0228    1.0000 </r>
       <r>  -18.0182    1.0000 </r>
       <r>  -17.9673    1.0000 </r>
       <r>  -17.9673    1.0000 </r>
       <r>    0.1048    1.0000 </r>
       <r>    1.5360    0.0000 </r>
       <r>    1.9239    0.0000 </r>
       <r>    4.6332    0.0000 </r>
       <r>    4.6332    0.0000 </r>
      </set>
      <set comment="kpoint 77">
       <r>  -36.0225    1.0000 </r>
       <r>  -18.0210    1.0000 </r>
       <r>  -17.9700    1.0000 </r>
       <r>  -17.9683    1.0000 </r>
       <r>    0.3416    1.0000 </r>
       <r>    1.4875    0.0000 </r>
       <r>    1.8006    0.0000 </r>
       <r>    4.6876    0.0000 </r>
       <r>    4.8281    0.0000 </r>
      </set>
      <set comment="kpoint 78">
       <r>  -36.0223    1.0000 </r>
       <r>  -18.0205    1.0000 </r>
       <r>  -17.9749    1.0000 </r>
       <r>  -17.9679    1.0000 </r>
       <r>    0.5740    1.0000 </r>
       <r>    1.4473    0.0000 </r>
       <r>    1.7016    0.0000 </r>
       <r>    4.5208    0.0000 </r>
       <r>    4.6100    0.0000 </r>
      </set>
      <set comment="kpoint 79">
       <r>  -36.0223    1.0000 </r>
       <r>  -18.0166    1.0000 </r>
       <r>  -17.9813    1.0000 </r>
       <r>  -17.9661    1.0000 </r>
       <r>    0.7684    1.0000 </r>
       <r>    1.3889    0.0000 </r>
       <r>    1.6423    0.0000 </r>
       <r>    4.2545    0.0000 </r>
       <r>    4.2723    0.0000 </r>
      </set>
      <set comment="kpoint 80">
       <r>  -36.0223    1.0000 </r>
       <r>  -18.0239    1.0000 </r>
       <r>  -17.9696    1.0000 </r>
       <r>  -17.9696    1.0000 </r>
       <r>    0.4611    1.0000 </r>
       <r>    1.4596    0.0000 </r>
       <r>    1.7263    0.0000 </r>
       <r>    5.1324    0.0000 </r>
       <r>    5.1330    0.0000 </r>
      </set>
      <set comment="kpoint 81">
       <r>  -36.0223    1.0000 </r>
       <r>  -18.0237    1.0000 </r>
       <r>  -17.9714    1.0000 </r>
       <r>  -17.9695    1.0000 </r>
       <r>    0.5445    1.0000 </r>
       <r>    1.4502    0.0000 </r>
       <r>    1.6882    0.0000 </r>
       <r>    4.8859    0.0000 </r>
       <r>    5.0191    0.0000 </r>
      </set>
      <set comment="kpoint 82">
       <r>  -36.0283    1.0000 </r>
       <r>  -17.9517    1.0000 </r>
       <r>  -17.9401    1.0000 </r>
       <r>  -17.9371    1.0000 </r>
       <r>   -2.0609    1.0000 </r>
       <r>    2.7084    0.0000 </r>
       <r>    3.1982    0.0000 </r>
       <r>    3.2622    0.0000 </r>
       <r>    3.9320    0.0000 </r>
      </set>
      <set comment="kpoint 83">
       <r>  -36.0275    1.0000 </r>
       <r>  -17.9641    1.0000 </r>
       <r>  -17.9436    1.0000 </r>
       <r>  -17.9386    1.0000 </r>
       <r>   -1.8372    1.0000 </r>
       <r>    2.4795    0.0000 </r>
       <r>    3.1778    0.0000 </r>
       <r>    3.3522    0.0000 </r>
       <r>    3.8327    0.0000 </r>
      </set>
      <set comment="kpoint 84">
       <r>  -36.0266    1.0000 </r>
       <r>  -17.9794    1.0000 </r>
       <r>  -17.9470    1.0000 </r>
       <r>  -17.9408    1.0000 </r>
       <r>   -1.5356    1.0000 </r>
       <r>    2.2075    0.0000 </r>
       <r>    3.0938    0.0000 </r>
       <r>    3.3640    0.0000 </r>
       <r>    3.8974    0.0000 </r>
      </set>
      <set comment="kpoint 85">
       <r>  -36.0257    1.0000 </r>
       <r>  -17.9952    1.0000 </r>
       <r>  -17.9499    1.0000 </r>
       <r>  -17.9434    1.0000 </r>
       <r>   -1.1689    1.0000 </r>
       <r>    1.9062    0.0000 </r>
       <r>    2.9775    0.0000 </r>
       <r>    3.2916    0.0000 </r>
       <r>    4.1218    0.0000 </r>
      </set>
      <set comment="kpoint 86">
       <r>  -36.0248    1.0000 </r>
       <r>  -18.0095    1.0000 </r>
       <r>  -17.9522    1.0000 </r>
       <r>  -17.9461    1.0000 </r>
       <r>   -0.7569    1.0000 </r>
       <r>    1.5807    0.0000 </r>
       <r>    2.8753    0.0000 </r>
       <r>    3.2021    0.0000 </r>
       <r>    4.4211    0.0000 </r>
      </set>
      <set comment="kpoint 87">
       <r>  -36.0242    1.0000 </r>
       <r>  -18.0202    1.0000 </r>
       <r>  -17.9537    1.0000 </r>
       <r>  -17.9483    1.0000 </r>
       <r>   -0.3336    1.0000 </r>
       <r>    1.2397    0.0000 </r>
       <r>    2.8086    0.0000 </r>
       <r>    3.1299    0.0000 </r>
       <r>    4.7347    0.0000 </r>
      </set>
      <set comment="kpoint 88">
       <r>  -36.0238    1.0000 </r>
       <r>  -18.0259    1.0000 </r>
       <r>  -17.9544    1.0000 </r>
       <r>  -17.9496    1.0000 </r>
       <r>    0.0134    1.0000 </r>
       <r>    0.9430    0.7219 </r>
       <r>    2.7782    0.0000 </r>
       <r>    3.0905    0.0000 </r>
       <r>    5.0173    0.0000 </r>
      </set>
      <set comment="kpoint 89">
       <r>  -36.0272    1.0000 </r>
       <r>  -17.9647    1.0000 </r>
       <r>  -17.9455    1.0000 </r>
       <r>  -17.9421    1.0000 </r>
       <r>   -1.7625    1.0000 </r>
       <r>    2.4288    0.0000 </r>
       <r>    3.2172    0.0000 </r>
       <r>    3.4052    0.0000 </r>
       <r>    3.6303    0.0000 </r>
      </set>
      <set comment="kpoint 90">
       <r>  -36.0264    1.0000 </r>
       <r>  -17.9773    1.0000 </r>
       <r>  -17.9497    1.0000 </r>
       <r>  -17.9440    1.0000 </r>
       <r>   -1.4899    1.0000 </r>
       <r>    2.2163    0.0000 </r>
       <r>    3.0381    0.0000 </r>
       <r>    3.4697    0.0000 </r>
       <r>    3.7130    0.0000 </r>
      </set>
      <set comment="kpoint 91">
       <r>  -36.0255    1.0000 </r>
       <r>  -17.9913    1.0000 </r>
       <r>  -17.9534    1.0000 </r>
       <r>  -17.9465    1.0000 </r>
       <r>   -1.1477    1.0000 </r>
       <r>    1.9715    0.0000 </r>
       <r>    2.8410    0.0000 </r>
       <r>    3.4290    0.0000 </r>
       <r>    3.9550    0.0000 </r>
      </set>
      <set comment="kpoint 92">
       <r>  -36.0247    1.0000 </r>
       <r>  -18.0044    1.0000 </r>
       <r>  -17.9565    1.0000 </r>
       <r>  -17.9492    1.0000 </r>
       <r>   -0.7518    1.0000 </r>
       <r>    1.6906    0.0000 </r>
       <r>    2.6905    0.0000 </r>
       <r>    3.3533    0.0000 </r>
       <r>    4.2556    0.0000 </r>
      </set>
      <set comment="kpoint 93">
       <r>  -36.0240    1.0000 </r>
       <r>  -18.0148    1.0000 </r>
       <r>  -17.9591    1.0000 </r>
       <r>  -17.9513    1.0000 </r>
       <r>   -0.3270    1.0000 </r>
       <r>    1.3747    0.0000 </r>
       <r>    2.6008    0.0000 </r>
       <r>    3.2776    0.0000 </r>
       <r>    4.5714    0.0000 </r>
      </set>
      <set comment="kpoint 94">
       <r>  -36.0236    1.0000 </r>
       <r>  -18.0212    1.0000 </r>
       <r>  -17.9611    1.0000 </r>
       <r>  -17.9523    1.0000 </r>
       <r>    0.0746    1.0000 </r>
       <r>    1.0510    0.0068 </r>
       <r>    2.5580    0.0000 </r>
       <r>    3.2240    0.0000 </r>
       <r>    4.8171    0.0000 </r>
      </set>
      <set comment="kpoint 95">
       <r>  -36.0235    1.0000 </r>
       <r>  -18.0226    1.0000 </r>
       <r>  -17.9624    1.0000 </r>
       <r>  -17.9519    1.0000 </r>
       <r>    0.2405    1.0000 </r>
       <r>    0.9116    0.9304 </r>
       <r>    2.5404    0.0000 </r>
       <r>    3.2059    0.0000 </r>
       <r>    4.8816    0.0000 </r>
      </set>
      <set comment="kpoint 96">
       <r>  -36.0237    1.0000 </r>
       <r>  -18.0190    1.0000 </r>
       <r>  -17.9626    1.0000 </r>
       <r>  -17.9503    1.0000 </r>
       <r>   -0.0499    1.0000 </r>
       <r>    1.1697    0.0000 </r>
       <r>    2.5432    0.0000 </r>
       <r>    3.2292    0.0000 </r>
       <r>    4.7100    0.0000 </r>
      </set>
      <set comment="kpoint 97">
       <r>  -36.0243    1.0000 </r>
       <r>  -18.0110    1.0000 </r>
       <r>  -17.9615    1.0000 </r>
       <r>  -17.9479    1.0000 </r>
       <r>   -0.4685    1.0000 </r>
       <r>    1.5073    0.0000 </r>
       <r>    2.5847    0.0000 </r>
       <r>    3.2931    0.0000 </r>
       <r>    4.3955    0.0000 </r>
      </set>
      <set comment="kpoint 98">
       <r>  -36.0250    1.0000 </r>
       <r>  -17.9996    1.0000 </r>
       <r>  -17.9588    1.0000 </r>
       <r>  -17.9450    1.0000 </r>
       <r>   -0.8879    1.0000 </r>
       <r>    1.8155    0.0000 </r>
       <r>    2.6861    0.0000 </r>
       <r>    3.3914    0.0000 </r>
       <r>    4.0755    0.0000 </r>
      </set>
      <set comment="kpoint 99">
       <r>  -36.0259    1.0000 </r>
       <r>  -17.9868    1.0000 </r>
       <r>  -17.9548    1.0000 </r>
       <r>  -17.9423    1.0000 </r>
       <r>   -1.2690    1.0000 </r>
       <r>    2.0763    0.0000 </r>
       <r>    2.8479    0.0000 </r>
       <r>    3.5082    0.0000 </r>
       <r>    3.7971    0.0000 </r>
      </set>
      <set comment="kpoint 100">
       <r>  -36.0267    1.0000 </r>
       <r>  -17.9743    1.0000 </r>
       <r>  -17.9495    1.0000 </r>
       <r>  -17.9400    1.0000 </r>
       <r>   -1.5902    1.0000 </r>
       <r>    2.2947    0.0000 </r>
       <r>    3.0334    0.0000 </r>
       <r>    3.5099    0.0000 </r>
       <r>    3.7006    0.0000 </r>
      </set>
      <set comment="kpoint 101">
       <r>  -36.0260    1.0000 </r>
       <r>  -17.9796    1.0000 </r>
       <r>  -17.9519    1.0000 </r>
       <r>  -17.9486    1.0000 </r>
       <r>   -1.3621    1.0000 </r>
       <r>    2.1422    0.0000 </r>
       <r>    2.9584    0.0000 </r>
       <r>    3.6110    0.0000 </r>
       <r>    3.6141    0.0000 </r>
      </set>
      <set comment="kpoint 102">
       <r>  -36.0252    1.0000 </r>
       <r>  -17.9907    1.0000 </r>
       <r>  -17.9566    1.0000 </r>
       <r>  -17.9509    1.0000 </r>
       <r>   -1.0500    1.0000 </r>
       <r>    1.9628    0.0000 </r>
       <r>    2.7034    0.0000 </r>
       <r>    3.6157    0.0000 </r>
       <r>    3.8577    0.0000 </r>
      </set>
      <set comment="kpoint 103">
       <r>  -36.0244    1.0000 </r>
       <r>  -18.0015    1.0000 </r>
       <r>  -17.9609    1.0000 </r>
       <r>  -17.9535    1.0000 </r>
       <r>   -0.6786    1.0000 </r>
       <r>    1.7542    0.0000 </r>
       <r>    2.4985    0.0000 </r>
       <r>    3.5634    0.0000 </r>
       <r>    4.1477    0.0000 </r>
      </set>
      <set comment="kpoint 104">
       <r>  -36.0238    1.0000 </r>
       <r>  -18.0103    1.0000 </r>
       <r>  -17.9651    1.0000 </r>
       <r>  -17.9554    1.0000 </r>
       <r>   -0.2663    1.0000 </r>
       <r>    1.4975    0.0000 </r>
       <r>    2.3721    0.0000 </r>
       <r>    3.4862    0.0000 </r>
       <r>    4.4435    0.0000 </r>
      </set>
      <set comment="kpoint 105">
       <r>  -36.0233    1.0000 </r>
       <r>  -18.0158    1.0000 </r>
       <r>  -17.9690    1.0000 </r>
       <r>  -17.9561    1.0000 </r>
       <r>    0.1571    1.0000 </r>
       <r>    1.1956    0.0000 </r>
       <r>    2.3087    0.0000 </r>
       <r>    3.4139    0.0000 </r>
       <r>    4.6247    0.0000 </r>
      </set>
      <set comment="kpoint 106">
       <r>  -36.0232    1.0000 </r>
       <r>  -18.0175    1.0000 </r>
       <r>  -17.9721    1.0000 </r>
       <r>  -17.9554    1.0000 </r>
       <r>    0.4836    1.0000 </r>
       <r>    0.9366    0.7798 </r>
       <r>    2.2690    0.0000 </r>
       <r>    3.3697    0.0000 </r>
       <r>    4.6337    0.0000 </r>
      </set>
      <set comment="kpoint 107">
       <r>  -36.0233    1.0000 </r>
       <r>  -18.0153    1.0000 </r>
       <r>  -17.9736    1.0000 </r>
       <r>  -17.9534    1.0000 </r>
       <r>    0.2904    1.0000 </r>
       <r>    1.1308    0.0000 </r>
       <r>    2.2364    0.0000 </r>
       <r>    3.3674    0.0000 </r>
       <r>    4.6616    0.0000 </r>
      </set>
      <set comment="kpoint 108">
       <r>  -36.0237    1.0000 </r>
       <r>  -18.0099    1.0000 </r>
       <r>  -17.9728    1.0000 </r>
       <r>  -17.9507    1.0000 </r>
       <r>   -0.1195    1.0000 </r>
       <r>    1.4742    0.0000 </r>
       <r>    2.2410    0.0000 </r>
       <r>    3.4058    0.0000 </r>
       <r>    4.4148    0.0000 </r>
      </set>
      <set comment="kpoint 109">
       <r>  -36.0243    1.0000 </r>
       <r>  -18.0025    1.0000 </r>
       <r>  -17.9691    1.0000 </r>
       <r>  -17.9476    1.0000 </r>
       <r>   -0.5414    1.0000 </r>
       <r>    1.7559    0.0000 </r>
       <r>    2.3425    0.0000 </r>
       <r>    3.4765    0.0000 </r>
       <r>    4.1092    0.0000 </r>
      </set>
      <set comment="kpoint 110">
       <r>  -36.0251    1.0000 </r>
       <r>  -17.9946    1.0000 </r>
       <r>  -17.9628    1.0000 </r>
       <r>  -17.9447    1.0000 </r>
       <r>   -0.9326    1.0000 </r>
       <r>    1.9398    0.0000 </r>
       <r>    2.5686    0.0000 </r>
       <r>    3.5541    0.0000 </r>
       <r>    3.8565    0.0000 </r>
      </set>
      <set comment="kpoint 111">
       <r>  -36.0248    1.0000 </r>
       <r>  -17.9945    1.0000 </r>
       <r>  -17.9586    1.0000 </r>
       <r>  -17.9557    1.0000 </r>
       <r>   -0.8803    1.0000 </r>
       <r>    1.8846    0.0000 </r>
       <r>    2.5617    0.0000 </r>
       <r>    3.8133    0.0000 </r>
       <r>    3.8855    0.0000 </r>
      </set>
      <set comment="kpoint 112">
       <r>  -36.0241    1.0000 </r>
       <r>  -18.0027    1.0000 </r>
       <r>  -17.9635    1.0000 </r>
       <r>  -17.9580    1.0000 </r>
       <r>   -0.5431    1.0000 </r>
       <r>    1.7452    0.0000 </r>
       <r>    2.3378    0.0000 </r>
       <r>    3.8192    0.0000 </r>
       <r>    4.1301    0.0000 </r>
      </set>
      <set comment="kpoint 113">
       <r>  -36.0235    1.0000 </r>
       <r>  -18.0091    1.0000 </r>
       <r>  -17.9690    1.0000 </r>
       <r>  -17.9598    1.0000 </r>
       <r>   -0.1591    1.0000 </r>
       <r>    1.5749    0.0000 </r>
       <r>    2.1706    0.0000 </r>
       <r>    3.7460    0.0000 </r>
       <r>    4.3963    0.0000 </r>
      </set>
      <set comment="kpoint 114">
       <r>  -36.0230    1.0000 </r>
       <r>  -18.0124    1.0000 </r>
       <r>  -17.9750    1.0000 </r>
       <r>  -17.9603    1.0000 </r>
       <r>    0.2530    1.0000 </r>
       <r>    1.3448    0.0000 </r>
       <r>    2.0758    0.0000 </r>
       <r>    3.6429    0.0000 </r>
       <r>    4.5106    0.0000 </r>
      </set>
      <set comment="kpoint 115">
       <r>  -36.0228    1.0000 </r>
       <r>  -18.0124    1.0000 </r>
       <r>  -17.9808    1.0000 </r>
       <r>  -17.9594    1.0000 </r>
       <r>    0.6626    1.0000 </r>
       <r>    1.0615    0.0029 </r>
       <r>    2.0101    0.0000 </r>
       <r>    3.5506    0.0000 </r>
       <r>    4.4257    0.0000 </r>
      </set>
      <set comment="kpoint 116">
       <r>  -36.0229    1.0000 </r>
       <r>  -18.0096    1.0000 </r>
       <r>  -17.9848    1.0000 </r>
       <r>  -17.9572    1.0000 </r>
       <r>    0.6607    1.0000 </r>
       <r>    1.1185    0.0000 </r>
       <r>    1.9350    0.0000 </r>
       <r>    3.5088    0.0000 </r>
       <r>    4.4574    0.0000 </r>
      </set>
      <set comment="kpoint 117">
       <r>  -36.0232    1.0000 </r>
       <r>  -18.0062    1.0000 </r>
       <r>  -17.9847    1.0000 </r>
       <r>  -17.9542    1.0000 </r>
       <r>    0.2683    1.0000 </r>
       <r>    1.4875    0.0000 </r>
       <r>    1.8808    0.0000 </r>
       <r>    3.5075    0.0000 </r>
       <r>    4.5082    0.0000 </r>
      </set>
      <set comment="kpoint 118">
       <r>  -36.0237    1.0000 </r>
       <r>  -18.0042    1.0000 </r>
       <r>  -17.9787    1.0000 </r>
       <r>  -17.9508    1.0000 </r>
       <r>   -0.1469    1.0000 </r>
       <r>    1.7085    0.0000 </r>
       <r>    2.0065    0.0000 </r>
       <r>    3.5090    0.0000 </r>
       <r>    4.2667    0.0000 </r>
      </set>
      <set comment="kpoint 119">
       <r>  -36.0236    1.0000 </r>
       <r>  -18.0075    1.0000 </r>
       <r>  -17.9646    1.0000 </r>
       <r>  -17.9621    1.0000 </r>
       <r>   -0.3523    1.0000 </r>
       <r>    1.6780    0.0000 </r>
       <r>    2.1988    0.0000 </r>
       <r>    4.0869    0.0000 </r>
       <r>    4.2327    0.0000 </r>
      </set>
      <set comment="kpoint 120">
       <r>  -36.0231    1.0000 </r>
       <r>  -18.0121    1.0000 </r>
       <r>  -17.9696    1.0000 </r>
       <r>  -17.9639    1.0000 </r>
       <r>   -0.0143    1.0000 </r>
       <r>    1.5804    0.0000 </r>
       <r>    2.0206    0.0000 </r>
       <r>    4.0430    0.0000 </r>
       <r>    4.4699    0.0000 </r>
      </set>
      <set comment="kpoint 121">
       <r>  -36.0227    1.0000 </r>
       <r>  -18.0136    1.0000 </r>
       <r>  -17.9763    1.0000 </r>
       <r>  -17.9644    1.0000 </r>
       <r>    0.3540    1.0000 </r>
       <r>    1.4509    0.0000 </r>
       <r>    1.8922    0.0000 </r>
       <r>    3.8884    0.0000 </r>
       <r>    4.5670    0.0000 </r>
      </set>
      <set comment="kpoint 122">
       <r>  -36.0225    1.0000 </r>
       <r>  -18.0114    1.0000 </r>
       <r>  -17.9842    1.0000 </r>
       <r>  -17.9634    1.0000 </r>
       <r>    0.7344    1.0000 </r>
       <r>    1.2606    0.0000 </r>
       <r>    1.8001    0.0000 </r>
       <r>    3.6992    0.0000 </r>
       <r>    4.4226    0.0000 </r>
      </set>
      <set comment="kpoint 123">
       <r>  -36.0225    1.0000 </r>
       <r>  -18.0055    1.0000 </r>
       <r>  -17.9922    1.0000 </r>
       <r>  -17.9611    1.0000 </r>
       <r>    0.9894    0.2349 </r>
       <r>    1.1224    0.0000 </r>
       <r>    1.6932    0.0000 </r>
       <r>    3.5915    0.0000 </r>
       <r>    4.3429    0.0000 </r>
      </set>
      <set comment="kpoint 124">
       <r>  -36.0228    1.0000 </r>
       <r>  -18.0007    1.0000 </r>
       <r>  -17.9954    1.0000 </r>
       <r>  -17.9579    1.0000 </r>
       <r>    0.6564    1.0000 </r>
       <r>    1.4620    0.0000 </r>
       <r>    1.6087    0.0000 </r>
       <r>    3.5630    0.0000 </r>
       <r>    4.4472    0.0000 </r>
      </set>
      <set comment="kpoint 125">
       <r>  -36.0228    1.0000 </r>
       <r>  -18.0171    1.0000 </r>
       <r>  -17.9691    1.0000 </r>
       <r>  -17.9670    1.0000 </r>
       <r>    0.1574    1.0000 </r>
       <r>    1.5347    0.0000 </r>
       <r>    1.9059    0.0000 </r>
       <r>    4.3691    0.0000 </r>
       <r>    4.6545    0.0000 </r>
      </set>
      <set comment="kpoint 126">
       <r>  -36.0225    1.0000 </r>
       <r>  -18.0181    1.0000 </r>
       <r>  -17.9739    1.0000 </r>
       <r>  -17.9678    1.0000 </r>
       <r>    0.4481    1.0000 </r>
       <r>    1.4796    0.0000 </r>
       <r>    1.7753    0.0000 </r>
       <r>    4.1667    0.0000 </r>
       <r>    4.8154    0.0000 </r>
      </set>
      <set comment="kpoint 127">
       <r>  -36.0223    1.0000 </r>
       <r>  -18.0156    1.0000 </r>
       <r>  -17.9808    1.0000 </r>
       <r>  -17.9668    1.0000 </r>
       <r>    0.7329    1.0000 </r>
       <r>    1.4043    0.0000 </r>
       <r>    1.6771    0.0000 </r>
       <r>    3.8660    0.0000 </r>
       <r>    4.6522    0.0000 </r>
      </set>
      <set comment="kpoint 128">
       <r>  -36.0224    1.0000 </r>
       <r>  -18.0100    1.0000 </r>
       <r>  -17.9884    1.0000 </r>
       <r>  -17.9644    1.0000 </r>
       <r>    0.9642    0.4958 </r>
       <r>    1.2825    0.0000 </r>
       <r>    1.6118    0.0000 </r>
       <r>    3.6598    0.0000 </r>
       <r>    4.4454    0.0000 </r>
      </set>
      <set comment="kpoint 129">
       <r>  -36.0223    1.0000 </r>
       <r>  -18.0222    1.0000 </r>
       <r>  -17.9715    1.0000 </r>
       <r>  -17.9697    1.0000 </r>
       <r>    0.5181    1.0000 </r>
       <r>    1.4615    0.0000 </r>
       <r>    1.7113    0.0000 </r>
       <r>    4.5244    0.0000 </r>
       <r>    5.1494    0.0000 </r>
      </set>
      <set comment="kpoint 130">
       <r>  -36.0223    1.0000 </r>
       <r>  -18.0201    1.0000 </r>
       <r>  -17.9755    1.0000 </r>
       <r>  -17.9691    1.0000 </r>
       <r>    0.6583    1.0000 </r>
       <r>    1.4481    0.0000 </r>
       <r>    1.6608    0.0000 </r>
       <r>    4.1582    0.0000 </r>
       <r>    4.9957    0.0000 </r>
      </set>
      <set comment="kpoint 131">
       <r>  -36.0256    1.0000 </r>
       <r>  -17.9869    1.0000 </r>
       <r>  -17.9562    1.0000 </r>
       <r>  -17.9458    1.0000 </r>
       <r>   -1.1983    1.0000 </r>
       <r>    2.0549    0.0000 </r>
       <r>    2.7858    0.0000 </r>
       <r>    3.6236    0.0000 </r>
       <r>    3.7109    0.0000 </r>
      </set>
      <set comment="kpoint 132">
       <r>  -36.0248    1.0000 </r>
       <r>  -17.9971    1.0000 </r>
       <r>  -17.9620    1.0000 </r>
       <r>  -17.9483    1.0000 </r>
       <r>   -0.8417    1.0000 </r>
       <r>    1.8687    0.0000 </r>
       <r>    2.5515    0.0000 </r>
       <r>    3.5458    0.0000 </r>
       <r>    3.9657    0.0000 </r>
      </set>
      <set comment="kpoint 133">
       <r>  -36.0241    1.0000 </r>
       <r>  -18.0065    1.0000 </r>
       <r>  -17.9663    1.0000 </r>
       <r>  -17.9511    1.0000 </r>
       <r>   -0.4373    1.0000 </r>
       <r>    1.6265    0.0000 </r>
       <r>    2.3954    0.0000 </r>
       <r>    3.4496    0.0000 </r>
       <r>    4.2682    0.0000 </r>
      </set>
      <set comment="kpoint 134">
       <r>  -36.0236    1.0000 </r>
       <r>  -18.0138    1.0000 </r>
       <r>  -17.9690    1.0000 </r>
       <r>  -17.9535    1.0000 </r>
       <r>   -0.0120    1.0000 </r>
       <r>    1.3213    0.0000 </r>
       <r>    2.3285    0.0000 </r>
       <r>    3.3685    0.0000 </r>
       <r>    4.5520    0.0000 </r>
      </set>
      <set comment="kpoint 135">
       <r>  -36.0233    1.0000 </r>
       <r>  -18.0177    1.0000 </r>
       <r>  -17.9703    1.0000 </r>
       <r>  -17.9549    1.0000 </r>
       <r>    0.3711    1.0000 </r>
       <r>    1.0033    0.1320 </r>
       <r>    2.3141    0.0000 </r>
       <r>    3.3204    0.0000 </r>
       <r>    4.6570    0.0000 </r>
      </set>
      <set comment="kpoint 136">
       <r>  -36.0245    1.0000 </r>
       <r>  -17.9983    1.0000 </r>
       <r>  -17.9632    1.0000 </r>
       <r>  -17.9530    1.0000 </r>
       <r>   -0.7251    1.0000 </r>
       <r>    1.8361    0.0000 </r>
       <r>    2.4452    0.0000 </r>
       <r>    3.6972    0.0000 </r>
       <r>    3.9746    0.0000 </r>
      </set>
      <set comment="kpoint 137">
       <r>  -36.0238    1.0000 </r>
       <r>  -18.0051    1.0000 </r>
       <r>  -17.9692    1.0000 </r>
       <r>  -17.9556    1.0000 </r>
       <r>   -0.3466    1.0000 </r>
       <r>    1.6866    0.0000 </r>
       <r>    2.2305    0.0000 </r>
       <r>    3.6328    0.0000 </r>
       <r>    4.2269    0.0000 </r>
      </set>
      <set comment="kpoint 138">
       <r>  -36.0233    1.0000 </r>
       <r>  -18.0099    1.0000 </r>
       <r>  -17.9742    1.0000 </r>
       <r>  -17.9579    1.0000 </r>
       <r>    0.0660    1.0000 </r>
       <r>    1.4632    0.0000 </r>
       <r>    2.1162    0.0000 </r>
       <r>    3.5233    0.0000 </r>
       <r>    4.4740    0.0000 </r>
      </set>
      <set comment="kpoint 139">
       <r>  -36.0230    1.0000 </r>
       <r>  -18.0124    1.0000 </r>
       <r>  -17.9780    1.0000 </r>
       <r>  -17.9590    1.0000 </r>
       <r>    0.4827    1.0000 </r>
       <r>    1.1660    0.0000 </r>
       <r>    2.0792    0.0000 </r>
       <r>    3.4207    0.0000 </r>
       <r>    4.5245    0.0000 </r>
      </set>
      <set comment="kpoint 140">
       <r>  -36.0229    1.0000 </r>
       <r>  -18.0123    1.0000 </r>
       <r>  -17.9802    1.0000 </r>
       <r>  -17.9586    1.0000 </r>
       <r>    0.7077    1.0000 </r>
       <r>    0.9865    0.2608 </r>
       <r>    2.0544    0.0000 </r>
       <r>    3.3801    0.0000 </r>
       <r>    4.5052    0.0000 </r>
      </set>
      <set comment="kpoint 141">
       <r>  -36.0231    1.0000 </r>
       <r>  -18.0100    1.0000 </r>
       <r>  -17.9800    1.0000 </r>
       <r>  -17.9568    1.0000 </r>
       <r>    0.3497    1.0000 </r>
       <r>    1.3112    0.0000 </r>
       <r>    2.0282    0.0000 </r>
       <r>    3.4208    0.0000 </r>
       <r>    4.5414    0.0000 </r>
      </set>
      <set comment="kpoint 142">
       <r>  -36.0235    1.0000 </r>
       <r>  -18.0064    1.0000 </r>
       <r>  -17.9767    1.0000 </r>
       <r>  -17.9540    1.0000 </r>
       <r>   -0.0691    1.0000 </r>
       <r>    1.6074    0.0000 </r>
       <r>    2.0657    0.0000 </r>
       <r>    3.4986    0.0000 </r>
       <r>    4.3536    0.0000 </r>
      </set>
      <set comment="kpoint 143">
       <r>  -36.0241    1.0000 </r>
       <r>  -18.0021    1.0000 </r>
       <r>  -17.9703    1.0000 </r>
       <r>  -17.9510    1.0000 </r>
       <r>   -0.4758    1.0000 </r>
       <r>    1.7727    0.0000 </r>
       <r>    2.2599    0.0000 </r>
       <r>    3.5632    0.0000 </r>
       <r>    4.1052    0.0000 </r>
      </set>
      <set comment="kpoint 144">
       <r>  -36.0235    1.0000 </r>
       <r>  -18.0076    1.0000 </r>
       <r>  -17.9695    1.0000 </r>
       <r>  -17.9604    1.0000 </r>
       <r>   -0.2028    1.0000 </r>
       <r>    1.6581    0.0000 </r>
       <r>    2.1180    0.0000 </r>
       <r>    3.8251    0.0000 </r>
       <r>    4.3073    0.0000 </r>
      </set>
      <set comment="kpoint 145">
       <r>  -36.0230    1.0000 </r>
       <r>  -18.0102    1.0000 </r>
       <r>  -17.9756    1.0000 </r>
       <r>  -17.9626    1.0000 </r>
       <r>    0.1762    1.0000 </r>
       <r>    1.5458    0.0000 </r>
       <r>    1.9502    0.0000 </r>
       <r>    3.6783    0.0000 </r>
       <r>    4.5378    0.0000 </r>
      </set>
      <set comment="kpoint 146">
       <r>  -36.0227    1.0000 </r>
       <r>  -18.0100    1.0000 </r>
       <r>  -17.9820    1.0000 </r>
       <r>  -17.9635    1.0000 </r>
       <r>    0.5734    1.0000 </r>
       <r>    1.3475    0.0000 </r>
       <r>    1.8730    0.0000 </r>
       <r>    3.4745    0.0000 </r>
       <r>    4.5899    0.0000 </r>
      </set>
      <set comment="kpoint 147">
       <r>  -36.0226    1.0000 </r>
       <r>  -18.0073    1.0000 </r>
       <r>  -17.9880    1.0000 </r>
       <r>  -17.9628    1.0000 </r>
       <r>    0.9669    0.4656 </r>
       <r>    1.0679    0.0016 </r>
       <r>    1.8179    0.0000 </r>
       <r>    3.3450    0.0000 </r>
       <r>    4.5347    0.0000 </r>
      </set>
      <set comment="kpoint 148">
       <r>  -36.0227    1.0000 </r>
       <r>  -18.0041    1.0000 </r>
       <r>  -17.9908    1.0000 </r>
       <r>  -17.9605    1.0000 </r>
       <r>    0.7211    1.0000 </r>
       <r>    1.3412    0.0000 </r>
       <r>    1.7365    0.0000 </r>
       <r>    3.3678    0.0000 </r>
       <r>    4.5832    0.0000 </r>
      </set>
      <set comment="kpoint 149">
       <r>  -36.0230    1.0000 </r>
       <r>  -18.0047    1.0000 </r>
       <r>  -17.9860    1.0000 </r>
       <r>  -17.9574    1.0000 </r>
       <r>    0.3291    1.0000 </r>
       <r>    1.6174    0.0000 </r>
       <r>    1.7424    0.0000 </r>
       <r>    3.4587    0.0000 </r>
       <r>    4.5460    0.0000 </r>
      </set>
      <set comment="kpoint 150">
       <r>  -36.0227    1.0000 </r>
       <r>  -18.0139    1.0000 </r>
       <r>  -17.9743    1.0000 </r>
       <r>  -17.9664    1.0000 </r>
       <r>    0.3084    1.0000 </r>
       <r>    1.5334    0.0000 </r>
       <r>    1.8512    0.0000 </r>
       <r>    3.8748    0.0000 </r>
       <r>    4.7114    0.0000 </r>
      </set>
      <set comment="kpoint 151">
       <r>  -36.0225    1.0000 </r>
       <r>  -18.0127    1.0000 </r>
       <r>  -17.9803    1.0000 </r>
       <r>  -17.9675    1.0000 </r>
       <r>    0.6441    1.0000 </r>
       <r>    1.4621    0.0000 </r>
       <r>    1.7307    0.0000 </r>
       <r>    3.5631    0.0000 </r>
       <r>    4.8459    0.0000 </r>
      </set>
      <set comment="kpoint 152">
       <r>  -36.0224    1.0000 </r>
       <r>  -18.0083    1.0000 </r>
       <r>  -17.9880    1.0000 </r>
       <r>  -17.9666    1.0000 </r>
       <r>    0.9577    0.5695 </r>
       <r>    1.3304    0.0000 </r>
       <r>    1.6509    0.0000 </r>
       <r>    3.3149    0.0000 </r>
       <r>    4.7582    0.0000 </r>
      </set>
      <set comment="kpoint 153">
       <r>  -36.0224    1.0000 </r>
       <r>  -18.0013    1.0000 </r>
       <r>  -17.9957    1.0000 </r>
       <r>  -17.9640    1.0000 </r>
       <r>    1.0206    0.0543 </r>
       <r>    1.3148    0.0000 </r>
       <r>    1.5791    0.0000 </r>
       <r>    3.2716    0.0000 </r>
       <r>    4.6695    0.0000 </r>
      </set>
      <set comment="kpoint 154">
       <r>  -36.0223    1.0000 </r>
       <r>  -18.0172    1.0000 </r>
       <r>  -17.9768    1.0000 </r>
       <r>  -17.9698    1.0000 </r>
       <r>    0.6800    1.0000 </r>
       <r>    1.4694    0.0000 </r>
       <r>    1.6706    0.0000 </r>
       <r>    3.7927    0.0000 </r>
       <r>    5.1807    0.0000 </r>
      </set>
      <set comment="kpoint 155">
       <r>  -36.0223    1.0000 </r>
       <r>  -18.0134    1.0000 </r>
       <r>  -17.9821    1.0000 </r>
       <r>  -17.9693    1.0000 </r>
       <r>    0.8643    0.9976 </r>
       <r>    1.4463    0.0000 </r>
       <r>    1.6151    0.0000 </r>
       <r>    3.4598    0.0000 </r>
       <r>    5.0823    0.0000 </r>
      </set>
      <set comment="kpoint 156">
       <r>  -36.0233    1.0000 </r>
       <r>  -18.0069    1.0000 </r>
       <r>  -17.9770    1.0000 </r>
       <r>  -17.9585    1.0000 </r>
       <r>    0.0319    1.0000 </r>
       <r>    1.6352    0.0000 </r>
       <r>    1.9710    0.0000 </r>
       <r>    3.5687    0.0000 </r>
       <r>    4.4148    0.0000 </r>
      </set>
      <set comment="kpoint 157">
       <r>  -36.0229    1.0000 </r>
       <r>  -18.0072    1.0000 </r>
       <r>  -17.9834    1.0000 </r>
       <r>  -17.9612    1.0000 </r>
       <r>    0.4334    1.0000 </r>
       <r>    1.4830    0.0000 </r>
       <r>    1.8407    0.0000 </r>
       <r>    3.4065    0.0000 </r>
       <r>    4.6099    0.0000 </r>
      </set>
      <set comment="kpoint 158">
       <r>  -36.0226    1.0000 </r>
       <r>  -18.0069    1.0000 </r>
       <r>  -17.9871    1.0000 </r>
       <r>  -17.9629    1.0000 </r>
       <r>    0.8278    0.9999 </r>
       <r>    1.1867    0.0000 </r>
       <r>    1.8454    0.0000 </r>
       <r>    3.2610    0.0000 </r>
       <r>    4.5927    0.0000 </r>
      </set>
      <set comment="kpoint 159">
       <r>  -36.0226    1.0000 </r>
       <r>  -18.0091    1.0000 </r>
       <r>  -17.9821    1.0000 </r>
       <r>  -17.9655    1.0000 </r>
       <r>    0.5360    1.0000 </r>
       <r>    1.5379    0.0000 </r>
       <r>    1.7476    0.0000 </r>
       <r>    3.4155    0.0000 </r>
       <r>    4.7898    0.0000 </r>
      </set>
      <set comment="kpoint 160">
       <r>  -36.0224    1.0000 </r>
       <r>  -18.0057    1.0000 </r>
       <r>  -17.9885    1.0000 </r>
       <r>  -17.9672    1.0000 </r>
       <r>    0.8860    0.9861 </r>
       <r>    1.4153    0.0000 </r>
       <r>    1.6766    0.0000 </r>
       <r>    3.1332    0.0000 </r>
       <r>    4.8644    0.0000 </r>
      </set>
      <set comment="kpoint 161">
       <r>  -36.0224    1.0000 </r>
       <r>  -18.0012    1.0000 </r>
       <r>  -17.9942    1.0000 </r>
       <r>  -17.9668    1.0000 </r>
       <r>    1.0729    0.0010 </r>
       <r>    1.3058    0.0000 </r>
       <r>    1.6436    0.0000 </r>
       <r>    3.0359    0.0000 </r>
       <r>    4.8386    0.0000 </r>
      </set>
      <set comment="kpoint 162">
       <r>  -36.0225    1.0000 </r>
       <r>  -18.0028    1.0000 </r>
       <r>  -17.9915    1.0000 </r>
       <r>  -17.9646    1.0000 </r>
       <r>    0.7973    1.0000 </r>
       <r>    1.5528    0.0000 </r>
       <r>    1.5624    0.0000 </r>
       <r>    3.1810    0.0000 </r>
       <r>    4.8755    0.0000 </r>
      </set>
      <set comment="kpoint 163">
       <r>  -36.0223    1.0000 </r>
       <r>  -18.0095    1.0000 </r>
       <r>  -17.9848    1.0000 </r>
       <r>  -17.9699    1.0000 </r>
       <r>    0.9104    0.9347 </r>
       <r>    1.4876    0.0000 </r>
       <r>    1.6105    0.0000 </r>
       <r>    3.1808    0.0000 </r>
       <r>    5.2290    0.0000 </r>
      </set>
      <set comment="kpoint 164">
       <r>  -36.0223    1.0000 </r>
       <r>  -18.0045    1.0000 </r>
       <r>  -17.9908    1.0000 </r>
       <r>  -17.9696    1.0000 </r>
       <r>    1.0842    0.0003 </r>
       <r>    1.4545    0.0000 </r>
       <r>    1.5641    0.0000 </r>
       <r>    2.9651    0.0000 </r>
       <r>    5.1427    0.0000 </r>
      </set>
      <set comment="kpoint 165">
       <r>  -36.0223    1.0000 </r>
       <r>  -18.0003    1.0000 </r>
       <r>  -17.9945    1.0000 </r>
       <r>  -17.9698    1.0000 </r>
       <r>    1.1080    0.0000 </r>
       <r>    1.5194    0.0000 </r>
       <r>    1.5252    0.0000 </r>
       <r>    2.8484    0.0000 </r>
       <r>    5.2030    0.0000 </r>
      </set>
     </set>
    </set>
   </array>
  </eigenvalues>
  <separator name="orbital magnetization" >
   <v name="MAGDIPOLOUT">      0.00000000      0.00000000      0.00000000</v>
  </separator>
  <dos>
   <i name="efermi">      0.96384109 </i>
   <total>
    <array>
     <dimension dim="1">gridpoints</dimension>
     <dimension dim="2">spin</dimension>
     <field>energy</field>
     <field>total</field>
     <field>integrated</field>
     <set>
      <set comment="spin 1">
       <r>   -38.0923     0.0000     0.0000 </r>
       <r>   -37.9410     0.0000     0.0000 </r>
       <r>   -37.7898     0.0000     0.0000 </r>
       <r>   -37.6385     0.0000     0.0000 </r>
       <r>   -37.4872     0.0000     0.0000 </r>
       <r>   -37.3359     0.0000     0.0000 </r>
       <r>   -37.1846     0.0000     0.0000 </r>
       <r>   -37.0334     0.0000     0.0000 </r>
       <r>   -36.8821     0.0000     0.0000 </r>
       <r>   -36.7308     0.0000     0.0000 </r>
       <r>   -36.5795     0.0000     0.0000 </r>
       <r>   -36.4282     0.0000     0.0000 </r>
       <r>   -36.2770     0.0000     0.0000 </r>
       <r>   -36.1257     0.0270     0.0041 </r>
       <r>   -35.9744    12.1312     1.8393 </r>
       <r>   -35.8231     1.0623     2.0000 </r>
       <r>   -35.6718     0.0000     2.0000 </r>
       <r>   -35.5206     0.0000     2.0000 </r>
       <r>   -35.3693     0.0000     2.0000 </r>
       <r>   -35.2180     0.0000     2.0000 </r>
       <r>   -35.0667     0.0000     2.0000 </r>
       <r>   -34.9154     0.0000     2.0000 </r>
       <r>   -34.7641     0.0000     2.0000 </r>
       <r>   -34.6129     0.0000     2.0000 </r>
       <r>   -34.4616     0.0000     2.0000 </r>
       <r>   -34.3103     0.0000     2.0000 </r>
       <r>   -34.1590     0.0000     2.0000 </r>
       <r>   -34.0077     0.0000     2.0000 </r>
       <r>   -33.8565     0.0000     2.0000 </r>
       <r>   -33.7052     0.0000     2.0000 </r>
       <r>   -33.5539     0.0000     2.0000 </r>
       <r>   -33.4026     0.0000     2.0000 </r>
       <r>   -33.2513     0.0000     2.0000 </r>
       <r>   -33.1001     0.0000     2.0000 </r>
       <r>   -32.9488     0.0000     2.0000 </r>
       <r>   -32.7975     0.0000     2.0000 </r>
       <r>   -32.6462     0.0000     2.0000 </r>
       <r>   -32.4949     0.0000     2.0000 </r>
       <r>   -32.3437     0.0000     2.0000 </r>
       <r>   -32.1924     0.0000     2.0000 </r>
       <r>   -32.0411     0.0000     2.0000 </r>
       <r>   -31.8898     0.0000     2.0000 </r>
       <r>   -31.7385     0.0000     2.0000 </r>
       <r>   -31.5872     0.0000     2.0000 </r>
       <r>   -31.4360     0.0000     2.0000 </r>
       <r>   -31.2847     0.0000     2.0000 </r>
       <r>   -31.1334     0.0000     2.0000 </r>
       <r>   -30.9821     0.0000     2.0000 </r>
       <r>   -30.8308     0.0000     2.0000 </r>
       <r>   -30.6796     0.0000     2.0000 </r>
       <r>   -30.5283     0.0000     2.0000 </r>
       <r>   -30.3770     0.0000     2.0000 </r>
       <r>   -30.2257     0.0000     2.0000 </r>
       <r>   -30.0744     0.0000     2.0000 </r>
       <r>   -29.9232     0.0000     2.0000 </r>
       <r>   -29.7719     0.0000     2.0000 </r>
       <r>   -29.6206     0.0000     2.0000 </r>
       <r>   -29.4693     0.0000     2.0000 </r>
       <r>   -29.3180     0.0000     2.0000 </r>
       <r>   -29.1668     0.0000     2.0000 </r>
       <r>   -29.0155     0.0000     2.0000 </r>
       <r>   -28.8642     0.0000     2.0000 </r>
       <r>   -28.7129     0.0000     2.0000 </r>
       <r>   -28.5616     0.0000     2.0000 </r>
       <r>   -28.4104     0.0000     2.0000 </r>
       <r>   -28.2591     0.0000     2.0000 </r>
       <r>   -28.1078     0.0000     2.0000 </r>
       <r>   -27.9565     0.0000     2.0000 </r>
       <r>   -27.8052     0.0000     2.0000 </r>
       <r>   -27.6539     0.0000     2.0000 </r>
       <r>   -27.5027     0.0000     2.0000 </r>
       <r>   -27.3514     0.0000     2.0000 </r>
       <r>   -27.2001     0.0000     2.0000 </r>
       <r>   -27.0488     0.0000     2.0000 </r>
       <r>   -26.8975     0.0000     2.0000 </r>
       <r>   -26.7463     0.0000     2.0000 </r>
       <r>   -26.5950     0.0000     2.0000 </r>
       <r>   -26.4437     0.0000     2.0000 </r>
       <r>   -26.2924     0.0000     2.0000 </r>
       <r>   -26.1411     0.0000     2.0000 </r>
       <r>   -25.9899     0.0000     2.0000 </r>
       <r>   -25.8386     0.0000     2.0000 </r>
       <r>   -25.6873     0.0000     2.0000 </r>
       <r>   -25.5360     0.0000     2.0000 </r>
       <r>   -25.3847     0.0000     2.0000 </r>
       <r>   -25.2335     0.0000     2.0000 </r>
       <r>   -25.0822     0.0000     2.0000 </r>
       <r>   -24.9309     0.0000     2.0000 </r>
       <r>   -24.7796     0.0000     2.0000 </r>
       <r>   -24.6283     0.0000     2.0000 </r>
       <r>   -24.4770     0.0000     2.0000 </r>
       <r>   -24.3258     0.0000     2.0000 </r>
       <r>   -24.1745     0.0000     2.0000 </r>
       <r>   -24.0232     0.0000     2.0000 </r>
       <r>   -23.8719     0.0000     2.0000 </r>
       <r>   -23.7206     0.0000     2.0000 </r>
       <r>   -23.5694     0.0000     2.0000 </r>
       <r>   -23.4181     0.0000     2.0000 </r>
       <r>   -23.2668     0.0000     2.0000 </r>
       <r>   -23.1155     0.0000     2.0000 </r>
       <r>   -22.9642     0.0000     2.0000 </r>
       <r>   -22.8130     0.0000     2.0000 </r>
       <r>   -22.6617     0.0000     2.0000 </r>
       <r>   -22.5104     0.0000     2.0000 </r>
       <r>   -22.3591     0.0000     2.0000 </r>
       <r>   -22.2078     0.0000     2.0000 </r>
       <r>   -22.0566     0.0000     2.0000 </r>
       <r>   -21.9053     0.0000     2.0000 </r>
       <r>   -21.7540     0.0000     2.0000 </r>
       <r>   -21.6027     0.0000     2.0000 </r>
       <r>   -21.4514     0.0000     2.0000 </r>
       <r>   -21.3002     0.0000     2.0000 </r>
       <r>   -21.1489     0.0000     2.0000 </r>
       <r>   -20.9976     0.0000     2.0000 </r>
       <r>   -20.8463     0.0000     2.0000 </r>
       <r>   -20.6950     0.0000     2.0000 </r>
       <r>   -20.5437     0.0000     2.0000 </r>
       <r>   -20.3925     0.0000     2.0000 </r>
       <r>   -20.2412     0.0000     2.0000 </r>
       <r>   -20.0899     0.0000     2.0000 </r>
       <r>   -19.9386     0.0000     2.0000 </r>
       <r>   -19.7873     0.0000     2.0000 </r>
       <r>   -19.6361     0.0000     2.0000 </r>
       <r>   -19.4848     0.0000     2.0000 </r>
       <r>   -19.3335     0.0000     2.0000 </r>
       <r>   -19.1822     0.0000     2.0000 </r>
       <r>   -19.0309     0.0000     2.0000 </r>
       <r>   -18.8797     0.0000     2.0000 </r>
       <r>   -18.7284     0.0000     2.0000 </r>
       <r>   -18.5771     0.0000     2.0000 </r>
       <r>   -18.4258     0.0000     2.0000 </r>
       <r>   -18.2745     0.0000     2.0000 </r>
       <r>   -18.1233     0.0100     2.0015 </r>
       <r>   -17.9720    20.5995     5.1178 </r>
       <r>   -17.8207    19.0493     7.9996 </r>
       <r>   -17.6694     0.0025     8.0000 </r>
       <r>   -17.5181     0.0000     8.0000 </r>
       <r>   -17.3668     0.0000     8.0000 </r>
       <r>   -17.2156     0.0000     8.0000 </r>
       <r>   -17.0643     0.0000     8.0000 </r>
       <r>   -16.9130     0.0000     8.0000 </r>
       <r>   -16.7617     0.0000     8.0000 </r>
       <r>   -16.6104     0.0000     8.0000 </r>
       <r>   -16.4592     0.0000     8.0000 </r>
       <r>   -16.3079     0.0000     8.0000 </r>
       <r>   -16.1566     0.0000     8.0000 </r>
       <r>   -16.0053     0.0000     8.0000 </r>
       <r>   -15.8540     0.0000     8.0000 </r>
       <r>   -15.7028     0.0000     8.0000 </r>
       <r>   -15.5515     0.0000     8.0000 </r>
       <r>   -15.4002     0.0000     8.0000 </r>
       <r>   -15.2489     0.0000     8.0000 </r>
       <r>   -15.0976     0.0000     8.0000 </r>
       <r>   -14.9464     0.0000     8.0000 </r>
       <r>   -14.7951     0.0000     8.0000 </r>
       <r>   -14.6438     0.0000     8.0000 </r>
       <r>   -14.4925     0.0000     8.0000 </r>
       <r>   -14.3412     0.0000     8.0000 </r>
       <r>   -14.1900     0.0000     8.0000 </r>
       <r>   -14.0387     0.0000     8.0000 </r>
       <r>   -13.8874     0.0000     8.0000 </r>
       <r>   -13.7361     0.0000     8.0000 </r>
       <r>   -13.5848     0.0000     8.0000 </r>
       <r>   -13.4335     0.0000     8.0000 </r>
       <r>   -13.2823     0.0000     8.0000 </r>
       <r>   -13.1310     0.0000     8.0000 </r>
       <r>   -12.9797     0.0000     8.0000 </r>
       <r>   -12.8284     0.0000     8.0000 </r>
       <r>   -12.6771     0.0000     8.0000 </r>
       <r>   -12.5259     0.0000     8.0000 </r>
       <r>   -12.3746     0.0000     8.0000 </r>
       <r>   -12.2233     0.0000     8.0000 </r>
       <r>   -12.0720     0.0000     8.0000 </r>
       <r>   -11.9207     0.0000     8.0000 </r>
       <r>   -11.7695     0.0000     8.0000 </r>
       <r>   -11.6182     0.0000     8.0000 </r>
       <r>   -11.4669     0.0000     8.0000 </r>
       <r>   -11.3156     0.0000     8.0000 </r>
       <r>   -11.1643     0.0000     8.0000 </r>
       <r>   -11.0131     0.0000     8.0000 </r>
       <r>   -10.8618     0.0000     8.0000 </r>
       <r>   -10.7105     0.0000     8.0000 </r>
       <r>   -10.5592     0.0000     8.0000 </r>
       <r>   -10.4079     0.0000     8.0000 </r>
       <r>   -10.2567     0.0000     8.0000 </r>
       <r>   -10.1054     0.0000     8.0000 </r>
       <r>    -9.9541     0.0000     8.0000 </r>
       <r>    -9.8028     0.0000     8.0000 </r>
       <r>    -9.6515     0.0000     8.0000 </r>
       <r>    -9.5002     0.0000     8.0000 </r>
       <r>    -9.3490     0.0000     8.0000 </r>
       <r>    -9.1977     0.0000     8.0000 </r>
       <r>    -9.0464     0.0000     8.0000 </r>
       <r>    -8.8951     0.0000     8.0000 </r>
       <r>    -8.7438     0.0000     8.0000 </r>
       <r>    -8.5926     0.0000     8.0000 </r>
       <r>    -8.4413     0.0000     8.0000 </r>
       <r>    -8.2900     0.0000     8.0000 </r>
       <r>    -8.1387     0.0000     8.0000 </r>
       <r>    -7.9874     0.0000     8.0000 </r>
       <r>    -7.8362     0.0000     8.0000 </r>
       <r>    -7.6849     0.0000     8.0000 </r>
       <r>    -7.5336     0.0000     8.0000 </r>
       <r>    -7.3823     0.0000     8.0000 </r>
       <r>    -7.2310     0.0000     8.0000 </r>
       <r>    -7.0798     0.0000     8.0000 </r>
       <r>    -6.9285     0.0000     8.0000 </r>
       <r>    -6.7772     0.0000     8.0000 </r>
       <r>    -6.6259     0.0000     8.0000 </r>
       <r>    -6.4746     0.0000     8.0000 </r>
       <r>    -6.3233     0.0000     8.0000 </r>
       <r>    -6.1721     0.0000     8.0000 </r>
       <r>    -6.0208     0.0000     8.0000 </r>
       <r>    -5.8695     0.0000     8.0000 </r>
       <r>    -5.7182     0.0000     8.0000 </r>
       <r>    -5.5669     0.0000     8.0000 </r>
       <r>    -5.4157     0.0000     8.0000 </r>
       <r>    -5.2644     0.0000     8.0000 </r>
       <r>    -5.1131     0.0000     8.0000 </r>
       <r>    -4.9618     0.0000     8.0000 </r>
       <r>    -4.8105     0.0000     8.0000 </r>
       <r>    -4.6593     0.0000     8.0000 </r>
       <r>    -4.5080     0.0000     8.0000 </r>
       <r>    -4.3567     0.0000     8.0000 </r>
       <r>    -4.2054     0.0000     8.0000 </r>
       <r>    -4.0541     0.0000     8.0000 </r>
       <r>    -3.9029     0.0000     8.0000 </r>
       <r>    -3.7516     0.0000     8.0000 </r>
       <r>    -3.6003     0.0000     8.0000 </r>
       <r>    -3.4490     0.0000     8.0000 </r>
       <r>    -3.2977     0.0000     8.0000 </r>
       <r>    -3.1465     0.0000     8.0000 </r>
       <r>    -2.9952     0.0000     8.0000 </r>
       <r>    -2.8439     0.0000     8.0000 </r>
       <r>    -2.6926     0.0000     8.0000 </r>
       <r>    -2.5413     0.0000     8.0000 </r>
       <r>    -2.3900     0.0015     8.0002 </r>
       <r>    -2.2388     0.0658     8.0102 </r>
       <r>    -2.0875     0.1442     8.0320 </r>
       <r>    -1.9362     0.2184     8.0650 </r>
       <r>    -1.7849     0.2671     8.1054 </r>
       <r>    -1.6336     0.2406     8.1418 </r>
       <r>    -1.4824     0.4078     8.2035 </r>
       <r>    -1.3311     0.3026     8.2493 </r>
       <r>    -1.1798     0.4371     8.3154 </r>
       <r>    -1.0285     0.4295     8.3804 </r>
       <r>    -0.8772     0.5187     8.4589 </r>
       <r>    -0.7260     0.5689     8.5449 </r>
       <r>    -0.5747     0.4575     8.6142 </r>
       <r>    -0.4234     0.7913     8.7339 </r>
       <r>    -0.2721     0.6982     8.8395 </r>
       <r>    -0.1208     0.6935     8.9444 </r>
       <r>     0.0304     1.0611     9.1049 </r>
       <r>     0.1817     0.7226     9.2142 </r>
       <r>     0.3330     1.0694     9.3760 </r>
       <r>     0.4843     0.8867     9.5101 </r>
       <r>     0.6356     0.8283     9.6355 </r>
       <r>     0.7869     1.0312     9.7915 </r>
       <r>     0.9381     1.0395     9.9487 </r>
       <r>     1.0894     1.8165    10.2235 </r>
       <r>     1.2407     1.3960    10.4347 </r>
       <r>     1.3920     1.8686    10.7174 </r>
       <r>     1.5433     2.7509    11.1335 </r>
       <r>     1.6945     2.9782    11.5841 </r>
       <r>     1.8458     2.6506    11.9851 </r>
       <r>     1.9971     2.0610    12.2969 </r>
       <r>     2.1484     1.9905    12.5980 </r>
       <r>     2.2997     1.5766    12.8365 </r>
       <r>     2.4509     1.4649    13.0581 </r>
       <r>     2.6022     1.4645    13.2796 </r>
       <r>     2.7535     1.1172    13.4487 </r>
       <r>     2.9048     1.2240    13.6338 </r>
       <r>     3.0561     1.3906    13.8442 </r>
       <r>     3.2073     2.4970    14.2219 </r>
       <r>     3.3586     3.3353    14.7265 </r>
       <r>     3.5099     3.5247    15.2597 </r>
       <r>     3.6612     2.4561    15.6313 </r>
       <r>     3.8125     1.6114    15.8750 </r>
       <r>     3.9637     1.7025    16.1326 </r>
       <r>     4.1150     1.4783    16.3562 </r>
       <r>     4.2663     1.5720    16.5941 </r>
       <r>     4.4176     1.7505    16.8589 </r>
       <r>     4.5689     2.8321    17.2873 </r>
       <r>     4.7202     2.1427    17.6115 </r>
       <r>     4.8714     1.2570    17.8016 </r>
       <r>     5.0227     0.6489    17.8998 </r>
       <r>     5.1740     0.4798    17.9724 </r>
       <r>     5.3253     0.1823    18.0000 </r>
       <r>     5.4766     0.0002    18.0000 </r>
       <r>     5.6278     0.0000    18.0000 </r>
       <r>     5.7791     0.0000    18.0000 </r>
       <r>     5.9304     0.0000    18.0000 </r>
       <r>     6.0817     0.0000    18.0000 </r>
       <r>     6.2330     0.0000    18.0000 </r>
       <r>     6.3842     0.0000    18.0000 </r>
       <r>     6.5355     0.0000    18.0000 </r>
       <r>     6.6868     0.0000    18.0000 </r>
       <r>     6.8381     0.0000    18.0000 </r>
       <r>     6.9894     0.0000    18.0000 </r>
       <r>     7.1406     0.0000    18.0000 </r>
       <r>     7.2919     0.0000    18.0000 </r>
      </set>
     </set>
    </array>
   </total>
  </dos>
 </calculation>
 <structure name="finalpos" >
  <crystal>
   <varray name="basis" >
    <v>       3.93831421       0.00000000       2.27378631 </v>
    <v>       1.31277177       3.71307543       2.27378631 </v>
    <v>      -0.00000001      -0.00000001       4.54757371 </v>
   </varray>
   <i name="volume">     66.50034254 </i>
   <varray name="rec_basis" >
    <v>       0.25391575      -0.08977287       0.00000000 </v>
    <v>      -0.00000000       0.26931853       0.00000000 </v>
    <v>      -0.12695784      -0.08977281       0.21989748 </v>
   </varray>
  </crystal>
  <varray name="positions" >
   <v>       0.00000000       0.00000000       0.00000000 </v>
  </varray>
 </structure>
</modeling>
