   1   1   0   0
  0.5583497E+02  0.4290164E-09  0.4290161E-09  0.4290164E-09  0.5000000E-15
   1.0000000000000000E-004
  CAR 
 static single-point for EOS             
      8.79196632    -37.20676912  301      1.54466399      1.00000000
    -37.207  0.0000E+00  0.0000E+00
    -37.053  0.0000E+00  0.0000E+00
    -36.900  0.0000E+00  0.0000E+00
    -36.747  0.0000E+00  0.0000E+00
    -36.593  0.0000E+00  0.0000E+00
    -36.440  0.0000E+00  0.0000E+00
    -36.287  0.0000E+00  0.0000E+00
    -36.133  0.0000E+00  0.0000E+00
    -35.980  0.0000E+00  0.0000E+00
    -35.827  0.0000E+00  0.0000E+00
    -35.673  0.0000E+00  0.0000E+00
    -35.520  0.0000E+00  0.0000E+00
    -35.367  0.8347E-12  0.1280E-12
    -35.213  0.1240E-01  0.1901E-02
    -35.060  0.1155E+02  0.1772E+01
    -34.907  0.1486E+01  0.2000E+01
    -34.754  0.2152E-06  0.2000E+01
    -34.600  0.0000E+00  0.2000E+01
    -34.447  0.0000E+00  0.2000E+01
    -34.294  0.0000E+00  0.2000E+01
    -34.140  0.0000E+00  0.2000E+01
    -33.987  0.0000E+00  0.2000E+01
    -33.834  0.0000E+00  0.2000E+01
    -33.680  0.0000E+00  0.2000E+01
    -33.527  0.0000E+00  0.2000E+01
    -33.374  0.0000E+00  0.2000E+01
    -33.220  0.0000E+00  0.2000E+01
    -33.067  0.0000E+00  0.2000E+01
    -32.914  0.0000E+00  0.2000E+01
    -32.760  0.0000E+00  0.2000E+01
    -32.607  0.0000E+00  0.2000E+01
    -32.454  0.0000E+00  0.2000E+01
    -32.300  0.0000E+00  0.2000E+01
    -32.147  0.0000E+00  0.2000E+01
    -31.994  0.0000E+00  0.2000E+01
    -31.840  0.0000E+00  0.2000E+01
    -31.687  0.0000E+00  0.2000E+01
    -31.534  0.0000E+00  0.2000E+01
    -31.380  0.0000E+00  0.2000E+01
    -31.227  0.0000E+00  0.2000E+01
    -31.074  0.0000E+00  0.2000E+01
    -30.920  0.0000E+00  0.2000E+01
    -30.767  0.0000E+00  0.2000E+01
    -30.614  0.0000E+00  0.2000E+01
    -30.460  0.0000E+00  0.2000E+01
    -30.307  0.0000E+00  0.2000E+01
    -30.154  0.0000E+00  0.2000E+01
    -30.000  0.0000E+00  0.2000E+01
    -29.847  0.0000E+00  0.2000E+01
    -29.694  0.0000E+00  0.2000E+01
    -29.540  0.0000E+00  0.2000E+01
    -29.387  0.0000E+00  0.2000E+01
    -29.234  0.0000E+00  0.2000E+01
    -29.080  0.0000E+00  0.2000E+01
    -28.927  0.0000E+00  0.2000E+01
    -28.774  0.0000E+00  0.2000E+01
    -28.620  0.0000E+00  0.2000E+01
    -28.467  0.0000E+00  0.2000E+01
    -28.314  0.0000E+00  0.2000E+01
    -28.160  0.0000E+00  0.2000E+01
    -28.007  0.0000E+00  0.2000E+01
    -27.854  0.0000E+00  0.2000E+01
    -27.700  0.0000E+00  0.2000E+01
    -27.547  0.0000E+00  0.2000E+01
    -27.394  0.0000E+00  0.2000E+01
    -27.240  0.0000E+00  0.2000E+01
    -27.087  0.0000E+00  0.2000E+01
    -26.934  0.0000E+00  0.2000E+01
    -26.780  0.0000E+00  0.2000E+01
    -26.627  0.0000E+00  0.2000E+01
    -26.474  0.0000E+00  0.2000E+01
    -26.320  0.0000E+00  0.2000E+01
    -26.167  0.0000E+00  0.2000E+01
    -26.014  0.0000E+00  0.2000E+01
    -25.860  0.0000E+00  0.2000E+01
    -25.707  0.0000E+00  0.2000E+01
    -25.554  0.0000E+00  0.2000E+01
    -25.400  0.0000E+00  0.2000E+01
    -25.247  0.0000E+00  0.2000E+01
    -25.094  0.0000E+00  0.2000E+01
    -24.940  0.0000E+00  0.2000E+01
    -24.787  0.0000E+00  0.2000E+01
    -24.634  0.0000E+00  0.2000E+01
    -24.480  0.0000E+00  0.2000E+01
    -24.327  0.0000E+00  0.2000E+01
    -24.174  0.0000E+00  0.2000E+01
    -24.020  0.0000E+00  0.2000E+01
    -23.867  0.0000E+00  0.2000E+01
    -23.714  0.0000E+00  0.2000E+01
    -23.560  0.0000E+00  0.2000E+01
    -23.407  0.0000E+00  0.2000E+01
    -23.254  0.0000E+00  0.2000E+01
    -23.100  0.0000E+00  0.2000E+01
    -22.947  0.0000E+00  0.2000E+01
    -22.794  0.0000E+00  0.2000E+01
    -22.641  0.0000E+00  0.2000E+01
    -22.487  0.0000E+00  0.2000E+01
    -22.334  0.0000E+00  0.2000E+01
    -22.181  0.0000E+00  0.2000E+01
    -22.027  0.0000E+00  0.2000E+01
    -21.874  0.0000E+00  0.2000E+01
    -21.721  0.0000E+00  0.2000E+01
    -21.567  0.0000E+00  0.2000E+01
    -21.414  0.0000E+00  0.2000E+01
    -21.261  0.0000E+00  0.2000E+01
    -21.107  0.0000E+00  0.2000E+01
    -20.954  0.0000E+00  0.2000E+01
    -20.801  0.0000E+00  0.2000E+01
    -20.647  0.0000E+00  0.2000E+01
    -20.494  0.0000E+00  0.2000E+01
    -20.341  0.0000E+00  0.2000E+01
    -20.187  0.0000E+00  0.2000E+01
    -20.034  0.0000E+00  0.2000E+01
    -19.881  0.0000E+00  0.2000E+01
    -19.727  0.0000E+00  0.2000E+01
    -19.574  0.0000E+00  0.2000E+01
    -19.421  0.0000E+00  0.2000E+01
    -19.267  0.0000E+00  0.2000E+01
    -19.114  0.0000E+00  0.2000E+01
    -18.961  0.0000E+00  0.2000E+01
    -18.807  0.0000E+00  0.2000E+01
    -18.654  0.0000E+00  0.2000E+01
    -18.501  0.0000E+00  0.2000E+01
    -18.347  0.0000E+00  0.2000E+01
    -18.194  0.0000E+00  0.2000E+01
    -18.041  0.0000E+00  0.2000E+01
    -17.887  0.0000E+00  0.2000E+01
    -17.734  0.0000E+00  0.2000E+01
    -17.581  0.0000E+00  0.2000E+01
    -17.427  0.2049E-11  0.2000E+01
    -17.274  0.8184E-02  0.2001E+01
    -17.121  0.1107E+02  0.3699E+01
    -16.967  0.2755E+02  0.7923E+01
    -16.814  0.5032E+00  0.8000E+01
    -16.661  0.1918E-07  0.8000E+01
    -16.507  0.0000E+00  0.8000E+01
    -16.354  0.0000E+00  0.8000E+01
    -16.201  0.0000E+00  0.8000E+01
    -16.047  0.0000E+00  0.8000E+01
    -15.894  0.0000E+00  0.8000E+01
    -15.741  0.0000E+00  0.8000E+01
    -15.587  0.0000E+00  0.8000E+01
    -15.434  0.0000E+00  0.8000E+01
    -15.281  0.0000E+00  0.8000E+01
    -15.127  0.0000E+00  0.8000E+01
    -14.974  0.0000E+00  0.8000E+01
    -14.821  0.0000E+00  0.8000E+01
    -14.667  0.0000E+00  0.8000E+01
    -14.514  0.0000E+00  0.8000E+01
    -14.361  0.0000E+00  0.8000E+01
    -14.207  0.0000E+00  0.8000E+01
    -14.054  0.0000E+00  0.8000E+01
    -13.901  0.0000E+00  0.8000E+01
    -13.747  0.0000E+00  0.8000E+01
    -13.594  0.0000E+00  0.8000E+01
    -13.441  0.0000E+00  0.8000E+01
    -13.287  0.0000E+00  0.8000E+01
    -13.134  0.0000E+00  0.8000E+01
    -12.981  0.0000E+00  0.8000E+01
    -12.827  0.0000E+00  0.8000E+01
    -12.674  0.0000E+00  0.8000E+01
    -12.521  0.0000E+00  0.8000E+01
    -12.367  0.0000E+00  0.8000E+01
    -12.214  0.0000E+00  0.8000E+01
    -12.061  0.0000E+00  0.8000E+01
    -11.907  0.0000E+00  0.8000E+01
    -11.754  0.0000E+00  0.8000E+01
    -11.601  0.0000E+00  0.8000E+01
    -11.447  0.0000E+00  0.8000E+01
    -11.294  0.0000E+00  0.8000E+01
    -11.141  0.0000E+00  0.8000E+01
    -10.987  0.0000E+00  0.8000E+01
    -10.834  0.0000E+00  0.8000E+01
    -10.681  0.0000E+00  0.8000E+01
    -10.528  0.0000E+00  0.8000E+01
    -10.374  0.0000E+00  0.8000E+01
    -10.221  0.0000E+00  0.8000E+01
    -10.068  0.0000E+00  0.8000E+01
     -9.914  0.0000E+00  0.8000E+01
     -9.761  0.0000E+00  0.8000E+01
     -9.608  0.0000E+00  0.8000E+01
     -9.454  0.0000E+00  0.8000E+01
     -9.301  0.0000E+00  0.8000E+01
     -9.148  0.0000E+00  0.8000E+01
     -8.994  0.0000E+00  0.8000E+01
     -8.841  0.0000E+00  0.8000E+01
     -8.688  0.0000E+00  0.8000E+01
     -8.534  0.0000E+00  0.8000E+01
     -8.381  0.0000E+00  0.8000E+01
     -8.228  0.0000E+00  0.8000E+01
     -8.074  0.0000E+00  0.8000E+01
     -7.921  0.0000E+00  0.8000E+01
     -7.768  0.0000E+00  0.8000E+01
     -7.614  0.0000E+00  0.8000E+01
     -7.461  0.0000E+00  0.8000E+01
     -7.308  0.0000E+00  0.8000E+01
     -7.154  0.0000E+00  0.8000E+01
     -7.001  0.0000E+00  0.8000E+01
     -6.848  0.0000E+00  0.8000E+01
     -6.694  0.0000E+00  0.8000E+01
     -6.541  0.0000E+00  0.8000E+01
     -6.388  0.0000E+00  0.8000E+01
     -6.234  0.0000E+00  0.8000E+01
     -6.081  0.0000E+00  0.8000E+01
     -5.928  0.0000E+00  0.8000E+01
     -5.774  0.0000E+00  0.8000E+01
     -5.621  0.0000E+00  0.8000E+01
     -5.468  0.0000E+00  0.8000E+01
     -5.314  0.0000E+00  0.8000E+01
     -5.161  0.0000E+00  0.8000E+01
     -5.008  0.0000E+00  0.8000E+01
     -4.854  0.0000E+00  0.8000E+01
     -4.701  0.0000E+00  0.8000E+01
     -4.548  0.0000E+00  0.8000E+01
     -4.394  0.0000E+00  0.8000E+01
     -4.241  0.0000E+00  0.8000E+01
     -4.088  0.0000E+00  0.8000E+01
     -3.934  0.0000E+00  0.8000E+01
     -3.781  0.0000E+00  0.8000E+01
     -3.628  0.0000E+00  0.8000E+01
     -3.474  0.0000E+00  0.8000E+01
     -3.321  0.0000E+00  0.8000E+01
     -3.168  0.0000E+00  0.8000E+01
     -3.014  0.0000E+00  0.8000E+01
     -2.861  0.0000E+00  0.8000E+01
     -2.708  0.0000E+00  0.8000E+01
     -2.554  0.0000E+00  0.8000E+01
     -2.401  0.0000E+00  0.8000E+01
     -2.248  0.9225E-08  0.8000E+01
     -2.094  0.2495E-02  0.8000E+01
     -1.941  0.6204E-01  0.8010E+01
     -1.788  0.1195E+00  0.8028E+01
     -1.634  0.1766E+00  0.8055E+01
     -1.481  0.2183E+00  0.8089E+01
     -1.328  0.1940E+00  0.8119E+01
     -1.174  0.3312E+00  0.8169E+01
     -1.021  0.2474E+00  0.8207E+01
     -0.868  0.3489E+00  0.8261E+01
     -0.714  0.3696E+00  0.8317E+01
     -0.561  0.4019E+00  0.8379E+01
     -0.408  0.4804E+00  0.8453E+01
     -0.254  0.3773E+00  0.8511E+01
     -0.101  0.6556E+00  0.8611E+01
      0.052  0.5925E+00  0.8702E+01
      0.206  0.5366E+00  0.8784E+01
      0.359  0.8462E+00  0.8914E+01
      0.512  0.7500E+00  0.9029E+01
      0.666  0.9798E+00  0.9179E+01
      0.819  0.8935E+00  0.9316E+01
      0.972  0.8710E+00  0.9450E+01
      1.126  0.1090E+01  0.9617E+01
      1.279  0.8464E+00  0.9747E+01
      1.432  0.7858E+00  0.9867E+01
      1.585  0.1378E+01  0.1008E+02
      1.739  0.1555E+01  0.1032E+02
      1.892  0.1797E+01  0.1059E+02
      2.045  0.2725E+01  0.1101E+02
      2.199  0.1960E+01  0.1131E+02
      2.352  0.2236E+01  0.1165E+02
      2.505  0.2669E+01  0.1206E+02
      2.659  0.2209E+01  0.1240E+02
      2.812  0.1899E+01  0.1269E+02
      2.965  0.1331E+01  0.1290E+02
      3.119  0.1335E+01  0.1310E+02
      3.272  0.1160E+01  0.1328E+02
      3.425  0.1022E+01  0.1344E+02
      3.579  0.9862E+00  0.1359E+02
      3.732  0.9924E+00  0.1374E+02
      3.885  0.1459E+01  0.1396E+02
      4.039  0.2448E+01  0.1434E+02
      4.192  0.2463E+01  0.1472E+02
      4.345  0.3039E+01  0.1518E+02
      4.499  0.2208E+01  0.1552E+02
      4.652  0.1499E+01  0.1575E+02
      4.805  0.1525E+01  0.1598E+02
      4.959  0.1247E+01  0.1618E+02
      5.112  0.1301E+01  0.1638E+02
      5.265  0.1061E+01  0.1654E+02
      5.419  0.1281E+01  0.1673E+02
      5.572  0.1278E+01  0.1693E+02
      5.725  0.2616E+01  0.1733E+02
      5.879  0.1535E+01  0.1757E+02
      6.032  0.1314E+01  0.1777E+02
      6.185  0.5798E+00  0.1786E+02
      6.339  0.7128E+00  0.1797E+02
      6.492  0.1054E+00  0.1798E+02
      6.645  0.4835E-01  0.1799E+02
      6.799  0.6564E-01  0.1800E+02
      6.952  0.7882E-04  0.1800E+02
      7.105  0.0000E+00  0.1800E+02
      7.259  0.0000E+00  0.1800E+02
      7.412  0.0000E+00  0.1800E+02
      7.565  0.0000E+00  0.1800E+02
      7.719  0.0000E+00  0.1800E+02
      7.872  0.0000E+00  0.1800E+02
      8.025  0.0000E+00  0.1800E+02
      8.179  0.0000E+00  0.1800E+02
      8.332  0.0000E+00  0.1800E+02
      8.485  0.0000E+00  0.1800E+02
      8.639  0.0000E+00  0.1800E+02
      8.792  0.0000E+00  0.1800E+02
