Ni26                                    
    1.000000000000000     
     6.4340377035696177   -0.0000000081540698    3.7146932182245580
     2.1446782190369560    6.0660709619458704    3.7146932182245580
     0.0000000001339286    0.0000000000947019    7.4293864059831902
   Ni
    26
Direct
 -0.0000000000000342 -0.0000000000000342  0.3294602298870618
  0.0000000000000342  0.0000000000000342  0.6705397701129381
  0.0000000000060110  0.3294602298750739  0.0000000000029372
  0.0001753538285342  0.3332748820569053  0.3332748820572849
  0.0000000000060452  0.3294602298751081  0.6705397701158754
 -0.0000000000060110  0.6705397701249260 -0.0000000000029372
 -0.0000000000060452  0.6705397701248917  0.3294602298841247
 -0.0001753538285342  0.6667251179430946  0.6667251179427152
  0.3294602298842638  0.0000000000029476 -0.0000000000001261
  0.3332748820569053  0.0001753538289188  0.3332748820570926
  0.3294602298842981  0.0000000000029819  0.6705397701128120
  0.3332748820572849  0.3332748820570926  0.0001753538283527
  0.3332748820572827  0.3332748820570905  0.3332748820572770
  0.3323059903219122  0.3323059903181484  0.6676940096799487
  0.3294602298782529  0.6705397701278737 -0.0000000000030633
  0.3323059903181984  0.6676940096836624  0.3323059903199738
  0.3323059903182194  0.6676940096836835  0.6676940096781443
  0.6705397701157361 -0.0000000000029476  0.0000000000001261
  0.6705397701157020 -0.0000000000029819  0.3294602298871880
  0.6667251179430946 -0.0001753538289188  0.6667251179429072
  0.6705397701217470  0.3294602298721262  0.0000000000030633
  0.6676940096817806  0.3323059903163166  0.3323059903218557
  0.6676940096818015  0.3323059903163376  0.6676940096800261
  0.6667251179427152  0.6667251179429072 -0.0001753538283527
  0.6676940096780878  0.6676940096818517  0.3323059903200513
  0.6667251179427173  0.6667251179429095  0.6667251179427230
 
  0.00000000E+00  0.00000000E+00  0.00000000E+00
  0.00000000E+00  0.00000000E+00  0.00000000E+00
  0.00000000E+00  0.00000000E+00  0.00000000E+00
  0.00000000E+00  0.00000000E+00  0.00000000E+00
  0.00000000E+00  0.00000000E+00  0.00000000E+00
  0.00000000E+00  0.00000000E+00  0.00000000E+00
  0.00000000E+00  0.00000000E+00  0.00000000E+00
  0.00000000E+00  0.00000000E+00  0.00000000E+00
  0.00000000E+00  0.00000000E+00  0.00000000E+00
  0.00000000E+00  0.00000000E+00  0.00000000E+00
  0.00000000E+00  0.00000000E+00  0.00000000E+00
  0.00000000E+00  0.00000000E+00  0.00000000E+00
  0.00000000E+00  0.00000000E+00  0.00000000E+00
  0.00000000E+00  0.00000000E+00  0.00000000E+00
  0.00000000E+00  0.00000000E+00  0.00000000E+00
  0.00000000E+00  0.00000000E+00  0.00000000E+00
  0.00000000E+00  0.00000000E+00  0.00000000E+00
  0.00000000E+00  0.00000000E+00  0.00000000E+00
  0.00000000E+00  0.00000000E+00  0.00000000E+00
  0.00000000E+00  0.00000000E+00  0.00000000E+00
  0.00000000E+00  0.00000000E+00  0.00000000E+00
  0.00000000E+00  0.00000000E+00  0.00000000E+00
  0.00000000E+00  0.00000000E+00  0.00000000E+00
  0.00000000E+00  0.00000000E+00  0.00000000E+00
  0.00000000E+00  0.00000000E+00  0.00000000E+00
  0.00000000E+00  0.00000000E+00  0.00000000E+00
