<?xml version="1.0" encoding="ISO-8859-1"?>
<modeling>
 <generator>
  <i name="program" type="string">vasp </i>
  <i name="version" type="string">6.4.2  </i>
  <i name="subversion" type="string">20Jul23 (build Mar  2 2025 11:04:54) complex                          parallel </i>
  <i name="platform" type="string">LinuxNV </i>
  <i name="date" type="string">2026 04 24 </i>
  <i name="time" type="string">20:45:08 </i>
 </generator>
 <incar>
  <i type="string" name="SYSTEM">Ni Structural Relaxation (26 atoms, ferromagnetic metal)</i>
  <i type="int" name="ISTART">     0</i>
  <i type="string" name="PREC">Accurate</i>
  <i type="string" name="ALGO">Normal</i>
  <i type="int" name="ISPIN">     2</i>
  <i type="int" name="ICHARG">     2</i>
  <i type="int" name="NELM">   100</i>
  <i type="int" name="IBRION">     2</i>
  <i name="EDIFF">      0.00000100</i>
  <i name="EDIFFG">     -0.02000000</i>
  <i type="int" name="NSW">   200</i>
  <i type="int" name="ISIF">     3</i>
  <i name="ENCUT">    520.00000000</i>
  <i name="POTIM">      0.50000000</i>
  <v name="MAGMOM">      2.00000000      2.00000000      2.00000000      2.00000000      2.00000000      2.00000000      2.00000000      2.00000000      2.00000000      2.00000000      2.00000000      2.00000000      2.00000000      2.00000000      2.00000000      2.00000000      2.00000000      2.00000000      2.00000000      2.00000000
      2.00000000      2.00000000      2.00000000      2.00000000      2.00000000      2.00000000</v>
  <i type="int" name="ISMEAR">     1</i>
  <i name="SIGMA">      0.20000000</i>
  <i name="KSPACING">      0.20000000</i>
  <i type="logical" name="KGAMMA"> T  </i>
  <i type="logical" name="LWAVE"> F  </i>
  <i type="logical" name="LCHARG"> F  </i>
  <i type="string" name="GGA">Pe</i>
 </incar>
 <primitive_cell>
  <structure name="primitive_cell" >
   <crystal>
    <varray name="basis" >
     <v>       6.38425002       0.00000000       3.68594829 </v>
     <v>       2.12808234       6.01913064       3.68594829 </v>
     <v>       0.00000000       0.00000000       7.37189655 </v>
    </varray>
    <i name="volume">    283.28454921 </i>
    <varray name="rec_basis" >
     <v>       0.15663547      -0.05537896       0.00000000 </v>
     <v>       0.00000000       0.16613695       0.00000000 </v>
     <v>      -0.07831774      -0.05537900       0.13565030 </v>
    </varray>
   </crystal>
   <varray name="positions" >
    <v>       0.00000000       0.00000000       0.33333333 </v>
    <v>       0.00000000       0.00000000       0.66666667 </v>
    <v>       1.00000000       0.33333333       0.00000000 </v>
    <v>       1.00000000       0.33333333       0.33333333 </v>
    <v>       1.00000000       0.33333333       0.66666667 </v>
    <v>       1.00000000       0.66666667       0.00000000 </v>
    <v>       1.00000000       0.66666667       0.33333333 </v>
    <v>       1.00000000       0.66666667       0.66666667 </v>
    <v>       0.33333333       0.00000000       1.00000000 </v>
    <v>       0.33333333       0.00000000       0.33333333 </v>
    <v>       0.33333333       0.00000000       0.66666667 </v>
    <v>       0.33333333       0.33333333       0.00000000 </v>
    <v>       0.33333333       0.33333333       0.33333333 </v>
    <v>       0.33333333       0.33333333       0.66666667 </v>
    <v>       0.33333333       0.66666667       0.00000000 </v>
    <v>       0.33333333       0.66666667       0.33333333 </v>
    <v>       0.33333333       0.66666667       0.66666667 </v>
    <v>       0.66666667       0.00000000       1.00000000 </v>
    <v>       0.66666667       0.00000000       0.33333333 </v>
    <v>       0.66666667       0.00000000       0.66666667 </v>
    <v>       0.66666667       0.33333333       0.00000000 </v>
    <v>       0.66666667       0.33333333       0.33333333 </v>
    <v>       0.66666667       0.33333333       0.66666667 </v>
    <v>       0.66666667       0.66666667       0.00000000 </v>
    <v>       0.66666667       0.66666667       0.33333333 </v>
    <v>       0.66666667       0.66666667       0.66666667 </v>
   </varray>
  </structure>
  <varray name="primitive_index" >
   <v type="int" >        1 </v>
   <v type="int" >        2 </v>
   <v type="int" >        3 </v>
   <v type="int" >        4 </v>
   <v type="int" >        5 </v>
   <v type="int" >        6 </v>
   <v type="int" >        7 </v>
   <v type="int" >        8 </v>
   <v type="int" >        9 </v>
   <v type="int" >       10 </v>
   <v type="int" >       11 </v>
   <v type="int" >       12 </v>
   <v type="int" >       13 </v>
   <v type="int" >       14 </v>
   <v type="int" >       15 </v>
   <v type="int" >       16 </v>
   <v type="int" >       17 </v>
   <v type="int" >       18 </v>
   <v type="int" >       19 </v>
   <v type="int" >       20 </v>
   <v type="int" >       21 </v>
   <v type="int" >       22 </v>
   <v type="int" >       23 </v>
   <v type="int" >       24 </v>
   <v type="int" >       25 </v>
   <v type="int" >       26 </v>
  </varray>
 </primitive_cell>
 <kpoints>
  <generation param="Gamma">
   <v type="int" name="divisions">       6        6        6 </v>
   <v name="usershift">      0.00000000       0.00000000       0.00000000 </v>
   <v name="genvec1">      0.16666667      -0.00000000       0.00000000 </v>
   <v name="genvec2">      0.00000000       0.16666667       0.00000000 </v>
   <v name="genvec3">     -0.00000000       0.00000000       0.16666667 </v>
   <v name="shift">      0.00000000       0.00000000       0.00000000 </v>
  </generation>
  <varray name="kpointlist" >
   <v>       0.00000000       0.00000000       0.00000000 </v>
   <v>       0.16666667       0.00000000       0.00000000 </v>
   <v>       0.33333333       0.00000000       0.00000000 </v>
   <v>       0.50000000       0.00000000       0.00000000 </v>
   <v>       0.16666667       0.16666667       0.00000000 </v>
   <v>       0.33333333       0.16666667       0.00000000 </v>
   <v>       0.50000000       0.16666667       0.00000000 </v>
   <v>      -0.33333333       0.16666667       0.00000000 </v>
   <v>      -0.16666667       0.16666667       0.00000000 </v>
   <v>       0.33333333       0.33333333       0.00000000 </v>
   <v>       0.50000000       0.33333333       0.00000000 </v>
   <v>      -0.33333333       0.33333333       0.00000000 </v>
   <v>       0.50000000       0.50000000       0.00000000 </v>
   <v>       0.50000000       0.33333333       0.16666667 </v>
   <v>      -0.33333333       0.33333333       0.16666667 </v>
   <v>      -0.33333333       0.50000000       0.16666667 </v>
  </varray>
  <varray name="weights" >
   <v>       0.00462963 </v>
   <v>       0.03703704 </v>
   <v>       0.03703704 </v>
   <v>       0.01851852 </v>
   <v>       0.02777778 </v>
   <v>       0.11111111 </v>
   <v>       0.11111111 </v>
   <v>       0.11111111 </v>
   <v>       0.05555556 </v>
   <v>       0.02777778 </v>
   <v>       0.11111111 </v>
   <v>       0.05555556 </v>
   <v>       0.01388889 </v>
   <v>       0.11111111 </v>
   <v>       0.11111111 </v>
   <v>       0.05555556 </v>
  </varray>
 </kpoints>
 <parameters>
  <separator name="general" >
   <i type="string" name="SYSTEM">Ni Structural Relaxation (26 atoms, ferr</i>
   <i type="logical" name="LCOMPAT"> F  </i>
  </separator>
  <separator name="electronic" >
   <i type="string" name="PREC">accura</i>
   <i name="ENMAX">    520.00000000</i>
   <i name="ENAUG">    544.56500000</i>
   <i name="EDIFF">      0.00000100</i>
   <i type="int" name="IALGO">    38</i>
   <i type="int" name="IWAVPR">    11</i>
   <i type="int" name="NBANDS">   182</i>
   <i type="int" name="NBANDSLOW">    -1</i>
   <i type="int" name="NBANDSHIGH">    -1</i>
   <i name="NELECT">    260.00000000</i>
   <i type="int" name="TURBO">     0</i>
   <i type="int" name="IRESTART">     0</i>
   <i type="int" name="NREBOOT">     0</i>
   <i type="int" name="NMIN">     0</i>
   <i name="EREF">      0.00000000</i>
   <separator name="electronic smearing" >
    <i type="int" name="ISMEAR">     1</i>
    <i name="SIGMA">      0.20000000</i>
    <i name="KSPACING">      0.20000000</i>
    <i type="logical" name="KGAMMA"> T  </i>
    <i type="logical" name="KBLOWUP"> T  </i>
   </separator>
   <separator name="electronic projectors" >
    <i type="logical" name="LREAL"> F  </i>
    <v name="ROPT">      0.00000000</v>
    <i type="int" name="LMAXPAW">  -100</i>
    <i type="int" name="LMAXMIX">     2</i>
    <i type="logical" name="NLSPLINE"> F  </i>
   </separator>
   <separator name="electronic startup" >
    <i type="int" name="ISTART">     0</i>
    <i type="int" name="ICHARG">     2</i>
    <i type="int" name="INIWAV">     1</i>
   </separator>
   <separator name="electronic spin" >
    <i type="int" name="ISPIN">     2</i>
    <i type="logical" name="LNONCOLLINEAR"> F  </i>
    <v name="MAGMOM">      2.00000000      2.00000000      2.00000000      2.00000000      2.00000000      2.00000000      2.00000000      2.00000000      2.00000000      2.00000000      2.00000000      2.00000000      2.00000000      2.00000000      2.00000000      2.00000000      2.00000000      2.00000000      2.00000000      2.00000000
      2.00000000      2.00000000      2.00000000      2.00000000      2.00000000      2.00000000</v>
    <i name="NUPDOWN">     -1.00000000</i>
    <i type="logical" name="LSORBIT"> F  </i>
    <v name="SAXIS">      0.00000000      0.00000000      1.00000000</v>
    <i type="logical" name="LSPIRAL"> F  </i>
    <v name="QSPIRAL">      0.00000000      0.00000000      0.00000000</v>
    <i type="logical" name="LZEROZ"> F  </i>
   </separator>
   <separator name="electronic exchange-correlation" >
    <i type="logical" name="LASPH"> F  </i>
    <i type="logical" name="LMETAGGA"> F  </i>
   </separator>
   <separator name="electronic convergence" >
    <i type="int" name="NELM">   100</i>
    <i type="int" name="NELMDL">    -5</i>
    <i type="int" name="NELMIN">     2</i>
    <i name="ENINI">    520.00000000</i>
    <separator name="electronic convergence detail" >
     <i type="logical" name="LDIAG"> T  </i>
     <i type="logical" name="LSUBROT"> F  </i>
     <i name="WEIMIN">      0.00100000</i>
     <i name="EBREAK">      0.00000000</i>
     <i name="DEPER">      0.30000000</i>
     <i type="int" name="NRMM">     4</i>
     <i name="TIME">      0.40000000</i>
    </separator>
   </separator>
   <separator name="electronic mixer" >
    <i name="AMIX">      0.40000000</i>
    <i name="BMIX">      1.00000000</i>
    <i name="AMIN">      0.10000000</i>
    <i name="AMIX_MAG">      1.60000000</i>
    <i name="BMIX_MAG">      1.00000000</i>
    <separator name="electronic mixer details" >
     <i type="int" name="IMIX">     4</i>
     <i type="logical" name="MIXFIRST"> F  </i>
     <i type="int" name="MAXMIX">   -45</i>
     <i name="WC">    100.00000000</i>
     <i type="int" name="INIMIX">     1</i>
     <i type="int" name="MIXPRE">     1</i>
     <i type="int" name="MREMOVE">     5</i>
    </separator>
   </separator>
   <separator name="electronic dipolcorrection" >
    <i type="logical" name="LDIPOL"> F  </i>
    <i type="logical" name="LMONO"> F  </i>
    <i type="int" name="IDIPOL">     0</i>
    <i name="EPSILON">      1.00000000</i>
    <v name="DIPOL">   -100.00000000   -100.00000000   -100.00000000</v>
    <i name="EFIELD">      0.00000000</i>
   </separator>
  </separator>
  <separator name="grids" >
   <i type="int" name="NGX">    56</i>
   <i type="int" name="NGY">    56</i>
   <i type="int" name="NGZ">    56</i>
   <i type="int" name="NGXF">   112</i>
   <i type="int" name="NGYF">   112</i>
   <i type="int" name="NGZF">   112</i>
   <i type="logical" name="ADDGRID"> F  </i>
  </separator>
  <separator name="ionic" >
   <i type="int" name="NSW">   200</i>
   <i type="int" name="IBRION">     2</i>
   <i type="int" name="MDALGO">     0</i>
   <i type="int" name="ISIF">     3</i>
   <i name="PSTRESS">      0.00000000</i>
   <i name="EDIFFG">     -0.02000000</i>
   <i type="int" name="NFREE">     1</i>
   <i name="POTIM">      0.50000000</i>
   <i name="SMASS">     -3.00000000</i>
   <i name="SCALEE">      1.00000000</i>
  </separator>
  <separator name="ionic md" >
   <i name="TEBEG">      0.00010000</i>
   <i name="TEEND">      0.00010000</i>
   <i type="int" name="NBLOCK">     1</i>
   <i type="int" name="KBLOCK">   200</i>
   <i type="int" name="NPACO">   256</i>
   <i name="APACO">     10.00000000</i>
  </separator>
  <separator name="symmetry" >
   <i type="int" name="ISYM">     2</i>
   <i name="SYMPREC">      0.00001000</i>
  </separator>
  <separator name="dos" >
   <i type="int" name="LORBIT">     0</i>
   <v name="RWIGS">     -1.00000000</v>
   <i type="int" name="NEDOS">   301</i>
   <i name="EMIN">     10.00000000</i>
   <i name="EMAX">    -10.00000000</i>
   <i name="EFERMI">      0.00000000</i>
  </separator>
  <separator name="writing" >
   <i type="int" name="NWRITE">     2</i>
   <i type="logical" name="LWAVE"> F  </i>
   <i type="logical" name="LDOWNSAMPLE"> F  </i>
   <i type="logical" name="LCHARG"> F  </i>
   <i type="logical" name="LPARD"> F  </i>
   <i type="logical" name="LVTOT"> F  </i>
   <i type="logical" name="LVHAR"> F  </i>
   <i type="logical" name="LELF"> F  </i>
   <i type="logical" name="LOPTICS"> F  </i>
   <v name="STM">      0.00000000      0.00000000      0.00000000      0.00000000      0.00000000      0.00000000      0.00000000</v>
  </separator>
  <separator name="performance" >
   <i type="int" name="NPAR">     1</i>
   <i type="int" name="NSIM">     4</i>
   <i type="int" name="NBLK">    -1</i>
   <i type="logical" name="LPLANE"> T  </i>
   <i type="logical" name="LSCALAPACK"> T  </i>
   <i type="logical" name="LSCAAWARE"> F  </i>
   <i type="logical" name="LSCALU"> F  </i>
   <i type="logical" name="LASYNC"> F  </i>
   <i type="logical" name="LORBITALREAL"> F  </i>
  </separator>
  <separator name="miscellaneous" >
   <i type="int" name="IDIOT">     3</i>
   <i type="int" name="PHON_NSTRUCT">    -1</i>
   <i type="logical" name="LMUSIC"> F  </i>
   <v name="POMASS">     58.69000000</v>
   <v name="DARWINR">      0.00000000</v>
   <v name="DARWINV">      1.00000000</v>
   <i type="logical" name="LCORR"> T  </i>
  </separator>
  <i type="logical" name="GGA_COMPAT"> T  </i>
  <i type="logical" name="LBERRY"> F  </i>
  <i type="int" name="ICORELEVEL">     0</i>
  <i type="logical" name="LDAU"> F  </i>
  <i type="int" name="I_CONSTRAINED_M">     0</i>
  <separator name="electronic exchange-correlation" >
   <i type="string" name="GGA">PE</i>
   <i type="int" name="VOSKOWN">     0</i>
   <i type="logical" name="LHFCALC"> F  </i>
   <i type="string" name="PRECFOCK"></i>
   <i type="logical" name="LSYMGRAD"> F  </i>
   <i type="logical" name="LHFONE"> F  </i>
   <i type="logical" name="LRHFCALC"> F  </i>
   <i type="logical" name="LTHOMAS"> F  </i>
   <i type="logical" name="LMODELHF"> F  </i>
   <i type="logical" name="LFOCKACE"> F  </i>
   <i name="ENCUT4O">     -1.00000000</i>
   <i type="int" name="EXXOEP">     0</i>
   <i type="int" name="FOURORBIT">     0</i>
   <i name="AEXX">      0.00000000</i>
   <i name="HFALPHA">      0.00000000</i>
   <i name="MCALPHA">      0.00000000</i>
   <i name="ALDAX">      1.00000000</i>
   <i name="AGGAX">      1.00000000</i>
   <i name="ALDAC">      1.00000000</i>
   <i name="AGGAC">      1.00000000</i>
   <i type="int" name="NKREDX">     1</i>
   <i type="int" name="NKREDY">     1</i>
   <i type="int" name="NKREDZ">     1</i>
   <i type="logical" name="SHIFTRED"> F  </i>
   <i type="logical" name="ODDONLY"> F  </i>
   <i type="logical" name="EVENONLY"> F  </i>
   <i type="int" name="LMAXFOCK">     0</i>
   <i type="int" name="NMAXFOCKAE">     0</i>
   <i type="logical" name="LFOCKAEDFT"> F  </i>
   <i name="HFSCREEN">      0.00000000</i>
   <i name="HFSCREENC">      0.00000000</i>
   <i type="int" name="NBANDSGWLOW">     0</i>
  </separator>
  <separator name="vdW DFT" >
   <i type="logical" name="LUSE_VDW"> F  </i>
   <i type="int" name="IVDW_NL">     1</i>
   <i type="logical" name="LSPIN_VDW"> F  </i>
   <i name="Zab_VDW">     -0.84910000</i>
   <i name="PARAM1">      0.12340000</i>
   <i name="PARAM2">      1.00000000</i>
   <i name="PARAM3">      0.00000000</i>
  </separator>
  <separator name="model GW" >
   <i type="int" name="MODEL_GW">     0</i>
   <i name="MODEL_EPS0">      6.53733575</i>
   <i name="MODEL_ALPHA">      1.00000000</i>
  </separator>
  <separator name="linear response parameters" >
   <i type="logical" name="LEPSILON"> F  </i>
   <i type="logical" name="LRPA"> F  </i>
   <i type="logical" name="LNABLA"> F  </i>
   <i type="logical" name="LVEL"> F  </i>
   <i name="CSHIFT">      0.10000000</i>
   <i name="OMEGAMAX">     -1.00000000</i>
   <i name="DEG_THRESHOLD">      0.00200000</i>
   <i name="RTIME">     -0.10000000</i>
   <i name="WPLASMAI">      0.00000000</i>
   <v name="DFIELD">      0.00000000      0.00000000      0.00000000</v>
   <v name="WPLASMA">      0.00000000      0.00000000      0.00000000      0.00000000      0.00000000      0.00000000      0.00000000      0.00000000      0.00000000</v>
  </separator>
  <separator name="orbital magnetization" >
   <i type="logical" name="NUCIND"> F  </i>
   <v name="MAGPOS">      0.00000000      0.00000000      0.00000000</v>
   <i type="logical" name="LNICSALL"> T  </i>
   <i type="logical" name="ORBITALMAG"> F  </i>
   <i type="logical" name="LMAGBLOCH"> F  </i>
   <i type="logical" name="LCHIMAG"> F  </i>
   <i type="logical" name="LGAUGE"> T  </i>
   <i type="int" name="MAGATOM">     0</i>
   <v name="MAGDIPOL">      0.00000000      0.00000000      0.00000000</v>
   <v name="AVECCONST">      0.00000000      0.00000000      0.00000000</v>
  </separator>
  <separator name="response functions" >
   <i type="logical" name="LALL_IN_ONE"> F  </i>
   <i type="int" name="IALL_IN_ONE">    -1</i>
   <i type="int" name="NBANDS_WAVE">    -1</i>
   <i type="logical" name="LFINITE_TEMPERATURE"> F  </i>
   <i type="logical" name="LADDER"> F  </i>
   <i type="logical" name="LRPAFORCE"> F  </i>
   <i type="logical" name="LFXC"> F  </i>
   <i type="logical" name="LHARTREE"> T  </i>
   <i type="int" name="IBSE">     0</i>
   <v type="int" name="KPOINT">    -1     0     0     0</v>
   <i type="logical" name="LTCTC"> F  </i>
   <i type="logical" name="LTCTE"> F  </i>
   <i type="logical" name="LTETE"> F  </i>
   <i type="logical" name="LTRIPLET"> F  </i>
   <i type="logical" name="LFXCEPS"> F  </i>
   <i type="logical" name="LFXHEG"> F  </i>
   <i type="int" name="NATURALO">     2</i>
   <i type="logical" name="LHOLEGF"> F  </i>
   <i type="logical" name="L2ORDER"> F  </i>
   <i type="logical" name="LDMP1"> F  </i>
   <i type="logical" name="LMP2LT"> F  </i>
   <i type="logical" name="LSMP2LT"> F  </i>
   <i type="logical" name="LGWLF"> F  </i>
   <i name="ENCUTGW">     -1.60000002</i>
   <i name="ENCUTGWSOFT">     -1.60000002</i>
   <i name="ENCUTLF">     -1.00000000</i>
   <i type="logical" name="LESF_SPLINES"> F  </i>
   <i type="int" name="LMAXMP2">    -1</i>
   <i name="SCISSOR">      0.00000000</i>
   <i type="int" name="NOMEGA">     0</i>
   <i type="int" name="NOMEGAR">     0</i>
   <i type="int" name="NBANDSGW">    -1</i>
   <i type="int" name="NBANDSO">    -1</i>
   <i type="int" name="NBANDSV">    -1</i>
   <i type="int" name="NELMGW">     1</i>
   <i type="int" name="NELMHF">     1</i>
   <i type="int" name="DIM">     3</i>
   <i type="int" name="IESPILON">     4</i>
   <i type="int" name="ANTIRES">     0</i>
   <i name="OMEGAMAX">    -30.00000000</i>
   <i name="OMEGAMIN">    -30.00000000</i>
   <i name="OMEGATL">   -200.00000000</i>
   <i type="int" name="OMEGAGRID">     0</i>
   <i name="CSHIFT">     -0.10000000</i>
   <i type="logical" name="LSELFENERGY"> F  </i>
   <i type="logical" name="LSPECTRAL"> F  </i>
   <i type="logical" name="LSPECTRALGW"> F  </i>
   <i type="logical" name="LSINGLES"> F  </i>
   <i type="logical" name="LFERMIGW"> F  </i>
   <i type="logical" name="ODDONLYGW"> F  </i>
   <i type="logical" name="EVENONLYGW"> F  </i>
   <i type="int" name="NKREDLFX">     1</i>
   <i type="int" name="NKREDLFY">     1</i>
   <i type="int" name="NKREDLFZ">     1</i>
   <i type="int" name="MAXMEM">  2800</i>
   <i type="int" name="TELESCOPE">     0</i>
   <i type="int" name="NTAUPAR">    -1</i>
   <i type="int" name="NOMEGAPAR">    -1</i>
   <i name="DAMP_NEWTON">      0.80000001</i>
   <i name="LAMBDA">      1.00000000</i>
  </separator>
  <separator name="External order field" >
   <i name="OFIELD_KAPPA">      0.00000000</i>
   <v name="OFIELD_K">      0.00000000      0.00000000      0.00000000</v>
   <i name="OFIELD_Q6_NEAR">      0.00000000</i>
   <i name="OFIELD_Q6_FAR">      0.00000000</i>
   <i name="OFIELD_A">      0.00000000</i>
  </separator>
  <separator name="optional k-points parameters" >
   <i type="int" name="KPOINTS_OPT_MODE">     1</i>
   <i type="logical" name="LKPOINTS_OPT"> F  </i>
  </separator>
 </parameters>
 <atominfo>
  <atoms>      26 </atoms>
  <types>       1 </types>
  <array name="atoms" >
   <dimension dim="1">ion</dimension>
   <field type="string">element</field>
   <field type="int">atomtype</field>
   <set>
    <rc><c>Ni</c><c>   1</c></rc>
    <rc><c>Ni</c><c>   1</c></rc>
    <rc><c>Ni</c><c>   1</c></rc>
    <rc><c>Ni</c><c>   1</c></rc>
    <rc><c>Ni</c><c>   1</c></rc>
    <rc><c>Ni</c><c>   1</c></rc>
    <rc><c>Ni</c><c>   1</c></rc>
    <rc><c>Ni</c><c>   1</c></rc>
    <rc><c>Ni</c><c>   1</c></rc>
    <rc><c>Ni</c><c>   1</c></rc>
    <rc><c>Ni</c><c>   1</c></rc>
    <rc><c>Ni</c><c>   1</c></rc>
    <rc><c>Ni</c><c>   1</c></rc>
    <rc><c>Ni</c><c>   1</c></rc>
    <rc><c>Ni</c><c>   1</c></rc>
    <rc><c>Ni</c><c>   1</c></rc>
    <rc><c>Ni</c><c>   1</c></rc>
    <rc><c>Ni</c><c>   1</c></rc>
    <rc><c>Ni</c><c>   1</c></rc>
    <rc><c>Ni</c><c>   1</c></rc>
    <rc><c>Ni</c><c>   1</c></rc>
    <rc><c>Ni</c><c>   1</c></rc>
    <rc><c>Ni</c><c>   1</c></rc>
    <rc><c>Ni</c><c>   1</c></rc>
    <rc><c>Ni</c><c>   1</c></rc>
    <rc><c>Ni</c><c>   1</c></rc>
   </set>
  </array>
  <array name="atomtypes" >
   <dimension dim="1">type</dimension>
   <field type="int">atomspertype</field>
   <field type="string">element</field>
   <field>mass</field>
   <field>valence</field>
   <field type="string">pseudopotential</field>
   <set>
    <rc><c>  26</c><c>Ni</c><c>     58.69000000</c><c>     10.00000000</c><c>  PAW_PBE Ni 02Aug2007                  </c></rc>
   </set>
  </array>
 </atominfo>
 <structure name="initialpos" >
  <crystal>
   <varray name="basis" >
    <v>       6.38425002       0.00000000       3.68594829 </v>
    <v>       2.12808234       6.01913064       3.68594829 </v>
    <v>       0.00000000       0.00000000       7.37189655 </v>
   </varray>
   <i name="volume">    283.28454921 </i>
   <varray name="rec_basis" >
    <v>       0.15663547      -0.05537896       0.00000000 </v>
    <v>       0.00000000       0.16613695       0.00000000 </v>
    <v>      -0.07831774      -0.05537900       0.13565030 </v>
   </varray>
  </crystal>
  <varray name="positions" >
   <v>       0.00000000       0.00000000       0.33333333 </v>
   <v>       0.00000000       0.00000000       0.66666667 </v>
   <v>       0.00000000       0.33333333       0.00000000 </v>
   <v>       0.00000000       0.33333333       0.33333333 </v>
   <v>       0.00000000       0.33333333       0.66666667 </v>
   <v>       0.00000000       0.66666667       0.00000000 </v>
   <v>       0.00000000       0.66666667       0.33333333 </v>
   <v>       0.00000000       0.66666667       0.66666667 </v>
   <v>       0.33333333       0.00000000       0.00000000 </v>
   <v>       0.33333333       0.00000000       0.33333333 </v>
   <v>       0.33333333       0.00000000       0.66666667 </v>
   <v>       0.33333333       0.33333333       0.00000000 </v>
   <v>       0.33333333       0.33333333       0.33333333 </v>
   <v>       0.33333333       0.33333333       0.66666667 </v>
   <v>       0.33333333       0.66666667       0.00000000 </v>
   <v>       0.33333333       0.66666667       0.33333333 </v>
   <v>       0.33333333       0.66666667       0.66666667 </v>
   <v>       0.66666667       0.00000000       0.00000000 </v>
   <v>       0.66666667       0.00000000       0.33333333 </v>
   <v>       0.66666667       0.00000000       0.66666667 </v>
   <v>       0.66666667       0.33333333       0.00000000 </v>
   <v>       0.66666667       0.33333333       0.33333333 </v>
   <v>       0.66666667       0.33333333       0.66666667 </v>
   <v>       0.66666667       0.66666667       0.00000000 </v>
   <v>       0.66666667       0.66666667       0.33333333 </v>
   <v>       0.66666667       0.66666667       0.66666667 </v>
  </varray>
 </structure>
 <calculation>
  <scstep>
   <time name="dav">    2.10    2.11</time>
   <time name="total">    2.45    2.37</time>
   <energy>
    <i name="alphaZ">   1216.99524991 </i>
    <i name="ewald"> -24064.21495393 </i>
    <i name="hartreedc">  -6675.07045127 </i>
    <i name="XCdc">    836.54918370 </i>
    <i name="pawpsdc">  25024.87049016 </i>
    <i name="pawaedc"> -26761.69099725 </i>
    <i name="eentropy">      0.00432575 </i>
    <i name="bandstr">   4722.62901293 </i>
    <i name="atom">  28019.44390446 </i>
    <i name="e_fr_energy">   2319.51576447 </i>
    <i name="e_wo_entrp">   2319.51143872 </i>
    <i name="e_0_energy">   2319.51432256 </i>
   </energy>
  </scstep>
  <scstep>
   <time name="dav">    1.90    1.90</time>
   <time name="total">    1.90    1.90</time>
   <energy>
    <i name="e_fr_energy">    171.99390140 </i>
    <i name="e_wo_entrp">    171.99553829 </i>
    <i name="e_0_energy">    171.99444703 </i>
   </energy>
  </scstep>
  <scstep>
   <time name="dav">    1.90    1.90</time>
   <time name="total">    1.90    1.90</time>
   <energy>
    <i name="e_fr_energy">   -142.47196187 </i>
    <i name="e_wo_entrp">   -142.49084706 </i>
    <i name="e_0_energy">   -142.47825693 </i>
   </energy>
  </scstep>
  <scstep>
   <time name="dav">    2.01    2.01</time>
   <time name="total">    2.01    2.01</time>
   <energy>
    <i name="e_fr_energy">   -161.93922276 </i>
    <i name="e_wo_entrp">   -161.96406638 </i>
    <i name="e_0_energy">   -161.94750397 </i>
   </energy>
  </scstep>
  <scstep>
   <time name="dav">    2.21    2.21</time>
   <time name="total">    2.72    2.70</time>
   <energy>
    <i name="e_fr_energy">   -162.19764949 </i>
    <i name="e_wo_entrp">   -162.22248333 </i>
    <i name="e_0_energy">   -162.20592743 </i>
   </energy>
  </scstep>
  <scstep>
   <time name="dav">    2.08    2.08</time>
   <time name="total">    2.89    2.78</time>
   <energy>
    <i name="e_fr_energy">   -148.99572884 </i>
    <i name="e_wo_entrp">   -148.94723714 </i>
    <i name="e_0_energy">   -148.97956494 </i>
   </energy>
  </scstep>
  <scstep>
   <time name="dav">    2.10    2.10</time>
   <time name="total">    2.84    2.79</time>
   <energy>
    <i name="e_fr_energy">   -167.99217875 </i>
    <i name="e_wo_entrp">   -167.87792717 </i>
    <i name="e_0_energy">   -167.95409489 </i>
   </energy>
  </scstep>
  <scstep>
   <time name="dav">    2.07    2.07</time>
   <time name="total">    2.86    2.74</time>
   <energy>
    <i name="e_fr_energy">   -139.57114334 </i>
    <i name="e_wo_entrp">   -139.61787582 </i>
    <i name="e_0_energy">   -139.58672083 </i>
   </energy>
  </scstep>
  <scstep>
   <time name="dav">    2.08    2.08</time>
   <time name="total">    2.89    2.75</time>
   <energy>
    <i name="e_fr_energy">   -143.74715949 </i>
    <i name="e_wo_entrp">   -143.73268393 </i>
    <i name="e_0_energy">   -143.74233431 </i>
   </energy>
  </scstep>
  <scstep>
   <time name="dav">    2.03    2.03</time>
   <time name="total">    2.80    2.70</time>
   <energy>
    <i name="e_fr_energy">   -140.59965827 </i>
    <i name="e_wo_entrp">   -140.59147838 </i>
    <i name="e_0_energy">   -140.59693164 </i>
   </energy>
  </scstep>
  <scstep>
   <time name="dav">    2.14    2.14</time>
   <time name="total">    2.85    2.85</time>
   <energy>
    <i name="e_fr_energy">   -140.54293030 </i>
    <i name="e_wo_entrp">   -140.52408107 </i>
    <i name="e_0_energy">   -140.53664722 </i>
   </energy>
  </scstep>
  <scstep>
   <time name="dav">    2.03    2.03</time>
   <time name="total">    2.80    2.72</time>
   <energy>
    <i name="e_fr_energy">   -140.51625654 </i>
    <i name="e_wo_entrp">   -140.49929857 </i>
    <i name="e_0_energy">   -140.51060389 </i>
   </energy>
  </scstep>
  <scstep>
   <time name="dav">    1.91    1.91</time>
   <time name="total">    2.72    2.60</time>
   <energy>
    <i name="e_fr_energy">   -140.51718786 </i>
    <i name="e_wo_entrp">   -140.50204029 </i>
    <i name="e_0_energy">   -140.51213867 </i>
   </energy>
  </scstep>
  <scstep>
   <time name="dav">    2.47    2.47</time>
   <time name="total">    3.29    3.16</time>
   <energy>
    <i name="e_fr_energy">   -140.51911109 </i>
    <i name="e_wo_entrp">   -140.50353517 </i>
    <i name="e_0_energy">   -140.51391912 </i>
   </energy>
  </scstep>
  <scstep>
   <time name="dav">    2.09    2.09</time>
   <time name="total">    2.91    2.78</time>
   <energy>
    <i name="e_fr_energy">   -140.51857367 </i>
    <i name="e_wo_entrp">   -140.50086100 </i>
    <i name="e_0_energy">   -140.51266944 </i>
   </energy>
  </scstep>
  <scstep>
   <time name="dav">    1.96    1.96</time>
   <time name="total">    2.77    2.66</time>
   <energy>
    <i name="e_fr_energy">   -140.51885307 </i>
    <i name="e_wo_entrp">   -140.50116341 </i>
    <i name="e_0_energy">   -140.51295652 </i>
   </energy>
  </scstep>
  <scstep>
   <time name="dav">    2.63    2.63</time>
   <time name="total">    3.45    3.32</time>
   <energy>
    <i name="e_fr_energy">   -140.51877264 </i>
    <i name="e_wo_entrp">   -140.50160598 </i>
    <i name="e_0_energy">   -140.51305042 </i>
   </energy>
  </scstep>
  <scstep>
   <time name="dav">    1.97    1.97</time>
   <time name="total">    2.78    2.67</time>
   <energy>
    <i name="e_fr_energy">   -140.51877317 </i>
    <i name="e_wo_entrp">   -140.50173737 </i>
    <i name="e_0_energy">   -140.51309457 </i>
   </energy>
  </scstep>
  <scstep>
   <time name="dav">    2.14    2.14</time>
   <time name="total">    2.88    2.84</time>
   <energy>
    <i name="e_fr_energy">   -140.51876123 </i>
    <i name="e_wo_entrp">   -140.50172078 </i>
    <i name="e_0_energy">   -140.51308108 </i>
   </energy>
  </scstep>
  <scstep>
   <time name="dav">    1.62    1.62</time>
   <time name="total">    2.37    2.30</time>
   <energy>
    <i name="e_fr_energy">   -140.51876263 </i>
    <i name="e_wo_entrp">   -140.50163352 </i>
    <i name="e_0_energy">   -140.51305292 </i>
   </energy>
  </scstep>
  <scstep>
   <time name="dav">    1.35    1.35</time>
   <time name="total">    1.62    1.54</time>
   <energy>
    <i name="alphaZ">   1216.99524991 </i>
    <i name="ewald"> -24064.21495393 </i>
    <i name="hartreedc">  -6142.26599987 </i>
    <i name="XCdc">    799.62565303 </i>
    <i name="pawpsdc">  30016.43701755 </i>
    <i name="pawaedc"> -31803.84445518 </i>
    <i name="eentropy">     -0.01711523 </i>
    <i name="bandstr">   1817.32193754 </i>
    <i name="atom">  28019.44390446 </i>
    <i name="e_fr_energy">   -140.51876171 </i>
    <i name="e_wo_entrp">   -140.50164648 </i>
    <i name="e_0_energy">   -140.51305664 </i>
   </energy>
  </scstep>
  <structure>
   <crystal>
    <varray name="basis" >
     <v>       6.38425002       0.00000000       3.68594829 </v>
     <v>       2.12808234       6.01913064       3.68594829 </v>
     <v>       0.00000000       0.00000000       7.37189655 </v>
    </varray>
    <i name="volume">    283.28454921 </i>
    <varray name="rec_basis" >
     <v>       0.15663547      -0.05537896       0.00000000 </v>
     <v>       0.00000000       0.16613695       0.00000000 </v>
     <v>      -0.07831774      -0.05537900       0.13565030 </v>
    </varray>
   </crystal>
   <varray name="positions" >
    <v>       0.00000000       0.00000000       0.33333333 </v>
    <v>       0.00000000       0.00000000       0.66666667 </v>
    <v>       0.00000000       0.33333333       0.00000000 </v>
    <v>       0.00000000       0.33333333       0.33333333 </v>
    <v>       0.00000000       0.33333333       0.66666667 </v>
    <v>       0.00000000       0.66666667       0.00000000 </v>
    <v>       0.00000000       0.66666667       0.33333333 </v>
    <v>       0.00000000       0.66666667       0.66666667 </v>
    <v>       0.33333333       0.00000000       0.00000000 </v>
    <v>       0.33333333       0.00000000       0.33333333 </v>
    <v>       0.33333333       0.00000000       0.66666667 </v>
    <v>       0.33333333       0.33333333       0.00000000 </v>
    <v>       0.33333333       0.33333333       0.33333333 </v>
    <v>       0.33333333       0.33333333       0.66666667 </v>
    <v>       0.33333333       0.66666667       0.00000000 </v>
    <v>       0.33333333       0.66666667       0.33333333 </v>
    <v>       0.33333333       0.66666667       0.66666667 </v>
    <v>       0.66666667       0.00000000       0.00000000 </v>
    <v>       0.66666667       0.00000000       0.33333333 </v>
    <v>       0.66666667       0.00000000       0.66666667 </v>
    <v>       0.66666667       0.33333333       0.00000000 </v>
    <v>       0.66666667       0.33333333       0.33333333 </v>
    <v>       0.66666667       0.33333333       0.66666667 </v>
    <v>       0.66666667       0.66666667       0.00000000 </v>
    <v>       0.66666667       0.66666667       0.33333333 </v>
    <v>       0.66666667       0.66666667       0.66666667 </v>
   </varray>
  </structure>
  <varray name="forces" >
   <v>      -0.00000000      -0.00000000      -0.37882150 </v>
   <v>      -0.00000000      -0.00000000       0.37882150 </v>
   <v>      -0.10935630      -0.30930658      -0.18941075 </v>
   <v>       0.01358940      -0.00480458       0.00000000 </v>
   <v>      -0.10935630      -0.30930658       0.18941075 </v>
   <v>       0.10935630       0.30930658       0.18941075 </v>
   <v>       0.10935630       0.30930658      -0.18941075 </v>
   <v>      -0.01358940       0.00480458      -0.00000000 </v>
   <v>      -0.32806906      -0.00000000      -0.18941075 </v>
   <v>      -0.00000000       0.01441374       0.00000000 </v>
   <v>      -0.32806906      -0.00000000       0.18941075 </v>
   <v>      -0.00679470      -0.00480458       0.01176876 </v>
   <v>      -0.00679470      -0.00480458      -0.01176876 </v>
   <v>      -0.13373448      -0.09456460      -0.00000000 </v>
   <v>      -0.21871276       0.30930658      -0.00000000 </v>
   <v>      -0.06686726       0.09456460      -0.11581746 </v>
   <v>      -0.06686726       0.09456460       0.11581746 </v>
   <v>       0.32806906      -0.00000000       0.18941075 </v>
   <v>       0.32806906      -0.00000000      -0.18941075 </v>
   <v>       0.00000000      -0.01441374      -0.00000000 </v>
   <v>       0.21871276      -0.30930658      -0.00000000 </v>
   <v>       0.06686726      -0.09456460      -0.11581746 </v>
   <v>       0.06686726      -0.09456460       0.11581746 </v>
   <v>       0.00679470       0.00480458      -0.01176876 </v>
   <v>       0.13373448       0.09456460       0.00000000 </v>
   <v>       0.00679470       0.00480458       0.01176876 </v>
  </varray>
  <varray name="stress" >
   <v>      50.65990668      -0.00000842       0.00000012 </v>
   <v>      -0.00000842      50.65994031       0.00000008 </v>
   <v>       0.00000012       0.00000008      50.65990139 </v>
  </varray>
  <energy>
   <i name="e_fr_energy">   -140.51876171 </i>
   <i name="e_wo_entrp">   -140.50164648 </i>
   <i name="e_0_energy">   -140.51305664 </i>
  </energy>
  <time name="totalsc">   71.19   66.91</time>
 </calculation>
 <calculation>
  <scstep>
   <time name="dav">    2.00    2.00</time>
   <time name="total">    2.77    2.68</time>
   <energy>
    <i name="alphaZ">   1158.27786960 </i>
    <i name="ewald"> -23710.32867070 </i>
    <i name="hartreedc">  -6003.84040440 </i>
    <i name="XCdc">    779.79388705 </i>
    <i name="pawpsdc">  30016.32629618 </i>
    <i name="pawaedc"> -31803.73312134 </i>
    <i name="eentropy">     -0.11196151 </i>
    <i name="bandstr">   1391.85305752 </i>
    <i name="atom">  28019.44390446 </i>
    <i name="e_fr_energy">   -152.31914313 </i>
    <i name="e_wo_entrp">   -152.20718162 </i>
    <i name="e_0_energy">   -152.28182262 </i>
   </energy>
  </scstep>
  <scstep>
   <time name="dav">    2.02    2.02</time>
   <time name="total">    2.80    2.72</time>
   <energy>
    <i name="e_fr_energy">   -145.19518860 </i>
    <i name="e_wo_entrp">   -145.26983183 </i>
    <i name="e_0_energy">   -145.22006968 </i>
   </energy>
  </scstep>
  <scstep>
   <time name="dav">    2.08    2.08</time>
   <time name="total">    2.87    2.79</time>
   <energy>
    <i name="e_fr_energy">   -143.82877801 </i>
    <i name="e_wo_entrp">   -143.79057708 </i>
    <i name="e_0_energy">   -143.81604436 </i>
   </energy>
  </scstep>
  <scstep>
   <time name="dav">    2.00    2.00</time>
   <time name="total">    2.76    2.65</time>
   <energy>
    <i name="e_fr_energy">   -140.82124247 </i>
    <i name="e_wo_entrp">   -140.79876914 </i>
    <i name="e_0_energy">   -140.81375136 </i>
   </energy>
  </scstep>
  <scstep>
   <time name="dav">    2.32    2.32</time>
   <time name="total">    3.10    3.00</time>
   <energy>
    <i name="e_fr_energy">   -140.78264932 </i>
    <i name="e_wo_entrp">   -140.75691647 </i>
    <i name="e_0_energy">   -140.77407171 </i>
   </energy>
  </scstep>
  <scstep>
   <time name="dav">    2.03    2.03</time>
   <time name="total">    2.80    2.68</time>
   <energy>
    <i name="e_fr_energy">   -140.63644031 </i>
    <i name="e_wo_entrp">   -140.61398557 </i>
    <i name="e_0_energy">   -140.62895540 </i>
   </energy>
  </scstep>
  <scstep>
   <time name="dav">    2.18    2.18</time>
   <time name="total">    2.97    2.86</time>
   <energy>
    <i name="e_fr_energy">   -140.56452502 </i>
    <i name="e_wo_entrp">   -140.54237607 </i>
    <i name="e_0_energy">   -140.55714204 </i>
   </energy>
  </scstep>
  <scstep>
   <time name="dav">    1.98    1.97</time>
   <time name="total">    2.74    2.61</time>
   <energy>
    <i name="e_fr_energy">   -140.56699046 </i>
    <i name="e_wo_entrp">   -140.54419247 </i>
    <i name="e_0_energy">   -140.55939113 </i>
   </energy>
  </scstep>
  <scstep>
   <time name="dav">    2.75    2.75</time>
   <time name="total">    3.55    3.45</time>
   <energy>
    <i name="e_fr_energy">   -140.56763809 </i>
    <i name="e_wo_entrp">   -140.54494254 </i>
    <i name="e_0_energy">   -140.56007291 </i>
   </energy>
  </scstep>
  <scstep>
   <time name="dav">    2.80    2.80</time>
   <time name="total">    3.56    3.46</time>
   <energy>
    <i name="e_fr_energy">   -140.56875463 </i>
    <i name="e_wo_entrp">   -140.54727864 </i>
    <i name="e_0_energy">   -140.56159597 </i>
   </energy>
  </scstep>
  <scstep>
   <time name="dav">    2.14    2.14</time>
   <time name="total">    2.93    2.83</time>
   <energy>
    <i name="e_fr_energy">   -140.56868600 </i>
    <i name="e_wo_entrp">   -140.54667284 </i>
    <i name="e_0_energy">   -140.56134828 </i>
   </energy>
  </scstep>
  <scstep>
   <time name="dav">    2.25    2.25</time>
   <time name="total">    2.96    2.95</time>
   <energy>
    <i name="e_fr_energy">   -140.56868085 </i>
    <i name="e_wo_entrp">   -140.54650686 </i>
    <i name="e_0_energy">   -140.56128952 </i>
   </energy>
  </scstep>
  <scstep>
   <time name="dav">    1.93    1.93</time>
   <time name="total">    2.64    2.61</time>
   <energy>
    <i name="e_fr_energy">   -140.56867982 </i>
    <i name="e_wo_entrp">   -140.54651792 </i>
    <i name="e_0_energy">   -140.56129252 </i>
   </energy>
  </scstep>
  <scstep>
   <time name="dav">    1.27    1.27</time>
   <time name="total">    1.58    1.49</time>
   <energy>
    <i name="alphaZ">   1158.27786960 </i>
    <i name="ewald"> -23710.32867070 </i>
    <i name="hartreedc">  -6299.51532160 </i>
    <i name="XCdc">    796.26767062 </i>
    <i name="pawpsdc">  29291.28686559 </i>
    <i name="pawaedc"> -31070.66549038 </i>
    <i name="eentropy">     -0.02220995 </i>
    <i name="bandstr">   1674.68670290 </i>
    <i name="atom">  28019.44390446 </i>
    <i name="e_fr_energy">   -140.56867946 </i>
    <i name="e_wo_entrp">   -140.54646951 </i>
    <i name="e_0_energy">   -140.56127615 </i>
   </energy>
  </scstep>
  <structure>
   <crystal>
    <varray name="basis" >
     <v>       6.49035711      -0.00000002       3.74720924 </v>
     <v>       2.16345134       6.11916946       3.74720924 </v>
     <v>       0.00000000       0.00000000       7.49441845 </v>
    </varray>
    <i name="volume">    297.64528859 </i>
    <varray name="rec_basis" >
     <v>       0.15407473      -0.05447360      -0.00000000 </v>
     <v>       0.00000000       0.16342087      -0.00000000 </v>
     <v>      -0.07703736      -0.05447364       0.13343263 </v>
    </varray>
   </crystal>
   <varray name="positions" >
    <v>      -0.00000000      -0.00000000       0.33085428 </v>
    <v>      -0.00000000      -0.00000000       0.66914572 </v>
    <v>      -0.00000000       0.33085428       0.00000000 </v>
    <v>       0.00011552       0.33329483       0.33329483 </v>
    <v>      -0.00000000       0.33085428       0.66914572 </v>
    <v>       0.00000000       0.66914572      -0.00000000 </v>
    <v>       0.00000000       0.66914572       0.33085428 </v>
    <v>      -0.00011552       0.66670517       0.66670517 </v>
    <v>       0.33085428      -0.00000000       0.00000000 </v>
    <v>       0.33329483       0.00011552       0.33329483 </v>
    <v>       0.33085428      -0.00000000       0.66914572 </v>
    <v>       0.33329483       0.33329483       0.00011552 </v>
    <v>       0.33329483       0.33329483       0.33329483 </v>
    <v>       0.33257541       0.33257541       0.66742459 </v>
    <v>       0.33085428       0.66914572      -0.00000000 </v>
    <v>       0.33257541       0.66742459       0.33257541 </v>
    <v>       0.33257541       0.66742459       0.66742459 </v>
    <v>       0.66914572      -0.00000000      -0.00000000 </v>
    <v>       0.66914572      -0.00000000       0.33085428 </v>
    <v>       0.66670517      -0.00011552       0.66670517 </v>
    <v>       0.66914572       0.33085428      -0.00000000 </v>
    <v>       0.66742459       0.33257541       0.33257541 </v>
    <v>       0.66742459       0.33257541       0.66742459 </v>
    <v>       0.66670517       0.66670517      -0.00011552 </v>
    <v>       0.66742459       0.66742459       0.33257541 </v>
    <v>       0.66670517       0.66670517       0.66670517 </v>
   </varray>
  </structure>
  <varray name="forces" >
   <v>      -0.00000000      -0.00000000      -0.05749763 </v>
   <v>       0.00000000       0.00000000       0.05749763 </v>
   <v>      -0.01659813      -0.04694664      -0.02874882 </v>
   <v>       0.00492387      -0.00174085       0.00000000 </v>
   <v>      -0.01659813      -0.04694664       0.02874882 </v>
   <v>       0.01659813       0.04694664       0.02874882 </v>
   <v>       0.01659813       0.04694664      -0.02874882 </v>
   <v>      -0.00492387       0.00174085      -0.00000000 </v>
   <v>      -0.04979441       0.00000000      -0.02874882 </v>
   <v>      -0.00000000       0.00522255       0.00000000 </v>
   <v>      -0.04979441       0.00000000       0.02874882 </v>
   <v>      -0.00246193      -0.00174085       0.00426420 </v>
   <v>      -0.00246193      -0.00174085      -0.00426420 </v>
   <v>      -0.03171465      -0.02242566      -0.00000000 </v>
   <v>      -0.03319628       0.04694664      -0.00000000 </v>
   <v>      -0.01585733       0.02242566      -0.02746570 </v>
   <v>      -0.01585733       0.02242566       0.02746570 </v>
   <v>       0.04979441      -0.00000000       0.02874882 </v>
   <v>       0.04979441      -0.00000000      -0.02874882 </v>
   <v>       0.00000000      -0.00522255      -0.00000000 </v>
   <v>       0.03319628      -0.04694664      -0.00000000 </v>
   <v>       0.01585733      -0.02242566      -0.02746570 </v>
   <v>       0.01585733      -0.02242566       0.02746570 </v>
   <v>       0.00246193       0.00174085      -0.00426420 </v>
   <v>       0.03171465       0.02242566       0.00000000 </v>
   <v>       0.00246193       0.00174085       0.00426420 </v>
  </varray>
  <varray name="stress" >
   <v>     -45.80577344       0.00000786      -0.00000011 </v>
   <v>       0.00000786     -45.80580484      -0.00000008 </v>
   <v>      -0.00000011      -0.00000008     -45.80576850 </v>
  </varray>
  <energy>
   <i name="e_fr_energy">   -140.56867946 </i>
   <i name="e_wo_entrp">   -140.54646951 </i>
   <i name="e_0_energy">   -140.56127615 </i>
  </energy>
  <time name="totalsc">   55.14   51.39</time>
 </calculation>
 <calculation>
  <scstep>
   <time name="dav">    1.99    1.99</time>
   <time name="total">    2.70    2.67</time>
   <energy>
    <i name="alphaZ">   1184.48474751 </i>
    <i name="ewald"> -23870.71829421 </i>
    <i name="hartreedc">  -6363.29180786 </i>
    <i name="XCdc">    805.37444914 </i>
    <i name="pawpsdc">  29291.51852332 </i>
    <i name="pawaedc"> -31070.89538238 </i>
    <i name="eentropy">     -0.00051077 </i>
    <i name="bandstr">   1861.02076558 </i>
    <i name="atom">  28019.44390446 </i>
    <i name="e_fr_energy">   -143.06360521 </i>
    <i name="e_wo_entrp">   -143.06309444 </i>
    <i name="e_0_energy">   -143.06343495 </i>
   </energy>
  </scstep>
  <scstep>
   <time name="dav">    2.02    2.01</time>
   <time name="total">    2.76    2.68</time>
   <energy>
    <i name="e_fr_energy">   -141.55217327 </i>
    <i name="e_wo_entrp">   -141.50594971 </i>
    <i name="e_0_energy">   -141.53676541 </i>
   </energy>
  </scstep>
  <scstep>
   <time name="dav">    2.03    2.03</time>
   <time name="total">    2.78    2.70</time>
   <energy>
    <i name="e_fr_energy">   -140.88678076 </i>
    <i name="e_wo_entrp">   -140.90362768 </i>
    <i name="e_0_energy">   -140.89239640 </i>
   </energy>
  </scstep>
  <scstep>
   <time name="dav">    2.05    2.05</time>
   <time name="total">    2.82    2.71</time>
   <energy>
    <i name="e_fr_energy">   -140.71934164 </i>
    <i name="e_wo_entrp">   -140.69194134 </i>
    <i name="e_0_energy">   -140.71020821 </i>
   </energy>
  </scstep>
  <scstep>
   <time name="dav">    2.06    2.06</time>
   <time name="total">    2.84    2.72</time>
   <energy>
    <i name="e_fr_energy">   -140.68683412 </i>
    <i name="e_wo_entrp">   -140.66913929 </i>
    <i name="e_0_energy">   -140.68093585 </i>
   </energy>
  </scstep>
  <scstep>
   <time name="dav">    2.05    2.05</time>
   <time name="total">    2.84    2.71</time>
   <energy>
    <i name="e_fr_energy">   -140.68664835 </i>
    <i name="e_wo_entrp">   -140.66894513 </i>
    <i name="e_0_energy">   -140.68074728 </i>
   </energy>
  </scstep>
  <scstep>
   <time name="dav">    2.14    2.14</time>
   <time name="total">    2.90    2.80</time>
   <energy>
    <i name="e_fr_energy">   -140.66281008 </i>
    <i name="e_wo_entrp">   -140.64447823 </i>
    <i name="e_0_energy">   -140.65669946 </i>
   </energy>
  </scstep>
  <scstep>
   <time name="dav">    2.27    2.26</time>
   <time name="total">    3.03    2.92</time>
   <energy>
    <i name="e_fr_energy">   -140.66230007 </i>
    <i name="e_wo_entrp">   -140.64326923 </i>
    <i name="e_0_energy">   -140.65595646 </i>
   </energy>
  </scstep>
  <scstep>
   <time name="dav">    2.08    2.08</time>
   <time name="total">    2.85    2.74</time>
   <energy>
    <i name="e_fr_energy">   -140.66241544 </i>
    <i name="e_wo_entrp">   -140.64242121 </i>
    <i name="e_0_energy">   -140.65575070 </i>
   </energy>
  </scstep>
  <scstep>
   <time name="dav">    2.04    2.04</time>
   <time name="total">    2.85    2.74</time>
   <energy>
    <i name="e_fr_energy">   -140.66241502 </i>
    <i name="e_wo_entrp">   -140.64285633 </i>
    <i name="e_0_energy">   -140.65589545 </i>
   </energy>
  </scstep>
  <scstep>
   <time name="dav">    2.06    2.06</time>
   <time name="total">    2.81    2.71</time>
   <energy>
    <i name="e_fr_energy">   -140.66240733 </i>
    <i name="e_wo_entrp">   -140.64287020 </i>
    <i name="e_0_energy">   -140.65589495 </i>
   </energy>
  </scstep>
  <scstep>
   <time name="dav">    1.94    1.94</time>
   <time name="total">    2.75    2.64</time>
   <energy>
    <i name="e_fr_energy">   -140.66239845 </i>
    <i name="e_wo_entrp">   -140.64290131 </i>
    <i name="e_0_energy">   -140.65589940 </i>
   </energy>
  </scstep>
  <scstep>
   <time name="dav">    1.34    1.34</time>
   <time name="total">    2.15    2.03</time>
   <energy>
    <i name="e_fr_energy">   -140.66239571 </i>
    <i name="e_wo_entrp">   -140.64290436 </i>
    <i name="e_0_energy">   -140.65589859 </i>
   </energy>
  </scstep>
  <scstep>
   <time name="dav">    1.31    1.31</time>
   <time name="total">    1.61    1.51</time>
   <energy>
    <i name="alphaZ">   1184.48474751 </i>
    <i name="ewald"> -23870.71829421 </i>
    <i name="hartreedc">  -6227.10801584 </i>
    <i name="XCdc">    797.75155250 </i>
    <i name="pawpsdc">  29606.48026957 </i>
    <i name="pawaedc"> -31389.34960112 </i>
    <i name="eentropy">     -0.01948060 </i>
    <i name="bandstr">   1738.37252178 </i>
    <i name="atom">  28019.44390446 </i>
    <i name="e_fr_energy">   -140.66239594 </i>
    <i name="e_wo_entrp">   -140.64291534 </i>
    <i name="e_0_energy">   -140.65590241 </i>
   </energy>
  </scstep>
  <structure>
   <crystal>
    <varray name="basis" >
     <v>       6.44213304      -0.00000001       3.71936706 </v>
     <v>       2.14737666       6.07370332       3.71936706 </v>
     <v>       0.00000000       0.00000000       7.43873409 </v>
    </varray>
    <i name="volume">    291.05984816 </i>
    <varray name="rec_basis" >
     <v>       0.15522809      -0.05488137      -0.00000000 </v>
     <v>       0.00000000       0.16464420      -0.00000000 </v>
     <v>      -0.07761404      -0.05488141       0.13443148 </v>
    </varray>
   </crystal>
   <varray name="positions" >
    <v>      -0.00000000      -0.00000000       0.33196255 </v>
    <v>       0.00000000       0.00000000       0.66803745 </v>
    <v>       0.00000000       0.33196255       0.00000000 </v>
    <v>       0.00006388       0.33331204       0.33331204 </v>
    <v>       0.00000000       0.33196255       0.66803745 </v>
    <v>      -0.00000000       0.66803745      -0.00000000 </v>
    <v>      -0.00000000       0.66803745       0.33196255 </v>
    <v>      -0.00006388       0.66668796       0.66668796 </v>
    <v>       0.33196255       0.00000000      -0.00000000 </v>
    <v>       0.33331204       0.00006388       0.33331204 </v>
    <v>       0.33196255       0.00000000       0.66803745 </v>
    <v>       0.33331204       0.33331204       0.00006388 </v>
    <v>       0.33331204       0.33331204       0.33331204 </v>
    <v>       0.33291424       0.33291424       0.66708576 </v>
    <v>       0.33196255       0.66803745      -0.00000000 </v>
    <v>       0.33291424       0.66708576       0.33291424 </v>
    <v>       0.33291424       0.66708576       0.66708576 </v>
    <v>       0.66803745      -0.00000000       0.00000000 </v>
    <v>       0.66803745      -0.00000000       0.33196255 </v>
    <v>       0.66668796      -0.00006388       0.66668796 </v>
    <v>       0.66803745       0.33196255       0.00000000 </v>
    <v>       0.66708576       0.33291424       0.33291424 </v>
    <v>       0.66708576       0.33291424       0.66708576 </v>
    <v>       0.66668796       0.66668796      -0.00006388 </v>
    <v>       0.66708576       0.66708576       0.33291424 </v>
    <v>       0.66668796       0.66668796       0.66668796 </v>
   </varray>
  </structure>
  <varray name="forces" >
   <v>      -0.00000000      -0.00000000      -0.18744764 </v>
   <v>       0.00000000       0.00000000       0.18744764 </v>
   <v>      -0.05411145      -0.15305041      -0.09372382 </v>
   <v>       0.00808339      -0.00285791       0.00000000 </v>
   <v>      -0.05411145      -0.15305041       0.09372382 </v>
   <v>       0.05411145       0.15305041       0.09372382 </v>
   <v>       0.05411145       0.15305041      -0.09372382 </v>
   <v>      -0.00808339       0.00285791      -0.00000000 </v>
   <v>      -0.16233442       0.00000000      -0.09372382 </v>
   <v>      -0.00000000       0.00857373       0.00000000 </v>
   <v>      -0.16233442       0.00000000       0.09372382 </v>
   <v>      -0.00404169      -0.00285791       0.00700042 </v>
   <v>      -0.00404169      -0.00285791      -0.00700042 </v>
   <v>      -0.07220698      -0.05105807      -0.00000000 </v>
   <v>      -0.10822297       0.15305041      -0.00000000 </v>
   <v>      -0.03610350       0.05105807      -0.06253308 </v>
   <v>      -0.03610350       0.05105807       0.06253308 </v>
   <v>       0.16233442      -0.00000000       0.09372382 </v>
   <v>       0.16233442      -0.00000000      -0.09372382 </v>
   <v>       0.00000000      -0.00857373      -0.00000000 </v>
   <v>       0.10822297      -0.15305041      -0.00000000 </v>
   <v>       0.03610350      -0.05105807      -0.06253308 </v>
   <v>       0.03610350      -0.05105807       0.06253308 </v>
   <v>       0.00404169       0.00285791      -0.00700042 </v>
   <v>       0.07220698       0.05105807       0.00000000 </v>
   <v>       0.00404169       0.00285791       0.00700042 </v>
  </varray>
  <varray name="stress" >
   <v>      -5.34345083       0.00000090      -0.00000001 </v>
   <v>       0.00000090      -5.34345444      -0.00000001 </v>
   <v>      -0.00000001      -0.00000001      -5.34345026 </v>
  </varray>
  <energy>
   <i name="e_fr_energy">   -140.66239594 </i>
   <i name="e_wo_entrp">   -140.64291534 </i>
   <i name="e_0_energy">   -140.65590241 </i>
  </energy>
  <time name="totalsc">   53.08   49.00</time>
 </calculation>
 <calculation>
  <scstep>
   <time name="dav">    2.02    2.02</time>
   <time name="total">    2.80    2.72</time>
   <energy>
    <i name="alphaZ">   1187.21809514 </i>
    <i name="ewald"> -23908.13681587 </i>
    <i name="hartreedc">  -6213.42789035 </i>
    <i name="XCdc">    798.63841644 </i>
    <i name="pawpsdc">  29606.67231073 </i>
    <i name="pawaedc"> -31389.53779456 </i>
    <i name="eentropy">     -0.00875591 </i>
    <i name="bandstr">   1758.44135949 </i>
    <i name="atom">  28019.44390446 </i>
    <i name="e_fr_energy">   -140.69717042 </i>
    <i name="e_wo_entrp">   -140.68841451 </i>
    <i name="e_0_energy">   -140.69425178 </i>
   </energy>
  </scstep>
  <scstep>
   <time name="dav">    2.27    2.27</time>
   <time name="total">    3.06    2.95</time>
   <energy>
    <i name="e_fr_energy">   -140.72533420 </i>
    <i name="e_wo_entrp">   -140.69481866 </i>
    <i name="e_0_energy">   -140.71516235 </i>
   </energy>
  </scstep>
  <scstep>
   <time name="dav">    2.10    2.10</time>
   <time name="total">    2.81    2.78</time>
   <energy>
    <i name="e_fr_energy">   -140.70983912 </i>
    <i name="e_wo_entrp">   -140.70542268 </i>
    <i name="e_0_energy">   -140.70836698 </i>
   </energy>
  </scstep>
  <scstep>
   <time name="dav">    2.03    2.03</time>
   <time name="total">    2.80    2.67</time>
   <energy>
    <i name="e_fr_energy">   -140.68129057 </i>
    <i name="e_wo_entrp">   -140.66658579 </i>
    <i name="e_0_energy">   -140.67638897 </i>
   </energy>
  </scstep>
  <scstep>
   <time name="dav">    2.40    2.40</time>
   <time name="total">    3.17    3.08</time>
   <energy>
    <i name="e_fr_energy">   -140.68197213 </i>
    <i name="e_wo_entrp">   -140.66840518 </i>
    <i name="e_0_energy">   -140.67744981 </i>
   </energy>
  </scstep>
  <scstep>
   <time name="dav">    2.02    2.02</time>
   <time name="total">    2.83    2.74</time>
   <energy>
    <i name="e_fr_energy">   -140.68123091 </i>
    <i name="e_wo_entrp">   -140.66663894 </i>
    <i name="e_0_energy">   -140.67636692 </i>
   </energy>
  </scstep>
  <scstep>
   <time name="dav">    2.06    2.06</time>
   <time name="total">    2.78    2.72</time>
   <energy>
    <i name="e_fr_energy">   -140.68104604 </i>
    <i name="e_wo_entrp">   -140.66625615 </i>
    <i name="e_0_energy">   -140.67611608 </i>
   </energy>
  </scstep>
  <scstep>
   <time name="dav">    2.20    2.20</time>
   <time name="total">    2.94    2.88</time>
   <energy>
    <i name="e_fr_energy">   -140.68103203 </i>
    <i name="e_wo_entrp">   -140.66625100 </i>
    <i name="e_0_energy">   -140.67610502 </i>
   </energy>
  </scstep>
  <scstep>
   <time name="dav">    1.94    1.94</time>
   <time name="total">    2.73    2.62</time>
   <energy>
    <i name="e_fr_energy">   -140.68102648 </i>
    <i name="e_wo_entrp">   -140.66633962 </i>
    <i name="e_0_energy">   -140.67613086 </i>
   </energy>
  </scstep>
  <scstep>
   <time name="dav">    1.29    1.29</time>
   <time name="total">    2.07    1.98</time>
   <energy>
    <i name="e_fr_energy">   -140.68102267 </i>
    <i name="e_wo_entrp">   -140.66633835 </i>
    <i name="e_0_energy">   -140.67612790 </i>
   </energy>
  </scstep>
  <scstep>
   <time name="dav">    1.25    1.25</time>
   <time name="total">    1.95    1.95</time>
   <energy>
    <i name="e_fr_energy">   -140.68102129 </i>
    <i name="e_wo_entrp">   -140.66632543 </i>
    <i name="e_0_energy">   -140.67612267 </i>
   </energy>
  </scstep>
  <scstep>
   <time name="dav">    1.26    1.26</time>
   <time name="total">    1.57    1.48</time>
   <energy>
    <i name="alphaZ">   1187.21809514 </i>
    <i name="ewald"> -23908.13681587 </i>
    <i name="hartreedc">  -6199.34012754 </i>
    <i name="XCdc">    797.86432443 </i>
    <i name="pawpsdc">  29628.97628915 </i>
    <i name="pawaedc"> -31412.10056286 </i>
    <i name="eentropy">     -0.01469885 </i>
    <i name="bandstr">   1745.40857146 </i>
    <i name="atom">  28019.44390446 </i>
    <i name="e_fr_energy">   -140.68102047 </i>
    <i name="e_wo_entrp">   -140.66632162 </i>
    <i name="e_0_energy">   -140.67612085 </i>
   </energy>
  </scstep>
  <structure>
   <crystal>
    <varray name="basis" >
     <v>       6.43718530      -0.00000001       3.71651049 </v>
     <v>       2.14572742       6.06903855       3.71651049 </v>
     <v>       0.00000000       0.00000000       7.43302094 </v>
    </varray>
    <i name="volume">    290.38973729 </i>
    <varray name="rec_basis" >
     <v>       0.15534740      -0.05492356      -0.00000000 </v>
     <v>       0.00000000       0.16477074      -0.00000000 </v>
     <v>      -0.07767370      -0.05492359       0.13453480 </v>
    </varray>
   </crystal>
   <varray name="positions" >
    <v>      -0.00000000      -0.00000000       0.33072887 </v>
    <v>       0.00000000       0.00000000       0.66927113 </v>
    <v>       0.00000000       0.33072887       0.00000000 </v>
    <v>       0.00013178       0.33328941       0.33328941 </v>
    <v>       0.00000000       0.33072887       0.66927113 </v>
    <v>      -0.00000000       0.66927113      -0.00000000 </v>
    <v>      -0.00000000       0.66927113       0.33072887 </v>
    <v>      -0.00013178       0.66671059       0.66671059 </v>
    <v>       0.33072887       0.00000000      -0.00000000 </v>
    <v>       0.33328941       0.00013178       0.33328941 </v>
    <v>       0.33072887       0.00000000       0.66927113 </v>
    <v>       0.33328941       0.33328941       0.00013178 </v>
    <v>       0.33328941       0.33328941       0.33328941 </v>
    <v>       0.33250627       0.33250627       0.66749373 </v>
    <v>       0.33072887       0.66927113      -0.00000000 </v>
    <v>       0.33250627       0.66749373       0.33250627 </v>
    <v>       0.33250627       0.66749373       0.66749373 </v>
    <v>       0.66927113      -0.00000000       0.00000000 </v>
    <v>       0.66927113      -0.00000000       0.33072887 </v>
    <v>       0.66671059      -0.00013178       0.66671059 </v>
    <v>       0.66927113       0.33072887       0.00000000 </v>
    <v>       0.66749373       0.33250627       0.33250627 </v>
    <v>       0.66749373       0.33250627       0.66749373 </v>
    <v>       0.66671059       0.66671059      -0.00013178 </v>
    <v>       0.66749373       0.66749373       0.33250627 </v>
    <v>       0.66671059       0.66671059       0.66671059 </v>
   </varray>
  </structure>
  <varray name="forces" >
   <v>      -0.00000000      -0.00000000      -0.09605526 </v>
   <v>       0.00000000       0.00000000       0.09605526 </v>
   <v>      -0.02772875      -0.07842882      -0.04802763 </v>
   <v>       0.00262093      -0.00092664       0.00000000 </v>
   <v>      -0.02772875      -0.07842882       0.04802763 </v>
   <v>       0.02772875       0.07842882       0.04802763 </v>
   <v>       0.02772875       0.07842882      -0.04802763 </v>
   <v>      -0.00262093       0.00092664      -0.00000000 </v>
   <v>      -0.08318630       0.00000000      -0.04802763 </v>
   <v>      -0.00000000       0.00277992       0.00000000 </v>
   <v>      -0.08318630       0.00000000       0.04802763 </v>
   <v>      -0.00131047      -0.00092664       0.00226979 </v>
   <v>      -0.00131047      -0.00092664      -0.00226979 </v>
   <v>      -0.01828716      -0.01293098      -0.00000000 </v>
   <v>      -0.05545755       0.07842882       0.00000000 </v>
   <v>      -0.00914358       0.01293098      -0.01583715 </v>
   <v>      -0.00914358       0.01293098       0.01583715 </v>
   <v>       0.08318630      -0.00000000       0.04802763 </v>
   <v>       0.08318630      -0.00000000      -0.04802763 </v>
   <v>       0.00000000      -0.00277992      -0.00000000 </v>
   <v>       0.05545755      -0.07842882       0.00000000 </v>
   <v>       0.00914358      -0.01293098      -0.01583715 </v>
   <v>       0.00914358      -0.01293098       0.01583715 </v>
   <v>       0.00131047       0.00092664      -0.00226979 </v>
   <v>       0.01828716       0.01293098       0.00000000 </v>
   <v>       0.00131047       0.00092664       0.00226979 </v>
  </varray>
  <varray name="stress" >
   <v>      -2.34675531       0.00000040      -0.00000001 </v>
   <v>       0.00000040      -2.34675689      -0.00000000 </v>
   <v>      -0.00000001      -0.00000000      -2.34675506 </v>
  </varray>
  <energy>
   <i name="e_fr_energy">   -140.68102047 </i>
   <i name="e_wo_entrp">   -140.66632162 </i>
   <i name="e_0_energy">   -140.67612085 </i>
  </energy>
  <time name="totalsc">   47.01   43.56</time>
 </calculation>
 <calculation>
  <scstep>
   <time name="dav">    2.07    2.07</time>
   <time name="total">    2.87    2.77</time>
   <energy>
    <i name="alphaZ">   1189.77103437 </i>
    <i name="ewald"> -23941.74346914 </i>
    <i name="hartreedc">  -6187.77852175 </i>
    <i name="XCdc">    798.69544353 </i>
    <i name="pawpsdc">  29629.10524587 </i>
    <i name="pawaedc"> -31412.22492799 </i>
    <i name="eentropy">     -0.00460586 </i>
    <i name="bandstr">   1764.03550538 </i>
    <i name="atom">  28019.44390446 </i>
    <i name="e_fr_energy">   -140.70039113 </i>
    <i name="e_wo_entrp">   -140.69578527 </i>
    <i name="e_0_energy">   -140.69885584 </i>
   </energy>
  </scstep>
  <scstep>
   <time name="dav">    2.28    2.29</time>
   <time name="total">    3.05    2.98</time>
   <energy>
    <i name="e_fr_energy">   -140.72407725 </i>
    <i name="e_wo_entrp">   -140.69920727 </i>
    <i name="e_0_energy">   -140.71578725 </i>
   </energy>
  </scstep>
  <scstep>
   <time name="dav">    2.03    2.02</time>
   <time name="total">    2.84    2.72</time>
   <energy>
    <i name="e_fr_energy">   -140.71135667 </i>
    <i name="e_wo_entrp">   -140.71063849 </i>
    <i name="e_0_energy">   -140.71111728 </i>
   </energy>
  </scstep>
  <scstep>
   <time name="dav">    2.07    2.07</time>
   <time name="total">    2.83    2.74</time>
   <energy>
    <i name="e_fr_energy">   -140.68670893 </i>
    <i name="e_wo_entrp">   -140.67663312 </i>
    <i name="e_0_energy">   -140.68335032 </i>
   </energy>
  </scstep>
  <scstep>
   <time name="dav">    2.38    2.38</time>
   <time name="total">    3.19    3.09</time>
   <energy>
    <i name="e_fr_energy">   -140.68745870 </i>
    <i name="e_wo_entrp">   -140.67842538 </i>
    <i name="e_0_energy">   -140.68444759 </i>
   </energy>
  </scstep>
  <scstep>
   <time name="dav">    2.04    2.04</time>
   <time name="total">    2.82    2.73</time>
   <energy>
    <i name="e_fr_energy">   -140.68672457 </i>
    <i name="e_wo_entrp">   -140.67669029 </i>
    <i name="e_0_energy">   -140.68337981 </i>
   </energy>
  </scstep>
  <scstep>
   <time name="dav">    2.14    2.14</time>
   <time name="total">    2.93    2.81</time>
   <energy>
    <i name="e_fr_energy">   -140.68656180 </i>
    <i name="e_wo_entrp">   -140.67632058 </i>
    <i name="e_0_energy">   -140.68314806 </i>
   </energy>
  </scstep>
  <scstep>
   <time name="dav">    2.17    2.17</time>
   <time name="total">    2.94    2.84</time>
   <energy>
    <i name="e_fr_energy">   -140.68654841 </i>
    <i name="e_wo_entrp">   -140.67631484 </i>
    <i name="e_0_energy">   -140.68313722 </i>
   </energy>
  </scstep>
  <scstep>
   <time name="dav">    1.91    1.91</time>
   <time name="total">    2.71    2.59</time>
   <energy>
    <i name="e_fr_energy">   -140.68654266 </i>
    <i name="e_wo_entrp">   -140.67640129 </i>
    <i name="e_0_energy">   -140.68316220 </i>
   </energy>
  </scstep>
  <scstep>
   <time name="dav">    1.30    1.30</time>
   <time name="total">    2.09    1.98</time>
   <energy>
    <i name="e_fr_energy">   -140.68653900 </i>
    <i name="e_wo_entrp">   -140.67639976 </i>
    <i name="e_0_energy">   -140.68315925 </i>
   </energy>
  </scstep>
  <scstep>
   <time name="dav">    1.26    1.26</time>
   <time name="total">    2.06    1.95</time>
   <energy>
    <i name="e_fr_energy">   -140.68653774 </i>
    <i name="e_wo_entrp">   -140.67638643 </i>
    <i name="e_0_energy">   -140.68315397 </i>
   </energy>
  </scstep>
  <scstep>
   <time name="dav">    1.27    1.27</time>
   <time name="total">    1.58    1.48</time>
   <energy>
    <i name="alphaZ">   1189.77103437 </i>
    <i name="ewald"> -23941.74346914 </i>
    <i name="hartreedc">  -6174.68356371 </i>
    <i name="XCdc">    797.97500596 </i>
    <i name="pawpsdc">  29651.39288974 </i>
    <i name="pawaedc"> -31434.77819587 </i>
    <i name="eentropy">     -0.01015400 </i>
    <i name="bandstr">   1751.94601117 </i>
    <i name="atom">  28019.44390446 </i>
    <i name="e_fr_energy">   -140.68653701 </i>
    <i name="e_wo_entrp">   -140.67638302 </i>
    <i name="e_0_energy">   -140.68315235 </i>
   </energy>
  </scstep>
  <structure>
   <crystal>
    <varray name="basis" >
     <v>       6.43257783      -0.00000001       3.71385036 </v>
     <v>       2.14419160       6.06469458       3.71385036 </v>
     <v>       0.00000000       0.00000000       7.42770069 </v>
    </varray>
    <i name="volume">    289.76663644 </i>
    <varray name="rec_basis" >
     <v>       0.15545867      -0.05496290      -0.00000000 </v>
     <v>       0.00000000       0.16488876      -0.00000000 </v>
     <v>      -0.07772934      -0.05496293       0.13463117 </v>
    </varray>
   </crystal>
   <varray name="positions" >
    <v>      -0.00000000      -0.00000000       0.32957916 </v>
    <v>       0.00000000       0.00000000       0.67042084 </v>
    <v>       0.00000000       0.32957916       0.00000000 </v>
    <v>       0.00019506       0.33326831       0.33326831 </v>
    <v>       0.00000000       0.32957916       0.67042084 </v>
    <v>      -0.00000000       0.67042084      -0.00000000 </v>
    <v>      -0.00000000       0.67042084       0.32957916 </v>
    <v>      -0.00019506       0.66673169       0.66673169 </v>
    <v>       0.32957916       0.00000000      -0.00000000 </v>
    <v>       0.33326831       0.00019506       0.33326831 </v>
    <v>       0.32957916       0.00000000       0.67042084 </v>
    <v>       0.33326831       0.33326831       0.00019506 </v>
    <v>       0.33326831       0.33326831       0.33326831 </v>
    <v>       0.33212606       0.33212606       0.66787394 </v>
    <v>       0.32957916       0.67042084      -0.00000000 </v>
    <v>       0.33212606       0.66787394       0.33212606 </v>
    <v>       0.33212606       0.66787394       0.66787394 </v>
    <v>       0.67042084      -0.00000000       0.00000000 </v>
    <v>       0.67042084      -0.00000000       0.32957916 </v>
    <v>       0.66673169      -0.00019506       0.66673169 </v>
    <v>       0.67042084       0.32957916       0.00000000 </v>
    <v>       0.66787394       0.33212606       0.33212606 </v>
    <v>       0.66787394       0.33212606       0.66787394 </v>
    <v>       0.66673169       0.66673169      -0.00019506 </v>
    <v>       0.66787394       0.66787394       0.33212606 </v>
    <v>       0.66673169       0.66673169       0.66673169 </v>
   </varray>
  </structure>
  <varray name="forces" >
   <v>      -0.00000000      -0.00000000      -0.01030671 </v>
   <v>       0.00000000       0.00000000       0.01030671 </v>
   <v>      -0.00297529      -0.00841540      -0.00515335 </v>
   <v>      -0.00244885       0.00086580      -0.00000000 </v>
   <v>      -0.00297529      -0.00841540       0.00515335 </v>
   <v>       0.00297529       0.00841540       0.00515335 </v>
   <v>       0.00297529       0.00841540      -0.00515335 </v>
   <v>       0.00244885      -0.00086580       0.00000000 </v>
   <v>      -0.00892587       0.00000000      -0.00515335 </v>
   <v>       0.00000000      -0.00259740      -0.00000000 </v>
   <v>      -0.00892587       0.00000000       0.00515335 </v>
   <v>       0.00122443       0.00086580      -0.00212077 </v>
   <v>       0.00122443       0.00086580       0.00212077 </v>
   <v>       0.03261713       0.02306380       0.00000000 </v>
   <v>      -0.00595058       0.00841540      -0.00000000 </v>
   <v>       0.01630857      -0.02306380       0.02824726 </v>
   <v>       0.01630857      -0.02306380      -0.02824726 </v>
   <v>       0.00892587      -0.00000000       0.00515335 </v>
   <v>       0.00892587      -0.00000000      -0.00515335 </v>
   <v>      -0.00000000       0.00259740       0.00000000 </v>
   <v>       0.00595058      -0.00841540       0.00000000 </v>
   <v>      -0.01630857       0.02306380       0.02824726 </v>
   <v>      -0.01630857       0.02306380      -0.02824726 </v>
   <v>      -0.00122443      -0.00086580       0.00212077 </v>
   <v>      -0.03261713      -0.02306380      -0.00000000 </v>
   <v>      -0.00122443      -0.00086580      -0.00212077 </v>
  </varray>
  <varray name="stress" >
   <v>       0.76817364      -0.00000013       0.00000000 </v>
   <v>      -0.00000013       0.76817415       0.00000000 </v>
   <v>       0.00000000       0.00000000       0.76817355 </v>
  </varray>
  <energy>
   <i name="e_fr_energy">   -140.68653701 </i>
   <i name="e_wo_entrp">   -140.67638302 </i>
   <i name="e_0_energy">   -140.68315235 </i>
  </energy>
  <time name="totalsc">   47.29   43.70</time>
 </calculation>
 <calculation>
  <scstep>
   <time name="dav">    2.03    2.03</time>
   <time name="total">    2.83    2.71</time>
   <energy>
    <i name="alphaZ">   1189.72506347 </i>
    <i name="ewald"> -23941.14967405 </i>
    <i name="hartreedc">  -6174.88651212 </i>
    <i name="XCdc">    797.96019761 </i>
    <i name="pawpsdc">  29651.51882847 </i>
    <i name="pawaedc"> -31434.89954129 </i>
    <i name="eentropy">     -0.01033092 </i>
    <i name="bandstr">   1751.61151948 </i>
    <i name="atom">  28019.44390446 </i>
    <i name="e_fr_energy">   -140.68654489 </i>
    <i name="e_wo_entrp">   -140.67621397 </i>
    <i name="e_0_energy">   -140.68310125 </i>
   </energy>
  </scstep>
  <scstep>
   <time name="dav">    2.26    2.26</time>
   <time name="total">    3.02    2.93</time>
   <energy>
    <i name="e_fr_energy">   -140.68655202 </i>
    <i name="e_wo_entrp">   -140.67660690 </i>
    <i name="e_0_energy">   -140.68323698 </i>
   </energy>
  </scstep>
  <scstep>
   <time name="dav">    2.04    2.04</time>
   <time name="total">    2.76    2.74</time>
   <energy>
    <i name="e_fr_energy">   -140.68654667 </i>
    <i name="e_wo_entrp">   -140.67615383 </i>
    <i name="e_0_energy">   -140.68308239 </i>
   </energy>
  </scstep>
  <scstep>
   <time name="dav">    1.97    1.97</time>
   <time name="total">    2.70    2.63</time>
   <energy>
    <i name="e_fr_energy">   -140.68653925 </i>
    <i name="e_wo_entrp">   -140.67630592 </i>
    <i name="e_0_energy">   -140.68312814 </i>
   </energy>
  </scstep>
  <scstep>
   <time name="dav">    1.25    1.25</time>
   <time name="total">    1.58    1.49</time>
   <energy>
    <i name="alphaZ">   1189.72506347 </i>
    <i name="ewald"> -23941.14967405 </i>
    <i name="hartreedc">  -6175.10584214 </i>
    <i name="XCdc">    797.97190683 </i>
    <i name="pawpsdc">  29651.36957809 </i>
    <i name="pawaedc"> -31434.76158525 </i>
    <i name="eentropy">     -0.01025222 </i>
    <i name="bandstr">   1751.83036148 </i>
    <i name="atom">  28019.44390446 </i>
    <i name="e_fr_energy">   -140.68653933 </i>
    <i name="e_wo_entrp">   -140.67628711 </i>
    <i name="e_0_energy">   -140.68312193 </i>
   </energy>
  </scstep>
  <structure>
   <crystal>
    <varray name="basis" >
     <v>       6.43266068      -0.00000001       3.71389820 </v>
     <v>       2.14421921       6.06477269       3.71389820 </v>
     <v>       0.00000000       0.00000000       7.42779636 </v>
    </varray>
    <i name="volume">    289.77783300 </i>
    <varray name="rec_basis" >
     <v>       0.15545667      -0.05496219      -0.00000000 </v>
     <v>       0.00000000       0.16488664      -0.00000000 </v>
     <v>      -0.07772833      -0.05496223       0.13462943 </v>
    </varray>
   </crystal>
   <varray name="positions" >
    <v>      -0.00000000      -0.00000000       0.32959985 </v>
    <v>       0.00000000       0.00000000       0.67040015 </v>
    <v>       0.00000000       0.32959985       0.00000000 </v>
    <v>       0.00019392       0.33326869       0.33326869 </v>
    <v>       0.00000000       0.32959985       0.67040015 </v>
    <v>      -0.00000000       0.67040015      -0.00000000 </v>
    <v>      -0.00000000       0.67040015       0.32959985 </v>
    <v>      -0.00019392       0.66673131       0.66673131 </v>
    <v>       0.32959985       0.00000000      -0.00000000 </v>
    <v>       0.33326869       0.00019392       0.33326869 </v>
    <v>       0.32959985       0.00000000       0.67040015 </v>
    <v>       0.33326869       0.33326869       0.00019392 </v>
    <v>       0.33326869       0.33326869       0.33326869 </v>
    <v>       0.33213290       0.33213290       0.66786710 </v>
    <v>       0.32959985       0.67040015      -0.00000000 </v>
    <v>       0.33213290       0.66786710       0.33213290 </v>
    <v>       0.33213290       0.66786710       0.66786710 </v>
    <v>       0.67040015      -0.00000000       0.00000000 </v>
    <v>       0.67040015      -0.00000000       0.32959985 </v>
    <v>       0.66673131      -0.00019392       0.66673131 </v>
    <v>       0.67040015       0.32959985       0.00000000 </v>
    <v>       0.66786710       0.33213290       0.33213290 </v>
    <v>       0.66786710       0.33213290       0.66786710 </v>
    <v>       0.66673131       0.66673131      -0.00019392 </v>
    <v>       0.66786710       0.66786710       0.33213290 </v>
    <v>       0.66673131       0.66673131       0.66673131 </v>
   </varray>
  </structure>
  <varray name="forces" >
   <v>      -0.00000000      -0.00000000      -0.01226683 </v>
   <v>       0.00000000       0.00000000       0.01226683 </v>
   <v>      -0.00354113      -0.01001583      -0.00613341 </v>
   <v>      -0.00235063       0.00083107      -0.00000000 </v>
   <v>      -0.00354113      -0.01001583       0.00613341 </v>
   <v>       0.00354113       0.01001583       0.00613341 </v>
   <v>       0.00354113       0.01001583      -0.00613341 </v>
   <v>       0.00235063      -0.00083107       0.00000000 </v>
   <v>      -0.01062338       0.00000000      -0.00613341 </v>
   <v>       0.00000000      -0.00249322      -0.00000000 </v>
   <v>      -0.01062338       0.00000000       0.00613341 </v>
   <v>       0.00117532       0.00083107      -0.00203571 </v>
   <v>       0.00117532       0.00083107       0.00203571 </v>
   <v>       0.03149755       0.02227214       0.00000000 </v>
   <v>      -0.00708226       0.01001583       0.00000000 </v>
   <v>       0.01574878      -0.02227214       0.02727768 </v>
   <v>       0.01574878      -0.02227214      -0.02727768 </v>
   <v>       0.01062338      -0.00000000       0.00613341 </v>
   <v>       0.01062338      -0.00000000      -0.00613341 </v>
   <v>      -0.00000000       0.00249322       0.00000000 </v>
   <v>       0.00708226      -0.01001583       0.00000000 </v>
   <v>      -0.01574878       0.02227214       0.02727768 </v>
   <v>      -0.01574878       0.02227214      -0.02727768 </v>
   <v>      -0.00117532      -0.00083107       0.00203571 </v>
   <v>      -0.03149755      -0.02227214      -0.00000000 </v>
   <v>      -0.00117532      -0.00083107      -0.00203571 </v>
  </varray>
  <varray name="stress" >
   <v>       0.48687592      -0.00000008       0.00000000 </v>
   <v>      -0.00000008       0.48687625       0.00000000 </v>
   <v>       0.00000000       0.00000000       0.48687587 </v>
  </varray>
  <energy>
   <i name="e_fr_energy">   -140.68653933 </i>
   <i name="e_wo_entrp">   -140.67628711 </i>
   <i name="e_0_energy">   -140.68312193 </i>
  </energy>
  <time name="totalsc">   28.70   25.38</time>
 </calculation>
 <calculation>
  <scstep>
   <time name="dav">    2.00    2.00</time>
   <time name="total">    2.80    2.66</time>
   <energy>
    <i name="alphaZ">   1189.74331009 </i>
    <i name="ewald"> -23941.38541066 </i>
    <i name="hartreedc">  -6175.02617262 </i>
    <i name="XCdc">    797.97788330 </i>
    <i name="pawpsdc">  29651.34621273 </i>
    <i name="pawaedc"> -31434.72086936 </i>
    <i name="eentropy">     -0.01016030 </i>
    <i name="bandstr">   1751.94476414 </i>
    <i name="atom">  28019.44390446 </i>
    <i name="e_fr_energy">   -140.68653821 </i>
    <i name="e_wo_entrp">   -140.67637791 </i>
    <i name="e_0_energy">   -140.68315144 </i>
   </energy>
  </scstep>
  <scstep>
   <time name="dav">    2.05    2.05</time>
   <time name="total">    2.82    2.72</time>
   <energy>
    <i name="e_fr_energy">   -140.68654211 </i>
    <i name="e_wo_entrp">   -140.67618819 </i>
    <i name="e_0_energy">   -140.68309080 </i>
   </energy>
  </scstep>
  <scstep>
   <time name="dav">    1.84    1.84</time>
   <time name="total">    2.60    2.52</time>
   <energy>
    <i name="e_fr_energy">   -140.68653876 </i>
    <i name="e_wo_entrp">   -140.67636761 </i>
    <i name="e_0_energy">   -140.68314838 </i>
   </energy>
  </scstep>
  <scstep>
   <time name="dav">    1.24    1.23</time>
   <time name="total">    1.58    1.45</time>
   <energy>
    <i name="alphaZ">   1189.74331009 </i>
    <i name="ewald"> -23941.38541066 </i>
    <i name="hartreedc">  -6174.95703654 </i>
    <i name="XCdc">    797.97433472 </i>
    <i name="pawpsdc">  29651.42114872 </i>
    <i name="pawaedc"> -31434.78825622 </i>
    <i name="eentropy">     -0.01019391 </i>
    <i name="bandstr">   1751.87166076 </i>
    <i name="atom">  28019.44390446 </i>
    <i name="e_fr_energy">   -140.68653856 </i>
    <i name="e_wo_entrp">   -140.67634465 </i>
    <i name="e_0_energy">   -140.68314059 </i>
   </energy>
  </scstep>
  <structure>
   <crystal>
    <varray name="basis" >
     <v>       6.43262780      -0.00000001       3.71387921 </v>
     <v>       2.14420825       6.06474169       3.71387921 </v>
     <v>       0.00000000       0.00000000       7.42775839 </v>
    </varray>
    <i name="volume">    289.77338879 </i>
    <varray name="rec_basis" >
     <v>       0.15545746      -0.05496247      -0.00000000 </v>
     <v>       0.00000000       0.16488748      -0.00000000 </v>
     <v>      -0.07772873      -0.05496251       0.13463012 </v>
    </varray>
   </crystal>
   <varray name="positions" >
    <v>      -0.00000000      -0.00000000       0.32959163 </v>
    <v>       0.00000000       0.00000000       0.67040837 </v>
    <v>       0.00000000       0.32959163       0.00000000 </v>
    <v>       0.00019437       0.33326854       0.33326854 </v>
    <v>       0.00000000       0.32959163       0.67040837 </v>
    <v>      -0.00000000       0.67040837      -0.00000000 </v>
    <v>      -0.00000000       0.67040837       0.32959163 </v>
    <v>      -0.00019437       0.66673146       0.66673146 </v>
    <v>       0.32959163       0.00000000      -0.00000000 </v>
    <v>       0.33326854       0.00019437       0.33326854 </v>
    <v>       0.32959163       0.00000000       0.67040837 </v>
    <v>       0.33326854       0.33326854       0.00019437 </v>
    <v>       0.33326854       0.33326854       0.33326854 </v>
    <v>       0.33213018       0.33213018       0.66786982 </v>
    <v>       0.32959163       0.67040837      -0.00000000 </v>
    <v>       0.33213018       0.66786982       0.33213018 </v>
    <v>       0.33213018       0.66786982       0.66786982 </v>
    <v>       0.67040837      -0.00000000       0.00000000 </v>
    <v>       0.67040837      -0.00000000       0.32959163 </v>
    <v>       0.66673146      -0.00019437       0.66673146 </v>
    <v>       0.67040837       0.32959163       0.00000000 </v>
    <v>       0.66786982       0.33213018       0.33213018 </v>
    <v>       0.66786982       0.33213018       0.66786982 </v>
    <v>       0.66673146       0.66673146      -0.00019437 </v>
    <v>       0.66786982       0.66786982       0.33213018 </v>
    <v>       0.66673146       0.66673146       0.66673146 </v>
   </varray>
  </structure>
  <varray name="forces" >
   <v>      -0.00000000      -0.00000000      -0.01067377 </v>
   <v>       0.00000000       0.00000000       0.01067377 </v>
   <v>      -0.00308125      -0.00871510      -0.00533689 </v>
   <v>      -0.00250015       0.00088394      -0.00000000 </v>
   <v>      -0.00308125      -0.00871510       0.00533689 </v>
   <v>       0.00308125       0.00871510       0.00533689 </v>
   <v>       0.00308125       0.00871510      -0.00533689 </v>
   <v>       0.00250015      -0.00088394       0.00000000 </v>
   <v>      -0.00924376       0.00000000      -0.00533689 </v>
   <v>       0.00000000      -0.00265181      -0.00000000 </v>
   <v>      -0.00924376       0.00000000       0.00533689 </v>
   <v>       0.00125007       0.00088394      -0.00216519 </v>
   <v>       0.00125007       0.00088394       0.00216519 </v>
   <v>       0.03244175       0.02293979       0.00000000 </v>
   <v>      -0.00616251       0.00871510       0.00000000 </v>
   <v>       0.01622088      -0.02293979       0.02809538 </v>
   <v>       0.01622088      -0.02293979      -0.02809538 </v>
   <v>       0.00924376      -0.00000000       0.00533689 </v>
   <v>       0.00924376      -0.00000000      -0.00533689 </v>
   <v>      -0.00000000       0.00265181       0.00000000 </v>
   <v>       0.00616251      -0.00871510       0.00000000 </v>
   <v>      -0.01622088       0.02293979       0.02809538 </v>
   <v>      -0.01622088       0.02293979      -0.02809538 </v>
   <v>      -0.00125007      -0.00088394       0.00216519 </v>
   <v>      -0.03244175      -0.02293979      -0.00000000 </v>
   <v>      -0.00125007      -0.00088394      -0.00216519 </v>
  </varray>
  <varray name="stress" >
   <v>       0.94004921      -0.00000016       0.00000000 </v>
   <v>      -0.00000016       0.94004985       0.00000000 </v>
   <v>       0.00000000       0.00000000       0.94004911 </v>
  </varray>
  <energy>
   <i name="e_fr_energy">   -140.68653856 </i>
   <i name="e_wo_entrp">   -140.67634465 </i>
   <i name="e_0_energy">   -140.68314059 </i>
  </energy>
  <time name="totalsc">   25.90   22.51</time>
 </calculation>
 <calculation>
  <scstep>
   <time name="dav">    2.02    2.02</time>
   <time name="total">    2.74    2.70</time>
   <energy>
    <i name="alphaZ">   1189.73183132 </i>
    <i name="ewald"> -23941.23711848 </i>
    <i name="hartreedc">  -6175.00742435 </i>
    <i name="XCdc">    797.97063335 </i>
    <i name="pawpsdc">  29651.42450362 </i>
    <i name="pawaedc"> -31434.79248252 </i>
    <i name="eentropy">     -0.01024280 </i>
    <i name="bandstr">   1751.78985596 </i>
    <i name="atom">  28019.44390446 </i>
    <i name="e_fr_energy">   -140.68653944 </i>
    <i name="e_wo_entrp">   -140.67629663 </i>
    <i name="e_0_energy">   -140.68312517 </i>
   </energy>
  </scstep>
  <scstep>
   <time name="dav">    1.51    1.51</time>
   <time name="total">    1.83    1.74</time>
   <energy>
    <i name="alphaZ">   1189.73183132 </i>
    <i name="ewald"> -23941.23711848 </i>
    <i name="hartreedc">  -6175.08076093 </i>
    <i name="XCdc">    797.97427416 </i>
    <i name="pawpsdc">  29651.40008247 </i>
    <i name="pawaedc"> -31434.78523852 </i>
    <i name="eentropy">     -0.01016686 </i>
    <i name="bandstr">   1751.87665321 </i>
    <i name="atom">  28019.44390446 </i>
    <i name="e_fr_energy">   -140.68653917 </i>
    <i name="e_wo_entrp">   -140.67637231 </i>
    <i name="e_0_energy">   -140.68315022 </i>
   </energy>
  </scstep>
  <structure>
   <crystal>
    <varray name="basis" >
     <v>       6.43264849      -0.00000001       3.71389115 </v>
     <v>       2.14421515       6.06476119       3.71389115 </v>
     <v>       0.00000000       0.00000000       7.42778228 </v>
    </varray>
    <i name="volume">    289.77618459 </i>
    <varray name="rec_basis" >
     <v>       0.15545696      -0.05496229      -0.00000000 </v>
     <v>       0.00000000       0.16488695      -0.00000000 </v>
     <v>      -0.07772848      -0.05496233       0.13462969 </v>
    </varray>
   </crystal>
   <varray name="positions" >
    <v>      -0.00000000      -0.00000000       0.32959680 </v>
    <v>       0.00000000       0.00000000       0.67040320 </v>
    <v>       0.00000000       0.32959680       0.00000000 </v>
    <v>       0.00019408       0.33326864       0.33326864 </v>
    <v>       0.00000000       0.32959680       0.67040320 </v>
    <v>      -0.00000000       0.67040320      -0.00000000 </v>
    <v>      -0.00000000       0.67040320       0.32959680 </v>
    <v>      -0.00019408       0.66673136       0.66673136 </v>
    <v>       0.32959680       0.00000000      -0.00000000 </v>
    <v>       0.33326864       0.00019408       0.33326864 </v>
    <v>       0.32959680       0.00000000       0.67040320 </v>
    <v>       0.33326864       0.33326864       0.00019408 </v>
    <v>       0.33326864       0.33326864       0.33326864 </v>
    <v>       0.33213189       0.33213189       0.66786811 </v>
    <v>       0.32959680       0.67040320      -0.00000000 </v>
    <v>       0.33213189       0.66786811       0.33213189 </v>
    <v>       0.33213189       0.66786811       0.66786811 </v>
    <v>       0.67040320      -0.00000000       0.00000000 </v>
    <v>       0.67040320      -0.00000000       0.32959680 </v>
    <v>       0.66673136      -0.00019408       0.66673136 </v>
    <v>       0.67040320       0.32959680       0.00000000 </v>
    <v>       0.66786811       0.33213189       0.33213189 </v>
    <v>       0.66786811       0.33213189       0.66786811 </v>
    <v>       0.66673136       0.66673136      -0.00019408 </v>
    <v>       0.66786811       0.66786811       0.33213189 </v>
    <v>       0.66673136       0.66673136       0.66673136 </v>
   </varray>
  </structure>
  <varray name="forces" >
   <v>      -0.00000000      -0.00000000      -0.01204245 </v>
   <v>       0.00000000       0.00000000       0.01204245 </v>
   <v>      -0.00347635      -0.00983262      -0.00602123 </v>
   <v>      -0.00233306       0.00082486      -0.00000000 </v>
   <v>      -0.00347635      -0.00983262       0.00602123 </v>
   <v>       0.00347635       0.00983262       0.00602123 </v>
   <v>       0.00347635       0.00983262      -0.00602123 </v>
   <v>       0.00233306      -0.00082486       0.00000000 </v>
   <v>      -0.01042907       0.00000000      -0.00602123 </v>
   <v>       0.00000000      -0.00247458      -0.00000000 </v>
   <v>      -0.01042907       0.00000000       0.00602123 </v>
   <v>       0.00116653       0.00082486      -0.00202049 </v>
   <v>       0.00116653       0.00082486       0.00202049 </v>
   <v>       0.03157290       0.02232542       0.00000000 </v>
   <v>      -0.00695271       0.00983262      -0.00000000 </v>
   <v>       0.01578645      -0.02232542       0.02734293 </v>
   <v>       0.01578645      -0.02232542      -0.02734293 </v>
   <v>       0.01042907      -0.00000000       0.00602123 </v>
   <v>       0.01042907      -0.00000000      -0.00602123 </v>
   <v>      -0.00000000       0.00247458       0.00000000 </v>
   <v>       0.00695271      -0.00983262      -0.00000000 </v>
   <v>      -0.01578645       0.02232542       0.02734293 </v>
   <v>      -0.01578645       0.02232542      -0.02734293 </v>
   <v>      -0.00116653      -0.00082486       0.00202049 </v>
   <v>      -0.03157290      -0.02232542      -0.00000000 </v>
   <v>      -0.00116653      -0.00082486      -0.00202049 </v>
  </varray>
  <varray name="stress" >
   <v>       0.25207313      -0.00000004       0.00000000 </v>
   <v>      -0.00000004       0.25207330       0.00000000 </v>
   <v>       0.00000000       0.00000000       0.25207311 </v>
  </varray>
  <energy>
   <i name="e_fr_energy">   -140.68653917 </i>
   <i name="e_wo_entrp">   -140.67637231 </i>
   <i name="e_0_energy">   -140.68315022 </i>
  </energy>
  <time name="totalsc">   19.98   17.43</time>
 </calculation>
 <calculation>
  <scstep>
   <time name="dav">    2.56    2.56</time>
   <time name="total">    3.36    3.26</time>
   <energy>
    <i name="alphaZ">   1189.73757069 </i>
    <i name="ewald"> -23941.31126753 </i>
    <i name="hartreedc">  -6175.04794167 </i>
    <i name="XCdc">    797.97581715 </i>
    <i name="pawpsdc">  29651.38365165 </i>
    <i name="pawaedc"> -31434.76582735 </i>
    <i name="eentropy">     -0.01025530 </i>
    <i name="bandstr">   1751.90780857 </i>
    <i name="atom">  28019.44390446 </i>
    <i name="e_fr_energy">   -140.68653932 </i>
    <i name="e_wo_entrp">   -140.67628402 </i>
    <i name="e_0_energy">   -140.68312089 </i>
   </energy>
  </scstep>
  <scstep>
   <time name="dav">    2.10    2.10</time>
   <time name="total">    2.82    2.76</time>
   <energy>
    <i name="e_fr_energy">   -140.68658052 </i>
    <i name="e_wo_entrp">   -140.67686137 </i>
    <i name="e_0_energy">   -140.68334080 </i>
   </energy>
  </scstep>
  <scstep>
   <time name="dav">    2.03    2.03</time>
   <time name="total">    2.83    2.71</time>
   <energy>
    <i name="e_fr_energy">   -140.68653896 </i>
    <i name="e_wo_entrp">   -140.67632590 </i>
    <i name="e_0_energy">   -140.68313460 </i>
   </energy>
  </scstep>
  <scstep>
   <time name="dav">    1.31    1.31</time>
   <time name="total">    1.65    1.55</time>
   <energy>
    <i name="alphaZ">   1189.73757069 </i>
    <i name="ewald"> -23941.31126753 </i>
    <i name="hartreedc">  -6175.00184298 </i>
    <i name="XCdc">    797.97355812 </i>
    <i name="pawpsdc">  29651.37950021 </i>
    <i name="pawaedc"> -31434.74970154 </i>
    <i name="eentropy">     -0.01021639 </i>
    <i name="bandstr">   1751.85195577 </i>
    <i name="atom">  28019.44390446 </i>
    <i name="e_fr_energy">   -140.68653917 </i>
    <i name="e_wo_entrp">   -140.67632279 </i>
    <i name="e_0_energy">   -140.68313371 </i>
   </energy>
  </scstep>
  <structure>
   <crystal>
    <varray name="basis" >
     <v>       6.43263814      -0.00000001       3.71388518 </v>
     <v>       2.14421170       6.06475144       3.71388518 </v>
     <v>       0.00000000       0.00000000       7.42777033 </v>
    </varray>
    <i name="volume">    289.77478669 </i>
    <varray name="rec_basis" >
     <v>       0.15545721      -0.05496238      -0.00000000 </v>
     <v>       0.00000000       0.16488722      -0.00000000 </v>
     <v>      -0.07772861      -0.05496242       0.13462990 </v>
    </varray>
   </crystal>
   <varray name="positions" >
    <v>      -0.00000000      -0.00000000       0.32959422 </v>
    <v>       0.00000000       0.00000000       0.67040578 </v>
    <v>       0.00000000       0.32959422       0.00000000 </v>
    <v>       0.00019423       0.33326859       0.33326859 </v>
    <v>       0.00000000       0.32959422       0.67040578 </v>
    <v>      -0.00000000       0.67040578      -0.00000000 </v>
    <v>      -0.00000000       0.67040578       0.32959422 </v>
    <v>      -0.00019423       0.66673141       0.66673141 </v>
    <v>       0.32959422       0.00000000      -0.00000000 </v>
    <v>       0.33326859       0.00019423       0.33326859 </v>
    <v>       0.32959422       0.00000000       0.67040578 </v>
    <v>       0.33326859       0.33326859       0.00019423 </v>
    <v>       0.33326859       0.33326859       0.33326859 </v>
    <v>       0.33213104       0.33213104       0.66786896 </v>
    <v>       0.32959422       0.67040578      -0.00000000 </v>
    <v>       0.33213104       0.66786896       0.33213104 </v>
    <v>       0.33213104       0.66786896       0.66786896 </v>
    <v>       0.67040578      -0.00000000       0.00000000 </v>
    <v>       0.67040578      -0.00000000       0.32959422 </v>
    <v>       0.66673141      -0.00019423       0.66673141 </v>
    <v>       0.67040578       0.32959422       0.00000000 </v>
    <v>       0.66786896       0.33213104       0.33213104 </v>
    <v>       0.66786896       0.33213104       0.66786896 </v>
    <v>       0.66673141       0.66673141      -0.00019423 </v>
    <v>       0.66786896       0.66786896       0.33213104 </v>
    <v>       0.66673141       0.66673141       0.66673141 </v>
   </varray>
  </structure>
  <varray name="forces" >
   <v>      -0.00000000      -0.00000000      -0.01104877 </v>
   <v>       0.00000000       0.00000000       0.01104877 </v>
   <v>      -0.00318950      -0.00902129      -0.00552439 </v>
   <v>      -0.00253111       0.00089488      -0.00000000 </v>
   <v>      -0.00318950      -0.00902129       0.00552439 </v>
   <v>       0.00318950       0.00902129       0.00552439 </v>
   <v>       0.00318950       0.00902129      -0.00552439 </v>
   <v>       0.00253111      -0.00089488       0.00000000 </v>
   <v>      -0.00956852       0.00000000      -0.00552439 </v>
   <v>       0.00000000      -0.00268464      -0.00000000 </v>
   <v>      -0.00956852       0.00000000       0.00552439 </v>
   <v>       0.00126555       0.00089488      -0.00219200 </v>
   <v>       0.00126555       0.00089488       0.00219200 </v>
   <v>       0.03229248       0.02283424       0.00000000 </v>
   <v>      -0.00637901       0.00902129       0.00000000 </v>
   <v>       0.01614624      -0.02283424       0.02796611 </v>
   <v>       0.01614624      -0.02283424      -0.02796611 </v>
   <v>       0.00956852      -0.00000000       0.00552439 </v>
   <v>       0.00956852      -0.00000000      -0.00552439 </v>
   <v>      -0.00000000       0.00268464       0.00000000 </v>
   <v>       0.00637901      -0.00902129       0.00000000 </v>
   <v>      -0.01614624       0.02283424       0.02796611 </v>
   <v>      -0.01614624       0.02283424      -0.02796611 </v>
   <v>      -0.00126555      -0.00089488       0.00219200 </v>
   <v>      -0.03229248      -0.02283424      -0.00000000 </v>
   <v>      -0.00126555      -0.00089488      -0.00219200 </v>
  </varray>
  <varray name="stress" >
   <v>       0.92237988      -0.00000016       0.00000000 </v>
   <v>      -0.00000016       0.92238051       0.00000000 </v>
   <v>       0.00000000       0.00000000       0.92237979 </v>
  </varray>
  <energy>
   <i name="e_fr_energy">   -140.68653917 </i>
   <i name="e_wo_entrp">   -140.67632279 </i>
   <i name="e_0_energy">   -140.68313371 </i>
  </energy>
  <time name="totalsc">   26.57   23.37</time>
 </calculation>
 <calculation>
  <scstep>
   <time name="dav">    1.81    1.81</time>
   <time name="total">    2.57    2.49</time>
   <energy>
    <i name="alphaZ">   1189.73485566 </i>
    <i name="ewald"> -23941.27619182 </i>
    <i name="hartreedc">  -6175.01851210 </i>
    <i name="XCdc">    797.97289134 </i>
    <i name="pawpsdc">  29651.39051512 </i>
    <i name="pawaedc"> -31434.76249646 </i>
    <i name="eentropy">     -0.01022069 </i>
    <i name="bandstr">   1751.83871557 </i>
    <i name="atom">  28019.44390446 </i>
    <i name="e_fr_energy">   -140.68653892 </i>
    <i name="e_wo_entrp">   -140.67631822 </i>
    <i name="e_0_energy">   -140.68313202 </i>
   </energy>
  </scstep>
  <scstep>
   <time name="dav">    1.21    1.21</time>
   <time name="total">    1.46    1.42</time>
   <energy>
    <i name="alphaZ">   1189.73485566 </i>
    <i name="ewald"> -23941.27619182 </i>
    <i name="hartreedc">  -6175.03576793 </i>
    <i name="XCdc">    797.97375646 </i>
    <i name="pawpsdc">  29651.38906926 </i>
    <i name="pawaedc"> -31434.76427611 </i>
    <i name="eentropy">     -0.01019778 </i>
    <i name="bandstr">   1751.85830892 </i>
    <i name="atom">  28019.44390446 </i>
    <i name="e_fr_energy">   -140.68653887 </i>
    <i name="e_wo_entrp">   -140.67634110 </i>
    <i name="e_0_energy">   -140.68313962 </i>
   </energy>
  </scstep>
  <structure>
   <crystal>
    <varray name="basis" >
     <v>       6.43264303      -0.00000001       3.71388801 </v>
     <v>       2.14421333       6.06475605       3.71388801 </v>
     <v>       0.00000000       0.00000000       7.42777598 </v>
    </varray>
    <i name="volume">    289.77544797 </i>
    <varray name="rec_basis" >
     <v>       0.15545710      -0.05496234      -0.00000000 </v>
     <v>       0.00000000       0.16488709      -0.00000000 </v>
     <v>      -0.07772855      -0.05496238       0.13462980 </v>
    </varray>
   </crystal>
   <varray name="positions" >
    <v>      -0.00000000      -0.00000000       0.32959544 </v>
    <v>       0.00000000       0.00000000       0.67040456 </v>
    <v>       0.00000000       0.32959544       0.00000000 </v>
    <v>       0.00019416       0.33326861       0.33326861 </v>
    <v>       0.00000000       0.32959544       0.67040456 </v>
    <v>      -0.00000000       0.67040456      -0.00000000 </v>
    <v>      -0.00000000       0.67040456       0.32959544 </v>
    <v>      -0.00019416       0.66673139       0.66673139 </v>
    <v>       0.32959544       0.00000000      -0.00000000 </v>
    <v>       0.33326861       0.00019416       0.33326861 </v>
    <v>       0.32959544       0.00000000       0.67040456 </v>
    <v>       0.33326861       0.33326861       0.00019416 </v>
    <v>       0.33326861       0.33326861       0.33326861 </v>
    <v>       0.33213144       0.33213144       0.66786856 </v>
    <v>       0.32959544       0.67040456      -0.00000000 </v>
    <v>       0.33213144       0.66786856       0.33213144 </v>
    <v>       0.33213144       0.66786856       0.66786856 </v>
    <v>       0.67040456      -0.00000000       0.00000000 </v>
    <v>       0.67040456      -0.00000000       0.32959544 </v>
    <v>       0.66673139      -0.00019416       0.66673139 </v>
    <v>       0.67040456       0.32959544       0.00000000 </v>
    <v>       0.66786856       0.33213144       0.33213144 </v>
    <v>       0.66786856       0.33213144       0.66786856 </v>
    <v>       0.66673139       0.66673139      -0.00019416 </v>
    <v>       0.66786856       0.66786856       0.33213144 </v>
    <v>       0.66673139       0.66673139       0.66673139 </v>
   </varray>
  </structure>
  <varray name="forces" >
   <v>      -0.00000000      -0.00000000      -0.01227706 </v>
   <v>       0.00000000       0.00000000       0.01227706 </v>
   <v>      -0.00354408      -0.01002418      -0.00613853 </v>
   <v>      -0.00237096       0.00083826      -0.00000000 </v>
   <v>      -0.00354408      -0.01002418       0.00613853 </v>
   <v>       0.00354408       0.01002418       0.00613853 </v>
   <v>       0.00354408       0.01002418      -0.00613853 </v>
   <v>       0.00237096      -0.00083826       0.00000000 </v>
   <v>      -0.01063225       0.00000000      -0.00613853 </v>
   <v>       0.00000000      -0.00251479      -0.00000000 </v>
   <v>      -0.01063225       0.00000000       0.00613853 </v>
   <v>       0.00118548       0.00083826      -0.00205331 </v>
   <v>       0.00118548       0.00083826       0.00205331 </v>
   <v>       0.03153970       0.02230195       0.00000000 </v>
   <v>      -0.00708817       0.01002418      -0.00000000 </v>
   <v>       0.01576986      -0.02230195       0.02731418 </v>
   <v>       0.01576986      -0.02230195      -0.02731418 </v>
   <v>       0.01063225      -0.00000000       0.00613853 </v>
   <v>       0.01063225      -0.00000000      -0.00613853 </v>
   <v>      -0.00000000       0.00251479       0.00000000 </v>
   <v>       0.00708817      -0.01002418      -0.00000000 </v>
   <v>      -0.01576986       0.02230195       0.02731418 </v>
   <v>      -0.01576986       0.02230195      -0.02731418 </v>
   <v>      -0.00118548      -0.00083826       0.00205331 </v>
   <v>      -0.03153970      -0.02230195      -0.00000000 </v>
   <v>      -0.00118548      -0.00083826      -0.00205331 </v>
  </varray>
  <varray name="stress" >
   <v>       0.68547117      -0.00000012       0.00000000 </v>
   <v>      -0.00000012       0.68547163       0.00000000 </v>
   <v>       0.00000000       0.00000000       0.68547110 </v>
  </varray>
  <energy>
   <i name="e_fr_energy">   -140.68653887 </i>
   <i name="e_wo_entrp">   -140.67634110 </i>
   <i name="e_0_energy">   -140.68313962 </i>
  </energy>
  <time name="totalsc">   19.96   17.10</time>
 </calculation>
 <calculation>
  <scstep>
   <time name="dav">    2.12    2.12</time>
   <time name="total">    2.83    2.82</time>
   <energy>
    <i name="alphaZ">   1188.96134755 </i>
    <i name="ewald"> -23937.37957165 </i>
    <i name="hartreedc">  -6172.45964489 </i>
    <i name="XCdc">    797.70657967 </i>
    <i name="pawpsdc">  29651.38725956 </i>
    <i name="pawaedc"> -31434.76211461 </i>
    <i name="eentropy">     -0.01147752 </i>
    <i name="bandstr">   1746.42503012 </i>
    <i name="atom">  28019.44390446 </i>
    <i name="e_fr_energy">   -140.68868731 </i>
    <i name="e_wo_entrp">   -140.67720978 </i>
    <i name="e_0_energy">   -140.68486147 </i>
   </energy>
  </scstep>
  <scstep>
   <time name="dav">    2.06    2.06</time>
   <time name="total">    2.76    2.71</time>
   <energy>
    <i name="e_fr_energy">   -140.68804280 </i>
    <i name="e_wo_entrp">   -140.68048913 </i>
    <i name="e_0_energy">   -140.68552491 </i>
   </energy>
  </scstep>
  <scstep>
   <time name="dav">    2.00    2.00</time>
   <time name="total">    2.70    2.70</time>
   <energy>
    <i name="e_fr_energy">   -140.69109914 </i>
    <i name="e_wo_entrp">   -140.67651273 </i>
    <i name="e_0_energy">   -140.68623700 </i>
   </energy>
  </scstep>
  <scstep>
   <time name="dav">    2.03    2.03</time>
   <time name="total">    2.73    2.70</time>
   <energy>
    <i name="e_fr_energy">   -140.68702218 </i>
    <i name="e_wo_entrp">   -140.67703696 </i>
    <i name="e_0_energy">   -140.68369378 </i>
   </energy>
  </scstep>
  <scstep>
   <time name="dav">    2.28    2.28</time>
   <time name="total">    3.08    2.96</time>
   <energy>
    <i name="e_fr_energy">   -140.68694009 </i>
    <i name="e_wo_entrp">   -140.67669221 </i>
    <i name="e_0_energy">   -140.68352413 </i>
   </energy>
  </scstep>
  <scstep>
   <time name="dav">    2.03    2.03</time>
   <time name="total">    2.85    2.70</time>
   <energy>
    <i name="e_fr_energy">   -140.68692432 </i>
    <i name="e_wo_entrp">   -140.67684960 </i>
    <i name="e_0_energy">   -140.68356608 </i>
   </energy>
  </scstep>
  <scstep>
   <time name="dav">    2.08    2.08</time>
   <time name="total">    2.88    2.77</time>
   <energy>
    <i name="e_fr_energy">   -140.68690629 </i>
    <i name="e_wo_entrp">   -140.67683002 </i>
    <i name="e_0_energy">   -140.68354753 </i>
   </energy>
  </scstep>
  <scstep>
   <time name="dav">    1.58    1.58</time>
   <time name="total">    2.39    2.28</time>
   <energy>
    <i name="e_fr_energy">   -140.68690731 </i>
    <i name="e_wo_entrp">   -140.67687032 </i>
    <i name="e_0_energy">   -140.68356165 </i>
   </energy>
  </scstep>
  <scstep>
   <time name="dav">    1.29    1.29</time>
   <time name="total">    2.06    1.95</time>
   <energy>
    <i name="e_fr_energy">   -140.68691010 </i>
    <i name="e_wo_entrp">   -140.67688150 </i>
    <i name="e_0_energy">   -140.68356723 </i>
   </energy>
  </scstep>
  <scstep>
   <time name="dav">    1.24    1.24</time>
   <time name="total">    2.03    1.92</time>
   <energy>
    <i name="e_fr_energy">   -140.68691134 </i>
    <i name="e_wo_entrp">   -140.67687357 </i>
    <i name="e_0_energy">   -140.68356542 </i>
   </energy>
  </scstep>
  <scstep>
   <time name="dav">    1.24    1.24</time>
   <time name="total">    1.57    1.46</time>
   <energy>
    <i name="alphaZ">   1188.96134755 </i>
    <i name="ewald"> -23937.37957165 </i>
    <i name="hartreedc">  -6176.40048995 </i>
    <i name="XCdc">    797.92724813 </i>
    <i name="pawpsdc">  29641.17411808 </i>
    <i name="pawaedc"> -31424.42739379 </i>
    <i name="eentropy">     -0.01003872 </i>
    <i name="bandstr">   1750.02396435 </i>
    <i name="atom">  28019.44390446 </i>
    <i name="e_fr_energy">   -140.68691153 </i>
    <i name="e_wo_entrp">   -140.67687281 </i>
    <i name="e_0_energy">   -140.68356529 </i>
   </energy>
  </scstep>
  <structure>
   <crystal>
    <varray name="basis" >
     <v>       6.43403770      -0.00000001       3.71469322 </v>
     <v>       2.14467822       6.06607096       3.71469322 </v>
     <v>       0.00000000       0.00000000       7.42938641 </v>
    </varray>
    <i name="volume">    289.96396853 </i>
    <varray name="rec_basis" >
     <v>       0.15542340      -0.05495042      -0.00000000 </v>
     <v>       0.00000000       0.16485135      -0.00000000 </v>
     <v>      -0.07771170      -0.05495046       0.13460062 </v>
    </varray>
   </crystal>
   <varray name="positions" >
    <v>      -0.00000000      -0.00000000       0.32946023 </v>
    <v>       0.00000000       0.00000000       0.67053977 </v>
    <v>       0.00000000       0.32946023       0.00000000 </v>
    <v>       0.00017535       0.33327488       0.33327488 </v>
    <v>       0.00000000       0.32946023       0.67053977 </v>
    <v>      -0.00000000       0.67053977      -0.00000000 </v>
    <v>      -0.00000000       0.67053977       0.32946023 </v>
    <v>      -0.00017535       0.66672512       0.66672512 </v>
    <v>       0.32946023       0.00000000      -0.00000000 </v>
    <v>       0.33327488       0.00017535       0.33327488 </v>
    <v>       0.32946023       0.00000000       0.67053977 </v>
    <v>       0.33327488       0.33327488       0.00017535 </v>
    <v>       0.33327488       0.33327488       0.33327488 </v>
    <v>       0.33230599       0.33230599       0.66769401 </v>
    <v>       0.32946023       0.67053977      -0.00000000 </v>
    <v>       0.33230599       0.66769401       0.33230599 </v>
    <v>       0.33230599       0.66769401       0.66769401 </v>
    <v>       0.67053977      -0.00000000       0.00000000 </v>
    <v>       0.67053977      -0.00000000       0.32946023 </v>
    <v>       0.66672512      -0.00017535       0.66672512 </v>
    <v>       0.67053977       0.32946023       0.00000000 </v>
    <v>       0.66769401       0.33230599       0.33230599 </v>
    <v>       0.66769401       0.33230599       0.66769401 </v>
    <v>       0.66672512       0.66672512      -0.00017535 </v>
    <v>       0.66769401       0.66769401       0.33230599 </v>
    <v>       0.66672512       0.66672512       0.66672512 </v>
   </varray>
  </structure>
  <varray name="forces" >
   <v>      -0.00000000      -0.00000000      -0.00048372 </v>
   <v>       0.00000000       0.00000000       0.00048372 </v>
   <v>      -0.00013964      -0.00039496      -0.00024186 </v>
   <v>       0.00077669      -0.00027460       0.00000000 </v>
   <v>      -0.00013964      -0.00039496       0.00024186 </v>
   <v>       0.00013964       0.00039496       0.00024186 </v>
   <v>       0.00013964       0.00039496      -0.00024186 </v>
   <v>      -0.00077669       0.00027460      -0.00000000 </v>
   <v>      -0.00041892       0.00000000      -0.00024186 </v>
   <v>      -0.00000000       0.00082380       0.00000000 </v>
   <v>      -0.00041892       0.00000000       0.00024186 </v>
   <v>      -0.00038834      -0.00027460       0.00067263 </v>
   <v>      -0.00038834      -0.00027460      -0.00067263 </v>
   <v>       0.01093074       0.00772920       0.00000000 </v>
   <v>      -0.00027928       0.00039496      -0.00000000 </v>
   <v>       0.00546537      -0.00772920       0.00946630 </v>
   <v>       0.00546537      -0.00772920      -0.00946630 </v>
   <v>       0.00041892      -0.00000000       0.00024186 </v>
   <v>       0.00041892      -0.00000000      -0.00024186 </v>
   <v>       0.00000000      -0.00082380      -0.00000000 </v>
   <v>       0.00027928      -0.00039496      -0.00000000 </v>
   <v>      -0.00546537       0.00772920       0.00946630 </v>
   <v>      -0.00546537       0.00772920      -0.00946630 </v>
   <v>       0.00038834       0.00027460      -0.00067263 </v>
   <v>      -0.01093074      -0.00772920      -0.00000000 </v>
   <v>       0.00038834       0.00027460       0.00067263 </v>
  </varray>
  <varray name="stress" >
   <v>      -0.56753705       0.00000010      -0.00000000 </v>
   <v>       0.00000010      -0.56753744      -0.00000000 </v>
   <v>      -0.00000000      -0.00000000      -0.56753699 </v>
  </varray>
  <energy>
   <i name="e_fr_energy">   -140.68691153 </i>
   <i name="e_wo_entrp">   -140.67687281 </i>
   <i name="e_0_energy">   -140.68356529 </i>
  </energy>
  <time name="totalsc">   39.45   36.05</time>
  <eigenvalues>
   <array>
    <dimension dim="1">band</dimension>
    <dimension dim="2">kpoint</dimension>
    <dimension dim="3">spin</dimension>
    <field>eigene</field>
    <field>occ</field>
    <set>
     <set comment="spin 1">
      <set comment="kpoint 1">
       <r>    0.1305    1.0000 </r>
       <r>    3.4149    1.0000 </r>
       <r>    3.4808    1.0000 </r>
       <r>    3.4808    1.0000 </r>
       <r>    3.4808    1.0000 </r>
       <r>    3.5368    1.0000 </r>
       <r>    3.5368    1.0000 </r>
       <r>    3.5368    1.0000 </r>
       <r>    3.7782    1.0000 </r>
       <r>    4.1476    1.0000 </r>
       <r>    4.1476    1.0000 </r>
       <r>    4.1476    1.0000 </r>
       <r>    4.2433    1.0000 </r>
       <r>    4.2433    1.0000 </r>
       <r>    4.6997    1.0000 </r>
       <r>    5.2291    1.0000 </r>
       <r>    5.2291    1.0000 </r>
       <r>    5.2490    1.0000 </r>
       <r>    5.2490    1.0000 </r>
       <r>    5.2490    1.0000 </r>
       <r>    5.2631    1.0000 </r>
       <r>    5.3086    1.0000 </r>
       <r>    5.3086    1.0000 </r>
       <r>    5.3086    1.0000 </r>
       <r>    5.3439    1.0000 </r>
       <r>    5.3439    1.0000 </r>
       <r>    5.3439    1.0000 </r>
       <r>    5.4085    1.0000 </r>
       <r>    5.4085    1.0000 </r>
       <r>    5.5498    1.0000 </r>
       <r>    5.5569    1.0000 </r>
       <r>    5.5569    1.0000 </r>
       <r>    5.5569    1.0000 </r>
       <r>    5.5728    1.0000 </r>
       <r>    5.5728    1.0000 </r>
       <r>    5.5728    1.0000 </r>
       <r>    5.6668    1.0000 </r>
       <r>    5.6878    1.0000 </r>
       <r>    5.6878    1.0000 </r>
       <r>    5.6878    1.0000 </r>
       <r>    5.7121    1.0000 </r>
       <r>    5.7121    1.0000 </r>
       <r>    5.7121    1.0000 </r>
       <r>    5.9442    1.0000 </r>
       <r>    5.9442    1.0000 </r>
       <r>    6.4013    1.0000 </r>
       <r>    6.4013    1.0000 </r>
       <r>    6.4013    1.0000 </r>
       <r>    6.4341    1.0000 </r>
       <r>    6.4547    1.0000 </r>
       <r>    6.4547    1.0000 </r>
       <r>    6.4986    1.0000 </r>
       <r>    6.4986    1.0000 </r>
       <r>    6.4986    1.0000 </r>
       <r>    6.5544    1.0000 </r>
       <r>    6.5544    1.0000 </r>
       <r>    6.5544    1.0000 </r>
       <r>    6.5721    1.0000 </r>
       <r>    6.5721    1.0000 </r>
       <r>    6.5721    1.0000 </r>
       <r>    6.6546    1.0000 </r>
       <r>    6.6546    1.0000 </r>
       <r>    6.6546    1.0000 </r>
       <r>    6.6672    1.0000 </r>
       <r>    6.7293    1.0000 </r>
       <r>    6.7293    1.0000 </r>
       <r>    6.7296    1.0000 </r>
       <r>    6.7296    1.0000 </r>
       <r>    6.7296    1.0000 </r>
       <r>    6.7410    1.0000 </r>
       <r>    6.7410    1.0000 </r>
       <r>    6.7410    1.0000 </r>
       <r>    6.7415    1.0000 </r>
       <r>    6.7415    1.0000 </r>
       <r>    6.7415    1.0000 </r>
       <r>    6.7476    1.0000 </r>
       <r>    6.9000    1.0000 </r>
       <r>    6.9000    1.0000 </r>
       <r>    6.9000    1.0000 </r>
       <r>    7.1118    1.0000 </r>
       <r>    7.1118    1.0000 </r>
       <r>    7.4987    1.0000 </r>
       <r>    7.4987    1.0000 </r>
       <r>    7.4987    1.0000 </r>
       <r>    7.5937    1.0000 </r>
       <r>    7.6459    1.0000 </r>
       <r>    7.6459    1.0000 </r>
       <r>    7.6459    1.0000 </r>
       <r>    7.6764    1.0000 </r>
       <r>    7.6764    1.0000 </r>
       <r>    7.6764    1.0000 </r>
       <r>    7.7045    1.0000 </r>
       <r>    7.7045    1.0000 </r>
       <r>    7.7045    1.0000 </r>
       <r>    7.7475    1.0000 </r>
       <r>    7.7475    1.0000 </r>
       <r>    7.8263    1.0000 </r>
       <r>    7.8263    1.0000 </r>
       <r>    7.9629    1.0000 </r>
       <r>    7.9629    1.0000 </r>
       <r>    7.9629    1.0000 </r>
       <r>    7.9736    1.0000 </r>
       <r>    7.9736    1.0000 </r>
       <r>    7.9736    1.0000 </r>
       <r>    7.9746    1.0000 </r>
       <r>    7.9746    1.0000 </r>
       <r>    7.9746    1.0000 </r>
       <r>    7.9942    1.0000 </r>
       <r>    7.9942    1.0000 </r>
       <r>    8.0032    1.0000 </r>
       <r>    8.0032    1.0000 </r>
       <r>    8.0032    1.0000 </r>
       <r>    8.0697    1.0000 </r>
       <r>    8.0697    1.0000 </r>
       <r>    8.0697    1.0000 </r>
       <r>    8.0850    1.0000 </r>
       <r>    8.0850    1.0000 </r>
       <r>    8.0973    1.0000 </r>
       <r>    8.0973    1.0000 </r>
       <r>    8.0973    1.0000 </r>
       <r>    8.1140    1.0000 </r>
       <r>    8.1140    1.0000 </r>
       <r>    8.1140    1.0000 </r>
       <r>    8.1146    1.0000 </r>
       <r>    8.1146    1.0000 </r>
       <r>    8.1146    1.0000 </r>
       <r>    8.1440    1.0000 </r>
       <r>    8.1440    1.0000 </r>
       <r>    8.1440    1.0000 </r>
       <r>    8.1445    1.0000 </r>
       <r>    8.1445    1.0000 </r>
       <r>    8.1619    1.0000 </r>
       <r>    8.1913    1.0000 </r>
       <r>    8.1944    1.0000 </r>
       <r>    8.1944    1.0000 </r>
       <r>    8.1944    1.0000 </r>
       <r>    8.2043    1.0000 </r>
       <r>    8.2043    1.0000 </r>
       <r>    8.2043    1.0000 </r>
       <r>    8.2194    1.0000 </r>
       <r>    8.2194    1.0000 </r>
       <r>    8.3078    1.0000 </r>
       <r>    8.3447    1.0000 </r>
       <r>    8.3447    1.0000 </r>
       <r>    8.3447    1.0000 </r>
       <r>   13.7045   -0.0000 </r>
       <r>   13.7045   -0.0000 </r>
       <r>   13.7045   -0.0000 </r>
       <r>   13.7868   -0.0000 </r>
       <r>   13.7868   -0.0000 </r>
       <r>   13.8814   -0.0000 </r>
       <r>   13.8814   -0.0000 </r>
       <r>   13.8814   -0.0000 </r>
       <r>   14.1670   -0.0000 </r>
       <r>   14.1733   -0.0000 </r>
       <r>   14.1733   -0.0000 </r>
       <r>   14.1733   -0.0000 </r>
       <r>   16.5605    0.0000 </r>
       <r>   16.5605    0.0000 </r>
       <r>   16.5605    0.0000 </r>
       <r>   16.5839    0.0000 </r>
       <r>   16.5839    0.0000 </r>
       <r>   16.5839    0.0000 </r>
       <r>   16.5950    0.0000 </r>
       <r>   16.6491    0.0000 </r>
       <r>   16.6491    0.0000 </r>
       <r>   17.2204    0.0000 </r>
       <r>   17.2204    0.0000 </r>
       <r>   17.2204    0.0000 </r>
       <r>   19.6440    0.0000 </r>
       <r>   19.6779    0.0000 </r>
       <r>   19.6779    0.0000 </r>
       <r>   19.6779    0.0000 </r>
       <r>   19.6782    0.0000 </r>
       <r>   19.6782    0.0000 </r>
       <r>   19.6782    0.0000 </r>
       <r>   19.6948    0.0000 </r>
       <r>   19.6948    0.0000 </r>
       <r>   19.7097    0.0000 </r>
       <r>   19.7577    0.0000 </r>
       <r>   19.7577    0.0000 </r>
       <r>   19.7577    0.0000 </r>
      </set>
      <set comment="kpoint 2">
       <r>    0.2506    1.0000 </r>
       <r>    2.7705    1.0000 </r>
       <r>    3.3629    1.0000 </r>
       <r>    3.3629    1.0000 </r>
       <r>    3.4106    1.0000 </r>
       <r>    3.7839    1.0000 </r>
       <r>    3.7839    1.0000 </r>
       <r>    3.8091    1.0000 </r>
       <r>    3.9589    1.0000 </r>
       <r>    3.9589    1.0000 </r>
       <r>    3.9739    1.0000 </r>
       <r>    4.1867    1.0000 </r>
       <r>    4.4144    1.0000 </r>
       <r>    4.4144    1.0000 </r>
       <r>    4.7208    1.0000 </r>
       <r>    5.1392    1.0000 </r>
       <r>    5.1392    1.0000 </r>
       <r>    5.1496    1.0000 </r>
       <r>    5.2066    1.0000 </r>
       <r>    5.2066    1.0000 </r>
       <r>    5.2193    1.0000 </r>
       <r>    5.3374    1.0000 </r>
       <r>    5.3444    1.0000 </r>
       <r>    5.3444    1.0000 </r>
       <r>    5.3679    1.0000 </r>
       <r>    5.3679    1.0000 </r>
       <r>    5.3787    1.0000 </r>
       <r>    5.3982    1.0000 </r>
       <r>    5.3982    1.0000 </r>
       <r>    5.4313    1.0000 </r>
       <r>    5.4313    1.0000 </r>
       <r>    5.4901    1.0000 </r>
       <r>    5.5569    1.0000 </r>
       <r>    5.5721    1.0000 </r>
       <r>    5.6258    1.0000 </r>
       <r>    5.6506    1.0000 </r>
       <r>    5.6506    1.0000 </r>
       <r>    5.7136    1.0000 </r>
       <r>    5.7136    1.0000 </r>
       <r>    5.7235    1.0000 </r>
       <r>    5.7235    1.0000 </r>
       <r>    5.7336    1.0000 </r>
       <r>    5.8412    1.0000 </r>
       <r>    6.0064    1.0000 </r>
       <r>    6.0064    1.0000 </r>
       <r>    6.2657    1.0000 </r>
       <r>    6.2657    1.0000 </r>
       <r>    6.2946    1.0000 </r>
       <r>    6.3520    1.0000 </r>
       <r>    6.3792    1.0000 </r>
       <r>    6.3792    1.0000 </r>
       <r>    6.3873    1.0000 </r>
       <r>    6.3963    1.0000 </r>
       <r>    6.4446    1.0000 </r>
       <r>    6.4446    1.0000 </r>
       <r>    6.5381    1.0000 </r>
       <r>    6.5418    1.0000 </r>
       <r>    6.5418    1.0000 </r>
       <r>    6.5894    1.0000 </r>
       <r>    6.6400    1.0000 </r>
       <r>    6.6400    1.0000 </r>
       <r>    6.6821    1.0000 </r>
       <r>    6.6821    1.0000 </r>
       <r>    6.7096    1.0000 </r>
       <r>    6.7140    1.0000 </r>
       <r>    6.7140    1.0000 </r>
       <r>    6.7309    1.0000 </r>
       <r>    6.7309    1.0000 </r>
       <r>    6.7488    1.0000 </r>
       <r>    6.7632    1.0000 </r>
       <r>    6.7632    1.0000 </r>
       <r>    6.7672    1.0000 </r>
       <r>    6.7872    1.0000 </r>
       <r>    6.7872    1.0000 </r>
       <r>    6.8028    1.0000 </r>
       <r>    6.8081    1.0000 </r>
       <r>    6.8748    1.0000 </r>
       <r>    6.8748    1.0000 </r>
       <r>    7.0718    1.0000 </r>
       <r>    7.0718    1.0000 </r>
       <r>    7.2782    1.0000 </r>
       <r>    7.3214    1.0000 </r>
       <r>    7.3214    1.0000 </r>
       <r>    7.4477    1.0000 </r>
       <r>    7.4477    1.0000 </r>
       <r>    7.4567    1.0000 </r>
       <r>    7.4839    1.0000 </r>
       <r>    7.5441    1.0000 </r>
       <r>    7.5441    1.0000 </r>
       <r>    7.5970    1.0000 </r>
       <r>    7.6051    1.0000 </r>
       <r>    7.6621    1.0000 </r>
       <r>    7.6621    1.0000 </r>
       <r>    7.6960    1.0000 </r>
       <r>    7.6960    1.0000 </r>
       <r>    7.7107    1.0000 </r>
       <r>    7.7408    1.0000 </r>
       <r>    7.7645    1.0000 </r>
       <r>    7.7645    1.0000 </r>
       <r>    7.8079    1.0000 </r>
       <r>    7.8079    1.0000 </r>
       <r>    7.8136    1.0000 </r>
       <r>    7.8585    1.0000 </r>
       <r>    7.8585    1.0000 </r>
       <r>    7.8861    1.0000 </r>
       <r>    7.9147    1.0000 </r>
       <r>    7.9147    1.0000 </r>
       <r>    8.0074    1.0000 </r>
       <r>    8.0075    1.0000 </r>
       <r>    8.0269    1.0000 </r>
       <r>    8.0371    1.0000 </r>
       <r>    8.0371    1.0000 </r>
       <r>    8.0416    1.0000 </r>
       <r>    8.0455    1.0000 </r>
       <r>    8.0455    1.0000 </r>
       <r>    8.0593    1.0000 </r>
       <r>    8.1081    1.0000 </r>
       <r>    8.1147    1.0000 </r>
       <r>    8.1147    1.0000 </r>
       <r>    8.1436    1.0000 </r>
       <r>    8.1436    1.0000 </r>
       <r>    8.1526    1.0000 </r>
       <r>    8.1747    1.0000 </r>
       <r>    8.1810    1.0000 </r>
       <r>    8.1810    1.0000 </r>
       <r>    8.2062    1.0000 </r>
       <r>    8.2062    1.0000 </r>
       <r>    8.2315    1.0000 </r>
       <r>    8.2315    1.0000 </r>
       <r>    8.2382    1.0000 </r>
       <r>    8.2783    1.0000 </r>
       <r>    8.2783    1.0000 </r>
       <r>    8.2917    1.0000 </r>
       <r>    8.2917    1.0000 </r>
       <r>    8.2950    1.0000 </r>
       <r>    8.3317    1.0000 </r>
       <r>    8.3768    1.0000 </r>
       <r>    8.3768    1.0000 </r>
       <r>    8.4014    1.0001 </r>
       <r>    8.4359    1.0002 </r>
       <r>    8.4359    1.0002 </r>
       <r>    8.4387    1.0002 </r>
       <r>    8.9259    0.8044 </r>
       <r>    8.9259    0.8044 </r>
       <r>    9.1243    0.0796 </r>
       <r>   12.3261   -0.0000 </r>
       <r>   12.3261   -0.0000 </r>
       <r>   12.4845   -0.0000 </r>
       <r>   13.7839   -0.0000 </r>
       <r>   13.7839   -0.0000 </r>
       <r>   13.9163   -0.0000 </r>
       <r>   13.9773   -0.0000 </r>
       <r>   14.1412   -0.0000 </r>
       <r>   14.1412   -0.0000 </r>
       <r>   14.8532    0.0000 </r>
       <r>   14.8532    0.0000 </r>
       <r>   15.1081    0.0000 </r>
       <r>   15.9013    0.0000 </r>
       <r>   15.9013    0.0000 </r>
       <r>   15.9108    0.0000 </r>
       <r>   16.3006    0.0000 </r>
       <r>   16.3006    0.0000 </r>
       <r>   16.3397    0.0000 </r>
       <r>   16.6038    0.0000 </r>
       <r>   16.6400    0.0000 </r>
       <r>   16.6400    0.0000 </r>
       <r>   17.3824    0.0000 </r>
       <r>   17.5940    0.0000 </r>
       <r>   17.5940    0.0000 </r>
       <r>   17.6504    0.0000 </r>
       <r>   19.0263    0.0000 </r>
       <r>   19.0379    0.0000 </r>
       <r>   19.0379    0.0000 </r>
       <r>   19.7459    0.0000 </r>
       <r>   19.7459    0.0000 </r>
       <r>   19.7779    0.0000 </r>
       <r>   20.2388    0.0000 </r>
       <r>   20.2388    0.0000 </r>
       <r>   20.2916    0.0000 </r>
       <r>   20.2916    0.0000 </r>
       <r>   20.3052    0.0000 </r>
       <r>   20.3759    0.0000 </r>
      </set>
      <set comment="kpoint 3">
       <r>    0.6037    1.0000 </r>
       <r>    1.9445    1.0000 </r>
       <r>    3.3598    1.0000 </r>
       <r>    3.3598    1.0000 </r>
       <r>    3.3953    1.0000 </r>
       <r>    3.7042    1.0000 </r>
       <r>    3.7042    1.0000 </r>
       <r>    3.8490    1.0000 </r>
       <r>    4.1805    1.0000 </r>
       <r>    4.1805    1.0000 </r>
       <r>    4.1807    1.0000 </r>
       <r>    4.3600    1.0000 </r>
       <r>    4.6017    1.0000 </r>
       <r>    4.6017    1.0000 </r>
       <r>    4.7660    1.0000 </r>
       <r>    4.9499    1.0000 </r>
       <r>    5.0133    1.0000 </r>
       <r>    5.0133    1.0000 </r>
       <r>    5.0412    1.0000 </r>
       <r>    5.0412    1.0000 </r>
       <r>    5.1544    1.0000 </r>
       <r>    5.1664    1.0000 </r>
       <r>    5.1664    1.0000 </r>
       <r>    5.3083    1.0000 </r>
       <r>    5.3083    1.0000 </r>
       <r>    5.3415    1.0000 </r>
       <r>    5.3953    1.0000 </r>
       <r>    5.4058    1.0000 </r>
       <r>    5.4580    1.0000 </r>
       <r>    5.4580    1.0000 </r>
       <r>    5.5346    1.0000 </r>
       <r>    5.5346    1.0000 </r>
       <r>    5.5565    1.0000 </r>
       <r>    5.5678    1.0000 </r>
       <r>    5.6118    1.0000 </r>
       <r>    5.6439    1.0000 </r>
       <r>    5.6439    1.0000 </r>
       <r>    5.7224    1.0000 </r>
       <r>    5.7224    1.0000 </r>
       <r>    5.7786    1.0000 </r>
       <r>    5.7786    1.0000 </r>
       <r>    5.8239    1.0000 </r>
       <r>    6.0731    1.0000 </r>
       <r>    6.1282    1.0000 </r>
       <r>    6.1347    1.0000 </r>
       <r>    6.1347    1.0000 </r>
       <r>    6.1817    1.0000 </r>
       <r>    6.1817    1.0000 </r>
       <r>    6.2466    1.0000 </r>
       <r>    6.2847    1.0000 </r>
       <r>    6.2854    1.0000 </r>
       <r>    6.2854    1.0000 </r>
       <r>    6.3453    1.0000 </r>
       <r>    6.3453    1.0000 </r>
       <r>    6.3544    1.0000 </r>
       <r>    6.4174    1.0000 </r>
       <r>    6.4754    1.0000 </r>
       <r>    6.4754    1.0000 </r>
       <r>    6.4995    1.0000 </r>
       <r>    6.5791    1.0000 </r>
       <r>    6.5791    1.0000 </r>
       <r>    6.6102    1.0000 </r>
       <r>    6.6436    1.0000 </r>
       <r>    6.6436    1.0000 </r>
       <r>    6.6847    1.0000 </r>
       <r>    6.6847    1.0000 </r>
       <r>    6.6940    1.0000 </r>
       <r>    6.7252    1.0000 </r>
       <r>    6.7252    1.0000 </r>
       <r>    6.7684    1.0000 </r>
       <r>    6.7684    1.0000 </r>
       <r>    6.8447    1.0000 </r>
       <r>    6.8677    1.0000 </r>
       <r>    6.8677    1.0000 </r>
       <r>    6.8903    1.0000 </r>
       <r>    6.9247    1.0000 </r>
       <r>    6.9247    1.0000 </r>
       <r>    6.9612    1.0000 </r>
       <r>    7.0369    1.0000 </r>
       <r>    7.0369    1.0000 </r>
       <r>    7.1171    1.0000 </r>
       <r>    7.1529    1.0000 </r>
       <r>    7.1529    1.0000 </r>
       <r>    7.2310    1.0000 </r>
       <r>    7.3145    1.0000 </r>
       <r>    7.3145    1.0000 </r>
       <r>    7.3887    1.0000 </r>
       <r>    7.3887    1.0000 </r>
       <r>    7.4555    1.0000 </r>
       <r>    7.4558    1.0000 </r>
       <r>    7.5532    1.0000 </r>
       <r>    7.5553    1.0000 </r>
       <r>    7.5553    1.0000 </r>
       <r>    7.5854    1.0000 </r>
       <r>    7.6328    1.0000 </r>
       <r>    7.6328    1.0000 </r>
       <r>    7.6638    1.0000 </r>
       <r>    7.6638    1.0000 </r>
       <r>    7.7444    1.0000 </r>
       <r>    7.7444    1.0000 </r>
       <r>    7.7950    1.0000 </r>
       <r>    7.7950    1.0000 </r>
       <r>    7.8605    1.0000 </r>
       <r>    7.8990    1.0000 </r>
       <r>    7.8990    1.0000 </r>
       <r>    7.8999    1.0000 </r>
       <r>    7.9969    1.0000 </r>
       <r>    7.9969    1.0000 </r>
       <r>    7.9994    1.0000 </r>
       <r>    8.0035    1.0000 </r>
       <r>    8.0035    1.0000 </r>
       <r>    8.0038    1.0000 </r>
       <r>    8.0618    1.0000 </r>
       <r>    8.0618    1.0000 </r>
       <r>    8.0898    1.0000 </r>
       <r>    8.0985    1.0000 </r>
       <r>    8.1565    1.0000 </r>
       <r>    8.1565    1.0000 </r>
       <r>    8.1830    1.0000 </r>
       <r>    8.1830    1.0000 </r>
       <r>    8.2101    1.0000 </r>
       <r>    8.2101    1.0000 </r>
       <r>    8.2181    1.0000 </r>
       <r>    8.2339    1.0000 </r>
       <r>    8.2756    1.0000 </r>
       <r>    8.2756    1.0000 </r>
       <r>    8.2956    1.0000 </r>
       <r>    8.3344    1.0000 </r>
       <r>    8.3344    1.0000 </r>
       <r>    8.3627    1.0000 </r>
       <r>    8.3652    1.0000 </r>
       <r>    8.3652    1.0000 </r>
       <r>    8.4132    1.0001 </r>
       <r>    8.4132    1.0001 </r>
       <r>    8.4399    1.0002 </r>
       <r>    8.4583    1.0004 </r>
       <r>    8.4781    1.0006 </r>
       <r>    8.4781    1.0006 </r>
       <r>    8.5036    1.0011 </r>
       <r>    9.0587    0.2782 </r>
       <r>    9.0587    0.2782 </r>
       <r>    9.1203    0.0886 </r>
       <r>   10.1298   -0.0000 </r>
       <r>   10.1298   -0.0000 </r>
       <r>   10.3468   -0.0000 </r>
       <r>   11.0421   -0.0000 </r>
       <r>   11.0421   -0.0000 </r>
       <r>   11.1569   -0.0000 </r>
       <r>   13.2383   -0.0000 </r>
       <r>   13.2383   -0.0000 </r>
       <r>   13.4312   -0.0000 </r>
       <r>   13.8745   -0.0000 </r>
       <r>   13.8745   -0.0000 </r>
       <r>   13.9988   -0.0000 </r>
       <r>   14.1270   -0.0000 </r>
       <r>   14.3037   -0.0000 </r>
       <r>   14.3037   -0.0000 </r>
       <r>   15.5709    0.0000 </r>
       <r>   15.8567    0.0000 </r>
       <r>   15.8567    0.0000 </r>
       <r>   15.9296    0.0000 </r>
       <r>   16.1234    0.0000 </r>
       <r>   16.1234    0.0000 </r>
       <r>   16.1938    0.0000 </r>
       <r>   17.7109    0.0000 </r>
       <r>   17.7109    0.0000 </r>
       <r>   17.8080    0.0000 </r>
       <r>   17.8541    0.0000 </r>
       <r>   17.8718    0.0000 </r>
       <r>   17.8718    0.0000 </r>
       <r>   18.4874    0.0000 </r>
       <r>   18.5024    0.0000 </r>
       <r>   18.5024    0.0000 </r>
       <r>   20.3020    0.0000 </r>
       <r>   20.3020    0.0000 </r>
       <r>   20.3340    0.0000 </r>
       <r>   21.4674    0.0000 </r>
       <r>   21.4674    0.0000 </r>
       <r>   21.4777    0.0000 </r>
       <r>   21.4805    0.0000 </r>
       <r>   21.4805    0.0000 </r>
       <r>   21.5540    0.0000 </r>
      </set>
      <set comment="kpoint 4">
       <r>    1.0782    1.0000 </r>
       <r>    1.2956    1.0000 </r>
       <r>    3.4020    1.0000 </r>
       <r>    3.4499    1.0000 </r>
       <r>    3.4499    1.0000 </r>
       <r>    3.5279    1.0000 </r>
       <r>    3.5279    1.0000 </r>
       <r>    3.8263    1.0000 </r>
       <r>    4.2539    1.0000 </r>
       <r>    4.5830    1.0000 </r>
       <r>    4.5830    1.0000 </r>
       <r>    4.6474    1.0000 </r>
       <r>    4.6607    1.0000 </r>
       <r>    4.6607    1.0000 </r>
       <r>    4.6670    1.0000 </r>
       <r>    4.7180    1.0000 </r>
       <r>    4.7180    1.0000 </r>
       <r>    4.7939    1.0000 </r>
       <r>    4.9258    1.0000 </r>
       <r>    4.9258    1.0000 </r>
       <r>    5.1427    1.0000 </r>
       <r>    5.1427    1.0000 </r>
       <r>    5.1612    1.0000 </r>
       <r>    5.2327    1.0000 </r>
       <r>    5.2469    1.0000 </r>
       <r>    5.2469    1.0000 </r>
       <r>    5.3450    1.0000 </r>
       <r>    5.4497    1.0000 </r>
       <r>    5.5138    1.0000 </r>
       <r>    5.5138    1.0000 </r>
       <r>    5.5587    1.0000 </r>
       <r>    5.5616    1.0000 </r>
       <r>    5.6120    1.0000 </r>
       <r>    5.6120    1.0000 </r>
       <r>    5.6282    1.0000 </r>
       <r>    5.6282    1.0000 </r>
       <r>    5.7418    1.0000 </r>
       <r>    5.7478    1.0000 </r>
       <r>    5.7478    1.0000 </r>
       <r>    5.8231    1.0000 </r>
       <r>    5.8231    1.0000 </r>
       <r>    5.8297    1.0000 </r>
       <r>    5.9555    1.0000 </r>
       <r>    5.9701    1.0000 </r>
       <r>    5.9701    1.0000 </r>
       <r>    6.1889    1.0000 </r>
       <r>    6.2468    1.0000 </r>
       <r>    6.2468    1.0000 </r>
       <r>    6.2522    1.0000 </r>
       <r>    6.3314    1.0000 </r>
       <r>    6.3427    1.0000 </r>
       <r>    6.3571    1.0000 </r>
       <r>    6.3571    1.0000 </r>
       <r>    6.3962    1.0000 </r>
       <r>    6.3962    1.0000 </r>
       <r>    6.4231    1.0000 </r>
       <r>    6.4237    1.0000 </r>
       <r>    6.4237    1.0000 </r>
       <r>    6.4257    1.0000 </r>
       <r>    6.4693    1.0000 </r>
       <r>    6.4693    1.0000 </r>
       <r>    6.4766    1.0000 </r>
       <r>    6.5845    1.0000 </r>
       <r>    6.5845    1.0000 </r>
       <r>    6.6303    1.0000 </r>
       <r>    6.6440    1.0000 </r>
       <r>    6.6440    1.0000 </r>
       <r>    6.7036    1.0000 </r>
       <r>    6.7036    1.0000 </r>
       <r>    6.7817    1.0000 </r>
       <r>    6.7817    1.0000 </r>
       <r>    6.7988    1.0000 </r>
       <r>    6.8053    1.0000 </r>
       <r>    6.8053    1.0000 </r>
       <r>    6.9957    1.0000 </r>
       <r>    7.0257    1.0000 </r>
       <r>    7.0492    1.0000 </r>
       <r>    7.0492    1.0000 </r>
       <r>    7.1063    1.0000 </r>
       <r>    7.1063    1.0000 </r>
       <r>    7.1462    1.0000 </r>
       <r>    7.1462    1.0000 </r>
       <r>    7.1843    1.0000 </r>
       <r>    7.1926    1.0000 </r>
       <r>    7.2311    1.0000 </r>
       <r>    7.2354    1.0000 </r>
       <r>    7.2354    1.0000 </r>
       <r>    7.3393    1.0000 </r>
       <r>    7.3393    1.0000 </r>
       <r>    7.3883    1.0000 </r>
       <r>    7.4018    1.0000 </r>
       <r>    7.4018    1.0000 </r>
       <r>    7.5230    1.0000 </r>
       <r>    7.5314    1.0000 </r>
       <r>    7.6103    1.0000 </r>
       <r>    7.6103    1.0000 </r>
       <r>    7.6366    1.0000 </r>
       <r>    7.6366    1.0000 </r>
       <r>    7.7434    1.0000 </r>
       <r>    7.7434    1.0000 </r>
       <r>    7.7460    1.0000 </r>
       <r>    7.7460    1.0000 </r>
       <r>    7.8677    1.0000 </r>
       <r>    7.9466    1.0000 </r>
       <r>    7.9485    1.0000 </r>
       <r>    7.9485    1.0000 </r>
       <r>    7.9589    1.0000 </r>
       <r>    7.9589    1.0000 </r>
       <r>    7.9693    1.0000 </r>
       <r>    7.9874    1.0000 </r>
       <r>    7.9874    1.0000 </r>
       <r>    8.0037    1.0000 </r>
       <r>    8.0676    1.0000 </r>
       <r>    8.0804    1.0000 </r>
       <r>    8.0804    1.0000 </r>
       <r>    8.1164    1.0000 </r>
       <r>    8.1737    1.0000 </r>
       <r>    8.1737    1.0000 </r>
       <r>    8.1924    1.0000 </r>
       <r>    8.1924    1.0000 </r>
       <r>    8.2277    1.0000 </r>
       <r>    8.2277    1.0000 </r>
       <r>    8.2337    1.0000 </r>
       <r>    8.2704    1.0000 </r>
       <r>    8.2790    1.0000 </r>
       <r>    8.2790    1.0000 </r>
       <r>    8.3033    1.0000 </r>
       <r>    8.3804    1.0000 </r>
       <r>    8.3804    1.0000 </r>
       <r>    8.4000    1.0001 </r>
       <r>    8.4112    1.0001 </r>
       <r>    8.4112    1.0001 </r>
       <r>    8.4660    1.0005 </r>
       <r>    8.4660    1.0005 </r>
       <r>    8.4988    1.0010 </r>
       <r>    8.5208    1.0017 </r>
       <r>    8.5208    1.0017 </r>
       <r>    8.5395    1.0025 </r>
       <r>    8.9539    0.7053 </r>
       <r>    9.8064   -0.0000 </r>
       <r>    9.8064   -0.0000 </r>
       <r>   10.0300   -0.0000 </r>
       <r>   10.0407   -0.0000 </r>
       <r>   10.0466   -0.0000 </r>
       <r>   10.0466   -0.0000 </r>
       <r>   11.4926   -0.0000 </r>
       <r>   11.4926   -0.0000 </r>
       <r>   11.6017   -0.0000 </r>
       <r>   11.7414   -0.0000 </r>
       <r>   11.7414   -0.0000 </r>
       <r>   12.0134   -0.0000 </r>
       <r>   13.9302   -0.0000 </r>
       <r>   13.9302   -0.0000 </r>
       <r>   14.0489   -0.0000 </r>
       <r>   14.2099   -0.0000 </r>
       <r>   14.3639    0.0000 </r>
       <r>   14.3639    0.0000 </r>
       <r>   14.8128    0.0000 </r>
       <r>   15.6560    0.0000 </r>
       <r>   15.6560    0.0000 </r>
       <r>   15.7434    0.0000 </r>
       <r>   15.9114    0.0000 </r>
       <r>   15.9114    0.0000 </r>
       <r>   15.9441    0.0000 </r>
       <r>   17.9890    0.0000 </r>
       <r>   17.9923    0.0000 </r>
       <r>   17.9923    0.0000 </r>
       <r>   18.1623    0.0000 </r>
       <r>   18.1852    0.0000 </r>
       <r>   18.1852    0.0000 </r>
       <r>   19.7421    0.0000 </r>
       <r>   19.7421    0.0000 </r>
       <r>   19.8154    0.0000 </r>
       <r>   20.0905    0.0000 </r>
       <r>   20.0905    0.0000 </r>
       <r>   20.1553    0.0000 </r>
       <r>   21.1663    0.0000 </r>
       <r>   21.1663    0.0000 </r>
       <r>   21.2014    0.0000 </r>
       <r>   21.2014    0.0000 </r>
       <r>   21.2233    0.0000 </r>
       <r>   21.2722    0.0000 </r>
      </set>
      <set comment="kpoint 5">
       <r>    0.2906    1.0000 </r>
       <r>    3.0604    1.0000 </r>
       <r>    3.1089    1.0000 </r>
       <r>    3.1089    1.0000 </r>
       <r>    3.2278    1.0000 </r>
       <r>    3.5848    1.0000 </r>
       <r>    3.9323    1.0000 </r>
       <r>    3.9389    1.0000 </r>
       <r>    3.9389    1.0000 </r>
       <r>    4.0345    1.0000 </r>
       <r>    4.2556    1.0000 </r>
       <r>    4.2556    1.0000 </r>
       <r>    4.3410    1.0000 </r>
       <r>    4.4202    1.0000 </r>
       <r>    4.7318    1.0000 </r>
       <r>    5.0350    1.0000 </r>
       <r>    5.1879    1.0000 </r>
       <r>    5.1879    1.0000 </r>
       <r>    5.2349    1.0000 </r>
       <r>    5.2349    1.0000 </r>
       <r>    5.2627    1.0000 </r>
       <r>    5.2683    1.0000 </r>
       <r>    5.2799    1.0000 </r>
       <r>    5.2930    1.0000 </r>
       <r>    5.3234    1.0000 </r>
       <r>    5.3234    1.0000 </r>
       <r>    5.3477    1.0000 </r>
       <r>    5.3997    1.0000 </r>
       <r>    5.4101    1.0000 </r>
       <r>    5.4535    1.0000 </r>
       <r>    5.4535    1.0000 </r>
       <r>    5.4853    1.0000 </r>
       <r>    5.5007    1.0000 </r>
       <r>    5.6331    1.0000 </r>
       <r>    5.6854    1.0000 </r>
       <r>    5.6854    1.0000 </r>
       <r>    5.6998    1.0000 </r>
       <r>    5.7167    1.0000 </r>
       <r>    5.7203    1.0000 </r>
       <r>    5.7203    1.0000 </r>
       <r>    5.7772    1.0000 </r>
       <r>    5.7836    1.0000 </r>
       <r>    5.7836    1.0000 </r>
       <r>    5.9522    1.0000 </r>
       <r>    6.0375    1.0000 </r>
       <r>    6.1364    1.0000 </r>
       <r>    6.2052    1.0000 </r>
       <r>    6.2052    1.0000 </r>
       <r>    6.2071    1.0000 </r>
       <r>    6.3015    1.0000 </r>
       <r>    6.3774    1.0000 </r>
       <r>    6.4118    1.0000 </r>
       <r>    6.4118    1.0000 </r>
       <r>    6.4977    1.0000 </r>
       <r>    6.5521    1.0000 </r>
       <r>    6.5521    1.0000 </r>
       <r>    6.5588    1.0000 </r>
       <r>    6.6289    1.0000 </r>
       <r>    6.6289    1.0000 </r>
       <r>    6.6334    1.0000 </r>
       <r>    6.6594    1.0000 </r>
       <r>    6.6736    1.0000 </r>
       <r>    6.6923    1.0000 </r>
       <r>    6.6923    1.0000 </r>
       <r>    6.7099    1.0000 </r>
       <r>    6.7273    1.0000 </r>
       <r>    6.7273    1.0000 </r>
       <r>    6.7344    1.0000 </r>
       <r>    6.7427    1.0000 </r>
       <r>    6.7624    1.0000 </r>
       <r>    6.7624    1.0000 </r>
       <r>    6.7736    1.0000 </r>
       <r>    6.7936    1.0000 </r>
       <r>    6.7936    1.0000 </r>
       <r>    6.8194    1.0000 </r>
       <r>    6.8364    1.0000 </r>
       <r>    6.9762    1.0000 </r>
       <r>    6.9762    1.0000 </r>
       <r>    7.0367    1.0000 </r>
       <r>    7.0613    1.0000 </r>
       <r>    7.0959    1.0000 </r>
       <r>    7.3370    1.0000 </r>
       <r>    7.3370    1.0000 </r>
       <r>    7.3379    1.0000 </r>
       <r>    7.3463    1.0000 </r>
       <r>    7.4482    1.0000 </r>
       <r>    7.4723    1.0000 </r>
       <r>    7.4723    1.0000 </r>
       <r>    7.5006    1.0000 </r>
       <r>    7.5312    1.0000 </r>
       <r>    7.5454    1.0000 </r>
       <r>    7.5536    1.0000 </r>
       <r>    7.5536    1.0000 </r>
       <r>    7.5709    1.0000 </r>
       <r>    7.5709    1.0000 </r>
       <r>    7.6450    1.0000 </r>
       <r>    7.6516    1.0000 </r>
       <r>    7.7539    1.0000 </r>
       <r>    7.7539    1.0000 </r>
       <r>    7.7920    1.0000 </r>
       <r>    7.8190    1.0000 </r>
       <r>    7.8320    1.0000 </r>
       <r>    7.8320    1.0000 </r>
       <r>    7.8331    1.0000 </r>
       <r>    7.8569    1.0000 </r>
       <r>    7.9580    1.0000 </r>
       <r>    7.9580    1.0000 </r>
       <r>    7.9617    1.0000 </r>
       <r>    7.9891    1.0000 </r>
       <r>    8.0072    1.0000 </r>
       <r>    8.0072    1.0000 </r>
       <r>    8.0210    1.0000 </r>
       <r>    8.0469    1.0000 </r>
       <r>    8.0952    1.0000 </r>
       <r>    8.1377    1.0000 </r>
       <r>    8.1377    1.0000 </r>
       <r>    8.1418    1.0000 </r>
       <r>    8.1712    1.0000 </r>
       <r>    8.1866    1.0000 </r>
       <r>    8.1866    1.0000 </r>
       <r>    8.1923    1.0000 </r>
       <r>    8.2521    1.0000 </r>
       <r>    8.2521    1.0000 </r>
       <r>    8.2522    1.0000 </r>
       <r>    8.2566    1.0000 </r>
       <r>    8.2871    1.0000 </r>
       <r>    8.2871    1.0000 </r>
       <r>    8.2945    1.0000 </r>
       <r>    8.3058    1.0000 </r>
       <r>    8.3066    1.0000 </r>
       <r>    8.3066    1.0000 </r>
       <r>    8.3138    1.0000 </r>
       <r>    8.3172    1.0000 </r>
       <r>    8.3172    1.0000 </r>
       <r>    8.3211    1.0000 </r>
       <r>    8.3523    1.0000 </r>
       <r>    8.3807    1.0000 </r>
       <r>    8.3961    1.0001 </r>
       <r>    8.3961    1.0001 </r>
       <r>    8.4043    1.0001 </r>
       <r>    8.6320    1.0122 </r>
       <r>    8.7284    1.0325 </r>
       <r>    8.7284    1.0325 </r>
       <r>    8.7723    1.0347 </r>
       <r>    9.4154   -0.0066 </r>
       <r>   12.3542   -0.0000 </r>
       <r>   12.4061   -0.0000 </r>
       <r>   12.4061   -0.0000 </r>
       <r>   12.6369   -0.0000 </r>
       <r>   13.5221   -0.0000 </r>
       <r>   13.7028   -0.0000 </r>
       <r>   13.7993   -0.0000 </r>
       <r>   13.7993   -0.0000 </r>
       <r>   15.4497    0.0000 </r>
       <r>   15.5191    0.0000 </r>
       <r>   15.5276    0.0000 </r>
       <r>   15.5276    0.0000 </r>
       <r>   15.6280    0.0000 </r>
       <r>   15.6727    0.0000 </r>
       <r>   15.6727    0.0000 </r>
       <r>   15.6794    0.0000 </r>
       <r>   15.8065    0.0000 </r>
       <r>   15.9216    0.0000 </r>
       <r>   15.9216    0.0000 </r>
       <r>   16.2544    0.0000 </r>
       <r>   17.9711    0.0000 </r>
       <r>   17.9725    0.0000 </r>
       <r>   18.1064    0.0000 </r>
       <r>   18.1064    0.0000 </r>
       <r>   18.1515    0.0000 </r>
       <r>   18.3449    0.0000 </r>
       <r>   18.4134    0.0000 </r>
       <r>   18.4134    0.0000 </r>
       <r>   19.3212    0.0000 </r>
       <r>   19.3430    0.0000 </r>
       <r>   19.3430    0.0000 </r>
       <r>   19.4786    0.0000 </r>
       <r>   20.3851    0.0000 </r>
       <r>   20.3851    0.0000 </r>
       <r>   20.4129    0.0000 </r>
       <r>   20.5170    0.0000 </r>
       <r>   21.2515    0.0000 </r>
      </set>
      <set comment="kpoint 6">
       <r>    0.5663    1.0000 </r>
       <r>    2.3047    1.0000 </r>
       <r>    2.9697    1.0000 </r>
       <r>    3.0131    1.0000 </r>
       <r>    3.2209    1.0000 </r>
       <r>    3.6856    1.0000 </r>
       <r>    4.0121    1.0000 </r>
       <r>    4.1400    1.0000 </r>
       <r>    4.1475    1.0000 </r>
       <r>    4.2112    1.0000 </r>
       <r>    4.2251    1.0000 </r>
       <r>    4.3614    1.0000 </r>
       <r>    4.5286    1.0000 </r>
       <r>    4.5878    1.0000 </r>
       <r>    4.7797    1.0000 </r>
       <r>    4.9690    1.0000 </r>
       <r>    5.0118    1.0000 </r>
       <r>    5.0442    1.0000 </r>
       <r>    5.0787    1.0000 </r>
       <r>    5.1704    1.0000 </r>
       <r>    5.1916    1.0000 </r>
       <r>    5.1956    1.0000 </r>
       <r>    5.2368    1.0000 </r>
       <r>    5.2507    1.0000 </r>
       <r>    5.3080    1.0000 </r>
       <r>    5.3126    1.0000 </r>
       <r>    5.3353    1.0000 </r>
       <r>    5.3773    1.0000 </r>
       <r>    5.3831    1.0000 </r>
       <r>    5.4363    1.0000 </r>
       <r>    5.4925    1.0000 </r>
       <r>    5.5156    1.0000 </r>
       <r>    5.5178    1.0000 </r>
       <r>    5.6010    1.0000 </r>
       <r>    5.6273    1.0000 </r>
       <r>    5.6725    1.0000 </r>
       <r>    5.6830    1.0000 </r>
       <r>    5.7620    1.0000 </r>
       <r>    5.7685    1.0000 </r>
       <r>    5.8172    1.0000 </r>
       <r>    5.8232    1.0000 </r>
       <r>    5.8639    1.0000 </r>
       <r>    5.9880    1.0000 </r>
       <r>    6.0627    1.0000 </r>
       <r>    6.0759    1.0000 </r>
       <r>    6.0965    1.0000 </r>
       <r>    6.1187    1.0000 </r>
       <r>    6.1325    1.0000 </r>
       <r>    6.1512    1.0000 </r>
       <r>    6.1568    1.0000 </r>
       <r>    6.2683    1.0000 </r>
       <r>    6.3283    1.0000 </r>
       <r>    6.3447    1.0000 </r>
       <r>    6.4071    1.0000 </r>
       <r>    6.4698    1.0000 </r>
       <r>    6.4803    1.0000 </r>
       <r>    6.5195    1.0000 </r>
       <r>    6.5214    1.0000 </r>
       <r>    6.5448    1.0000 </r>
       <r>    6.5792    1.0000 </r>
       <r>    6.5927    1.0000 </r>
       <r>    6.6176    1.0000 </r>
       <r>    6.6367    1.0000 </r>
       <r>    6.6603    1.0000 </r>
       <r>    6.6907    1.0000 </r>
       <r>    6.7158    1.0000 </r>
       <r>    6.7480    1.0000 </r>
       <r>    6.7518    1.0000 </r>
       <r>    6.7644    1.0000 </r>
       <r>    6.8006    1.0000 </r>
       <r>    6.8103    1.0000 </r>
       <r>    6.8463    1.0000 </r>
       <r>    6.8586    1.0000 </r>
       <r>    6.8770    1.0000 </r>
       <r>    6.9082    1.0000 </r>
       <r>    6.9155    1.0000 </r>
       <r>    6.9184    1.0000 </r>
       <r>    6.9282    1.0000 </r>
       <r>    6.9793    1.0000 </r>
       <r>    7.0245    1.0000 </r>
       <r>    7.0587    1.0000 </r>
       <r>    7.1647    1.0000 </r>
       <r>    7.1750    1.0000 </r>
       <r>    7.2453    1.0000 </r>
       <r>    7.2496    1.0000 </r>
       <r>    7.2972    1.0000 </r>
       <r>    7.3631    1.0000 </r>
       <r>    7.4005    1.0000 </r>
       <r>    7.4026    1.0000 </r>
       <r>    7.4348    1.0000 </r>
       <r>    7.4907    1.0000 </r>
       <r>    7.5001    1.0000 </r>
       <r>    7.5511    1.0000 </r>
       <r>    7.5728    1.0000 </r>
       <r>    7.6068    1.0000 </r>
       <r>    7.6257    1.0000 </r>
       <r>    7.6391    1.0000 </r>
       <r>    7.6410    1.0000 </r>
       <r>    7.6838    1.0000 </r>
       <r>    7.7031    1.0000 </r>
       <r>    7.7487    1.0000 </r>
       <r>    7.7634    1.0000 </r>
       <r>    7.7800    1.0000 </r>
       <r>    7.7864    1.0000 </r>
       <r>    7.8179    1.0000 </r>
       <r>    7.8945    1.0000 </r>
       <r>    7.8963    1.0000 </r>
       <r>    7.9472    1.0000 </r>
       <r>    7.9684    1.0000 </r>
       <r>    7.9867    1.0000 </r>
       <r>    8.0040    1.0000 </r>
       <r>    8.0245    1.0000 </r>
       <r>    8.0735    1.0000 </r>
       <r>    8.0929    1.0000 </r>
       <r>    8.1194    1.0000 </r>
       <r>    8.1519    1.0000 </r>
       <r>    8.1750    1.0000 </r>
       <r>    8.1882    1.0000 </r>
       <r>    8.1959    1.0000 </r>
       <r>    8.2126    1.0000 </r>
       <r>    8.2402    1.0000 </r>
       <r>    8.2534    1.0000 </r>
       <r>    8.2774    1.0000 </r>
       <r>    8.3008    1.0000 </r>
       <r>    8.3135    1.0000 </r>
       <r>    8.3160    1.0000 </r>
       <r>    8.3326    1.0000 </r>
       <r>    8.3519    1.0000 </r>
       <r>    8.3576    1.0000 </r>
       <r>    8.3806    1.0000 </r>
       <r>    8.4078    1.0001 </r>
       <r>    8.4115    1.0001 </r>
       <r>    8.4169    1.0001 </r>
       <r>    8.4297    1.0002 </r>
       <r>    8.4814    1.0007 </r>
       <r>    8.5912    1.0065 </r>
       <r>    8.6154    1.0096 </r>
       <r>    8.6835    1.0229 </r>
       <r>    8.7156    1.0301 </r>
       <r>    8.9179    0.8300 </r>
       <r>    9.0181    0.4407 </r>
       <r>    9.0632    0.2615 </r>
       <r>    9.6014   -0.0001 </r>
       <r>    9.7423   -0.0000 </r>
       <r>   10.4285   -0.0000 </r>
       <r>   11.0917   -0.0000 </r>
       <r>   11.1896   -0.0000 </r>
       <r>   12.2393   -0.0000 </r>
       <r>   12.5486   -0.0000 </r>
       <r>   12.7354   -0.0000 </r>
       <r>   13.0769   -0.0000 </r>
       <r>   13.3419   -0.0000 </r>
       <r>   13.3762   -0.0000 </r>
       <r>   14.1856   -0.0000 </r>
       <r>   14.2289   -0.0000 </r>
       <r>   15.2682    0.0000 </r>
       <r>   15.3458    0.0000 </r>
       <r>   15.4935    0.0000 </r>
       <r>   15.5282    0.0000 </r>
       <r>   15.8904    0.0000 </r>
       <r>   16.0873    0.0000 </r>
       <r>   16.2001    0.0000 </r>
       <r>   16.3287    0.0000 </r>
       <r>   16.4364    0.0000 </r>
       <r>   17.5477    0.0000 </r>
       <r>   17.6174    0.0000 </r>
       <r>   17.6543    0.0000 </r>
       <r>   17.6788    0.0000 </r>
       <r>   17.8365    0.0000 </r>
       <r>   17.8667    0.0000 </r>
       <r>   18.8568    0.0000 </r>
       <r>   18.8723    0.0000 </r>
       <r>   19.2327    0.0000 </r>
       <r>   19.4422    0.0000 </r>
       <r>   19.4725    0.0000 </r>
       <r>   19.8313    0.0000 </r>
       <r>   19.9596    0.0000 </r>
       <r>   20.6958    0.0000 </r>
       <r>   20.9096    0.0000 </r>
       <r>   21.1036    0.0000 </r>
       <r>   21.1481    0.0000 </r>
       <r>   21.8576    0.0000 </r>
      </set>
      <set comment="kpoint 7">
       <r>    1.0505    1.0000 </r>
       <r>    1.5403    1.0000 </r>
       <r>    2.7352    1.0000 </r>
       <r>    3.0776    1.0000 </r>
       <r>    3.2207    1.0000 </r>
       <r>    3.9953    1.0000 </r>
       <r>    4.0140    1.0000 </r>
       <r>    4.1754    1.0000 </r>
       <r>    4.2639    1.0000 </r>
       <r>    4.3581    1.0000 </r>
       <r>    4.5443    1.0000 </r>
       <r>    4.5501    1.0000 </r>
       <r>    4.6811    1.0000 </r>
       <r>    4.7429    1.0000 </r>
       <r>    4.7508    1.0000 </r>
       <r>    4.7747    1.0000 </r>
       <r>    4.7769    1.0000 </r>
       <r>    4.8204    1.0000 </r>
       <r>    4.9431    1.0000 </r>
       <r>    4.9596    1.0000 </r>
       <r>    5.0289    1.0000 </r>
       <r>    5.1255    1.0000 </r>
       <r>    5.1783    1.0000 </r>
       <r>    5.2142    1.0000 </r>
       <r>    5.2236    1.0000 </r>
       <r>    5.3319    1.0000 </r>
       <r>    5.3335    1.0000 </r>
       <r>    5.3994    1.0000 </r>
       <r>    5.4025    1.0000 </r>
       <r>    5.4120    1.0000 </r>
       <r>    5.4705    1.0000 </r>
       <r>    5.5011    1.0000 </r>
       <r>    5.5932    1.0000 </r>
       <r>    5.6734    1.0000 </r>
       <r>    5.6736    1.0000 </r>
       <r>    5.7029    1.0000 </r>
       <r>    5.7488    1.0000 </r>
       <r>    5.7893    1.0000 </r>
       <r>    5.8198    1.0000 </r>
       <r>    5.8486    1.0000 </r>
       <r>    5.8837    1.0000 </r>
       <r>    5.8954    1.0000 </r>
       <r>    5.9631    1.0000 </r>
       <r>    5.9974    1.0000 </r>
       <r>    6.0053    1.0000 </r>
       <r>    6.1171    1.0000 </r>
       <r>    6.1687    1.0000 </r>
       <r>    6.2052    1.0000 </r>
       <r>    6.2154    1.0000 </r>
       <r>    6.2216    1.0000 </r>
       <r>    6.2696    1.0000 </r>
       <r>    6.2893    1.0000 </r>
       <r>    6.3093    1.0000 </r>
       <r>    6.3336    1.0000 </r>
       <r>    6.3392    1.0000 </r>
       <r>    6.3586    1.0000 </r>
       <r>    6.4006    1.0000 </r>
       <r>    6.4074    1.0000 </r>
       <r>    6.4614    1.0000 </r>
       <r>    6.5172    1.0000 </r>
       <r>    6.5178    1.0000 </r>
       <r>    6.5513    1.0000 </r>
       <r>    6.5914    1.0000 </r>
       <r>    6.6668    1.0000 </r>
       <r>    6.6683    1.0000 </r>
       <r>    6.6912    1.0000 </r>
       <r>    6.6920    1.0000 </r>
       <r>    6.7245    1.0000 </r>
       <r>    6.7304    1.0000 </r>
       <r>    6.7890    1.0000 </r>
       <r>    6.7918    1.0000 </r>
       <r>    6.8075    1.0000 </r>
       <r>    6.8212    1.0000 </r>
       <r>    6.8748    1.0000 </r>
       <r>    6.9279    1.0000 </r>
       <r>    6.9617    1.0000 </r>
       <r>    7.0142    1.0000 </r>
       <r>    7.0413    1.0000 </r>
       <r>    7.0518    1.0000 </r>
       <r>    7.0837    1.0000 </r>
       <r>    7.1027    1.0000 </r>
       <r>    7.1187    1.0000 </r>
       <r>    7.1304    1.0000 </r>
       <r>    7.1777    1.0000 </r>
       <r>    7.2029    1.0000 </r>
       <r>    7.2371    1.0000 </r>
       <r>    7.2669    1.0000 </r>
       <r>    7.2839    1.0000 </r>
       <r>    7.3525    1.0000 </r>
       <r>    7.3742    1.0000 </r>
       <r>    7.3779    1.0000 </r>
       <r>    7.4434    1.0000 </r>
       <r>    7.4471    1.0000 </r>
       <r>    7.5736    1.0000 </r>
       <r>    7.5994    1.0000 </r>
       <r>    7.6111    1.0000 </r>
       <r>    7.6183    1.0000 </r>
       <r>    7.6530    1.0000 </r>
       <r>    7.7052    1.0000 </r>
       <r>    7.7054    1.0000 </r>
       <r>    7.7211    1.0000 </r>
       <r>    7.7401    1.0000 </r>
       <r>    7.7501    1.0000 </r>
       <r>    7.8044    1.0000 </r>
       <r>    7.8085    1.0000 </r>
       <r>    7.8922    1.0000 </r>
       <r>    7.8968    1.0000 </r>
       <r>    7.9060    1.0000 </r>
       <r>    7.9195    1.0000 </r>
       <r>    7.9397    1.0000 </r>
       <r>    8.0251    1.0000 </r>
       <r>    8.0303    1.0000 </r>
       <r>    8.0781    1.0000 </r>
       <r>    8.1005    1.0000 </r>
       <r>    8.1212    1.0000 </r>
       <r>    8.1300    1.0000 </r>
       <r>    8.1575    1.0000 </r>
       <r>    8.1765    1.0000 </r>
       <r>    8.1916    1.0000 </r>
       <r>    8.2363    1.0000 </r>
       <r>    8.2431    1.0000 </r>
       <r>    8.2603    1.0000 </r>
       <r>    8.2689    1.0000 </r>
       <r>    8.3084    1.0000 </r>
       <r>    8.3507    1.0000 </r>
       <r>    8.3619    1.0000 </r>
       <r>    8.3898    1.0001 </r>
       <r>    8.4005    1.0001 </r>
       <r>    8.4252    1.0002 </r>
       <r>    8.4449    1.0003 </r>
       <r>    8.4546    1.0004 </r>
       <r>    8.4720    1.0005 </r>
       <r>    8.4930    1.0009 </r>
       <r>    8.5034    1.0011 </r>
       <r>    8.5329    1.0022 </r>
       <r>    8.6759    1.0212 </r>
       <r>    8.6912    1.0247 </r>
       <r>    8.7850    1.0324 </r>
       <r>    9.2013   -0.0236 </r>
       <r>    9.5089   -0.0010 </r>
       <r>    9.8408   -0.0000 </r>
       <r>    9.9754   -0.0000 </r>
       <r>   10.0873   -0.0000 </r>
       <r>   10.1090   -0.0000 </r>
       <r>   10.8953   -0.0000 </r>
       <r>   10.9042   -0.0000 </r>
       <r>   11.0528   -0.0000 </r>
       <r>   11.4529   -0.0000 </r>
       <r>   11.8283   -0.0000 </r>
       <r>   12.5383   -0.0000 </r>
       <r>   12.6370   -0.0000 </r>
       <r>   12.8661   -0.0000 </r>
       <r>   12.9547   -0.0000 </r>
       <r>   12.9934   -0.0000 </r>
       <r>   13.1660   -0.0000 </r>
       <r>   14.8154    0.0000 </r>
       <r>   14.9635    0.0000 </r>
       <r>   15.0022    0.0000 </r>
       <r>   15.6219    0.0000 </r>
       <r>   15.6265    0.0000 </r>
       <r>   16.0984    0.0000 </r>
       <r>   16.5266    0.0000 </r>
       <r>   16.7155    0.0000 </r>
       <r>   17.0983    0.0000 </r>
       <r>   17.2015    0.0000 </r>
       <r>   17.2605    0.0000 </r>
       <r>   17.3021    0.0000 </r>
       <r>   18.4154    0.0000 </r>
       <r>   19.1209    0.0000 </r>
       <r>   19.1312    0.0000 </r>
       <r>   19.5274    0.0000 </r>
       <r>   19.5455    0.0000 </r>
       <r>   19.6537    0.0000 </r>
       <r>   20.1823    0.0000 </r>
       <r>   20.2404    0.0000 </r>
       <r>   20.4077    0.0000 </r>
       <r>   20.4113    0.0000 </r>
       <r>   20.4510    0.0000 </r>
       <r>   20.5062    0.0000 </r>
       <r>   20.9944    0.0000 </r>
       <r>   21.1023    0.0000 </r>
       <r>   21.8774    0.0000 </r>
      </set>
      <set comment="kpoint 8">
       <r>    0.8710    1.0000 </r>
       <r>    1.7765    1.0000 </r>
       <r>    2.5899    1.0000 </r>
       <r>    3.2829    1.0000 </r>
       <r>    3.3785    1.0000 </r>
       <r>    3.8456    1.0000 </r>
       <r>    3.8952    1.0000 </r>
       <r>    4.2516    1.0000 </r>
       <r>    4.2661    1.0000 </r>
       <r>    4.2885    1.0000 </r>
       <r>    4.3622    1.0000 </r>
       <r>    4.4850    1.0000 </r>
       <r>    4.6560    1.0000 </r>
       <r>    4.6563    1.0000 </r>
       <r>    4.7695    1.0000 </r>
       <r>    4.8016    1.0000 </r>
       <r>    4.8914    1.0000 </r>
       <r>    4.9239    1.0000 </r>
       <r>    4.9866    1.0000 </r>
       <r>    5.0373    1.0000 </r>
       <r>    5.0658    1.0000 </r>
       <r>    5.1074    1.0000 </r>
       <r>    5.1366    1.0000 </r>
       <r>    5.2483    1.0000 </r>
       <r>    5.2607    1.0000 </r>
       <r>    5.3185    1.0000 </r>
       <r>    5.3366    1.0000 </r>
       <r>    5.3975    1.0000 </r>
       <r>    5.4165    1.0000 </r>
       <r>    5.4253    1.0000 </r>
       <r>    5.4704    1.0000 </r>
       <r>    5.4943    1.0000 </r>
       <r>    5.5765    1.0000 </r>
       <r>    5.6243    1.0000 </r>
       <r>    5.6280    1.0000 </r>
       <r>    5.6542    1.0000 </r>
       <r>    5.7652    1.0000 </r>
       <r>    5.7844    1.0000 </r>
       <r>    5.8144    1.0000 </r>
       <r>    5.8806    1.0000 </r>
       <r>    5.8827    1.0000 </r>
       <r>    5.9298    1.0000 </r>
       <r>    6.0149    1.0000 </r>
       <r>    6.0214    1.0000 </r>
       <r>    6.0570    1.0000 </r>
       <r>    6.0724    1.0000 </r>
       <r>    6.1319    1.0000 </r>
       <r>    6.1631    1.0000 </r>
       <r>    6.1719    1.0000 </r>
       <r>    6.2025    1.0000 </r>
       <r>    6.2825    1.0000 </r>
       <r>    6.2950    1.0000 </r>
       <r>    6.3235    1.0000 </r>
       <r>    6.3561    1.0000 </r>
       <r>    6.3724    1.0000 </r>
       <r>    6.4241    1.0000 </r>
       <r>    6.4499    1.0000 </r>
       <r>    6.4765    1.0000 </r>
       <r>    6.4776    1.0000 </r>
       <r>    6.5021    1.0000 </r>
       <r>    6.5335    1.0000 </r>
       <r>    6.5364    1.0000 </r>
       <r>    6.5619    1.0000 </r>
       <r>    6.5691    1.0000 </r>
       <r>    6.6321    1.0000 </r>
       <r>    6.6403    1.0000 </r>
       <r>    6.7012    1.0000 </r>
       <r>    6.7352    1.0000 </r>
       <r>    6.7681    1.0000 </r>
       <r>    6.7784    1.0000 </r>
       <r>    6.8020    1.0000 </r>
       <r>    6.8098    1.0000 </r>
       <r>    6.8825    1.0000 </r>
       <r>    6.8864    1.0000 </r>
       <r>    6.9023    1.0000 </r>
       <r>    6.9368    1.0000 </r>
       <r>    6.9813    1.0000 </r>
       <r>    7.0061    1.0000 </r>
       <r>    7.0453    1.0000 </r>
       <r>    7.0623    1.0000 </r>
       <r>    7.0794    1.0000 </r>
       <r>    7.1125    1.0000 </r>
       <r>    7.1983    1.0000 </r>
       <r>    7.2001    1.0000 </r>
       <r>    7.2254    1.0000 </r>
       <r>    7.2936    1.0000 </r>
       <r>    7.2992    1.0000 </r>
       <r>    7.3632    1.0000 </r>
       <r>    7.3739    1.0000 </r>
       <r>    7.3980    1.0000 </r>
       <r>    7.4554    1.0000 </r>
       <r>    7.5204    1.0000 </r>
       <r>    7.5495    1.0000 </r>
       <r>    7.5874    1.0000 </r>
       <r>    7.6311    1.0000 </r>
       <r>    7.6472    1.0000 </r>
       <r>    7.6638    1.0000 </r>
       <r>    7.6681    1.0000 </r>
       <r>    7.6823    1.0000 </r>
       <r>    7.7108    1.0000 </r>
       <r>    7.7234    1.0000 </r>
       <r>    7.7321    1.0000 </r>
       <r>    7.7385    1.0000 </r>
       <r>    7.7620    1.0000 </r>
       <r>    7.8188    1.0000 </r>
       <r>    7.8198    1.0000 </r>
       <r>    7.8405    1.0000 </r>
       <r>    7.8657    1.0000 </r>
       <r>    7.8991    1.0000 </r>
       <r>    7.9325    1.0000 </r>
       <r>    7.9949    1.0000 </r>
       <r>    8.0040    1.0000 </r>
       <r>    8.0677    1.0000 </r>
       <r>    8.0839    1.0000 </r>
       <r>    8.1310    1.0000 </r>
       <r>    8.1571    1.0000 </r>
       <r>    8.1671    1.0000 </r>
       <r>    8.1848    1.0000 </r>
       <r>    8.1983    1.0000 </r>
       <r>    8.2112    1.0000 </r>
       <r>    8.2498    1.0000 </r>
       <r>    8.2599    1.0000 </r>
       <r>    8.2679    1.0000 </r>
       <r>    8.3304    1.0000 </r>
       <r>    8.3375    1.0000 </r>
       <r>    8.3503    1.0000 </r>
       <r>    8.3749    1.0000 </r>
       <r>    8.3908    1.0001 </r>
       <r>    8.4080    1.0001 </r>
       <r>    8.4265    1.0002 </r>
       <r>    8.4316    1.0002 </r>
       <r>    8.4535    1.0003 </r>
       <r>    8.4678    1.0005 </r>
       <r>    8.4825    1.0007 </r>
       <r>    8.4934    1.0009 </r>
       <r>    8.6239    1.0109 </r>
       <r>    8.6332    1.0124 </r>
       <r>    8.8820    0.9246 </r>
       <r>    9.1652    0.0086 </r>
       <r>    9.1777   -0.0055 </r>
       <r>    9.3930   -0.0095 </r>
       <r>    9.7474   -0.0000 </r>
       <r>   10.0344   -0.0000 </r>
       <r>   10.1222   -0.0000 </r>
       <r>   10.9521   -0.0000 </r>
       <r>   11.1134   -0.0000 </r>
       <r>   11.1814   -0.0000 </r>
       <r>   11.2205   -0.0000 </r>
       <r>   12.4031   -0.0000 </r>
       <r>   12.5808   -0.0000 </r>
       <r>   12.6037   -0.0000 </r>
       <r>   12.6377   -0.0000 </r>
       <r>   13.2255   -0.0000 </r>
       <r>   13.3714   -0.0000 </r>
       <r>   13.6543   -0.0000 </r>
       <r>   14.4224    0.0000 </r>
       <r>   14.6291    0.0000 </r>
       <r>   15.2235    0.0000 </r>
       <r>   16.0379    0.0000 </r>
       <r>   16.0605    0.0000 </r>
       <r>   16.3835    0.0000 </r>
       <r>   16.5918    0.0000 </r>
       <r>   16.6033    0.0000 </r>
       <r>   16.9162    0.0000 </r>
       <r>   16.9576    0.0000 </r>
       <r>   16.9857    0.0000 </r>
       <r>   17.2201    0.0000 </r>
       <r>   18.1247    0.0000 </r>
       <r>   18.1820    0.0000 </r>
       <r>   18.8117    0.0000 </r>
       <r>   19.4727    0.0000 </r>
       <r>   19.4804    0.0000 </r>
       <r>   19.8073    0.0000 </r>
       <r>   20.1263    0.0000 </r>
       <r>   20.5540    0.0000 </r>
       <r>   20.5827    0.0000 </r>
       <r>   20.7517    0.0000 </r>
       <r>   20.8305    0.0000 </r>
       <r>   20.8414    0.0000 </r>
       <r>   21.1399    0.0000 </r>
       <r>   21.1468    0.0000 </r>
       <r>   21.5464    0.0000 </r>
      </set>
      <set comment="kpoint 9">
       <r>    0.4486    1.0000 </r>
       <r>    2.5220    1.0000 </r>
       <r>    2.6618    1.0000 </r>
       <r>    3.5767    1.0000 </r>
       <r>    3.6031    1.0000 </r>
       <r>    3.7014    1.0000 </r>
       <r>    3.7621    1.0000 </r>
       <r>    3.7804    1.0000 </r>
       <r>    4.0025    1.0000 </r>
       <r>    4.1489    1.0000 </r>
       <r>    4.1972    1.0000 </r>
       <r>    4.3501    1.0000 </r>
       <r>    4.4757    1.0000 </r>
       <r>    4.5278    1.0000 </r>
       <r>    4.7489    1.0000 </r>
       <r>    5.0057    1.0000 </r>
       <r>    5.0636    1.0000 </r>
       <r>    5.0807    1.0000 </r>
       <r>    5.1747    1.0000 </r>
       <r>    5.1784    1.0000 </r>
       <r>    5.2173    1.0000 </r>
       <r>    5.2198    1.0000 </r>
       <r>    5.2393    1.0000 </r>
       <r>    5.2929    1.0000 </r>
       <r>    5.2930    1.0000 </r>
       <r>    5.3246    1.0000 </r>
       <r>    5.3654    1.0000 </r>
       <r>    5.3939    1.0000 </r>
       <r>    5.4417    1.0000 </r>
       <r>    5.4758    1.0000 </r>
       <r>    5.4845    1.0000 </r>
       <r>    5.4871    1.0000 </r>
       <r>    5.5378    1.0000 </r>
       <r>    5.5457    1.0000 </r>
       <r>    5.5815    1.0000 </r>
       <r>    5.6452    1.0000 </r>
       <r>    5.6713    1.0000 </r>
       <r>    5.6855    1.0000 </r>
       <r>    5.7090    1.0000 </r>
       <r>    5.8344    1.0000 </r>
       <r>    5.8432    1.0000 </r>
       <r>    5.8492    1.0000 </r>
       <r>    5.9452    1.0000 </r>
       <r>    6.0010    1.0000 </r>
       <r>    6.0900    1.0000 </r>
       <r>    6.1451    1.0000 </r>
       <r>    6.2101    1.0000 </r>
       <r>    6.2349    1.0000 </r>
       <r>    6.2528    1.0000 </r>
       <r>    6.2681    1.0000 </r>
       <r>    6.3195    1.0000 </r>
       <r>    6.3234    1.0000 </r>
       <r>    6.3697    1.0000 </r>
       <r>    6.3747    1.0000 </r>
       <r>    6.3884    1.0000 </r>
       <r>    6.4851    1.0000 </r>
       <r>    6.4962    1.0000 </r>
       <r>    6.5075    1.0000 </r>
       <r>    6.5429    1.0000 </r>
       <r>    6.6221    1.0000 </r>
       <r>    6.6327    1.0000 </r>
       <r>    6.6352    1.0000 </r>
       <r>    6.6443    1.0000 </r>
       <r>    6.6553    1.0000 </r>
       <r>    6.6576    1.0000 </r>
       <r>    6.6766    1.0000 </r>
       <r>    6.6834    1.0000 </r>
       <r>    6.7306    1.0000 </r>
       <r>    6.7339    1.0000 </r>
       <r>    6.7610    1.0000 </r>
       <r>    6.7777    1.0000 </r>
       <r>    6.7780    1.0000 </r>
       <r>    6.8051    1.0000 </r>
       <r>    6.8701    1.0000 </r>
       <r>    6.8703    1.0000 </r>
       <r>    6.8744    1.0000 </r>
       <r>    6.9482    1.0000 </r>
       <r>    7.0035    1.0000 </r>
       <r>    7.0244    1.0000 </r>
       <r>    7.1371    1.0000 </r>
       <r>    7.1486    1.0000 </r>
       <r>    7.1996    1.0000 </r>
       <r>    7.2381    1.0000 </r>
       <r>    7.3242    1.0000 </r>
       <r>    7.3813    1.0000 </r>
       <r>    7.3870    1.0000 </r>
       <r>    7.4104    1.0000 </r>
       <r>    7.4585    1.0000 </r>
       <r>    7.4902    1.0000 </r>
       <r>    7.4945    1.0000 </r>
       <r>    7.4947    1.0000 </r>
       <r>    7.5567    1.0000 </r>
       <r>    7.6120    1.0000 </r>
       <r>    7.6659    1.0000 </r>
       <r>    7.6742    1.0000 </r>
       <r>    7.6854    1.0000 </r>
       <r>    7.7107    1.0000 </r>
       <r>    7.7197    1.0000 </r>
       <r>    7.7291    1.0000 </r>
       <r>    7.7481    1.0000 </r>
       <r>    7.7544    1.0000 </r>
       <r>    7.7640    1.0000 </r>
       <r>    7.7779    1.0000 </r>
       <r>    7.7832    1.0000 </r>
       <r>    7.7838    1.0000 </r>
       <r>    7.8533    1.0000 </r>
       <r>    7.8565    1.0000 </r>
       <r>    7.9140    1.0000 </r>
       <r>    7.9265    1.0000 </r>
       <r>    7.9375    1.0000 </r>
       <r>    7.9647    1.0000 </r>
       <r>    8.0149    1.0000 </r>
       <r>    8.0255    1.0000 </r>
       <r>    8.0468    1.0000 </r>
       <r>    8.0614    1.0000 </r>
       <r>    8.1093    1.0000 </r>
       <r>    8.1278    1.0000 </r>
       <r>    8.1845    1.0000 </r>
       <r>    8.1988    1.0000 </r>
       <r>    8.2121    1.0000 </r>
       <r>    8.2244    1.0000 </r>
       <r>    8.2319    1.0000 </r>
       <r>    8.2606    1.0000 </r>
       <r>    8.2632    1.0000 </r>
       <r>    8.2914    1.0000 </r>
       <r>    8.2984    1.0000 </r>
       <r>    8.2987    1.0000 </r>
       <r>    8.3423    1.0000 </r>
       <r>    8.3524    1.0000 </r>
       <r>    8.3529    1.0000 </r>
       <r>    8.3590    1.0000 </r>
       <r>    8.3728    1.0000 </r>
       <r>    8.3768    1.0000 </r>
       <r>    8.3926    1.0001 </r>
       <r>    8.4042    1.0001 </r>
       <r>    8.5157    1.0015 </r>
       <r>    8.5337    1.0022 </r>
       <r>    8.5410    1.0025 </r>
       <r>    8.5602    1.0037 </r>
       <r>    8.7670    1.0352 </r>
       <r>    8.7997    1.0273 </r>
       <r>    8.9580    0.6895 </r>
       <r>    8.9732    0.6289 </r>
       <r>    9.8140   -0.0000 </r>
       <r>    9.9488   -0.0000 </r>
       <r>   11.0923   -0.0000 </r>
       <r>   12.2943   -0.0000 </r>
       <r>   12.4494   -0.0000 </r>
       <r>   12.4807   -0.0000 </r>
       <r>   12.4813   -0.0000 </r>
       <r>   14.0196   -0.0000 </r>
       <r>   14.0352   -0.0000 </r>
       <r>   14.0918   -0.0000 </r>
       <r>   14.0989   -0.0000 </r>
       <r>   14.3716    0.0000 </r>
       <r>   14.4485    0.0000 </r>
       <r>   14.4529    0.0000 </r>
       <r>   16.0996    0.0000 </r>
       <r>   16.1315    0.0000 </r>
       <r>   16.2434    0.0000 </r>
       <r>   16.2535    0.0000 </r>
       <r>   16.6253    0.0000 </r>
       <r>   16.6429    0.0000 </r>
       <r>   16.6839    0.0000 </r>
       <r>   16.7483    0.0000 </r>
       <r>   16.9274    0.0000 </r>
       <r>   16.9502    0.0000 </r>
       <r>   17.0574    0.0000 </r>
       <r>   17.3059    0.0000 </r>
       <r>   17.4486    0.0000 </r>
       <r>   19.0904    0.0000 </r>
       <r>   19.3773    0.0000 </r>
       <r>   19.8372    0.0000 </r>
       <r>   19.8620    0.0000 </r>
       <r>   19.9573    0.0000 </r>
       <r>   19.9599    0.0000 </r>
       <r>   20.0523    0.0000 </r>
       <r>   20.0772    0.0000 </r>
       <r>   20.7388    0.0000 </r>
       <r>   20.7432    0.0000 </r>
       <r>   20.8292    0.0000 </r>
       <r>   20.8627    0.0000 </r>
      </set>
      <set comment="kpoint 10">
       <r>    0.7610    1.0000 </r>
       <r>    2.4525    1.0000 </r>
       <r>    2.7744    1.0000 </r>
       <r>    2.8260    1.0000 </r>
       <r>    2.8260    1.0000 </r>
       <r>    3.1945    1.0000 </r>
       <r>    4.3323    1.0000 </r>
       <r>    4.3411    1.0000 </r>
       <r>    4.3411    1.0000 </r>
       <r>    4.3555    1.0000 </r>
       <r>    4.4967    1.0000 </r>
       <r>    4.5534    1.0000 </r>
       <r>    4.5534    1.0000 </r>
       <r>    4.6052    1.0000 </r>
       <r>    4.8373    1.0000 </r>
       <r>    4.8777    1.0000 </r>
       <r>    5.0149    1.0000 </r>
       <r>    5.0149    1.0000 </r>
       <r>    5.0430    1.0000 </r>
       <r>    5.0430    1.0000 </r>
       <r>    5.1464    1.0000 </r>
       <r>    5.1537    1.0000 </r>
       <r>    5.1635    1.0000 </r>
       <r>    5.2569    1.0000 </r>
       <r>    5.3111    1.0000 </r>
       <r>    5.3312    1.0000 </r>
       <r>    5.3312    1.0000 </r>
       <r>    5.3718    1.0000 </r>
       <r>    5.3718    1.0000 </r>
       <r>    5.3839    1.0000 </r>
       <r>    5.4255    1.0000 </r>
       <r>    5.4349    1.0000 </r>
       <r>    5.4609    1.0000 </r>
       <r>    5.6270    1.0000 </r>
       <r>    5.6270    1.0000 </r>
       <r>    5.6955    1.0000 </r>
       <r>    5.8390    1.0000 </r>
       <r>    5.8398    1.0000 </r>
       <r>    5.8398    1.0000 </r>
       <r>    5.8440    1.0000 </r>
       <r>    5.8748    1.0000 </r>
       <r>    5.9323    1.0000 </r>
       <r>    5.9794    1.0000 </r>
       <r>    5.9794    1.0000 </r>
       <r>    5.9876    1.0000 </r>
       <r>    6.0045    1.0000 </r>
       <r>    6.0045    1.0000 </r>
       <r>    6.0498    1.0000 </r>
       <r>    6.0931    1.0000 </r>
       <r>    6.1408    1.0000 </r>
       <r>    6.1845    1.0000 </r>
       <r>    6.3158    1.0000 </r>
       <r>    6.3158    1.0000 </r>
       <r>    6.3925    1.0000 </r>
       <r>    6.4621    1.0000 </r>
       <r>    6.4621    1.0000 </r>
       <r>    6.4757    1.0000 </r>
       <r>    6.5985    1.0000 </r>
       <r>    6.6181    1.0000 </r>
       <r>    6.6379    1.0000 </r>
       <r>    6.6379    1.0000 </r>
       <r>    6.6816    1.0000 </r>
       <r>    6.7593    1.0000 </r>
       <r>    6.7665    1.0000 </r>
       <r>    6.7665    1.0000 </r>
       <r>    6.7880    1.0000 </r>
       <r>    6.7880    1.0000 </r>
       <r>    6.7923    1.0000 </r>
       <r>    6.7970    1.0000 </r>
       <r>    6.7997    1.0000 </r>
       <r>    6.7997    1.0000 </r>
       <r>    6.8273    1.0000 </r>
       <r>    6.8273    1.0000 </r>
       <r>    6.8388    1.0000 </r>
       <r>    6.8431    1.0000 </r>
       <r>    6.8583    1.0000 </r>
       <r>    6.9058    1.0000 </r>
       <r>    6.9326    1.0000 </r>
       <r>    6.9326    1.0000 </r>
       <r>    6.9729    1.0000 </r>
       <r>    6.9763    1.0000 </r>
       <r>    7.0010    1.0000 </r>
       <r>    7.0253    1.0000 </r>
       <r>    7.0253    1.0000 </r>
       <r>    7.1933    1.0000 </r>
       <r>    7.2589    1.0000 </r>
       <r>    7.2589    1.0000 </r>
       <r>    7.2674    1.0000 </r>
       <r>    7.2674    1.0000 </r>
       <r>    7.2757    1.0000 </r>
       <r>    7.3294    1.0000 </r>
       <r>    7.3935    1.0000 </r>
       <r>    7.5252    1.0000 </r>
       <r>    7.5252    1.0000 </r>
       <r>    7.5580    1.0000 </r>
       <r>    7.5669    1.0000 </r>
       <r>    7.5915    1.0000 </r>
       <r>    7.5981    1.0000 </r>
       <r>    7.6279    1.0000 </r>
       <r>    7.6279    1.0000 </r>
       <r>    7.7615    1.0000 </r>
       <r>    7.8139    1.0000 </r>
       <r>    7.8987    1.0000 </r>
       <r>    7.9193    1.0000 </r>
       <r>    7.9193    1.0000 </r>
       <r>    7.9276    1.0000 </r>
       <r>    7.9276    1.0000 </r>
       <r>    7.9537    1.0000 </r>
       <r>    7.9597    1.0000 </r>
       <r>    7.9675    1.0000 </r>
       <r>    8.0033    1.0000 </r>
       <r>    8.0055    1.0000 </r>
       <r>    8.0055    1.0000 </r>
       <r>    8.0224    1.0000 </r>
       <r>    8.0550    1.0000 </r>
       <r>    8.0875    1.0000 </r>
       <r>    8.0875    1.0000 </r>
       <r>    8.1758    1.0000 </r>
       <r>    8.1758    1.0000 </r>
       <r>    8.2315    1.0000 </r>
       <r>    8.2424    1.0000 </r>
       <r>    8.3390    1.0000 </r>
       <r>    8.3528    1.0000 </r>
       <r>    8.3528    1.0000 </r>
       <r>    8.3982    1.0001 </r>
       <r>    8.4043    1.0001 </r>
       <r>    8.4134    1.0001 </r>
       <r>    8.4134    1.0001 </r>
       <r>    8.4431    1.0003 </r>
       <r>    8.4465    1.0003 </r>
       <r>    8.4512    1.0003 </r>
       <r>    8.4512    1.0003 </r>
       <r>    8.5053    1.0012 </r>
       <r>    8.5080    1.0013 </r>
       <r>    8.5130    1.0014 </r>
       <r>    8.5130    1.0014 </r>
       <r>    9.3001   -0.0285 </r>
       <r>    9.3374   -0.0200 </r>
       <r>    9.3388   -0.0197 </r>
       <r>    9.3388   -0.0197 </r>
       <r>    9.3634   -0.0146 </r>
       <r>    9.4537   -0.0033 </r>
       <r>    9.4537   -0.0033 </r>
       <r>    9.6545   -0.0000 </r>
       <r>   10.9287   -0.0000 </r>
       <r>   11.1706   -0.0000 </r>
       <r>   11.2652   -0.0000 </r>
       <r>   11.2652   -0.0000 </r>
       <r>   11.4279   -0.0000 </r>
       <r>   12.3697   -0.0000 </r>
       <r>   12.5091   -0.0000 </r>
       <r>   12.5091   -0.0000 </r>
       <r>   12.6724   -0.0000 </r>
       <r>   14.6780    0.0000 </r>
       <r>   14.7761    0.0000 </r>
       <r>   15.0290    0.0000 </r>
       <r>   15.0290    0.0000 </r>
       <r>   15.3243    0.0000 </r>
       <r>   15.4976    0.0000 </r>
       <r>   15.4976    0.0000 </r>
       <r>   15.6338    0.0000 </r>
       <r>   16.8862    0.0000 </r>
       <r>   17.0146    0.0000 </r>
       <r>   17.0146    0.0000 </r>
       <r>   17.1363    0.0000 </r>
       <r>   17.6538    0.0000 </r>
       <r>   17.6848    0.0000 </r>
       <r>   17.6848    0.0000 </r>
       <r>   17.8995    0.0000 </r>
       <r>   19.1206    0.0000 </r>
       <r>   19.1278    0.0000 </r>
       <r>   19.1278    0.0000 </r>
       <r>   19.2898    0.0000 </r>
       <r>   19.5289    0.0000 </r>
       <r>   19.5381    0.0000 </r>
       <r>   19.5526    0.0000 </r>
       <r>   19.7705    0.0000 </r>
       <r>   19.7705    0.0000 </r>
       <r>   21.2776    0.0000 </r>
       <r>   21.2776    0.0000 </r>
       <r>   21.3172    0.0000 </r>
       <r>   21.4631    0.0000 </r>
      </set>
      <set comment="kpoint 11">
       <r>    1.1736    1.0000 </r>
       <r>    1.9661    1.0000 </r>
       <r>    2.1552    1.0000 </r>
       <r>    2.8146    1.0000 </r>
       <r>    2.9683    1.0000 </r>
       <r>    3.6113    1.0000 </r>
       <r>    4.4164    1.0000 </r>
       <r>    4.4789    1.0000 </r>
       <r>    4.5092    1.0000 </r>
       <r>    4.5126    1.0000 </r>
       <r>    4.5598    1.0000 </r>
       <r>    4.5866    1.0000 </r>
       <r>    4.7175    1.0000 </r>
       <r>    4.7966    1.0000 </r>
       <r>    4.8306    1.0000 </r>
       <r>    4.8493    1.0000 </r>
       <r>    4.8588    1.0000 </r>
       <r>    4.9063    1.0000 </r>
       <r>    4.9331    1.0000 </r>
       <r>    4.9340    1.0000 </r>
       <r>    4.9754    1.0000 </r>
       <r>    4.9830    1.0000 </r>
       <r>    5.1478    1.0000 </r>
       <r>    5.1934    1.0000 </r>
       <r>    5.2046    1.0000 </r>
       <r>    5.2070    1.0000 </r>
       <r>    5.2373    1.0000 </r>
       <r>    5.3155    1.0000 </r>
       <r>    5.3917    1.0000 </r>
       <r>    5.4479    1.0000 </r>
       <r>    5.4814    1.0000 </r>
       <r>    5.5414    1.0000 </r>
       <r>    5.5636    1.0000 </r>
       <r>    5.5920    1.0000 </r>
       <r>    5.6628    1.0000 </r>
       <r>    5.6772    1.0000 </r>
       <r>    5.7469    1.0000 </r>
       <r>    5.7714    1.0000 </r>
       <r>    5.7996    1.0000 </r>
       <r>    5.8737    1.0000 </r>
       <r>    5.9103    1.0000 </r>
       <r>    6.0016    1.0000 </r>
       <r>    6.0106    1.0000 </r>
       <r>    6.0200    1.0000 </r>
       <r>    6.0415    1.0000 </r>
       <r>    6.0805    1.0000 </r>
       <r>    6.1141    1.0000 </r>
       <r>    6.1468    1.0000 </r>
       <r>    6.1685    1.0000 </r>
       <r>    6.2104    1.0000 </r>
       <r>    6.2323    1.0000 </r>
       <r>    6.2640    1.0000 </r>
       <r>    6.2737    1.0000 </r>
       <r>    6.2826    1.0000 </r>
       <r>    6.3469    1.0000 </r>
       <r>    6.3759    1.0000 </r>
       <r>    6.3884    1.0000 </r>
       <r>    6.4736    1.0000 </r>
       <r>    6.4997    1.0000 </r>
       <r>    6.5297    1.0000 </r>
       <r>    6.5663    1.0000 </r>
       <r>    6.5805    1.0000 </r>
       <r>    6.6287    1.0000 </r>
       <r>    6.6534    1.0000 </r>
       <r>    6.6745    1.0000 </r>
       <r>    6.6881    1.0000 </r>
       <r>    6.6927    1.0000 </r>
       <r>    6.7457    1.0000 </r>
       <r>    6.7606    1.0000 </r>
       <r>    6.7618    1.0000 </r>
       <r>    6.7895    1.0000 </r>
       <r>    6.8218    1.0000 </r>
       <r>    6.8299    1.0000 </r>
       <r>    6.8761    1.0000 </r>
       <r>    6.8971    1.0000 </r>
       <r>    6.9233    1.0000 </r>
       <r>    6.9708    1.0000 </r>
       <r>    6.9834    1.0000 </r>
       <r>    7.0453    1.0000 </r>
       <r>    7.0521    1.0000 </r>
       <r>    7.0754    1.0000 </r>
       <r>    7.0898    1.0000 </r>
       <r>    7.1000    1.0000 </r>
       <r>    7.1400    1.0000 </r>
       <r>    7.1635    1.0000 </r>
       <r>    7.1896    1.0000 </r>
       <r>    7.2038    1.0000 </r>
       <r>    7.2143    1.0000 </r>
       <r>    7.2521    1.0000 </r>
       <r>    7.2661    1.0000 </r>
       <r>    7.3598    1.0000 </r>
       <r>    7.4056    1.0000 </r>
       <r>    7.4501    1.0000 </r>
       <r>    7.4634    1.0000 </r>
       <r>    7.4917    1.0000 </r>
       <r>    7.5148    1.0000 </r>
       <r>    7.5266    1.0000 </r>
       <r>    7.5597    1.0000 </r>
       <r>    7.6158    1.0000 </r>
       <r>    7.6177    1.0000 </r>
       <r>    7.7193    1.0000 </r>
       <r>    7.7402    1.0000 </r>
       <r>    7.7644    1.0000 </r>
       <r>    7.8105    1.0000 </r>
       <r>    7.8432    1.0000 </r>
       <r>    7.8832    1.0000 </r>
       <r>    7.8888    1.0000 </r>
       <r>    7.9363    1.0000 </r>
       <r>    7.9516    1.0000 </r>
       <r>    7.9602    1.0000 </r>
       <r>    7.9860    1.0000 </r>
       <r>    8.0252    1.0000 </r>
       <r>    8.0716    1.0000 </r>
       <r>    8.0783    1.0000 </r>
       <r>    8.0786    1.0000 </r>
       <r>    8.1642    1.0000 </r>
       <r>    8.1837    1.0000 </r>
       <r>    8.2026    1.0000 </r>
       <r>    8.2395    1.0000 </r>
       <r>    8.2474    1.0000 </r>
       <r>    8.2617    1.0000 </r>
       <r>    8.3345    1.0000 </r>
       <r>    8.3771    1.0000 </r>
       <r>    8.3846    1.0001 </r>
       <r>    8.3893    1.0001 </r>
       <r>    8.4045    1.0001 </r>
       <r>    8.4118    1.0001 </r>
       <r>    8.4250    1.0002 </r>
       <r>    8.4507    1.0003 </r>
       <r>    8.4678    1.0005 </r>
       <r>    8.4947    1.0009 </r>
       <r>    8.5031    1.0011 </r>
       <r>    8.5489    1.0030 </r>
       <r>    8.5608    1.0037 </r>
       <r>    8.5670    1.0042 </r>
       <r>    8.7026    1.0273 </r>
       <r>    9.3320   -0.0213 </r>
       <r>    9.3816   -0.0113 </r>
       <r>    9.6670   -0.0000 </r>
       <r>   10.0027   -0.0000 </r>
       <r>   10.1196   -0.0000 </r>
       <r>   10.1985   -0.0000 </r>
       <r>   10.2304   -0.0000 </r>
       <r>   10.2770   -0.0000 </r>
       <r>   10.5013   -0.0000 </r>
       <r>   10.6225   -0.0000 </r>
       <r>   11.2097   -0.0000 </r>
       <r>   11.4435   -0.0000 </r>
       <r>   11.4512   -0.0000 </r>
       <r>   11.6073   -0.0000 </r>
       <r>   11.6728   -0.0000 </r>
       <r>   11.7807   -0.0000 </r>
       <r>   12.1305   -0.0000 </r>
       <r>   13.6881   -0.0000 </r>
       <r>   13.7078   -0.0000 </r>
       <r>   14.9492    0.0000 </r>
       <r>   15.0856    0.0000 </r>
       <r>   15.1128    0.0000 </r>
       <r>   15.3710    0.0000 </r>
       <r>   15.7566    0.0000 </r>
       <r>   15.7596    0.0000 </r>
       <r>   16.5398    0.0000 </r>
       <r>   16.5692    0.0000 </r>
       <r>   17.0881    0.0000 </r>
       <r>   18.0318    0.0000 </r>
       <r>   18.0371    0.0000 </r>
       <r>   18.2050    0.0000 </r>
       <r>   18.7367    0.0000 </r>
       <r>   18.9951    0.0000 </r>
       <r>   19.0138    0.0000 </r>
       <r>   19.3000    0.0000 </r>
       <r>   19.3395    0.0000 </r>
       <r>   19.5359    0.0000 </r>
       <r>   19.6318    0.0000 </r>
       <r>   19.9167    0.0000 </r>
       <r>   20.0812    0.0000 </r>
       <r>   20.3389    0.0000 </r>
       <r>   20.3622    0.0000 </r>
       <r>   20.9675    0.0000 </r>
       <r>   21.0146    0.0000 </r>
       <r>   21.4621    0.0000 </r>
       <r>   21.5316    0.0000 </r>
      </set>
      <set comment="kpoint 12">
       <r>    1.3424    1.0000 </r>
       <r>    1.7318    1.0000 </r>
       <r>    1.9307    1.0000 </r>
       <r>    2.9749    1.0000 </r>
       <r>    3.1164    1.0000 </r>
       <r>    4.2869    1.0000 </r>
       <r>    4.3402    1.0000 </r>
       <r>    4.3825    1.0000 </r>
       <r>    4.3966    1.0000 </r>
       <r>    4.4451    1.0000 </r>
       <r>    4.4913    1.0000 </r>
       <r>    4.5392    1.0000 </r>
       <r>    4.5504    1.0000 </r>
       <r>    4.7110    1.0000 </r>
       <r>    4.7530    1.0000 </r>
       <r>    4.8129    1.0000 </r>
       <r>    4.8271    1.0000 </r>
       <r>    4.8523    1.0000 </r>
       <r>    4.9031    1.0000 </r>
       <r>    4.9171    1.0000 </r>
       <r>    5.0331    1.0000 </r>
       <r>    5.0605    1.0000 </r>
       <r>    5.0627    1.0000 </r>
       <r>    5.1594    1.0000 </r>
       <r>    5.1969    1.0000 </r>
       <r>    5.2441    1.0000 </r>
       <r>    5.2777    1.0000 </r>
       <r>    5.3327    1.0000 </r>
       <r>    5.3371    1.0000 </r>
       <r>    5.5116    1.0000 </r>
       <r>    5.5151    1.0000 </r>
       <r>    5.5597    1.0000 </r>
       <r>    5.5835    1.0000 </r>
       <r>    5.6120    1.0000 </r>
       <r>    5.6518    1.0000 </r>
       <r>    5.7596    1.0000 </r>
       <r>    5.7637    1.0000 </r>
       <r>    5.7887    1.0000 </r>
       <r>    5.8546    1.0000 </r>
       <r>    5.8931    1.0000 </r>
       <r>    5.9251    1.0000 </r>
       <r>    5.9300    1.0000 </r>
       <r>    5.9769    1.0000 </r>
       <r>    6.0309    1.0000 </r>
       <r>    6.0360    1.0000 </r>
       <r>    6.0993    1.0000 </r>
       <r>    6.1033    1.0000 </r>
       <r>    6.1608    1.0000 </r>
       <r>    6.1611    1.0000 </r>
       <r>    6.1634    1.0000 </r>
       <r>    6.1782    1.0000 </r>
       <r>    6.2097    1.0000 </r>
       <r>    6.3078    1.0000 </r>
       <r>    6.3468    1.0000 </r>
       <r>    6.4159    1.0000 </r>
       <r>    6.4220    1.0000 </r>
       <r>    6.4378    1.0000 </r>
       <r>    6.4626    1.0000 </r>
       <r>    6.4835    1.0000 </r>
       <r>    6.5045    1.0000 </r>
       <r>    6.5246    1.0000 </r>
       <r>    6.5303    1.0000 </r>
       <r>    6.5305    1.0000 </r>
       <r>    6.5498    1.0000 </r>
       <r>    6.5961    1.0000 </r>
       <r>    6.6673    1.0000 </r>
       <r>    6.6800    1.0000 </r>
       <r>    6.6857    1.0000 </r>
       <r>    6.7005    1.0000 </r>
       <r>    6.7413    1.0000 </r>
       <r>    6.7636    1.0000 </r>
       <r>    6.7869    1.0000 </r>
       <r>    6.7890    1.0000 </r>
       <r>    6.8502    1.0000 </r>
       <r>    6.8920    1.0000 </r>
       <r>    6.8992    1.0000 </r>
       <r>    6.9701    1.0000 </r>
       <r>    7.0287    1.0000 </r>
       <r>    7.0577    1.0000 </r>
       <r>    7.1319    1.0000 </r>
       <r>    7.2029    1.0000 </r>
       <r>    7.2158    1.0000 </r>
       <r>    7.2222    1.0000 </r>
       <r>    7.2366    1.0000 </r>
       <r>    7.2368    1.0000 </r>
       <r>    7.2742    1.0000 </r>
       <r>    7.2908    1.0000 </r>
       <r>    7.3292    1.0000 </r>
       <r>    7.3398    1.0000 </r>
       <r>    7.3468    1.0000 </r>
       <r>    7.3530    1.0000 </r>
       <r>    7.3659    1.0000 </r>
       <r>    7.4405    1.0000 </r>
       <r>    7.4421    1.0000 </r>
       <r>    7.4470    1.0000 </r>
       <r>    7.4869    1.0000 </r>
       <r>    7.4904    1.0000 </r>
       <r>    7.5293    1.0000 </r>
       <r>    7.5763    1.0000 </r>
       <r>    7.6217    1.0000 </r>
       <r>    7.7016    1.0000 </r>
       <r>    7.7581    1.0000 </r>
       <r>    7.7600    1.0000 </r>
       <r>    7.7609    1.0000 </r>
       <r>    7.7839    1.0000 </r>
       <r>    7.8585    1.0000 </r>
       <r>    7.8671    1.0000 </r>
       <r>    7.8744    1.0000 </r>
       <r>    7.9243    1.0000 </r>
       <r>    7.9333    1.0000 </r>
       <r>    7.9705    1.0000 </r>
       <r>    7.9989    1.0000 </r>
       <r>    8.0186    1.0000 </r>
       <r>    8.1500    1.0000 </r>
       <r>    8.1669    1.0000 </r>
       <r>    8.1861    1.0000 </r>
       <r>    8.2066    1.0000 </r>
       <r>    8.2145    1.0000 </r>
       <r>    8.2829    1.0000 </r>
       <r>    8.2962    1.0000 </r>
       <r>    8.3227    1.0000 </r>
       <r>    8.3297    1.0000 </r>
       <r>    8.3353    1.0000 </r>
       <r>    8.3530    1.0000 </r>
       <r>    8.3736    1.0000 </r>
       <r>    8.3780    1.0000 </r>
       <r>    8.3821    1.0000 </r>
       <r>    8.3943    1.0001 </r>
       <r>    8.4102    1.0001 </r>
       <r>    8.4339    1.0002 </r>
       <r>    8.4614    1.0004 </r>
       <r>    8.4805    1.0007 </r>
       <r>    8.5045    1.0012 </r>
       <r>    8.5213    1.0017 </r>
       <r>    8.5354    1.0023 </r>
       <r>    9.2359   -0.0347 </r>
       <r>    9.2380   -0.0350 </r>
       <r>    9.2473   -0.0354 </r>
       <r>    9.2744   -0.0334 </r>
       <r>    9.3877   -0.0103 </r>
       <r>    9.8913   -0.0000 </r>
       <r>    9.9251   -0.0000 </r>
       <r>   10.4141   -0.0000 </r>
       <r>   10.4882   -0.0000 </r>
       <r>   11.1498   -0.0000 </r>
       <r>   11.2286   -0.0000 </r>
       <r>   11.3695   -0.0000 </r>
       <r>   11.3990   -0.0000 </r>
       <r>   11.8082   -0.0000 </r>
       <r>   11.8262   -0.0000 </r>
       <r>   11.8450   -0.0000 </r>
       <r>   12.0892   -0.0000 </r>
       <r>   12.4014   -0.0000 </r>
       <r>   12.5426   -0.0000 </r>
       <r>   12.6967   -0.0000 </r>
       <r>   14.7435    0.0000 </r>
       <r>   14.9259    0.0000 </r>
       <r>   14.9738    0.0000 </r>
       <r>   15.1238    0.0000 </r>
       <r>   16.1282    0.0000 </r>
       <r>   16.1439    0.0000 </r>
       <r>   16.3440    0.0000 </r>
       <r>   16.3555    0.0000 </r>
       <r>   17.9525    0.0000 </r>
       <r>   18.1738    0.0000 </r>
       <r>   18.4782    0.0000 </r>
       <r>   18.5747    0.0000 </r>
       <r>   18.6707    0.0000 </r>
       <r>   18.7178    0.0000 </r>
       <r>   18.7621    0.0000 </r>
       <r>   19.2064    0.0000 </r>
       <r>   19.3697    0.0000 </r>
       <r>   19.8037    0.0000 </r>
       <r>   19.8106    0.0000 </r>
       <r>   20.0659    0.0000 </r>
       <r>   20.1068    0.0000 </r>
       <r>   20.6008    0.0000 </r>
       <r>   20.6300    0.0000 </r>
       <r>   20.7189    0.0000 </r>
       <r>   20.7473    0.0000 </r>
       <r>   21.2585    0.0000 </r>
       <r>   21.2911    0.0000 </r>
      </set>
      <set comment="kpoint 13">
       <r>    1.4407    1.0000 </r>
       <r>    1.5863    1.0000 </r>
       <r>    2.6717    1.0000 </r>
       <r>    2.7241    1.0000 </r>
       <r>    2.7241    1.0000 </r>
       <r>    3.0997    1.0000 </r>
       <r>    4.3963    1.0000 </r>
       <r>    4.6606    1.0000 </r>
       <r>    4.6606    1.0000 </r>
       <r>    4.6608    1.0000 </r>
       <r>    4.7273    1.0000 </r>
       <r>    4.7310    1.0000 </r>
       <r>    4.7448    1.0000 </r>
       <r>    4.7448    1.0000 </r>
       <r>    4.8397    1.0000 </r>
       <r>    4.9279    1.0000 </r>
       <r>    4.9317    1.0000 </r>
       <r>    4.9413    1.0000 </r>
       <r>    4.9413    1.0000 </r>
       <r>    4.9465    1.0000 </r>
       <r>    4.9465    1.0000 </r>
       <r>    5.0064    1.0000 </r>
       <r>    5.0496    1.0000 </r>
       <r>    5.0496    1.0000 </r>
       <r>    5.0708    1.0000 </r>
       <r>    5.1131    1.0000 </r>
       <r>    5.3276    1.0000 </r>
       <r>    5.3680    1.0000 </r>
       <r>    5.3798    1.0000 </r>
       <r>    5.3798    1.0000 </r>
       <r>    5.4252    1.0000 </r>
       <r>    5.5314    1.0000 </r>
       <r>    5.6116    1.0000 </r>
       <r>    5.6235    1.0000 </r>
       <r>    5.6298    1.0000 </r>
       <r>    5.6329    1.0000 </r>
       <r>    5.6351    1.0000 </r>
       <r>    5.6351    1.0000 </r>
       <r>    5.7991    1.0000 </r>
       <r>    5.7991    1.0000 </r>
       <r>    6.0175    1.0000 </r>
       <r>    6.0828    1.0000 </r>
       <r>    6.1038    1.0000 </r>
       <r>    6.1038    1.0000 </r>
       <r>    6.1140    1.0000 </r>
       <r>    6.1531    1.0000 </r>
       <r>    6.1538    1.0000 </r>
       <r>    6.1593    1.0000 </r>
       <r>    6.1682    1.0000 </r>
       <r>    6.1682    1.0000 </r>
       <r>    6.2099    1.0000 </r>
       <r>    6.2099    1.0000 </r>
       <r>    6.2361    1.0000 </r>
       <r>    6.2781    1.0000 </r>
       <r>    6.3207    1.0000 </r>
       <r>    6.3575    1.0000 </r>
       <r>    6.3575    1.0000 </r>
       <r>    6.3717    1.0000 </r>
       <r>    6.4757    1.0000 </r>
       <r>    6.5185    1.0000 </r>
       <r>    6.5185    1.0000 </r>
       <r>    6.5344    1.0000 </r>
       <r>    6.7078    1.0000 </r>
       <r>    6.7212    1.0000 </r>
       <r>    6.7254    1.0000 </r>
       <r>    6.7254    1.0000 </r>
       <r>    6.7775    1.0000 </r>
       <r>    6.7775    1.0000 </r>
       <r>    6.7854    1.0000 </r>
       <r>    6.7960    1.0000 </r>
       <r>    6.7960    1.0000 </r>
       <r>    6.8414    1.0000 </r>
       <r>    6.8618    1.0000 </r>
       <r>    6.9129    1.0000 </r>
       <r>    6.9706    1.0000 </r>
       <r>    6.9706    1.0000 </r>
       <r>    6.9731    1.0000 </r>
       <r>    6.9731    1.0000 </r>
       <r>    6.9888    1.0000 </r>
       <r>    7.0072    1.0000 </r>
       <r>    7.0136    1.0000 </r>
       <r>    7.0136    1.0000 </r>
       <r>    7.0250    1.0000 </r>
       <r>    7.0376    1.0000 </r>
       <r>    7.0966    1.0000 </r>
       <r>    7.0966    1.0000 </r>
       <r>    7.1110    1.0000 </r>
       <r>    7.1110    1.0000 </r>
       <r>    7.1211    1.0000 </r>
       <r>    7.1964    1.0000 </r>
       <r>    7.2273    1.0000 </r>
       <r>    7.3647    1.0000 </r>
       <r>    7.3817    1.0000 </r>
       <r>    7.4044    1.0000 </r>
       <r>    7.4044    1.0000 </r>
       <r>    7.5660    1.0000 </r>
       <r>    7.5670    1.0000 </r>
       <r>    7.7150    1.0000 </r>
       <r>    7.7912    1.0000 </r>
       <r>    7.8257    1.0000 </r>
       <r>    7.8259    1.0000 </r>
       <r>    7.8259    1.0000 </r>
       <r>    7.8259    1.0000 </r>
       <r>    7.8507    1.0000 </r>
       <r>    7.8507    1.0000 </r>
       <r>    7.9004    1.0000 </r>
       <r>    7.9143    1.0000 </r>
       <r>    7.9143    1.0000 </r>
       <r>    7.9494    1.0000 </r>
       <r>    7.9514    1.0000 </r>
       <r>    7.9553    1.0000 </r>
       <r>    7.9553    1.0000 </r>
       <r>    7.9674    1.0000 </r>
       <r>    7.9874    1.0000 </r>
       <r>    7.9929    1.0000 </r>
       <r>    8.0425    1.0000 </r>
       <r>    8.0425    1.0000 </r>
       <r>    8.1898    1.0000 </r>
       <r>    8.1898    1.0000 </r>
       <r>    8.2639    1.0000 </r>
       <r>    8.2825    1.0000 </r>
       <r>    8.3544    1.0000 </r>
       <r>    8.3904    1.0001 </r>
       <r>    8.3904    1.0001 </r>
       <r>    8.4477    1.0003 </r>
       <r>    8.4671    1.0005 </r>
       <r>    8.4671    1.0005 </r>
       <r>    8.4690    1.0005 </r>
       <r>    8.4703    1.0005 </r>
       <r>    8.4832    1.0007 </r>
       <r>    8.5103    1.0013 </r>
       <r>    8.5103    1.0013 </r>
       <r>    8.5898    1.0063 </r>
       <r>    8.5978    1.0072 </r>
       <r>    8.5978    1.0072 </r>
       <r>    8.6061    1.0083 </r>
       <r>   10.1002   -0.0000 </r>
       <r>   10.1135   -0.0000 </r>
       <r>   10.1135   -0.0000 </r>
       <r>   10.2868   -0.0000 </r>
       <r>   10.2963   -0.0000 </r>
       <r>   10.3841   -0.0000 </r>
       <r>   10.3841   -0.0000 </r>
       <r>   10.4396   -0.0000 </r>
       <r>   10.6851   -0.0000 </r>
       <r>   10.6851   -0.0000 </r>
       <r>   10.7205   -0.0000 </r>
       <r>   10.7415   -0.0000 </r>
       <r>   10.8315   -0.0000 </r>
       <r>   11.0126   -0.0000 </r>
       <r>   11.0126   -0.0000 </r>
       <r>   11.0249   -0.0000 </r>
       <r>   11.9869   -0.0000 </r>
       <r>   14.3995    0.0000 </r>
       <r>   14.5072    0.0000 </r>
       <r>   14.8047    0.0000 </r>
       <r>   14.8047    0.0000 </r>
       <r>   15.8833    0.0000 </r>
       <r>   15.9308    0.0000 </r>
       <r>   15.9612    0.0000 </r>
       <r>   15.9612    0.0000 </r>
       <r>   15.9655    0.0000 </r>
       <r>   16.1842    0.0000 </r>
       <r>   16.1842    0.0000 </r>
       <r>   16.3799    0.0000 </r>
       <r>   18.4000    0.0000 </r>
       <r>   18.7570    0.0000 </r>
       <r>   18.8366    0.0000 </r>
       <r>   18.8366    0.0000 </r>
       <r>   18.8609    0.0000 </r>
       <r>   19.4708    0.0000 </r>
       <r>   19.4708    0.0000 </r>
       <r>   19.6464    0.0000 </r>
       <r>   20.0191    0.0000 </r>
       <r>   21.1569    0.0000 </r>
       <r>   21.2222    0.0000 </r>
       <r>   21.2222    0.0000 </r>
       <r>   21.2268    0.0000 </r>
       <r>   21.2268    0.0000 </r>
       <r>   21.2504    0.0000 </r>
       <r>   21.2517    0.0000 </r>
       <r>   21.2636    0.0000 </r>
      </set>
      <set comment="kpoint 14">
       <r>    0.9119    1.0000 </r>
       <r>    2.1496    1.0000 </r>
       <r>    2.2783    1.0000 </r>
       <r>    2.6921    1.0000 </r>
       <r>    3.5922    1.0000 </r>
       <r>    3.7438    1.0000 </r>
       <r>    3.9621    1.0000 </r>
       <r>    4.3485    1.0000 </r>
       <r>    4.3677    1.0000 </r>
       <r>    4.3897    1.0000 </r>
       <r>    4.4126    1.0000 </r>
       <r>    4.5663    1.0000 </r>
       <r>    4.6021    1.0000 </r>
       <r>    4.6945    1.0000 </r>
       <r>    4.8239    1.0000 </r>
       <r>    4.8438    1.0000 </r>
       <r>    4.9083    1.0000 </r>
       <r>    4.9231    1.0000 </r>
       <r>    5.0014    1.0000 </r>
       <r>    5.0102    1.0000 </r>
       <r>    5.0638    1.0000 </r>
       <r>    5.0984    1.0000 </r>
       <r>    5.1523    1.0000 </r>
       <r>    5.2131    1.0000 </r>
       <r>    5.2396    1.0000 </r>
       <r>    5.2604    1.0000 </r>
       <r>    5.2963    1.0000 </r>
       <r>    5.3321    1.0000 </r>
       <r>    5.3936    1.0000 </r>
       <r>    5.4614    1.0000 </r>
       <r>    5.4850    1.0000 </r>
       <r>    5.4885    1.0000 </r>
       <r>    5.5687    1.0000 </r>
       <r>    5.6000    1.0000 </r>
       <r>    5.6666    1.0000 </r>
       <r>    5.6984    1.0000 </r>
       <r>    5.7309    1.0000 </r>
       <r>    5.7835    1.0000 </r>
       <r>    5.8367    1.0000 </r>
       <r>    5.8826    1.0000 </r>
       <r>    5.9237    1.0000 </r>
       <r>    5.9585    1.0000 </r>
       <r>    5.9887    1.0000 </r>
       <r>    6.0221    1.0000 </r>
       <r>    6.0594    1.0000 </r>
       <r>    6.0923    1.0000 </r>
       <r>    6.1010    1.0000 </r>
       <r>    6.1219    1.0000 </r>
       <r>    6.1590    1.0000 </r>
       <r>    6.1800    1.0000 </r>
       <r>    6.2095    1.0000 </r>
       <r>    6.2846    1.0000 </r>
       <r>    6.2866    1.0000 </r>
       <r>    6.3177    1.0000 </r>
       <r>    6.3393    1.0000 </r>
       <r>    6.3906    1.0000 </r>
       <r>    6.3906    1.0000 </r>
       <r>    6.4846    1.0000 </r>
       <r>    6.5239    1.0000 </r>
       <r>    6.5598    1.0000 </r>
       <r>    6.5786    1.0000 </r>
       <r>    6.6126    1.0000 </r>
       <r>    6.6240    1.0000 </r>
       <r>    6.6274    1.0000 </r>
       <r>    6.6641    1.0000 </r>
       <r>    6.7094    1.0000 </r>
       <r>    6.7126    1.0000 </r>
       <r>    6.7291    1.0000 </r>
       <r>    6.7528    1.0000 </r>
       <r>    6.7735    1.0000 </r>
       <r>    6.7897    1.0000 </r>
       <r>    6.8126    1.0000 </r>
       <r>    6.8143    1.0000 </r>
       <r>    6.8536    1.0000 </r>
       <r>    6.8712    1.0000 </r>
       <r>    6.8736    1.0000 </r>
       <r>    6.9805    1.0000 </r>
       <r>    7.0060    1.0000 </r>
       <r>    7.0417    1.0000 </r>
       <r>    7.0595    1.0000 </r>
       <r>    7.1030    1.0000 </r>
       <r>    7.1135    1.0000 </r>
       <r>    7.1274    1.0000 </r>
       <r>    7.1899    1.0000 </r>
       <r>    7.2064    1.0000 </r>
       <r>    7.2736    1.0000 </r>
       <r>    7.2888    1.0000 </r>
       <r>    7.3680    1.0000 </r>
       <r>    7.3724    1.0000 </r>
       <r>    7.4120    1.0000 </r>
       <r>    7.4595    1.0000 </r>
       <r>    7.4717    1.0000 </r>
       <r>    7.4913    1.0000 </r>
       <r>    7.5032    1.0000 </r>
       <r>    7.5143    1.0000 </r>
       <r>    7.5567    1.0000 </r>
       <r>    7.5861    1.0000 </r>
       <r>    7.5971    1.0000 </r>
       <r>    7.6208    1.0000 </r>
       <r>    7.6463    1.0000 </r>
       <r>    7.6572    1.0000 </r>
       <r>    7.6841    1.0000 </r>
       <r>    7.6878    1.0000 </r>
       <r>    7.7311    1.0000 </r>
       <r>    7.7615    1.0000 </r>
       <r>    7.8349    1.0000 </r>
       <r>    7.8600    1.0000 </r>
       <r>    7.9053    1.0000 </r>
       <r>    7.9542    1.0000 </r>
       <r>    7.9603    1.0000 </r>
       <r>    8.0091    1.0000 </r>
       <r>    8.0594    1.0000 </r>
       <r>    8.0852    1.0000 </r>
       <r>    8.1371    1.0000 </r>
       <r>    8.1505    1.0000 </r>
       <r>    8.1621    1.0000 </r>
       <r>    8.1843    1.0000 </r>
       <r>    8.2346    1.0000 </r>
       <r>    8.2357    1.0000 </r>
       <r>    8.2849    1.0000 </r>
       <r>    8.2936    1.0000 </r>
       <r>    8.2968    1.0000 </r>
       <r>    8.3010    1.0000 </r>
       <r>    8.3330    1.0000 </r>
       <r>    8.3372    1.0000 </r>
       <r>    8.3565    1.0000 </r>
       <r>    8.3758    1.0000 </r>
       <r>    8.4063    1.0001 </r>
       <r>    8.4085    1.0001 </r>
       <r>    8.4437    1.0003 </r>
       <r>    8.4456    1.0003 </r>
       <r>    8.4707    1.0005 </r>
       <r>    8.5076    1.0013 </r>
       <r>    8.5136    1.0014 </r>
       <r>    8.6583    1.0173 </r>
       <r>    8.6760    1.0212 </r>
       <r>    8.7039    1.0276 </r>
       <r>    9.2092   -0.0276 </r>
       <r>    9.2881   -0.0310 </r>
       <r>    9.5063   -0.0011 </r>
       <r>    9.5428   -0.0005 </r>
       <r>    9.7529   -0.0000 </r>
       <r>    9.8253   -0.0000 </r>
       <r>   10.0986   -0.0000 </r>
       <r>   10.7546   -0.0000 </r>
       <r>   11.2766   -0.0000 </r>
       <r>   11.3233   -0.0000 </r>
       <r>   11.3418   -0.0000 </r>
       <r>   12.0435   -0.0000 </r>
       <r>   12.1550   -0.0000 </r>
       <r>   12.2081   -0.0000 </r>
       <r>   12.3844   -0.0000 </r>
       <r>   12.9359   -0.0000 </r>
       <r>   13.5869   -0.0000 </r>
       <r>   13.6327   -0.0000 </r>
       <r>   13.9096   -0.0000 </r>
       <r>   15.2635    0.0000 </r>
       <r>   15.3978    0.0000 </r>
       <r>   15.6792    0.0000 </r>
       <r>   15.8750    0.0000 </r>
       <r>   16.2551    0.0000 </r>
       <r>   16.4094    0.0000 </r>
       <r>   16.7180    0.0000 </r>
       <r>   16.8362    0.0000 </r>
       <r>   17.9345    0.0000 </r>
       <r>   17.9939    0.0000 </r>
       <r>   18.0337    0.0000 </r>
       <r>   18.2427    0.0000 </r>
       <r>   18.5430    0.0000 </r>
       <r>   18.5904    0.0000 </r>
       <r>   18.7182    0.0000 </r>
       <r>   18.7476    0.0000 </r>
       <r>   19.5201    0.0000 </r>
       <r>   19.6104    0.0000 </r>
       <r>   19.7974    0.0000 </r>
       <r>   20.4058    0.0000 </r>
       <r>   20.4999    0.0000 </r>
       <r>   20.6892    0.0000 </r>
       <r>   20.8654    0.0000 </r>
       <r>   21.2083    0.0000 </r>
       <r>   21.3886    0.0000 </r>
       <r>   21.9598    0.0000 </r>
      </set>
      <set comment="kpoint 15">
       <r>    1.3838    1.0000 </r>
       <r>    1.5686    1.0000 </r>
       <r>    2.2451    1.0000 </r>
       <r>    2.4897    1.0000 </r>
       <r>    3.7337    1.0000 </r>
       <r>    3.8087    1.0000 </r>
       <r>    4.3083    1.0000 </r>
       <r>    4.3290    1.0000 </r>
       <r>    4.4391    1.0000 </r>
       <r>    4.4999    1.0000 </r>
       <r>    4.5393    1.0000 </r>
       <r>    4.5714    1.0000 </r>
       <r>    4.6444    1.0000 </r>
       <r>    4.6799    1.0000 </r>
       <r>    4.7262    1.0000 </r>
       <r>    4.7946    1.0000 </r>
       <r>    4.8346    1.0000 </r>
       <r>    4.8938    1.0000 </r>
       <r>    4.9024    1.0000 </r>
       <r>    4.9331    1.0000 </r>
       <r>    4.9906    1.0000 </r>
       <r>    5.0475    1.0000 </r>
       <r>    5.0659    1.0000 </r>
       <r>    5.1775    1.0000 </r>
       <r>    5.2309    1.0000 </r>
       <r>    5.2371    1.0000 </r>
       <r>    5.2993    1.0000 </r>
       <r>    5.3196    1.0000 </r>
       <r>    5.3444    1.0000 </r>
       <r>    5.4114    1.0000 </r>
       <r>    5.5493    1.0000 </r>
       <r>    5.5664    1.0000 </r>
       <r>    5.5765    1.0000 </r>
       <r>    5.6180    1.0000 </r>
       <r>    5.6726    1.0000 </r>
       <r>    5.7952    1.0000 </r>
       <r>    5.7993    1.0000 </r>
       <r>    5.8154    1.0000 </r>
       <r>    5.8274    1.0000 </r>
       <r>    5.8824    1.0000 </r>
       <r>    5.9091    1.0000 </r>
       <r>    5.9515    1.0000 </r>
       <r>    5.9679    1.0000 </r>
       <r>    6.0064    1.0000 </r>
       <r>    6.0392    1.0000 </r>
       <r>    6.0527    1.0000 </r>
       <r>    6.1151    1.0000 </r>
       <r>    6.1235    1.0000 </r>
       <r>    6.1296    1.0000 </r>
       <r>    6.1852    1.0000 </r>
       <r>    6.2508    1.0000 </r>
       <r>    6.2635    1.0000 </r>
       <r>    6.3110    1.0000 </r>
       <r>    6.3251    1.0000 </r>
       <r>    6.3731    1.0000 </r>
       <r>    6.3782    1.0000 </r>
       <r>    6.4182    1.0000 </r>
       <r>    6.4482    1.0000 </r>
       <r>    6.4590    1.0000 </r>
       <r>    6.4696    1.0000 </r>
       <r>    6.4711    1.0000 </r>
       <r>    6.5030    1.0000 </r>
       <r>    6.5263    1.0000 </r>
       <r>    6.6028    1.0000 </r>
       <r>    6.6420    1.0000 </r>
       <r>    6.6721    1.0000 </r>
       <r>    6.6869    1.0000 </r>
       <r>    6.7008    1.0000 </r>
       <r>    6.7437    1.0000 </r>
       <r>    6.7638    1.0000 </r>
       <r>    6.8041    1.0000 </r>
       <r>    6.8637    1.0000 </r>
       <r>    6.8820    1.0000 </r>
       <r>    6.9174    1.0000 </r>
       <r>    6.9175    1.0000 </r>
       <r>    6.9306    1.0000 </r>
       <r>    6.9529    1.0000 </r>
       <r>    6.9950    1.0000 </r>
       <r>    7.0225    1.0000 </r>
       <r>    7.0659    1.0000 </r>
       <r>    7.0765    1.0000 </r>
       <r>    7.1006    1.0000 </r>
       <r>    7.1854    1.0000 </r>
       <r>    7.1969    1.0000 </r>
       <r>    7.2342    1.0000 </r>
       <r>    7.2661    1.0000 </r>
       <r>    7.2908    1.0000 </r>
       <r>    7.2929    1.0000 </r>
       <r>    7.3016    1.0000 </r>
       <r>    7.3449    1.0000 </r>
       <r>    7.3609    1.0000 </r>
       <r>    7.4678    1.0000 </r>
       <r>    7.4700    1.0000 </r>
       <r>    7.4908    1.0000 </r>
       <r>    7.5009    1.0000 </r>
       <r>    7.5098    1.0000 </r>
       <r>    7.5435    1.0000 </r>
       <r>    7.5699    1.0000 </r>
       <r>    7.5843    1.0000 </r>
       <r>    7.6008    1.0000 </r>
       <r>    7.6569    1.0000 </r>
       <r>    7.6614    1.0000 </r>
       <r>    7.7035    1.0000 </r>
       <r>    7.7925    1.0000 </r>
       <r>    7.7950    1.0000 </r>
       <r>    7.8440    1.0000 </r>
       <r>    7.8531    1.0000 </r>
       <r>    7.8665    1.0000 </r>
       <r>    7.8726    1.0000 </r>
       <r>    7.9930    1.0000 </r>
       <r>    7.9962    1.0000 </r>
       <r>    8.0572    1.0000 </r>
       <r>    8.0697    1.0000 </r>
       <r>    8.0962    1.0000 </r>
       <r>    8.1389    1.0000 </r>
       <r>    8.1836    1.0000 </r>
       <r>    8.2269    1.0000 </r>
       <r>    8.2577    1.0000 </r>
       <r>    8.2693    1.0000 </r>
       <r>    8.3059    1.0000 </r>
       <r>    8.3143    1.0000 </r>
       <r>    8.3189    1.0000 </r>
       <r>    8.3300    1.0000 </r>
       <r>    8.3340    1.0000 </r>
       <r>    8.3734    1.0000 </r>
       <r>    8.3759    1.0000 </r>
       <r>    8.3970    1.0001 </r>
       <r>    8.4173    1.0001 </r>
       <r>    8.4204    1.0001 </r>
       <r>    8.4277    1.0002 </r>
       <r>    8.4483    1.0003 </r>
       <r>    8.4620    1.0004 </r>
       <r>    8.5561    1.0034 </r>
       <r>    8.5590    1.0036 </r>
       <r>    8.6935    1.0253 </r>
       <r>    8.7054    1.0279 </r>
       <r>    9.2343   -0.0345 </r>
       <r>    9.2643   -0.0347 </r>
       <r>    9.4195   -0.0062 </r>
       <r>    9.4515   -0.0035 </r>
       <r>   10.1082   -0.0000 </r>
       <r>   10.1664   -0.0000 </r>
       <r>   10.2567   -0.0000 </r>
       <r>   10.7261   -0.0000 </r>
       <r>   10.7587   -0.0000 </r>
       <r>   10.9118   -0.0000 </r>
       <r>   10.9168   -0.0000 </r>
       <r>   11.5834   -0.0000 </r>
       <r>   11.6955   -0.0000 </r>
       <r>   11.9951   -0.0000 </r>
       <r>   12.0330   -0.0000 </r>
       <r>   12.2748   -0.0000 </r>
       <r>   12.6032   -0.0000 </r>
       <r>   12.6449   -0.0000 </r>
       <r>   13.2134   -0.0000 </r>
       <r>   13.4217   -0.0000 </r>
       <r>   14.8846    0.0000 </r>
       <r>   15.1515    0.0000 </r>
       <r>   15.3975    0.0000 </r>
       <r>   15.6075    0.0000 </r>
       <r>   16.3781    0.0000 </r>
       <r>   16.7451    0.0000 </r>
       <r>   17.3053    0.0000 </r>
       <r>   17.3187    0.0000 </r>
       <r>   18.2368    0.0000 </r>
       <r>   18.3021    0.0000 </r>
       <r>   18.5119    0.0000 </r>
       <r>   18.6652    0.0000 </r>
       <r>   18.7997    0.0000 </r>
       <r>   18.8022    0.0000 </r>
       <r>   18.9117    0.0000 </r>
       <r>   18.9420    0.0000 </r>
       <r>   19.8087    0.0000 </r>
       <r>   19.8897    0.0000 </r>
       <r>   19.9809    0.0000 </r>
       <r>   20.0678    0.0000 </r>
       <r>   20.3608    0.0000 </r>
       <r>   20.8829    0.0000 </r>
       <r>   21.2888    0.0000 </r>
       <r>   21.2912    0.0000 </r>
       <r>   21.3295    0.0000 </r>
       <r>   21.4594    0.0000 </r>
      </set>
      <set comment="kpoint 16">
       <r>    1.5884    1.0000 </r>
       <r>    1.6854    1.0000 </r>
       <r>    2.0201    1.0000 </r>
       <r>    2.2882    1.0000 </r>
       <r>    3.5362    1.0000 </r>
       <r>    3.7184    1.0000 </r>
       <r>    4.3671    1.0000 </r>
       <r>    4.4610    1.0000 </r>
       <r>    4.4870    1.0000 </r>
       <r>    4.6391    1.0000 </r>
       <r>    4.6526    1.0000 </r>
       <r>    4.6556    1.0000 </r>
       <r>    4.6749    1.0000 </r>
       <r>    4.7051    1.0000 </r>
       <r>    4.7922    1.0000 </r>
       <r>    4.7987    1.0000 </r>
       <r>    4.8522    1.0000 </r>
       <r>    4.9030    1.0000 </r>
       <r>    4.9137    1.0000 </r>
       <r>    4.9336    1.0000 </r>
       <r>    4.9375    1.0000 </r>
       <r>    5.0424    1.0000 </r>
       <r>    5.0706    1.0000 </r>
       <r>    5.0761    1.0000 </r>
       <r>    5.1377    1.0000 </r>
       <r>    5.1997    1.0000 </r>
       <r>    5.2515    1.0000 </r>
       <r>    5.3284    1.0000 </r>
       <r>    5.3752    1.0000 </r>
       <r>    5.4120    1.0000 </r>
       <r>    5.4955    1.0000 </r>
       <r>    5.5629    1.0000 </r>
       <r>    5.5659    1.0000 </r>
       <r>    5.6852    1.0000 </r>
       <r>    5.6918    1.0000 </r>
       <r>    5.7168    1.0000 </r>
       <r>    5.7834    1.0000 </r>
       <r>    5.8059    1.0000 </r>
       <r>    5.8066    1.0000 </r>
       <r>    5.8452    1.0000 </r>
       <r>    5.9346    1.0000 </r>
       <r>    5.9466    1.0000 </r>
       <r>    5.9948    1.0000 </r>
       <r>    6.0105    1.0000 </r>
       <r>    6.0378    1.0000 </r>
       <r>    6.0843    1.0000 </r>
       <r>    6.0969    1.0000 </r>
       <r>    6.1630    1.0000 </r>
       <r>    6.1763    1.0000 </r>
       <r>    6.1867    1.0000 </r>
       <r>    6.2557    1.0000 </r>
       <r>    6.2762    1.0000 </r>
       <r>    6.2796    1.0000 </r>
       <r>    6.3030    1.0000 </r>
       <r>    6.3504    1.0000 </r>
       <r>    6.3552    1.0000 </r>
       <r>    6.4228    1.0000 </r>
       <r>    6.4325    1.0000 </r>
       <r>    6.4355    1.0000 </r>
       <r>    6.4418    1.0000 </r>
       <r>    6.5562    1.0000 </r>
       <r>    6.5579    1.0000 </r>
       <r>    6.5697    1.0000 </r>
       <r>    6.5763    1.0000 </r>
       <r>    6.5841    1.0000 </r>
       <r>    6.6657    1.0000 </r>
       <r>    6.6823    1.0000 </r>
       <r>    6.6925    1.0000 </r>
       <r>    6.7297    1.0000 </r>
       <r>    6.7961    1.0000 </r>
       <r>    6.8191    1.0000 </r>
       <r>    6.8969    1.0000 </r>
       <r>    6.9005    1.0000 </r>
       <r>    6.9121    1.0000 </r>
       <r>    6.9188    1.0000 </r>
       <r>    6.9515    1.0000 </r>
       <r>    6.9609    1.0000 </r>
       <r>    6.9924    1.0000 </r>
       <r>    6.9956    1.0000 </r>
       <r>    7.0036    1.0000 </r>
       <r>    7.0517    1.0000 </r>
       <r>    7.0868    1.0000 </r>
       <r>    7.0912    1.0000 </r>
       <r>    7.1194    1.0000 </r>
       <r>    7.2127    1.0000 </r>
       <r>    7.2359    1.0000 </r>
       <r>    7.2394    1.0000 </r>
       <r>    7.3007    1.0000 </r>
       <r>    7.3112    1.0000 </r>
       <r>    7.3125    1.0000 </r>
       <r>    7.3257    1.0000 </r>
       <r>    7.4199    1.0000 </r>
       <r>    7.4230    1.0000 </r>
       <r>    7.4353    1.0000 </r>
       <r>    7.4965    1.0000 </r>
       <r>    7.5407    1.0000 </r>
       <r>    7.5446    1.0000 </r>
       <r>    7.5517    1.0000 </r>
       <r>    7.5780    1.0000 </r>
       <r>    7.5870    1.0000 </r>
       <r>    7.6032    1.0000 </r>
       <r>    7.6123    1.0000 </r>
       <r>    7.6376    1.0000 </r>
       <r>    7.7063    1.0000 </r>
       <r>    7.7776    1.0000 </r>
       <r>    7.8857    1.0000 </r>
       <r>    7.9306    1.0000 </r>
       <r>    7.9373    1.0000 </r>
       <r>    7.9723    1.0000 </r>
       <r>    7.9765    1.0000 </r>
       <r>    7.9937    1.0000 </r>
       <r>    8.0406    1.0000 </r>
       <r>    8.0993    1.0000 </r>
       <r>    8.1088    1.0000 </r>
       <r>    8.1654    1.0000 </r>
       <r>    8.1978    1.0000 </r>
       <r>    8.2338    1.0000 </r>
       <r>    8.2359    1.0000 </r>
       <r>    8.2489    1.0000 </r>
       <r>    8.2548    1.0000 </r>
       <r>    8.2891    1.0000 </r>
       <r>    8.2979    1.0000 </r>
       <r>    8.3332    1.0000 </r>
       <r>    8.4005    1.0001 </r>
       <r>    8.4015    1.0001 </r>
       <r>    8.4042    1.0001 </r>
       <r>    8.4118    1.0001 </r>
       <r>    8.4238    1.0002 </r>
       <r>    8.4326    1.0002 </r>
       <r>    8.4693    1.0005 </r>
       <r>    8.4865    1.0008 </r>
       <r>    8.5126    1.0014 </r>
       <r>    8.5979    1.0072 </r>
       <r>    8.5987    1.0073 </r>
       <r>    8.7026    1.0273 </r>
       <r>    8.7249    1.0319 </r>
       <r>    9.2625   -0.0348 </r>
       <r>    9.3357   -0.0204 </r>
       <r>   10.1483   -0.0000 </r>
       <r>   10.3241   -0.0000 </r>
       <r>   10.3389   -0.0000 </r>
       <r>   10.4014   -0.0000 </r>
       <r>   10.4548   -0.0000 </r>
       <r>   10.5571   -0.0000 </r>
       <r>   10.5627   -0.0000 </r>
       <r>   10.5822   -0.0000 </r>
       <r>   10.9608   -0.0000 </r>
       <r>   11.0656   -0.0000 </r>
       <r>   11.1733   -0.0000 </r>
       <r>   11.1740   -0.0000 </r>
       <r>   11.6801   -0.0000 </r>
       <r>   11.9393   -0.0000 </r>
       <r>   12.3437   -0.0000 </r>
       <r>   13.3031   -0.0000 </r>
       <r>   13.3950   -0.0000 </r>
       <r>   13.7197   -0.0000 </r>
       <r>   15.0456    0.0000 </r>
       <r>   15.0621    0.0000 </r>
       <r>   15.0672    0.0000 </r>
       <r>   15.3850    0.0000 </r>
       <r>   16.2026    0.0000 </r>
       <r>   17.4861    0.0000 </r>
       <r>   17.5060    0.0000 </r>
       <r>   17.5843    0.0000 </r>
       <r>   17.7697    0.0000 </r>
       <r>   17.8557    0.0000 </r>
       <r>   18.4491    0.0000 </r>
       <r>   18.5854    0.0000 </r>
       <r>   19.1071    0.0000 </r>
       <r>   19.4500    0.0000 </r>
       <r>   19.4712    0.0000 </r>
       <r>   19.5121    0.0000 </r>
       <r>   19.6802    0.0000 </r>
       <r>   19.7299    0.0000 </r>
       <r>   20.0341    0.0000 </r>
       <r>   20.1126    0.0000 </r>
       <r>   20.1628    0.0000 </r>
       <r>   20.3028    0.0000 </r>
       <r>   20.5509    0.0000 </r>
       <r>   20.5984    0.0000 </r>
       <r>   21.4674    0.0000 </r>
       <r>   21.5298    0.0000 </r>
      </set>
     </set>
     <set comment="spin 2">
      <set comment="kpoint 1">
       <r>    0.0969    1.0000 </r>
       <r>    3.5368    1.0000 </r>
       <r>    3.6081    1.0000 </r>
       <r>    3.6081    1.0000 </r>
       <r>    3.6081    1.0000 </r>
       <r>    3.6526    1.0000 </r>
       <r>    3.6526    1.0000 </r>
       <r>    3.6526    1.0000 </r>
       <r>    3.9218    1.0000 </r>
       <r>    4.3261    1.0000 </r>
       <r>    4.3261    1.0000 </r>
       <r>    4.3261    1.0000 </r>
       <r>    4.4129    1.0000 </r>
       <r>    4.4129    1.0000 </r>
       <r>    4.9495    1.0000 </r>
       <r>    5.8270    1.0000 </r>
       <r>    5.8270    1.0000 </r>
       <r>    5.8270    1.0000 </r>
       <r>    5.8512    1.0000 </r>
       <r>    5.8512    1.0000 </r>
       <r>    5.8512    1.0000 </r>
       <r>    5.8572    1.0000 </r>
       <r>    5.8572    1.0000 </r>
       <r>    5.8889    1.0000 </r>
       <r>    5.8968    1.0000 </r>
       <r>    5.8968    1.0000 </r>
       <r>    5.8968    1.0000 </r>
       <r>    5.9225    1.0000 </r>
       <r>    5.9225    1.0000 </r>
       <r>    5.9404    1.0000 </r>
       <r>    5.9507    1.0000 </r>
       <r>    5.9507    1.0000 </r>
       <r>    5.9507    1.0000 </r>
       <r>    5.9747    1.0000 </r>
       <r>    5.9747    1.0000 </r>
       <r>    5.9747    1.0000 </r>
       <r>    6.1221    1.0000 </r>
       <r>    6.1221    1.0000 </r>
       <r>    6.1221    1.0000 </r>
       <r>    6.1559    1.0000 </r>
       <r>    6.2786    1.0000 </r>
       <r>    6.2786    1.0000 </r>
       <r>    6.2786    1.0000 </r>
       <r>    6.3977    1.0000 </r>
       <r>    6.3977    1.0000 </r>
       <r>    6.9850    1.0000 </r>
       <r>    6.9850    1.0000 </r>
       <r>    6.9850    1.0000 </r>
       <r>    6.9875    1.0000 </r>
       <r>    7.0332    1.0000 </r>
       <r>    7.0332    1.0000 </r>
       <r>    7.0332    1.0000 </r>
       <r>    7.0517    1.0000 </r>
       <r>    7.0517    1.0000 </r>
       <r>    7.0517    1.0000 </r>
       <r>    7.0794    1.0000 </r>
       <r>    7.0794    1.0000 </r>
       <r>    7.1071    1.0000 </r>
       <r>    7.1334    1.0000 </r>
       <r>    7.2449    1.0000 </r>
       <r>    7.2449    1.0000 </r>
       <r>    7.2449    1.0000 </r>
       <r>    7.3162    1.0000 </r>
       <r>    7.3162    1.0000 </r>
       <r>    7.3162    1.0000 </r>
       <r>    7.3570    1.0000 </r>
       <r>    7.3570    1.0000 </r>
       <r>    7.3570    1.0000 </r>
       <r>    7.3806    1.0000 </r>
       <r>    7.3806    1.0000 </r>
       <r>    7.3890    1.0000 </r>
       <r>    7.3890    1.0000 </r>
       <r>    7.3890    1.0000 </r>
       <r>    7.4056    1.0000 </r>
       <r>    7.4056    1.0000 </r>
       <r>    7.4056    1.0000 </r>
       <r>    7.4217    1.0000 </r>
       <r>    7.4217    1.0000 </r>
       <r>    7.4217    1.0000 </r>
       <r>    7.7095    1.0000 </r>
       <r>    7.7095    1.0000 </r>
       <r>    8.1436    1.0000 </r>
       <r>    8.1436    1.0000 </r>
       <r>    8.1436    1.0000 </r>
       <r>    8.1923    1.0000 </r>
       <r>    8.1923    1.0000 </r>
       <r>    8.2106    1.0000 </r>
       <r>    8.2207    1.0000 </r>
       <r>    8.2207    1.0000 </r>
       <r>    8.2207    1.0000 </r>
       <r>    8.2839    1.0000 </r>
       <r>    8.2839    1.0000 </r>
       <r>    8.2839    1.0000 </r>
       <r>    8.3422    1.0000 </r>
       <r>    8.3422    1.0000 </r>
       <r>    8.3422    1.0000 </r>
       <r>    8.3889    1.0001 </r>
       <r>    8.3889    1.0001 </r>
       <r>    8.4141    1.0001 </r>
       <r>    8.4271    1.0002 </r>
       <r>    8.4271    1.0002 </r>
       <r>    8.4271    1.0002 </r>
       <r>    8.6530    1.0162 </r>
       <r>    8.6530    1.0162 </r>
       <r>    8.7437    1.0346 </r>
       <r>    8.7437    1.0346 </r>
       <r>    8.7437    1.0346 </r>
       <r>    8.7563    1.0354 </r>
       <r>    8.7563    1.0354 </r>
       <r>    8.7563    1.0354 </r>
       <r>    8.7620    1.0354 </r>
       <r>    8.7620    1.0354 </r>
       <r>    8.7620    1.0354 </r>
       <r>    8.7676    1.0352 </r>
       <r>    8.7676    1.0352 </r>
       <r>    8.7676    1.0352 </r>
       <r>    8.7795    1.0336 </r>
       <r>    8.7795    1.0336 </r>
       <r>    8.8265    1.0093 </r>
       <r>    8.8265    1.0093 </r>
       <r>    8.8265    1.0093 </r>
       <r>    8.8357    1.0001 </r>
       <r>    8.8357    1.0001 </r>
       <r>    8.8357    1.0001 </r>
       <r>    8.8639    0.9602 </r>
       <r>    8.8639    0.9602 </r>
       <r>    8.8639    0.9602 </r>
       <r>    8.8677    0.9534 </r>
       <r>    8.8677    0.9534 </r>
       <r>    8.8677    0.9534 </r>
       <r>    8.8775    0.9342 </r>
       <r>    8.8775    0.9342 </r>
       <r>    8.9615    0.6757 </r>
       <r>    8.9615    0.6757 </r>
       <r>    8.9615    0.6757 </r>
       <r>    8.9675    0.6519 </r>
       <r>    8.9675    0.6519 </r>
       <r>    8.9867    0.5734 </r>
       <r>    8.9867    0.5734 </r>
       <r>    8.9867    0.5734 </r>
       <r>    8.9875    0.5701 </r>
       <r>    8.9875    0.5701 </r>
       <r>    8.9875    0.5701 </r>
       <r>    9.0011    0.5125 </r>
       <r>    9.0028    0.5055 </r>
       <r>   13.9498   -0.0000 </r>
       <r>   13.9498   -0.0000 </r>
       <r>   13.9498   -0.0000 </r>
       <r>   14.0397   -0.0000 </r>
       <r>   14.0397   -0.0000 </r>
       <r>   14.1578   -0.0000 </r>
       <r>   14.1578   -0.0000 </r>
       <r>   14.1578   -0.0000 </r>
       <r>   14.3866    0.0000 </r>
       <r>   14.4247    0.0000 </r>
       <r>   14.4247    0.0000 </r>
       <r>   14.4247    0.0000 </r>
       <r>   16.7335    0.0000 </r>
       <r>   16.7335    0.0000 </r>
       <r>   16.7335    0.0000 </r>
       <r>   16.7860    0.0000 </r>
       <r>   16.7881    0.0000 </r>
       <r>   16.7881    0.0000 </r>
       <r>   16.7881    0.0000 </r>
       <r>   16.8647    0.0000 </r>
       <r>   16.8647    0.0000 </r>
       <r>   17.3909    0.0000 </r>
       <r>   17.3909    0.0000 </r>
       <r>   17.3909    0.0000 </r>
       <r>   19.8387    0.0000 </r>
       <r>   19.8502    0.0000 </r>
       <r>   19.8502    0.0000 </r>
       <r>   19.8540    0.0000 </r>
       <r>   19.8540    0.0000 </r>
       <r>   19.8540    0.0000 </r>
       <r>   19.8628    0.0000 </r>
       <r>   19.8628    0.0000 </r>
       <r>   19.8628    0.0000 </r>
       <r>   19.8934    0.0000 </r>
       <r>   19.9406    0.0000 </r>
       <r>   19.9406    0.0000 </r>
       <r>   19.9406    0.0000 </r>
      </set>
      <set comment="kpoint 2">
       <r>    0.2172    1.0000 </r>
       <r>    2.7946    1.0000 </r>
       <r>    3.4445    1.0000 </r>
       <r>    3.4445    1.0000 </r>
       <r>    3.5031    1.0000 </r>
       <r>    3.9492    1.0000 </r>
       <r>    3.9492    1.0000 </r>
       <r>    3.9574    1.0000 </r>
       <r>    4.0716    1.0000 </r>
       <r>    4.0716    1.0000 </r>
       <r>    4.2214    1.0000 </r>
       <r>    4.3917    1.0000 </r>
       <r>    4.6611    1.0000 </r>
       <r>    4.6611    1.0000 </r>
       <r>    5.0021    1.0000 </r>
       <r>    5.6388    1.0000 </r>
       <r>    5.6830    1.0000 </r>
       <r>    5.6830    1.0000 </r>
       <r>    5.7343    1.0000 </r>
       <r>    5.7343    1.0000 </r>
       <r>    5.7607    1.0000 </r>
       <r>    5.8109    1.0000 </r>
       <r>    5.8109    1.0000 </r>
       <r>    5.8788    1.0000 </r>
       <r>    5.8913    1.0000 </r>
       <r>    5.8913    1.0000 </r>
       <r>    5.9301    1.0000 </r>
       <r>    5.9301    1.0000 </r>
       <r>    5.9457    1.0000 </r>
       <r>    5.9718    1.0000 </r>
       <r>    5.9756    1.0000 </r>
       <r>    5.9770    1.0000 </r>
       <r>    5.9770    1.0000 </r>
       <r>    6.0022    1.0000 </r>
       <r>    6.0839    1.0000 </r>
       <r>    6.0839    1.0000 </r>
       <r>    6.1376    1.0000 </r>
       <r>    6.1432    1.0000 </r>
       <r>    6.1432    1.0000 </r>
       <r>    6.2617    1.0000 </r>
       <r>    6.2884    1.0000 </r>
       <r>    6.2970    1.0000 </r>
       <r>    6.2970    1.0000 </r>
       <r>    6.4744    1.0000 </r>
       <r>    6.4744    1.0000 </r>
       <r>    6.8554    1.0000 </r>
       <r>    6.8572    1.0000 </r>
       <r>    6.8572    1.0000 </r>
       <r>    6.9144    1.0000 </r>
       <r>    6.9215    1.0000 </r>
       <r>    6.9215    1.0000 </r>
       <r>    6.9369    1.0000 </r>
       <r>    7.0092    1.0000 </r>
       <r>    7.0253    1.0000 </r>
       <r>    7.0253    1.0000 </r>
       <r>    7.0667    1.0000 </r>
       <r>    7.1694    1.0000 </r>
       <r>    7.1694    1.0000 </r>
       <r>    7.2068    1.0000 </r>
       <r>    7.2453    1.0000 </r>
       <r>    7.2453    1.0000 </r>
       <r>    7.2777    1.0000 </r>
       <r>    7.3169    1.0000 </r>
       <r>    7.3169    1.0000 </r>
       <r>    7.3379    1.0000 </r>
       <r>    7.3379    1.0000 </r>
       <r>    7.3557    1.0000 </r>
       <r>    7.3690    1.0000 </r>
       <r>    7.3690    1.0000 </r>
       <r>    7.3851    1.0000 </r>
       <r>    7.4086    1.0000 </r>
       <r>    7.4261    1.0000 </r>
       <r>    7.4261    1.0000 </r>
       <r>    7.4320    1.0000 </r>
       <r>    7.4320    1.0000 </r>
       <r>    7.4543    1.0000 </r>
       <r>    7.4544    1.0000 </r>
       <r>    7.4903    1.0000 </r>
       <r>    7.6480    1.0000 </r>
       <r>    7.6480    1.0000 </r>
       <r>    7.6701    1.0000 </r>
       <r>    7.8801    1.0000 </r>
       <r>    7.8801    1.0000 </r>
       <r>    7.9004    1.0000 </r>
       <r>    8.0798    1.0000 </r>
       <r>    8.0798    1.0000 </r>
       <r>    8.0838    1.0000 </r>
       <r>    8.1572    1.0000 </r>
       <r>    8.1620    1.0000 </r>
       <r>    8.1620    1.0000 </r>
       <r>    8.2208    1.0000 </r>
       <r>    8.2501    1.0000 </r>
       <r>    8.2896    1.0000 </r>
       <r>    8.2896    1.0000 </r>
       <r>    8.3303    1.0000 </r>
       <r>    8.3303    1.0000 </r>
       <r>    8.3895    1.0001 </r>
       <r>    8.3895    1.0001 </r>
       <r>    8.4236    1.0002 </r>
       <r>    8.4236    1.0002 </r>
       <r>    8.4571    1.0004 </r>
       <r>    8.4770    1.0006 </r>
       <r>    8.5015    1.0011 </r>
       <r>    8.5445    1.0027 </r>
       <r>    8.5445    1.0027 </r>
       <r>    8.5807    1.0054 </r>
       <r>    8.5807    1.0054 </r>
       <r>    8.7094    1.0288 </r>
       <r>    8.7094    1.0288 </r>
       <r>    8.7280    1.0325 </r>
       <r>    8.7635    1.0354 </r>
       <r>    8.7635    1.0354 </r>
       <r>    8.7652    1.0353 </r>
       <r>    8.7742    1.0345 </r>
       <r>    8.7742    1.0345 </r>
       <r>    8.8103    1.0216 </r>
       <r>    8.8103    1.0216 </r>
       <r>    8.8168    1.0172 </r>
       <r>    8.8256    1.0100 </r>
       <r>    8.8256    1.0100 </r>
       <r>    8.8616    0.9642 </r>
       <r>    8.8617    0.9639 </r>
       <r>    8.9058    0.8655 </r>
       <r>    8.9058    0.8655 </r>
       <r>    8.9327    0.7820 </r>
       <r>    8.9493    0.7224 </r>
       <r>    8.9493    0.7223 </r>
       <r>    8.9913    0.5540 </r>
       <r>    9.0151    0.4536 </r>
       <r>    9.0151    0.4536 </r>
       <r>    9.0290    0.3953 </r>
       <r>    9.0290    0.3953 </r>
       <r>    9.0397    0.3520 </r>
       <r>    9.0600    0.2735 </r>
       <r>    9.0600    0.2735 </r>
       <r>    9.0866    0.1816 </r>
       <r>    9.0866    0.1816 </r>
       <r>    9.1062    0.1241 </r>
       <r>    9.1200    0.0894 </r>
       <r>    9.1458    0.0372 </r>
       <r>    9.1458    0.0372 </r>
       <r>    9.1467    0.0357 </r>
       <r>    9.3915   -0.0097 </r>
       <r>    9.3915   -0.0097 </r>
       <r>    9.4927   -0.0015 </r>
       <r>   12.6661   -0.0000 </r>
       <r>   12.6661   -0.0000 </r>
       <r>   12.8023   -0.0000 </r>
       <r>   14.0244   -0.0000 </r>
       <r>   14.0244   -0.0000 </r>
       <r>   14.1843   -0.0000 </r>
       <r>   14.2072   -0.0000 </r>
       <r>   14.3912    0.0000 </r>
       <r>   14.3912    0.0000 </r>
       <r>   15.0538    0.0000 </r>
       <r>   15.0538    0.0000 </r>
       <r>   15.2946    0.0000 </r>
       <r>   16.0934    0.0000 </r>
       <r>   16.1141    0.0000 </r>
       <r>   16.1141    0.0000 </r>
       <r>   16.5014    0.0000 </r>
       <r>   16.5014    0.0000 </r>
       <r>   16.5632    0.0000 </r>
       <r>   16.7981    0.0000 </r>
       <r>   16.8503    0.0000 </r>
       <r>   16.8503    0.0000 </r>
       <r>   17.6140    0.0000 </r>
       <r>   17.7922    0.0000 </r>
       <r>   17.7922    0.0000 </r>
       <r>   17.8516    0.0000 </r>
       <r>   19.2240    0.0000 </r>
       <r>   19.2415    0.0000 </r>
       <r>   19.2415    0.0000 </r>
       <r>   19.9241    0.0000 </r>
       <r>   19.9241    0.0000 </r>
       <r>   19.9422    0.0000 </r>
       <r>   20.3894    0.0000 </r>
       <r>   20.3894    0.0000 </r>
       <r>   20.4520    0.0000 </r>
       <r>   20.4520    0.0000 </r>
       <r>   20.4791    0.0000 </r>
       <r>   20.5125    0.0000 </r>
      </set>
      <set comment="kpoint 3">
       <r>    0.5713    1.0000 </r>
       <r>    1.9288    1.0000 </r>
       <r>    3.4122    1.0000 </r>
       <r>    3.4122    1.0000 </r>
       <r>    3.4511    1.0000 </r>
       <r>    3.7627    1.0000 </r>
       <r>    3.7627    1.0000 </r>
       <r>    3.9513    1.0000 </r>
       <r>    4.4165    1.0000 </r>
       <r>    4.4165    1.0000 </r>
       <r>    4.5297    1.0000 </r>
       <r>    4.6442    1.0000 </r>
       <r>    4.9148    1.0000 </r>
       <r>    4.9148    1.0000 </r>
       <r>    5.1052    1.0000 </r>
       <r>    5.3501    1.0000 </r>
       <r>    5.4248    1.0000 </r>
       <r>    5.4248    1.0000 </r>
       <r>    5.4546    1.0000 </r>
       <r>    5.4546    1.0000 </r>
       <r>    5.6563    1.0000 </r>
       <r>    5.7205    1.0000 </r>
       <r>    5.7205    1.0000 </r>
       <r>    5.8394    1.0000 </r>
       <r>    5.8446    1.0000 </r>
       <r>    5.8446    1.0000 </r>
       <r>    5.9418    1.0000 </r>
       <r>    5.9470    1.0000 </r>
       <r>    5.9615    1.0000 </r>
       <r>    5.9670    1.0000 </r>
       <r>    5.9670    1.0000 </r>
       <r>    5.9774    1.0000 </r>
       <r>    6.0981    1.0000 </r>
       <r>    6.0981    1.0000 </r>
       <r>    6.1122    1.0000 </r>
       <r>    6.1122    1.0000 </r>
       <r>    6.1921    1.0000 </r>
       <r>    6.1921    1.0000 </r>
       <r>    6.2034    1.0000 </r>
       <r>    6.3509    1.0000 </r>
       <r>    6.3509    1.0000 </r>
       <r>    6.3775    1.0000 </r>
       <r>    6.5501    1.0000 </r>
       <r>    6.6664    1.0000 </r>
       <r>    6.6664    1.0000 </r>
       <r>    6.6786    1.0000 </r>
       <r>    6.7261    1.0000 </r>
       <r>    6.7261    1.0000 </r>
       <r>    6.8336    1.0000 </r>
       <r>    6.8804    1.0000 </r>
       <r>    6.8804    1.0000 </r>
       <r>    6.8896    1.0000 </r>
       <r>    6.9160    1.0000 </r>
       <r>    6.9160    1.0000 </r>
       <r>    6.9229    1.0000 </r>
       <r>    7.0119    1.0000 </r>
       <r>    7.1118    1.0000 </r>
       <r>    7.1311    1.0000 </r>
       <r>    7.1311    1.0000 </r>
       <r>    7.1370    1.0000 </r>
       <r>    7.1370    1.0000 </r>
       <r>    7.1679    1.0000 </r>
       <r>    7.2269    1.0000 </r>
       <r>    7.2269    1.0000 </r>
       <r>    7.2795    1.0000 </r>
       <r>    7.2988    1.0000 </r>
       <r>    7.2988    1.0000 </r>
       <r>    7.3777    1.0000 </r>
       <r>    7.3777    1.0000 </r>
       <r>    7.4484    1.0000 </r>
       <r>    7.4484    1.0000 </r>
       <r>    7.4583    1.0000 </r>
       <r>    7.4873    1.0000 </r>
       <r>    7.4873    1.0000 </r>
       <r>    7.5000    1.0000 </r>
       <r>    7.5678    1.0000 </r>
       <r>    7.5678    1.0000 </r>
       <r>    7.6516    1.0000 </r>
       <r>    7.6516    1.0000 </r>
       <r>    7.6562    1.0000 </r>
       <r>    7.6903    1.0000 </r>
       <r>    7.7716    1.0000 </r>
       <r>    7.7716    1.0000 </r>
       <r>    7.8679    1.0000 </r>
       <r>    7.9443    1.0000 </r>
       <r>    7.9443    1.0000 </r>
       <r>    8.0389    1.0000 </r>
       <r>    8.0602    1.0000 </r>
       <r>    8.0602    1.0000 </r>
       <r>    8.1595    1.0000 </r>
       <r>    8.1694    1.0000 </r>
       <r>    8.1809    1.0000 </r>
       <r>    8.1809    1.0000 </r>
       <r>    8.1909    1.0000 </r>
       <r>    8.2507    1.0000 </r>
       <r>    8.2507    1.0000 </r>
       <r>    8.3096    1.0000 </r>
       <r>    8.3096    1.0000 </r>
       <r>    8.3805    1.0000 </r>
       <r>    8.3805    1.0000 </r>
       <r>    8.4287    1.0002 </r>
       <r>    8.4287    1.0002 </r>
       <r>    8.4463    1.0003 </r>
       <r>    8.5361    1.0023 </r>
       <r>    8.5592    1.0036 </r>
       <r>    8.5592    1.0036 </r>
       <r>    8.5703    1.0045 </r>
       <r>    8.6887    1.0241 </r>
       <r>    8.6887    1.0241 </r>
       <r>    8.7264    1.0322 </r>
       <r>    8.7369    1.0338 </r>
       <r>    8.7369    1.0338 </r>
       <r>    8.7546    1.0354 </r>
       <r>    8.7546    1.0354 </r>
       <r>    8.7579    1.0355 </r>
       <r>    8.7715    1.0348 </r>
       <r>    8.8154    1.0182 </r>
       <r>    8.8413    0.9936 </r>
       <r>    8.8413    0.9936 </r>
       <r>    8.8435    0.9908 </r>
       <r>    8.8435    0.9908 </r>
       <r>    8.9300    0.7910 </r>
       <r>    8.9300    0.7910 </r>
       <r>    8.9423    0.7482 </r>
       <r>    8.9502    0.7192 </r>
       <r>    8.9596    0.6833 </r>
       <r>    8.9596    0.6832 </r>
       <r>    9.0059    0.4924 </r>
       <r>    9.1403    0.0470 </r>
       <r>    9.1403    0.0470 </r>
       <r>    9.1426    0.0427 </r>
       <r>    9.1497    0.0307 </r>
       <r>    9.1497    0.0307 </r>
       <r>    9.1841   -0.0115 </r>
       <r>    9.1842   -0.0115 </r>
       <r>    9.2345   -0.0346 </r>
       <r>    9.2359   -0.0347 </r>
       <r>    9.2359   -0.0347 </r>
       <r>    9.2916   -0.0303 </r>
       <r>    9.6859   -0.0000 </r>
       <r>    9.6859   -0.0000 </r>
       <r>    9.7105   -0.0000 </r>
       <r>   10.4934   -0.0000 </r>
       <r>   10.4934   -0.0000 </r>
       <r>   10.6370   -0.0000 </r>
       <r>   11.4724   -0.0000 </r>
       <r>   11.4724   -0.0000 </r>
       <r>   11.5651   -0.0000 </r>
       <r>   13.4799   -0.0000 </r>
       <r>   13.4799   -0.0000 </r>
       <r>   13.6473   -0.0000 </r>
       <r>   14.0937   -0.0000 </r>
       <r>   14.0937   -0.0000 </r>
       <r>   14.2459   -0.0000 </r>
       <r>   14.3465    0.0000 </r>
       <r>   14.5320    0.0000 </r>
       <r>   14.5320    0.0000 </r>
       <r>   15.8987    0.0000 </r>
       <r>   16.0917    0.0000 </r>
       <r>   16.0918    0.0000 </r>
       <r>   16.1871    0.0000 </r>
       <r>   16.3628    0.0000 </r>
       <r>   16.3628    0.0000 </r>
       <r>   16.4027    0.0000 </r>
       <r>   17.8889    0.0000 </r>
       <r>   17.8889    0.0000 </r>
       <r>   17.9924    0.0000 </r>
       <r>   18.0130    0.0000 </r>
       <r>   18.0665    0.0000 </r>
       <r>   18.0665    0.0000 </r>
       <r>   18.6873    0.0000 </r>
       <r>   18.7128    0.0000 </r>
       <r>   18.7128    0.0000 </r>
       <r>   20.4719    0.0000 </r>
       <r>   20.4719    0.0000 </r>
       <r>   20.4878    0.0000 </r>
       <r>   21.5996    0.0000 </r>
       <r>   21.5996    0.0000 </r>
       <r>   21.6085    0.0000 </r>
       <r>   21.6085    0.0000 </r>
       <r>   21.6229    0.0000 </r>
       <r>   21.6749    0.0000 </r>
      </set>
      <set comment="kpoint 4">
       <r>    1.0491    1.0000 </r>
       <r>    1.2675    1.0000 </r>
       <r>    3.4427    1.0000 </r>
       <r>    3.4869    1.0000 </r>
       <r>    3.4869    1.0000 </r>
       <r>    3.5756    1.0000 </r>
       <r>    3.5756    1.0000 </r>
       <r>    3.9092    1.0000 </r>
       <r>    4.6687    1.0000 </r>
       <r>    4.8932    1.0000 </r>
       <r>    4.8932    1.0000 </r>
       <r>    4.9659    1.0000 </r>
       <r>    4.9695    1.0000 </r>
       <r>    4.9695    1.0000 </r>
       <r>    5.0077    1.0000 </r>
       <r>    5.0767    1.0000 </r>
       <r>    5.0767    1.0000 </r>
       <r>    5.1849    1.0000 </r>
       <r>    5.2958    1.0000 </r>
       <r>    5.2958    1.0000 </r>
       <r>    5.5373    1.0000 </r>
       <r>    5.7093    1.0000 </r>
       <r>    5.7093    1.0000 </r>
       <r>    5.7943    1.0000 </r>
       <r>    5.8140    1.0000 </r>
       <r>    5.8140    1.0000 </r>
       <r>    5.9206    1.0000 </r>
       <r>    5.9501    1.0000 </r>
       <r>    5.9774    1.0000 </r>
       <r>    5.9798    1.0000 </r>
       <r>    5.9861    1.0000 </r>
       <r>    5.9861    1.0000 </r>
       <r>    6.1389    1.0000 </r>
       <r>    6.1389    1.0000 </r>
       <r>    6.1392    1.0000 </r>
       <r>    6.1392    1.0000 </r>
       <r>    6.2159    1.0000 </r>
       <r>    6.2160    1.0000 </r>
       <r>    6.3153    1.0000 </r>
       <r>    6.4328    1.0000 </r>
       <r>    6.4328    1.0000 </r>
       <r>    6.4628    1.0000 </r>
       <r>    6.4979    1.0000 </r>
       <r>    6.5628    1.0000 </r>
       <r>    6.5628    1.0000 </r>
       <r>    6.7768    1.0000 </r>
       <r>    6.7940    1.0000 </r>
       <r>    6.8016    1.0000 </r>
       <r>    6.8301    1.0000 </r>
       <r>    6.8301    1.0000 </r>
       <r>    6.8647    1.0000 </r>
       <r>    6.8647    1.0000 </r>
       <r>    6.9375    1.0000 </r>
       <r>    6.9375    1.0000 </r>
       <r>    6.9418    1.0000 </r>
       <r>    6.9934    1.0000 </r>
       <r>    7.0461    1.0000 </r>
       <r>    7.0601    1.0000 </r>
       <r>    7.0601    1.0000 </r>
       <r>    7.0728    1.0000 </r>
       <r>    7.0930    1.0000 </r>
       <r>    7.0930    1.0000 </r>
       <r>    7.1165    1.0000 </r>
       <r>    7.1165    1.0000 </r>
       <r>    7.2264    1.0000 </r>
       <r>    7.2922    1.0000 </r>
       <r>    7.2922    1.0000 </r>
       <r>    7.3322    1.0000 </r>
       <r>    7.3322    1.0000 </r>
       <r>    7.3798    1.0000 </r>
       <r>    7.4399    1.0000 </r>
       <r>    7.4399    1.0000 </r>
       <r>    7.4905    1.0000 </r>
       <r>    7.4905    1.0000 </r>
       <r>    7.6591    1.0000 </r>
       <r>    7.6622    1.0000 </r>
       <r>    7.6783    1.0000 </r>
       <r>    7.6783    1.0000 </r>
       <r>    7.7439    1.0000 </r>
       <r>    7.7439    1.0000 </r>
       <r>    7.7839    1.0000 </r>
       <r>    7.7839    1.0000 </r>
       <r>    7.8040    1.0000 </r>
       <r>    7.8957    1.0000 </r>
       <r>    7.8983    1.0000 </r>
       <r>    7.9083    1.0000 </r>
       <r>    7.9083    1.0000 </r>
       <r>    7.9676    1.0000 </r>
       <r>    7.9676    1.0000 </r>
       <r>    7.9894    1.0000 </r>
       <r>    8.0189    1.0000 </r>
       <r>    8.0190    1.0000 </r>
       <r>    8.1155    1.0000 </r>
       <r>    8.1509    1.0000 </r>
       <r>    8.2342    1.0000 </r>
       <r>    8.2342    1.0000 </r>
       <r>    8.2805    1.0000 </r>
       <r>    8.2805    1.0000 </r>
       <r>    8.3709    1.0000 </r>
       <r>    8.3709    1.0000 </r>
       <r>    8.3738    1.0000 </r>
       <r>    8.3738    1.0000 </r>
       <r>    8.4478    1.0003 </r>
       <r>    8.6235    1.0108 </r>
       <r>    8.6235    1.0108 </r>
       <r>    8.6325    1.0123 </r>
       <r>    8.6325    1.0123 </r>
       <r>    8.6370    1.0131 </r>
       <r>    8.6914    1.0248 </r>
       <r>    8.7240    1.0317 </r>
       <r>    8.7240    1.0317 </r>
       <r>    8.7583    1.0355 </r>
       <r>    8.7630    1.0354 </r>
       <r>    8.7630    1.0354 </r>
       <r>    8.7719    1.0348 </r>
       <r>    8.7838    1.0327 </r>
       <r>    8.8501    0.9819 </r>
       <r>    8.8501    0.9819 </r>
       <r>    8.8571    0.9715 </r>
       <r>    8.8571    0.9715 </r>
       <r>    8.9252    0.8067 </r>
       <r>    8.9417    0.7503 </r>
       <r>    8.9417    0.7502 </r>
       <r>    8.9595    0.6837 </r>
       <r>    8.9595    0.6837 </r>
       <r>    8.9628    0.6707 </r>
       <r>    8.9775    0.6116 </r>
       <r>    9.0084    0.4817 </r>
       <r>    9.1906   -0.0166 </r>
       <r>    9.1935   -0.0187 </r>
       <r>    9.1935   -0.0187 </r>
       <r>    9.1979   -0.0216 </r>
       <r>    9.1979   -0.0216 </r>
       <r>    9.2356   -0.0347 </r>
       <r>    9.2356   -0.0347 </r>
       <r>    9.2844   -0.0317 </r>
       <r>    9.2909   -0.0305 </r>
       <r>    9.2909   -0.0305 </r>
       <r>    9.3452   -0.0183 </r>
       <r>   10.3437   -0.0000 </r>
       <r>   10.3437   -0.0000 </r>
       <r>   10.5042   -0.0000 </r>
       <r>   10.5557   -0.0000 </r>
       <r>   10.5743   -0.0000 </r>
       <r>   10.5743   -0.0000 </r>
       <r>   11.7917   -0.0000 </r>
       <r>   11.7917   -0.0000 </r>
       <r>   11.8342   -0.0000 </r>
       <r>   12.0240   -0.0000 </r>
       <r>   12.0240   -0.0000 </r>
       <r>   12.2802   -0.0000 </r>
       <r>   14.1355   -0.0000 </r>
       <r>   14.1355   -0.0000 </r>
       <r>   14.2826   -0.0000 </r>
       <r>   14.4239    0.0000 </r>
       <r>   14.5799    0.0000 </r>
       <r>   14.5799    0.0000 </r>
       <r>   15.2026    0.0000 </r>
       <r>   15.9097    0.0000 </r>
       <r>   15.9097    0.0000 </r>
       <r>   16.0186    0.0000 </r>
       <r>   16.1583    0.0000 </r>
       <r>   16.1664    0.0000 </r>
       <r>   16.1664    0.0000 </r>
       <r>   18.2107    0.0000 </r>
       <r>   18.2122    0.0000 </r>
       <r>   18.2122    0.0000 </r>
       <r>   18.3502    0.0000 </r>
       <r>   18.3978    0.0000 </r>
       <r>   18.3978    0.0000 </r>
       <r>   19.8636    0.0000 </r>
       <r>   19.8636    0.0000 </r>
       <r>   19.9208    0.0000 </r>
       <r>   20.2150    0.0000 </r>
       <r>   20.2150    0.0000 </r>
       <r>   20.2750    0.0000 </r>
       <r>   21.3207    0.0000 </r>
       <r>   21.3207    0.0000 </r>
       <r>   21.3582    0.0000 </r>
       <r>   21.3582    0.0000 </r>
       <r>   21.3701    0.0000 </r>
       <r>   21.3922    0.0000 </r>
      </set>
      <set comment="kpoint 5">
       <r>    0.2572    1.0000 </r>
       <r>    3.1066    1.0000 </r>
       <r>    3.1571    1.0000 </r>
       <r>    3.1571    1.0000 </r>
       <r>    3.2789    1.0000 </r>
       <r>    3.6542    1.0000 </r>
       <r>    4.1562    1.0000 </r>
       <r>    4.1642    1.0000 </r>
       <r>    4.1642    1.0000 </r>
       <r>    4.2458    1.0000 </r>
       <r>    4.4413    1.0000 </r>
       <r>    4.4413    1.0000 </r>
       <r>    4.5172    1.0000 </r>
       <r>    4.6948    1.0000 </r>
       <r>    5.0155    1.0000 </r>
       <r>    5.6213    1.0000 </r>
       <r>    5.6502    1.0000 </r>
       <r>    5.6502    1.0000 </r>
       <r>    5.7112    1.0000 </r>
       <r>    5.7658    1.0000 </r>
       <r>    5.7658    1.0000 </r>
       <r>    5.7745    1.0000 </r>
       <r>    5.8318    1.0000 </r>
       <r>    5.8433    1.0000 </r>
       <r>    5.8433    1.0000 </r>
       <r>    5.8465    1.0000 </r>
       <r>    5.8947    1.0000 </r>
       <r>    5.9116    1.0000 </r>
       <r>    5.9332    1.0000 </r>
       <r>    5.9332    1.0000 </r>
       <r>    5.9583    1.0000 </r>
       <r>    5.9773    1.0000 </r>
       <r>    6.0232    1.0000 </r>
       <r>    6.0529    1.0000 </r>
       <r>    6.1364    1.0000 </r>
       <r>    6.1364    1.0000 </r>
       <r>    6.1667    1.0000 </r>
       <r>    6.1727    1.0000 </r>
       <r>    6.1727    1.0000 </r>
       <r>    6.2231    1.0000 </r>
       <r>    6.2937    1.0000 </r>
       <r>    6.3316    1.0000 </r>
       <r>    6.3316    1.0000 </r>
       <r>    6.4185    1.0000 </r>
       <r>    6.5137    1.0000 </r>
       <r>    6.7384    1.0000 </r>
       <r>    6.7827    1.0000 </r>
       <r>    6.7893    1.0000 </r>
       <r>    6.7893    1.0000 </r>
       <r>    6.9063    1.0000 </r>
       <r>    6.9169    1.0000 </r>
       <r>    6.9848    1.0000 </r>
       <r>    6.9848    1.0000 </r>
       <r>    7.1055    1.0000 </r>
       <r>    7.1648    1.0000 </r>
       <r>    7.1829    1.0000 </r>
       <r>    7.1829    1.0000 </r>
       <r>    7.1954    1.0000 </r>
       <r>    7.2151    1.0000 </r>
       <r>    7.2151    1.0000 </r>
       <r>    7.2483    1.0000 </r>
       <r>    7.2733    1.0000 </r>
       <r>    7.3146    1.0000 </r>
       <r>    7.3323    1.0000 </r>
       <r>    7.3323    1.0000 </r>
       <r>    7.3511    1.0000 </r>
       <r>    7.3631    1.0000 </r>
       <r>    7.3631    1.0000 </r>
       <r>    7.3820    1.0000 </r>
       <r>    7.3977    1.0000 </r>
       <r>    7.4250    1.0000 </r>
       <r>    7.4250    1.0000 </r>
       <r>    7.4303    1.0000 </r>
       <r>    7.4347    1.0000 </r>
       <r>    7.4347    1.0000 </r>
       <r>    7.4535    1.0000 </r>
       <r>    7.4821    1.0000 </r>
       <r>    7.4821    1.0000 </r>
       <r>    7.5010    1.0000 </r>
       <r>    7.6175    1.0000 </r>
       <r>    7.6687    1.0000 </r>
       <r>    7.8756    1.0000 </r>
       <r>    7.9199    1.0000 </r>
       <r>    7.9199    1.0000 </r>
       <r>    7.9239    1.0000 </r>
       <r>    7.9264    1.0000 </r>
       <r>    8.0870    1.0000 </r>
       <r>    8.0870    1.0000 </r>
       <r>    8.1269    1.0000 </r>
       <r>    8.1620    1.0000 </r>
       <r>    8.1735    1.0000 </r>
       <r>    8.1735    1.0000 </r>
       <r>    8.1952    1.0000 </r>
       <r>    8.2320    1.0000 </r>
       <r>    8.2320    1.0000 </r>
       <r>    8.2425    1.0000 </r>
       <r>    8.3101    1.0000 </r>
       <r>    8.3943    1.0001 </r>
       <r>    8.4500    1.0003 </r>
       <r>    8.4519    1.0003 </r>
       <r>    8.4519    1.0003 </r>
       <r>    8.4566    1.0004 </r>
       <r>    8.4566    1.0004 </r>
       <r>    8.5142    1.0014 </r>
       <r>    8.5354    1.0023 </r>
       <r>    8.6256    1.0111 </r>
       <r>    8.6940    1.0254 </r>
       <r>    8.6940    1.0254 </r>
       <r>    8.7312    1.0330 </r>
       <r>    8.7543    1.0354 </r>
       <r>    8.7570    1.0354 </r>
       <r>    8.7694    1.0350 </r>
       <r>    8.7694    1.0350 </r>
       <r>    8.8138    1.0193 </r>
       <r>    8.8138    1.0193 </r>
       <r>    8.8328    1.0031 </r>
       <r>    8.8362    0.9995 </r>
       <r>    8.8484    0.9843 </r>
       <r>    8.8746    0.9402 </r>
       <r>    8.8746    0.9402 </r>
       <r>    8.8907    0.9046 </r>
       <r>    8.9673    0.6527 </r>
       <r>    8.9673    0.6527 </r>
       <r>    9.0022    0.5081 </r>
       <r>    9.0113    0.4696 </r>
       <r>    9.0202    0.4322 </r>
       <r>    9.0293    0.3943 </r>
       <r>    9.0351    0.3707 </r>
       <r>    9.0351    0.3707 </r>
       <r>    9.0390    0.3546 </r>
       <r>    9.0422    0.3419 </r>
       <r>    9.0492    0.3143 </r>
       <r>    9.0492    0.3143 </r>
       <r>    9.0792    0.2057 </r>
       <r>    9.0845    0.1884 </r>
       <r>    9.0845    0.1884 </r>
       <r>    9.1152    0.1010 </r>
       <r>    9.1294    0.0683 </r>
       <r>    9.1294    0.0683 </r>
       <r>    9.1585    0.0174 </r>
       <r>    9.2723   -0.0337 </r>
       <r>    9.3162   -0.0249 </r>
       <r>    9.3228   -0.0234 </r>
       <r>    9.3228   -0.0234 </r>
       <r>    9.5828   -0.0002 </r>
       <r>   12.6982   -0.0000 </r>
       <r>   12.7420   -0.0000 </r>
       <r>   12.7420   -0.0000 </r>
       <r>   12.9548   -0.0000 </r>
       <r>   13.7504   -0.0000 </r>
       <r>   13.9268   -0.0000 </r>
       <r>   14.0374   -0.0000 </r>
       <r>   14.0374   -0.0000 </r>
       <r>   15.6238    0.0000 </r>
       <r>   15.7132    0.0000 </r>
       <r>   15.7132    0.0000 </r>
       <r>   15.7251    0.0000 </r>
       <r>   15.8319    0.0000 </r>
       <r>   15.9280    0.0000 </r>
       <r>   15.9280    0.0000 </r>
       <r>   15.9436    0.0000 </r>
       <r>   15.9974    0.0000 </r>
       <r>   16.1070    0.0000 </r>
       <r>   16.1070    0.0000 </r>
       <r>   16.4670    0.0000 </r>
       <r>   18.1548    0.0000 </r>
       <r>   18.1757    0.0000 </r>
       <r>   18.3093    0.0000 </r>
       <r>   18.3093    0.0000 </r>
       <r>   18.3789    0.0000 </r>
       <r>   18.5558    0.0000 </r>
       <r>   18.6055    0.0000 </r>
       <r>   18.6055    0.0000 </r>
       <r>   19.5099    0.0000 </r>
       <r>   19.5347    0.0000 </r>
       <r>   19.5347    0.0000 </r>
       <r>   19.6315    0.0000 </r>
       <r>   20.5363    0.0000 </r>
       <r>   20.5363    0.0000 </r>
       <r>   20.5637    0.0000 </r>
       <r>   20.6363    0.0000 </r>
       <r>   21.3902    0.0000 </r>
      </set>
      <set comment="kpoint 6">
       <r>    0.5336    1.0000 </r>
       <r>    2.2984    1.0000 </r>
       <r>    2.9842    1.0000 </r>
       <r>    3.0389    1.0000 </r>
       <r>    3.2521    1.0000 </r>
       <r>    3.7805    1.0000 </r>
       <r>    4.1738    1.0000 </r>
       <r>    4.2703    1.0000 </r>
       <r>    4.3461    1.0000 </r>
       <r>    4.5004    1.0000 </r>
       <r>    4.5560    1.0000 </r>
       <r>    4.6336    1.0000 </r>
       <r>    4.8406    1.0000 </r>
       <r>    4.8499    1.0000 </r>
       <r>    5.1036    1.0000 </r>
       <r>    5.4132    1.0000 </r>
       <r>    5.4590    1.0000 </r>
       <r>    5.5209    1.0000 </r>
       <r>    5.5437    1.0000 </r>
       <r>    5.5643    1.0000 </r>
       <r>    5.6149    1.0000 </r>
       <r>    5.6967    1.0000 </r>
       <r>    5.7549    1.0000 </r>
       <r>    5.7761    1.0000 </r>
       <r>    5.7767    1.0000 </r>
       <r>    5.8098    1.0000 </r>
       <r>    5.8463    1.0000 </r>
       <r>    5.8913    1.0000 </r>
       <r>    5.9163    1.0000 </r>
       <r>    5.9609    1.0000 </r>
       <r>    5.9822    1.0000 </r>
       <r>    6.0435    1.0000 </r>
       <r>    6.0499    1.0000 </r>
       <r>    6.1040    1.0000 </r>
       <r>    6.1241    1.0000 </r>
       <r>    6.1700    1.0000 </r>
       <r>    6.2014    1.0000 </r>
       <r>    6.2312    1.0000 </r>
       <r>    6.2451    1.0000 </r>
       <r>    6.3527    1.0000 </r>
       <r>    6.3888    1.0000 </r>
       <r>    6.4189    1.0000 </r>
       <r>    6.4620    1.0000 </r>
       <r>    6.5546    1.0000 </r>
       <r>    6.6353    1.0000 </r>
       <r>    6.6758    1.0000 </r>
       <r>    6.6979    1.0000 </r>
       <r>    6.7171    1.0000 </r>
       <r>    6.7322    1.0000 </r>
       <r>    6.7791    1.0000 </r>
       <r>    6.8284    1.0000 </r>
       <r>    6.8764    1.0000 </r>
       <r>    6.9370    1.0000 </r>
       <r>    6.9945    1.0000 </r>
       <r>    7.0679    1.0000 </r>
       <r>    7.0917    1.0000 </r>
       <r>    7.1020    1.0000 </r>
       <r>    7.1204    1.0000 </r>
       <r>    7.1314    1.0000 </r>
       <r>    7.1705    1.0000 </r>
       <r>    7.2213    1.0000 </r>
       <r>    7.2320    1.0000 </r>
       <r>    7.2613    1.0000 </r>
       <r>    7.2834    1.0000 </r>
       <r>    7.3416    1.0000 </r>
       <r>    7.3526    1.0000 </r>
       <r>    7.3536    1.0000 </r>
       <r>    7.3772    1.0000 </r>
       <r>    7.4139    1.0000 </r>
       <r>    7.4150    1.0000 </r>
       <r>    7.4343    1.0000 </r>
       <r>    7.4382    1.0000 </r>
       <r>    7.4608    1.0000 </r>
       <r>    7.4868    1.0000 </r>
       <r>    7.5211    1.0000 </r>
       <r>    7.5293    1.0000 </r>
       <r>    7.5689    1.0000 </r>
       <r>    7.5868    1.0000 </r>
       <r>    7.6021    1.0000 </r>
       <r>    7.6399    1.0000 </r>
       <r>    7.6474    1.0000 </r>
       <r>    7.7632    1.0000 </r>
       <r>    7.7816    1.0000 </r>
       <r>    7.8000    1.0000 </r>
       <r>    7.8546    1.0000 </r>
       <r>    7.9293    1.0000 </r>
       <r>    7.9524    1.0000 </r>
       <r>    8.0147    1.0000 </r>
       <r>    8.0240    1.0000 </r>
       <r>    8.0748    1.0000 </r>
       <r>    8.0865    1.0000 </r>
       <r>    8.1378    1.0000 </r>
       <r>    8.1874    1.0000 </r>
       <r>    8.2041    1.0000 </r>
       <r>    8.2046    1.0000 </r>
       <r>    8.2510    1.0000 </r>
       <r>    8.2552    1.0000 </r>
       <r>    8.3023    1.0000 </r>
       <r>    8.3635    1.0000 </r>
       <r>    8.3779    1.0000 </r>
       <r>    8.3847    1.0001 </r>
       <r>    8.4156    1.0001 </r>
       <r>    8.4366    1.0002 </r>
       <r>    8.4444    1.0003 </r>
       <r>    8.4616    1.0004 </r>
       <r>    8.5512    1.0031 </r>
       <r>    8.5981    1.0072 </r>
       <r>    8.6219    1.0106 </r>
       <r>    8.6560    1.0168 </r>
       <r>    8.6638    1.0185 </r>
       <r>    8.6832    1.0229 </r>
       <r>    8.7044    1.0277 </r>
       <r>    8.7623    1.0354 </r>
       <r>    8.7888    1.0314 </r>
       <r>    8.8149    1.0186 </r>
       <r>    8.8486    0.9840 </r>
       <r>    8.8730    0.9434 </r>
       <r>    8.9085    0.8578 </r>
       <r>    8.9144    0.8405 </r>
       <r>    8.9657    0.6592 </r>
       <r>    8.9694    0.6444 </r>
       <r>    8.9846    0.5819 </r>
       <r>    9.0053    0.4947 </r>
       <r>    9.0065    0.4900 </r>
       <r>    9.0267    0.4048 </r>
       <r>    9.0417    0.3438 </r>
       <r>    9.0667    0.2490 </r>
       <r>    9.0932    0.1612 </r>
       <r>    9.1385    0.0503 </r>
       <r>    9.1677    0.0054 </r>
       <r>    9.1928   -0.0183 </r>
       <r>    9.2030   -0.0246 </r>
       <r>    9.2198   -0.0315 </r>
       <r>    9.2293   -0.0337 </r>
       <r>    9.2542   -0.0354 </r>
       <r>    9.2726   -0.0336 </r>
       <r>    9.2865   -0.0313 </r>
       <r>    9.3352   -0.0205 </r>
       <r>    9.3480   -0.0177 </r>
       <r>    9.4463   -0.0038 </r>
       <r>    9.6145   -0.0001 </r>
       <r>    9.6244   -0.0001 </r>
       <r>   10.0695   -0.0000 </r>
       <r>   10.1765   -0.0000 </r>
       <r>   10.5978   -0.0000 </r>
       <r>   11.5317   -0.0000 </r>
       <r>   11.6143   -0.0000 </r>
       <r>   12.5315   -0.0000 </r>
       <r>   12.8703   -0.0000 </r>
       <r>   13.0437   -0.0000 </r>
       <r>   13.3350   -0.0000 </r>
       <r>   13.5635   -0.0000 </r>
       <r>   13.6098   -0.0000 </r>
       <r>   14.3860    0.0000 </r>
       <r>   14.4072    0.0000 </r>
       <r>   15.4550    0.0000 </r>
       <r>   15.5824    0.0000 </r>
       <r>   15.7707    0.0000 </r>
       <r>   15.7717    0.0000 </r>
       <r>   16.1612    0.0000 </r>
       <r>   16.2924    0.0000 </r>
       <r>   16.4454    0.0000 </r>
       <r>   16.5674    0.0000 </r>
       <r>   16.6442    0.0000 </r>
       <r>   17.7185    0.0000 </r>
       <r>   17.8252    0.0000 </r>
       <r>   17.8415    0.0000 </r>
       <r>   17.8841    0.0000 </r>
       <r>   18.0158    0.0000 </r>
       <r>   18.0652    0.0000 </r>
       <r>   19.0369    0.0000 </r>
       <r>   19.0547    0.0000 </r>
       <r>   19.4258    0.0000 </r>
       <r>   19.6350    0.0000 </r>
       <r>   19.6511    0.0000 </r>
       <r>   20.0034    0.0000 </r>
       <r>   20.1074    0.0000 </r>
       <r>   20.8608    0.0000 </r>
       <r>   21.0725    0.0000 </r>
       <r>   21.2347    0.0000 </r>
       <r>   21.2713    0.0000 </r>
       <r>   21.9832    0.0000 </r>
      </set>
      <set comment="kpoint 7">
       <r>    1.0204    1.0000 </r>
       <r>    1.5150    1.0000 </r>
       <r>    2.7325    1.0000 </r>
       <r>    3.0929    1.0000 </r>
       <r>    3.2427    1.0000 </r>
       <r>    4.0834    1.0000 </r>
       <r>    4.1164    1.0000 </r>
       <r>    4.3281    1.0000 </r>
       <r>    4.4723    1.0000 </r>
       <r>    4.7366    1.0000 </r>
       <r>    4.8970    1.0000 </r>
       <r>    4.9020    1.0000 </r>
       <r>    5.0124    1.0000 </r>
       <r>    5.0388    1.0000 </r>
       <r>    5.0839    1.0000 </r>
       <r>    5.0994    1.0000 </r>
       <r>    5.1744    1.0000 </r>
       <r>    5.2037    1.0000 </r>
       <r>    5.3080    1.0000 </r>
       <r>    5.3627    1.0000 </r>
       <r>    5.4969    1.0000 </r>
       <r>    5.6563    1.0000 </r>
       <r>    5.6587    1.0000 </r>
       <r>    5.7495    1.0000 </r>
       <r>    5.7661    1.0000 </r>
       <r>    5.8135    1.0000 </r>
       <r>    5.8232    1.0000 </r>
       <r>    5.8381    1.0000 </r>
       <r>    5.9042    1.0000 </r>
       <r>    5.9502    1.0000 </r>
       <r>    5.9577    1.0000 </r>
       <r>    6.0161    1.0000 </r>
       <r>    6.0570    1.0000 </r>
       <r>    6.2292    1.0000 </r>
       <r>    6.2321    1.0000 </r>
       <r>    6.2508    1.0000 </r>
       <r>    6.2808    1.0000 </r>
       <r>    6.2874    1.0000 </r>
       <r>    6.3125    1.0000 </r>
       <r>    6.3944    1.0000 </r>
       <r>    6.4241    1.0000 </r>
       <r>    6.4956    1.0000 </r>
       <r>    6.5577    1.0000 </r>
       <r>    6.5989    1.0000 </r>
       <r>    6.6015    1.0000 </r>
       <r>    6.6638    1.0000 </r>
       <r>    6.7254    1.0000 </r>
       <r>    6.7311    1.0000 </r>
       <r>    6.7872    1.0000 </r>
       <r>    6.7947    1.0000 </r>
       <r>    6.8451    1.0000 </r>
       <r>    6.8774    1.0000 </r>
       <r>    6.8996    1.0000 </r>
       <r>    6.9115    1.0000 </r>
       <r>    6.9468    1.0000 </r>
       <r>    6.9556    1.0000 </r>
       <r>    6.9599    1.0000 </r>
       <r>    7.0132    1.0000 </r>
       <r>    7.0672    1.0000 </r>
       <r>    7.1115    1.0000 </r>
       <r>    7.1635    1.0000 </r>
       <r>    7.1783    1.0000 </r>
       <r>    7.1938    1.0000 </r>
       <r>    7.2213    1.0000 </r>
       <r>    7.2255    1.0000 </r>
       <r>    7.2875    1.0000 </r>
       <r>    7.2915    1.0000 </r>
       <r>    7.3351    1.0000 </r>
       <r>    7.3476    1.0000 </r>
       <r>    7.3803    1.0000 </r>
       <r>    7.4314    1.0000 </r>
       <r>    7.4750    1.0000 </r>
       <r>    7.4987    1.0000 </r>
       <r>    7.5296    1.0000 </r>
       <r>    7.5552    1.0000 </r>
       <r>    7.6142    1.0000 </r>
       <r>    7.6250    1.0000 </r>
       <r>    7.6555    1.0000 </r>
       <r>    7.6734    1.0000 </r>
       <r>    7.6860    1.0000 </r>
       <r>    7.7591    1.0000 </r>
       <r>    7.7764    1.0000 </r>
       <r>    7.8170    1.0000 </r>
       <r>    7.8392    1.0000 </r>
       <r>    7.8618    1.0000 </r>
       <r>    7.8784    1.0000 </r>
       <r>    7.9172    1.0000 </r>
       <r>    7.9253    1.0000 </r>
       <r>    8.0030    1.0000 </r>
       <r>    8.0090    1.0000 </r>
       <r>    8.0508    1.0000 </r>
       <r>    8.0733    1.0000 </r>
       <r>    8.1018    1.0000 </r>
       <r>    8.1893    1.0000 </r>
       <r>    8.2194    1.0000 </r>
       <r>    8.2365    1.0000 </r>
       <r>    8.2421    1.0000 </r>
       <r>    8.2969    1.0000 </r>
       <r>    8.3065    1.0000 </r>
       <r>    8.3364    1.0000 </r>
       <r>    8.3664    1.0000 </r>
       <r>    8.3845    1.0001 </r>
       <r>    8.4068    1.0001 </r>
       <r>    8.4127    1.0001 </r>
       <r>    8.4481    1.0003 </r>
       <r>    8.4580    1.0004 </r>
       <r>    8.5863    1.0059 </r>
       <r>    8.5902    1.0063 </r>
       <r>    8.5995    1.0074 </r>
       <r>    8.6177    1.0099 </r>
       <r>    8.6868    1.0237 </r>
       <r>    8.7080    1.0285 </r>
       <r>    8.7197    1.0309 </r>
       <r>    8.7647    1.0353 </r>
       <r>    8.8116    1.0208 </r>
       <r>    8.8138    1.0194 </r>
       <r>    8.8522    0.9790 </r>
       <r>    8.8860    0.9158 </r>
       <r>    8.9115    0.8492 </r>
       <r>    8.9425    0.7473 </r>
       <r>    8.9456    0.7361 </r>
       <r>    8.9957    0.5353 </r>
       <r>    8.9976    0.5273 </r>
       <r>    9.0147    0.4552 </r>
       <r>    9.0887    0.1751 </r>
       <r>    9.1401    0.0473 </r>
       <r>    9.1765   -0.0043 </r>
       <r>    9.1806   -0.0083 </r>
       <r>    9.2101   -0.0280 </r>
       <r>    9.2288   -0.0337 </r>
       <r>    9.2385   -0.0350 </r>
       <r>    9.2666   -0.0344 </r>
       <r>    9.2986   -0.0288 </r>
       <r>    9.3063   -0.0272 </r>
       <r>    9.3317   -0.0213 </r>
       <r>    9.3398   -0.0195 </r>
       <r>    9.3501   -0.0173 </r>
       <r>    9.3856   -0.0107 </r>
       <r>    9.7550   -0.0000 </r>
       <r>    9.9008   -0.0000 </r>
       <r>   10.3539   -0.0000 </r>
       <r>   10.4433   -0.0000 </r>
       <r>   10.6098   -0.0000 </r>
       <r>   10.6246   -0.0000 </r>
       <r>   11.2519   -0.0000 </r>
       <r>   11.2668   -0.0000 </r>
       <r>   11.3976   -0.0000 </r>
       <r>   11.7485   -0.0000 </r>
       <r>   12.0463   -0.0000 </r>
       <r>   12.7803   -0.0000 </r>
       <r>   12.8544   -0.0000 </r>
       <r>   13.1588   -0.0000 </r>
       <r>   13.1890   -0.0000 </r>
       <r>   13.2351   -0.0000 </r>
       <r>   13.4349   -0.0000 </r>
       <r>   15.0335    0.0000 </r>
       <r>   15.2226    0.0000 </r>
       <r>   15.3254    0.0000 </r>
       <r>   15.8969    0.0000 </r>
       <r>   15.9049    0.0000 </r>
       <r>   16.3729    0.0000 </r>
       <r>   16.7292    0.0000 </r>
       <r>   16.9122    0.0000 </r>
       <r>   17.3221    0.0000 </r>
       <r>   17.4129    0.0000 </r>
       <r>   17.4642    0.0000 </r>
       <r>   17.5304    0.0000 </r>
       <r>   18.5758    0.0000 </r>
       <r>   19.3086    0.0000 </r>
       <r>   19.3119    0.0000 </r>
       <r>   19.6731    0.0000 </r>
       <r>   19.6830    0.0000 </r>
       <r>   19.8436    0.0000 </r>
       <r>   20.3431    0.0000 </r>
       <r>   20.3744    0.0000 </r>
       <r>   20.5420    0.0000 </r>
       <r>   20.5652    0.0000 </r>
       <r>   20.5935    0.0000 </r>
       <r>   20.6511    0.0000 </r>
       <r>   21.1345    0.0000 </r>
       <r>   21.2192    0.0000 </r>
       <r>   21.9610    0.0000 </r>
      </set>
      <set comment="kpoint 8">
       <r>    0.8397    1.0000 </r>
       <r>    1.7554    1.0000 </r>
       <r>    2.5870    1.0000 </r>
       <r>    3.3033    1.0000 </r>
       <r>    3.4084    1.0000 </r>
       <r>    3.9411    1.0000 </r>
       <r>    4.0041    1.0000 </r>
       <r>    4.4411    1.0000 </r>
       <r>    4.4539    1.0000 </r>
       <r>    4.5593    1.0000 </r>
       <r>    4.7159    1.0000 </r>
       <r>    4.8239    1.0000 </r>
       <r>    4.9783    1.0000 </r>
       <r>    5.0022    1.0000 </r>
       <r>    5.0389    1.0000 </r>
       <r>    5.1680    1.0000 </r>
       <r>    5.2421    1.0000 </r>
       <r>    5.3412    1.0000 </r>
       <r>    5.3924    1.0000 </r>
       <r>    5.4638    1.0000 </r>
       <r>    5.5549    1.0000 </r>
       <r>    5.6365    1.0000 </r>
       <r>    5.6679    1.0000 </r>
       <r>    5.7412    1.0000 </r>
       <r>    5.7615    1.0000 </r>
       <r>    5.8065    1.0000 </r>
       <r>    5.8261    1.0000 </r>
       <r>    5.8656    1.0000 </r>
       <r>    5.8956    1.0000 </r>
       <r>    5.9813    1.0000 </r>
       <r>    5.9917    1.0000 </r>
       <r>    5.9929    1.0000 </r>
       <r>    6.0336    1.0000 </r>
       <r>    6.1405    1.0000 </r>
       <r>    6.1600    1.0000 </r>
       <r>    6.2109    1.0000 </r>
       <r>    6.3176    1.0000 </r>
       <r>    6.3273    1.0000 </r>
       <r>    6.3451    1.0000 </r>
       <r>    6.4201    1.0000 </r>
       <r>    6.4318    1.0000 </r>
       <r>    6.4942    1.0000 </r>
       <r>    6.5672    1.0000 </r>
       <r>    6.5837    1.0000 </r>
       <r>    6.6147    1.0000 </r>
       <r>    6.6560    1.0000 </r>
       <r>    6.6676    1.0000 </r>
       <r>    6.6917    1.0000 </r>
       <r>    6.7428    1.0000 </r>
       <r>    6.7781    1.0000 </r>
       <r>    6.8496    1.0000 </r>
       <r>    6.8700    1.0000 </r>
       <r>    6.8885    1.0000 </r>
       <r>    6.9392    1.0000 </r>
       <r>    6.9599    1.0000 </r>
       <r>    7.0316    1.0000 </r>
       <r>    7.0605    1.0000 </r>
       <r>    7.0619    1.0000 </r>
       <r>    7.0810    1.0000 </r>
       <r>    7.0979    1.0000 </r>
       <r>    7.1348    1.0000 </r>
       <r>    7.1638    1.0000 </r>
       <r>    7.1832    1.0000 </r>
       <r>    7.1928    1.0000 </r>
       <r>    7.2462    1.0000 </r>
       <r>    7.2714    1.0000 </r>
       <r>    7.3438    1.0000 </r>
       <r>    7.3527    1.0000 </r>
       <r>    7.3915    1.0000 </r>
       <r>    7.4254    1.0000 </r>
       <r>    7.4688    1.0000 </r>
       <r>    7.4798    1.0000 </r>
       <r>    7.4974    1.0000 </r>
       <r>    7.5169    1.0000 </r>
       <r>    7.5240    1.0000 </r>
       <r>    7.5394    1.0000 </r>
       <r>    7.5517    1.0000 </r>
       <r>    7.6301    1.0000 </r>
       <r>    7.6704    1.0000 </r>
       <r>    7.7022    1.0000 </r>
       <r>    7.7296    1.0000 </r>
       <r>    7.7539    1.0000 </r>
       <r>    7.7986    1.0000 </r>
       <r>    7.8333    1.0000 </r>
       <r>    7.8656    1.0000 </r>
       <r>    7.9254    1.0000 </r>
       <r>    7.9453    1.0000 </r>
       <r>    8.0119    1.0000 </r>
       <r>    8.0287    1.0000 </r>
       <r>    8.1016    1.0000 </r>
       <r>    8.1223    1.0000 </r>
       <r>    8.1378    1.0000 </r>
       <r>    8.1709    1.0000 </r>
       <r>    8.2246    1.0000 </r>
       <r>    8.2300    1.0000 </r>
       <r>    8.2616    1.0000 </r>
       <r>    8.2695    1.0000 </r>
       <r>    8.3066    1.0000 </r>
       <r>    8.3119    1.0000 </r>
       <r>    8.3366    1.0000 </r>
       <r>    8.3548    1.0000 </r>
       <r>    8.3824    1.0001 </r>
       <r>    8.3969    1.0001 </r>
       <r>    8.4069    1.0001 </r>
       <r>    8.4312    1.0002 </r>
       <r>    8.4548    1.0004 </r>
       <r>    8.4760    1.0006 </r>
       <r>    8.4956    1.0010 </r>
       <r>    8.5480    1.0029 </r>
       <r>    8.6316    1.0121 </r>
       <r>    8.6646    1.0187 </r>
       <r>    8.7048    1.0278 </r>
       <r>    8.7695    1.0350 </r>
       <r>    8.7731    1.0346 </r>
       <r>    8.7937    1.0297 </r>
       <r>    8.8212    1.0138 </r>
       <r>    8.8562    0.9728 </r>
       <r>    8.8835    0.9214 </r>
       <r>    8.9032    0.8726 </r>
       <r>    8.9461    0.7343 </r>
       <r>    8.9467    0.7320 </r>
       <r>    8.9784    0.6077 </r>
       <r>    9.0144    0.4566 </r>
       <r>    9.0158    0.4507 </r>
       <r>    9.0991    0.1439 </r>
       <r>    9.1192    0.0912 </r>
       <r>    9.1521    0.0270 </r>
       <r>    9.1625    0.0121 </r>
       <r>    9.2052   -0.0257 </r>
       <r>    9.2212   -0.0319 </r>
       <r>    9.2258   -0.0330 </r>
       <r>    9.2442   -0.0354 </r>
       <r>    9.2609   -0.0350 </r>
       <r>    9.2636   -0.0347 </r>
       <r>    9.2951   -0.0296 </r>
       <r>    9.2966   -0.0293 </r>
       <r>    9.3161   -0.0249 </r>
       <r>    9.4635   -0.0027 </r>
       <r>    9.7010   -0.0000 </r>
       <r>    9.7914   -0.0000 </r>
       <r>    9.8562   -0.0000 </r>
       <r>   10.2142   -0.0000 </r>
       <r>   10.5060   -0.0000 </r>
       <r>   10.6088   -0.0000 </r>
       <r>   11.2910   -0.0000 </r>
       <r>   11.4239   -0.0000 </r>
       <r>   11.5285   -0.0000 </r>
       <r>   11.5307   -0.0000 </r>
       <r>   12.6893   -0.0000 </r>
       <r>   12.8579   -0.0000 </r>
       <r>   12.8765   -0.0000 </r>
       <r>   12.9237   -0.0000 </r>
       <r>   13.3926   -0.0000 </r>
       <r>   13.6254   -0.0000 </r>
       <r>   13.8988   -0.0000 </r>
       <r>   14.6459    0.0000 </r>
       <r>   14.8690    0.0000 </r>
       <r>   15.5778    0.0000 </r>
       <r>   16.2948    0.0000 </r>
       <r>   16.3222    0.0000 </r>
       <r>   16.6582    0.0000 </r>
       <r>   16.8046    0.0000 </r>
       <r>   16.8122    0.0000 </r>
       <r>   17.1057    0.0000 </r>
       <r>   17.1846    0.0000 </r>
       <r>   17.2212    0.0000 </r>
       <r>   17.3969    0.0000 </r>
       <r>   18.2877    0.0000 </r>
       <r>   18.3304    0.0000 </r>
       <r>   19.0024    0.0000 </r>
       <r>   19.6553    0.0000 </r>
       <r>   19.6663    0.0000 </r>
       <r>   19.9331    0.0000 </r>
       <r>   20.2942    0.0000 </r>
       <r>   20.7020    0.0000 </r>
       <r>   20.7077    0.0000 </r>
       <r>   20.8820    0.0000 </r>
       <r>   20.9843    0.0000 </r>
       <r>   20.9997    0.0000 </r>
       <r>   21.2832    0.0000 </r>
       <r>   21.3008    0.0000 </r>
       <r>   21.6884    0.0000 </r>
      </set>
      <set comment="kpoint 9">
       <r>    0.4156    1.0000 </r>
       <r>    2.5271    1.0000 </r>
       <r>    2.6703    1.0000 </r>
       <r>    3.6287    1.0000 </r>
       <r>    3.6680    1.0000 </r>
       <r>    3.8317    1.0000 </r>
       <r>    3.8934    1.0000 </r>
       <r>    3.9012    1.0000 </r>
       <r>    4.1680    1.0000 </r>
       <r>    4.4675    1.0000 </r>
       <r>    4.4745    1.0000 </r>
       <r>    4.5507    1.0000 </r>
       <r>    4.7301    1.0000 </r>
       <r>    4.8316    1.0000 </r>
       <r>    5.0622    1.0000 </r>
       <r>    5.4149    1.0000 </r>
       <r>    5.5756    1.0000 </r>
       <r>    5.6324    1.0000 </r>
       <r>    5.6380    1.0000 </r>
       <r>    5.6487    1.0000 </r>
       <r>    5.6764    1.0000 </r>
       <r>    5.6858    1.0000 </r>
       <r>    5.7122    1.0000 </r>
       <r>    5.7996    1.0000 </r>
       <r>    5.8054    1.0000 </r>
       <r>    5.8268    1.0000 </r>
       <r>    5.8987    1.0000 </r>
       <r>    5.9110    1.0000 </r>
       <r>    5.9539    1.0000 </r>
       <r>    5.9560    1.0000 </r>
       <r>    5.9911    1.0000 </r>
       <r>    6.0246    1.0000 </r>
       <r>    6.0405    1.0000 </r>
       <r>    6.0441    1.0000 </r>
       <r>    6.0839    1.0000 </r>
       <r>    6.0928    1.0000 </r>
       <r>    6.1885    1.0000 </r>
       <r>    6.2548    1.0000 </r>
       <r>    6.2728    1.0000 </r>
       <r>    6.2928    1.0000 </r>
       <r>    6.3454    1.0000 </r>
       <r>    6.3769    1.0000 </r>
       <r>    6.4136    1.0000 </r>
       <r>    6.4811    1.0000 </r>
       <r>    6.6488    1.0000 </r>
       <r>    6.6963    1.0000 </r>
       <r>    6.7836    1.0000 </r>
       <r>    6.8124    1.0000 </r>
       <r>    6.8319    1.0000 </r>
       <r>    6.8440    1.0000 </r>
       <r>    6.8556    1.0000 </r>
       <r>    6.8839    1.0000 </r>
       <r>    6.9119    1.0000 </r>
       <r>    6.9713    1.0000 </r>
       <r>    6.9893    1.0000 </r>
       <r>    7.0246    1.0000 </r>
       <r>    7.0609    1.0000 </r>
       <r>    7.1438    1.0000 </r>
       <r>    7.2104    1.0000 </r>
       <r>    7.2331    1.0000 </r>
       <r>    7.2511    1.0000 </r>
       <r>    7.2675    1.0000 </r>
       <r>    7.2687    1.0000 </r>
       <r>    7.2943    1.0000 </r>
       <r>    7.3032    1.0000 </r>
       <r>    7.3068    1.0000 </r>
       <r>    7.3419    1.0000 </r>
       <r>    7.3540    1.0000 </r>
       <r>    7.3627    1.0000 </r>
       <r>    7.4344    1.0000 </r>
       <r>    7.4463    1.0000 </r>
       <r>    7.4511    1.0000 </r>
       <r>    7.4552    1.0000 </r>
       <r>    7.5225    1.0000 </r>
       <r>    7.5227    1.0000 </r>
       <r>    7.5569    1.0000 </r>
       <r>    7.5569    1.0000 </r>
       <r>    7.5576    1.0000 </r>
       <r>    7.5792    1.0000 </r>
       <r>    7.6742    1.0000 </r>
       <r>    7.6988    1.0000 </r>
       <r>    7.7614    1.0000 </r>
       <r>    7.8085    1.0000 </r>
       <r>    7.8571    1.0000 </r>
       <r>    7.8671    1.0000 </r>
       <r>    8.0085    1.0000 </r>
       <r>    8.0148    1.0000 </r>
       <r>    8.0257    1.0000 </r>
       <r>    8.0368    1.0000 </r>
       <r>    8.1139    1.0000 </r>
       <r>    8.1608    1.0000 </r>
       <r>    8.2152    1.0000 </r>
       <r>    8.2153    1.0000 </r>
       <r>    8.2833    1.0000 </r>
       <r>    8.2909    1.0000 </r>
       <r>    8.3318    1.0000 </r>
       <r>    8.3504    1.0000 </r>
       <r>    8.3811    1.0000 </r>
       <r>    8.4002    1.0001 </r>
       <r>    8.4072    1.0001 </r>
       <r>    8.4283    1.0002 </r>
       <r>    8.4313    1.0002 </r>
       <r>    8.4347    1.0002 </r>
       <r>    8.4671    1.0005 </r>
       <r>    8.4680    1.0005 </r>
       <r>    8.4903    1.0008 </r>
       <r>    8.5120    1.0014 </r>
       <r>    8.5756    1.0049 </r>
       <r>    8.5966    1.0071 </r>
       <r>    8.6395    1.0136 </r>
       <r>    8.6453    1.0147 </r>
       <r>    8.6651    1.0188 </r>
       <r>    8.7419    1.0344 </r>
       <r>    8.7506    1.0352 </r>
       <r>    8.7571    1.0354 </r>
       <r>    8.8342    1.0016 </r>
       <r>    8.8625    0.9626 </r>
       <r>    8.8690    0.9511 </r>
       <r>    8.9391    0.7596 </r>
       <r>    8.9488    0.7244 </r>
       <r>    8.9626    0.6716 </r>
       <r>    8.9796    0.6026 </r>
       <r>    8.9904    0.5576 </r>
       <r>    9.0064    0.4901 </r>
       <r>    9.0115    0.4685 </r>
       <r>    9.0336    0.3765 </r>
       <r>    9.0559    0.2886 </r>
       <r>    9.1032    0.1324 </r>
       <r>    9.1048    0.1279 </r>
       <r>    9.1108    0.1120 </r>
       <r>    9.1165    0.0977 </r>
       <r>    9.1463    0.0364 </r>
       <r>    9.1530    0.0255 </r>
       <r>    9.1644    0.0095 </r>
       <r>    9.2112   -0.0284 </r>
       <r>    9.2138   -0.0295 </r>
       <r>    9.2181   -0.0310 </r>
       <r>    9.2303   -0.0339 </r>
       <r>    9.2382   -0.0350 </r>
       <r>    9.3661   -0.0140 </r>
       <r>    9.4211   -0.0060 </r>
       <r>    9.4994   -0.0013 </r>
       <r>    9.5109   -0.0010 </r>
       <r>   10.1672   -0.0000 </r>
       <r>   10.2294   -0.0000 </r>
       <r>   11.5366   -0.0000 </r>
       <r>   12.6194   -0.0000 </r>
       <r>   12.7540   -0.0000 </r>
       <r>   12.7868   -0.0000 </r>
       <r>   12.7985   -0.0000 </r>
       <r>   14.2503   -0.0000 </r>
       <r>   14.2589   -0.0000 </r>
       <r>   14.3254   -0.0000 </r>
       <r>   14.3356    0.0000 </r>
       <r>   14.6168    0.0000 </r>
       <r>   14.6191    0.0000 </r>
       <r>   14.6572    0.0000 </r>
       <r>   16.3209    0.0000 </r>
       <r>   16.3334    0.0000 </r>
       <r>   16.4415    0.0000 </r>
       <r>   16.4750    0.0000 </r>
       <r>   16.8604    0.0000 </r>
       <r>   16.8830    0.0000 </r>
       <r>   16.9302    0.0000 </r>
       <r>   17.0186    0.0000 </r>
       <r>   17.1095    0.0000 </r>
       <r>   17.1625    0.0000 </r>
       <r>   17.2803    0.0000 </r>
       <r>   17.4847    0.0000 </r>
       <r>   17.6013    0.0000 </r>
       <r>   19.2875    0.0000 </r>
       <r>   19.5571    0.0000 </r>
       <r>   19.9936    0.0000 </r>
       <r>   20.0378    0.0000 </r>
       <r>   20.1389    0.0000 </r>
       <r>   20.1405    0.0000 </r>
       <r>   20.2294    0.0000 </r>
       <r>   20.2338    0.0000 </r>
       <r>   20.8961    0.0000 </r>
       <r>   20.8969    0.0000 </r>
       <r>   20.9706    0.0000 </r>
       <r>   20.9928    0.0000 </r>
      </set>
      <set comment="kpoint 10">
       <r>    0.7288    1.0000 </r>
       <r>    2.4408    1.0000 </r>
       <r>    2.7815    1.0000 </r>
       <r>    2.8353    1.0000 </r>
       <r>    2.8353    1.0000 </r>
       <r>    3.2163    1.0000 </r>
       <r>    4.6449    1.0000 </r>
       <r>    4.6701    1.0000 </r>
       <r>    4.6701    1.0000 </r>
       <r>    4.6953    1.0000 </r>
       <r>    4.7645    1.0000 </r>
       <r>    4.7645    1.0000 </r>
       <r>    4.8046    1.0000 </r>
       <r>    4.8091    1.0000 </r>
       <r>    5.1724    1.0000 </r>
       <r>    5.4328    1.0000 </r>
       <r>    5.4435    1.0000 </r>
       <r>    5.4435    1.0000 </r>
       <r>    5.5096    1.0000 </r>
       <r>    5.5096    1.0000 </r>
       <r>    5.5159    1.0000 </r>
       <r>    5.5228    1.0000 </r>
       <r>    5.6012    1.0000 </r>
       <r>    5.6652    1.0000 </r>
       <r>    5.6652    1.0000 </r>
       <r>    5.7848    1.0000 </r>
       <r>    5.7924    1.0000 </r>
       <r>    5.9167    1.0000 </r>
       <r>    5.9333    1.0000 </r>
       <r>    5.9333    1.0000 </r>
       <r>    6.0003    1.0000 </r>
       <r>    6.0056    1.0000 </r>
       <r>    6.0478    1.0000 </r>
       <r>    6.0750    1.0000 </r>
       <r>    6.2064    1.0000 </r>
       <r>    6.2064    1.0000 </r>
       <r>    6.2625    1.0000 </r>
       <r>    6.3103    1.0000 </r>
       <r>    6.3103    1.0000 </r>
       <r>    6.4529    1.0000 </r>
       <r>    6.4764    1.0000 </r>
       <r>    6.4871    1.0000 </r>
       <r>    6.5383    1.0000 </r>
       <r>    6.5383    1.0000 </r>
       <r>    6.5520    1.0000 </r>
       <r>    6.5674    1.0000 </r>
       <r>    6.6041    1.0000 </r>
       <r>    6.6041    1.0000 </r>
       <r>    6.6843    1.0000 </r>
       <r>    6.7507    1.0000 </r>
       <r>    6.7851    1.0000 </r>
       <r>    6.9423    1.0000 </r>
       <r>    6.9423    1.0000 </r>
       <r>    6.9476    1.0000 </r>
       <r>    6.9985    1.0000 </r>
       <r>    6.9985    1.0000 </r>
       <r>    7.0903    1.0000 </r>
       <r>    7.1251    1.0000 </r>
       <r>    7.2168    1.0000 </r>
       <r>    7.2392    1.0000 </r>
       <r>    7.2392    1.0000 </r>
       <r>    7.2768    1.0000 </r>
       <r>    7.3204    1.0000 </r>
       <r>    7.3323    1.0000 </r>
       <r>    7.3323    1.0000 </r>
       <r>    7.3523    1.0000 </r>
       <r>    7.3942    1.0000 </r>
       <r>    7.4190    1.0000 </r>
       <r>    7.4208    1.0000 </r>
       <r>    7.4208    1.0000 </r>
       <r>    7.4345    1.0000 </r>
       <r>    7.4438    1.0000 </r>
       <r>    7.4438    1.0000 </r>
       <r>    7.4822    1.0000 </r>
       <r>    7.4822    1.0000 </r>
       <r>    7.4847    1.0000 </r>
       <r>    7.4971    1.0000 </r>
       <r>    7.5674    1.0000 </r>
       <r>    7.5872    1.0000 </r>
       <r>    7.6038    1.0000 </r>
       <r>    7.6038    1.0000 </r>
       <r>    7.6327    1.0000 </r>
       <r>    7.6327    1.0000 </r>
       <r>    7.6772    1.0000 </r>
       <r>    7.8356    1.0000 </r>
       <r>    7.8825    1.0000 </r>
       <r>    7.8948    1.0000 </r>
       <r>    7.8948    1.0000 </r>
       <r>    7.9206    1.0000 </r>
       <r>    7.9832    1.0000 </r>
       <r>    7.9832    1.0000 </r>
       <r>    8.0896    1.0000 </r>
       <r>    8.1709    1.0000 </r>
       <r>    8.1709    1.0000 </r>
       <r>    8.1939    1.0000 </r>
       <r>    8.2159    1.0000 </r>
       <r>    8.2213    1.0000 </r>
       <r>    8.2213    1.0000 </r>
       <r>    8.2318    1.0000 </r>
       <r>    8.2380    1.0000 </r>
       <r>    8.3866    1.0001 </r>
       <r>    8.3978    1.0001 </r>
       <r>    8.5287    1.0020 </r>
       <r>    8.5561    1.0034 </r>
       <r>    8.5574    1.0035 </r>
       <r>    8.5574    1.0035 </r>
       <r>    8.6351    1.0128 </r>
       <r>    8.6507    1.0157 </r>
       <r>    8.6507    1.0157 </r>
       <r>    8.6742    1.0208 </r>
       <r>    8.6742    1.0208 </r>
       <r>    8.7035    1.0275 </r>
       <r>    8.7259    1.0321 </r>
       <r>    8.7451    1.0348 </r>
       <r>    8.7867    1.0320 </r>
       <r>    8.7867    1.0320 </r>
       <r>    8.8525    0.9784 </r>
       <r>    8.8911    0.9036 </r>
       <r>    8.8911    0.9036 </r>
       <r>    8.9041    0.8701 </r>
       <r>    8.9299    0.7912 </r>
       <r>    9.0294    0.3937 </r>
       <r>    9.0426    0.3405 </r>
       <r>    9.0426    0.3405 </r>
       <r>    9.1281    0.0711 </r>
       <r>    9.1594    0.0162 </r>
       <r>    9.1712    0.0014 </r>
       <r>    9.1712    0.0014 </r>
       <r>    9.1720    0.0005 </r>
       <r>    9.2198   -0.0315 </r>
       <r>    9.2410   -0.0352 </r>
       <r>    9.2410   -0.0352 </r>
       <r>    9.3385   -0.0198 </r>
       <r>    9.3448   -0.0184 </r>
       <r>    9.3470   -0.0179 </r>
       <r>    9.3470   -0.0179 </r>
       <r>    9.7973   -0.0000 </r>
       <r>    9.8334   -0.0000 </r>
       <r>    9.8441   -0.0000 </r>
       <r>    9.8441   -0.0000 </r>
       <r>    9.9323   -0.0000 </r>
       <r>    9.9953   -0.0000 </r>
       <r>    9.9953   -0.0000 </r>
       <r>   10.1189   -0.0000 </r>
       <r>   10.9686   -0.0000 </r>
       <r>   11.6003   -0.0000 </r>
       <r>   11.6860   -0.0000 </r>
       <r>   11.6860   -0.0000 </r>
       <r>   11.8247   -0.0000 </r>
       <r>   12.6269   -0.0000 </r>
       <r>   12.7686   -0.0000 </r>
       <r>   12.7686   -0.0000 </r>
       <r>   12.8945   -0.0000 </r>
       <r>   14.8318    0.0000 </r>
       <r>   14.9705    0.0000 </r>
       <r>   15.2071    0.0000 </r>
       <r>   15.2071    0.0000 </r>
       <r>   15.6229    0.0000 </r>
       <r>   15.7813    0.0000 </r>
       <r>   15.7813    0.0000 </r>
       <r>   15.9054    0.0000 </r>
       <r>   17.1451    0.0000 </r>
       <r>   17.2677    0.0000 </r>
       <r>   17.2677    0.0000 </r>
       <r>   17.3720    0.0000 </r>
       <r>   17.8203    0.0000 </r>
       <r>   17.8418    0.0000 </r>
       <r>   17.8418    0.0000 </r>
       <r>   18.0502    0.0000 </r>
       <r>   19.3166    0.0000 </r>
       <r>   19.3273    0.0000 </r>
       <r>   19.3273    0.0000 </r>
       <r>   19.4495    0.0000 </r>
       <r>   19.7158    0.0000 </r>
       <r>   19.7229    0.0000 </r>
       <r>   19.7353    0.0000 </r>
       <r>   19.9287    0.0000 </r>
       <r>   19.9287    0.0000 </r>
       <r>   21.4012    0.0000 </r>
       <r>   21.4012    0.0000 </r>
       <r>   21.4389    0.0000 </r>
       <r>   21.5480    0.0000 </r>
      </set>
      <set comment="kpoint 11">
       <r>    1.1436    1.0000 </r>
       <r>    1.9451    1.0000 </r>
       <r>    2.1371    1.0000 </r>
       <r>    2.8165    1.0000 </r>
       <r>    2.9733    1.0000 </r>
       <r>    3.6549    1.0000 </r>
       <r>    4.6712    1.0000 </r>
       <r>    4.6802    1.0000 </r>
       <r>    4.8045    1.0000 </r>
       <r>    4.8678    1.0000 </r>
       <r>    4.9275    1.0000 </r>
       <r>    4.9679    1.0000 </r>
       <r>    5.0680    1.0000 </r>
       <r>    5.1479    1.0000 </r>
       <r>    5.1562    1.0000 </r>
       <r>    5.1570    1.0000 </r>
       <r>    5.2455    1.0000 </r>
       <r>    5.2724    1.0000 </r>
       <r>    5.3305    1.0000 </r>
       <r>    5.3469    1.0000 </r>
       <r>    5.3694    1.0000 </r>
       <r>    5.3896    1.0000 </r>
       <r>    5.5318    1.0000 </r>
       <r>    5.5931    1.0000 </r>
       <r>    5.6370    1.0000 </r>
       <r>    5.6852    1.0000 </r>
       <r>    5.7826    1.0000 </r>
       <r>    5.8183    1.0000 </r>
       <r>    5.8635    1.0000 </r>
       <r>    5.9774    1.0000 </r>
       <r>    6.0250    1.0000 </r>
       <r>    6.0759    1.0000 </r>
       <r>    6.1264    1.0000 </r>
       <r>    6.1531    1.0000 </r>
       <r>    6.2370    1.0000 </r>
       <r>    6.2471    1.0000 </r>
       <r>    6.2725    1.0000 </r>
       <r>    6.3422    1.0000 </r>
       <r>    6.3637    1.0000 </r>
       <r>    6.4215    1.0000 </r>
       <r>    6.4753    1.0000 </r>
       <r>    6.5063    1.0000 </r>
       <r>    6.5379    1.0000 </r>
       <r>    6.6010    1.0000 </r>
       <r>    6.6608    1.0000 </r>
       <r>    6.6766    1.0000 </r>
       <r>    6.7008    1.0000 </r>
       <r>    6.7059    1.0000 </r>
       <r>    6.7459    1.0000 </r>
       <r>    6.7785    1.0000 </r>
       <r>    6.7936    1.0000 </r>
       <r>    6.8042    1.0000 </r>
       <r>    6.8493    1.0000 </r>
       <r>    6.8627    1.0000 </r>
       <r>    6.9552    1.0000 </r>
       <r>    6.9659    1.0000 </r>
       <r>    6.9778    1.0000 </r>
       <r>    7.0351    1.0000 </r>
       <r>    7.0887    1.0000 </r>
       <r>    7.1081    1.0000 </r>
       <r>    7.1628    1.0000 </r>
       <r>    7.1636    1.0000 </r>
       <r>    7.2133    1.0000 </r>
       <r>    7.2214    1.0000 </r>
       <r>    7.2572    1.0000 </r>
       <r>    7.2883    1.0000 </r>
       <r>    7.3030    1.0000 </r>
       <r>    7.3382    1.0000 </r>
       <r>    7.3933    1.0000 </r>
       <r>    7.3990    1.0000 </r>
       <r>    7.4056    1.0000 </r>
       <r>    7.4324    1.0000 </r>
       <r>    7.4746    1.0000 </r>
       <r>    7.4984    1.0000 </r>
       <r>    7.5405    1.0000 </r>
       <r>    7.6183    1.0000 </r>
       <r>    7.6254    1.0000 </r>
       <r>    7.6395    1.0000 </r>
       <r>    7.6870    1.0000 </r>
       <r>    7.7019    1.0000 </r>
       <r>    7.7155    1.0000 </r>
       <r>    7.7450    1.0000 </r>
       <r>    7.7554    1.0000 </r>
       <r>    7.7986    1.0000 </r>
       <r>    7.8168    1.0000 </r>
       <r>    7.8181    1.0000 </r>
       <r>    7.8528    1.0000 </r>
       <r>    7.8552    1.0000 </r>
       <r>    7.8762    1.0000 </r>
       <r>    7.9367    1.0000 </r>
       <r>    8.0250    1.0000 </r>
       <r>    8.0432    1.0000 </r>
       <r>    8.0919    1.0000 </r>
       <r>    8.1011    1.0000 </r>
       <r>    8.1303    1.0000 </r>
       <r>    8.1351    1.0000 </r>
       <r>    8.1482    1.0000 </r>
       <r>    8.2036    1.0000 </r>
       <r>    8.2365    1.0000 </r>
       <r>    8.2856    1.0000 </r>
       <r>    8.3332    1.0000 </r>
       <r>    8.3653    1.0000 </r>
       <r>    8.3778    1.0000 </r>
       <r>    8.4204    1.0001 </r>
       <r>    8.4847    1.0007 </r>
       <r>    8.5268    1.0019 </r>
       <r>    8.5717    1.0046 </r>
       <r>    8.5968    1.0071 </r>
       <r>    8.6290    1.0117 </r>
       <r>    8.6434    1.0143 </r>
       <r>    8.6647    1.0187 </r>
       <r>    8.7018    1.0271 </r>
       <r>    8.7110    1.0292 </r>
       <r>    8.7341    1.0334 </r>
       <r>    8.7708    1.0349 </r>
       <r>    8.8766    0.9362 </r>
       <r>    8.8897    0.9070 </r>
       <r>    8.9473    0.7297 </r>
       <r>    8.9730    0.6297 </r>
       <r>    9.0061    0.4915 </r>
       <r>    9.0118    0.4674 </r>
       <r>    9.0350    0.3710 </r>
       <r>    9.0694    0.2394 </r>
       <r>    9.1123    0.1081 </r>
       <r>    9.1348    0.0574 </r>
       <r>    9.1529    0.0257 </r>
       <r>    9.1573    0.0191 </r>
       <r>    9.1810   -0.0087 </r>
       <r>    9.2159   -0.0302 </r>
       <r>    9.2354   -0.0347 </r>
       <r>    9.2873   -0.0312 </r>
       <r>    9.3272   -0.0223 </r>
       <r>    9.3741   -0.0126 </r>
       <r>    9.3882   -0.0102 </r>
       <r>    9.4016   -0.0083 </r>
       <r>    9.4020   -0.0083 </r>
       <r>    9.9291   -0.0000 </r>
       <r>    9.9628   -0.0000 </r>
       <r>   10.1506   -0.0000 </r>
       <r>   10.4860   -0.0000 </r>
       <r>   10.4966   -0.0000 </r>
       <r>   10.5975   -0.0000 </r>
       <r>   10.6989   -0.0000 </r>
       <r>   10.7456   -0.0000 </r>
       <r>   10.9437   -0.0000 </r>
       <r>   11.0294   -0.0000 </r>
       <r>   11.5100   -0.0000 </r>
       <r>   11.7399   -0.0000 </r>
       <r>   11.8214   -0.0000 </r>
       <r>   11.8329   -0.0000 </r>
       <r>   11.9884   -0.0000 </r>
       <r>   12.0814   -0.0000 </r>
       <r>   12.3181   -0.0000 </r>
       <r>   13.8683   -0.0000 </r>
       <r>   13.8790   -0.0000 </r>
       <r>   15.1596    0.0000 </r>
       <r>   15.3119    0.0000 </r>
       <r>   15.4140    0.0000 </r>
       <r>   15.6909    0.0000 </r>
       <r>   16.0371    0.0000 </r>
       <r>   16.0409    0.0000 </r>
       <r>   16.7940    0.0000 </r>
       <r>   16.8315    0.0000 </r>
       <r>   17.3037    0.0000 </r>
       <r>   18.1903    0.0000 </r>
       <r>   18.2421    0.0000 </r>
       <r>   18.3575    0.0000 </r>
       <r>   18.9675    0.0000 </r>
       <r>   19.1887    0.0000 </r>
       <r>   19.2026    0.0000 </r>
       <r>   19.4700    0.0000 </r>
       <r>   19.4909    0.0000 </r>
       <r>   19.7130    0.0000 </r>
       <r>   19.7956    0.0000 </r>
       <r>   20.0499    0.0000 </r>
       <r>   20.1955    0.0000 </r>
       <r>   20.4999    0.0000 </r>
       <r>   20.5123    0.0000 </r>
       <r>   21.1031    0.0000 </r>
       <r>   21.1411    0.0000 </r>
       <r>   21.5820    0.0000 </r>
       <r>   21.6228    0.0000 </r>
      </set>
      <set comment="kpoint 12">
       <r>    1.3142    1.0000 </r>
       <r>    1.7086    1.0000 </r>
       <r>    1.9077    1.0000 </r>
       <r>    2.9792    1.0000 </r>
       <r>    3.1254    1.0000 </r>
       <r>    4.3941    1.0000 </r>
       <r>    4.4967    1.0000 </r>
       <r>    4.5299    1.0000 </r>
       <r>    4.5610    1.0000 </r>
       <r>    4.7024    1.0000 </r>
       <r>    4.8930    1.0000 </r>
       <r>    4.9064    1.0000 </r>
       <r>    4.9234    1.0000 </r>
       <r>    5.0133    1.0000 </r>
       <r>    5.1184    1.0000 </r>
       <r>    5.1692    1.0000 </r>
       <r>    5.2422    1.0000 </r>
       <r>    5.2780    1.0000 </r>
       <r>    5.3327    1.0000 </r>
       <r>    5.3739    1.0000 </r>
       <r>    5.4431    1.0000 </r>
       <r>    5.4485    1.0000 </r>
       <r>    5.4989    1.0000 </r>
       <r>    5.6468    1.0000 </r>
       <r>    5.6707    1.0000 </r>
       <r>    5.7419    1.0000 </r>
       <r>    5.7591    1.0000 </r>
       <r>    5.8016    1.0000 </r>
       <r>    5.8064    1.0000 </r>
       <r>    5.9421    1.0000 </r>
       <r>    6.0675    1.0000 </r>
       <r>    6.0831    1.0000 </r>
       <r>    6.1324    1.0000 </r>
       <r>    6.1680    1.0000 </r>
       <r>    6.1849    1.0000 </r>
       <r>    6.2703    1.0000 </r>
       <r>    6.3375    1.0000 </r>
       <r>    6.3805    1.0000 </r>
       <r>    6.4704    1.0000 </r>
       <r>    6.4749    1.0000 </r>
       <r>    6.4784    1.0000 </r>
       <r>    6.5133    1.0000 </r>
       <r>    6.5374    1.0000 </r>
       <r>    6.5421    1.0000 </r>
       <r>    6.5848    1.0000 </r>
       <r>    6.6268    1.0000 </r>
       <r>    6.6596    1.0000 </r>
       <r>    6.7209    1.0000 </r>
       <r>    6.7544    1.0000 </r>
       <r>    6.7575    1.0000 </r>
       <r>    6.8100    1.0000 </r>
       <r>    6.8138    1.0000 </r>
       <r>    6.9238    1.0000 </r>
       <r>    6.9600    1.0000 </r>
       <r>    6.9931    1.0000 </r>
       <r>    7.0138    1.0000 </r>
       <r>    7.0162    1.0000 </r>
       <r>    7.0580    1.0000 </r>
       <r>    7.0612    1.0000 </r>
       <r>    7.0670    1.0000 </r>
       <r>    7.1025    1.0000 </r>
       <r>    7.1075    1.0000 </r>
       <r>    7.1112    1.0000 </r>
       <r>    7.1649    1.0000 </r>
       <r>    7.1720    1.0000 </r>
       <r>    7.2599    1.0000 </r>
       <r>    7.2799    1.0000 </r>
       <r>    7.2834    1.0000 </r>
       <r>    7.3101    1.0000 </r>
       <r>    7.3736    1.0000 </r>
       <r>    7.4078    1.0000 </r>
       <r>    7.4599    1.0000 </r>
       <r>    7.4662    1.0000 </r>
       <r>    7.4977    1.0000 </r>
       <r>    7.5299    1.0000 </r>
       <r>    7.6146    1.0000 </r>
       <r>    7.6152    1.0000 </r>
       <r>    7.6813    1.0000 </r>
       <r>    7.7247    1.0000 </r>
       <r>    7.7876    1.0000 </r>
       <r>    7.8153    1.0000 </r>
       <r>    7.8211    1.0000 </r>
       <r>    7.8423    1.0000 </r>
       <r>    7.8648    1.0000 </r>
       <r>    7.8754    1.0000 </r>
       <r>    7.9105    1.0000 </r>
       <r>    7.9336    1.0000 </r>
       <r>    7.9372    1.0000 </r>
       <r>    7.9452    1.0000 </r>
       <r>    7.9652    1.0000 </r>
       <r>    8.0307    1.0000 </r>
       <r>    8.0657    1.0000 </r>
       <r>    8.0783    1.0000 </r>
       <r>    8.0986    1.0000 </r>
       <r>    8.1184    1.0000 </r>
       <r>    8.1221    1.0000 </r>
       <r>    8.1375    1.0000 </r>
       <r>    8.1856    1.0000 </r>
       <r>    8.1862    1.0000 </r>
       <r>    8.2341    1.0000 </r>
       <r>    8.3045    1.0000 </r>
       <r>    8.3575    1.0000 </r>
       <r>    8.3885    1.0001 </r>
       <r>    8.3920    1.0001 </r>
       <r>    8.4433    1.0003 </r>
       <r>    8.4807    1.0007 </r>
       <r>    8.5194    1.0016 </r>
       <r>    8.5484    1.0029 </r>
       <r>    8.5633    1.0039 </r>
       <r>    8.6047    1.0081 </r>
       <r>    8.6861    1.0235 </r>
       <r>    8.6889    1.0242 </r>
       <r>    8.7066    1.0282 </r>
       <r>    8.7966    1.0286 </r>
       <r>    8.8422    0.9924 </r>
       <r>    8.8450    0.9888 </r>
       <r>    8.8757    0.9379 </r>
       <r>    8.9086    0.8575 </r>
       <r>    8.9675    0.6519 </r>
       <r>    8.9924    0.5494 </r>
       <r>    9.0482    0.3183 </r>
       <r>    9.0513    0.3064 </r>
       <r>    9.0680    0.2444 </r>
       <r>    9.1049    0.1277 </r>
       <r>    9.1431    0.0419 </r>
       <r>    9.1549    0.0227 </r>
       <r>    9.1653    0.0085 </r>
       <r>    9.1694    0.0035 </r>
       <r>    9.1928   -0.0183 </r>
       <r>    9.2155   -0.0301 </r>
       <r>    9.2474   -0.0354 </r>
       <r>    9.2637   -0.0347 </r>
       <r>    9.3408   -0.0193 </r>
       <r>    9.3557   -0.0161 </r>
       <r>    9.3710   -0.0131 </r>
       <r>    9.8489   -0.0000 </r>
       <r>    9.8606   -0.0000 </r>
       <r>    9.8623   -0.0000 </r>
       <r>    9.8929   -0.0000 </r>
       <r>    9.9717   -0.0000 </r>
       <r>   10.3625   -0.0000 </r>
       <r>   10.3771   -0.0000 </r>
       <r>   10.7348   -0.0000 </r>
       <r>   10.7862   -0.0000 </r>
       <r>   11.5097   -0.0000 </r>
       <r>   11.5684   -0.0000 </r>
       <r>   11.7189   -0.0000 </r>
       <r>   11.7297   -0.0000 </r>
       <r>   12.1467   -0.0000 </r>
       <r>   12.1556   -0.0000 </r>
       <r>   12.1880   -0.0000 </r>
       <r>   12.3423   -0.0000 </r>
       <r>   12.6296   -0.0000 </r>
       <r>   12.7709   -0.0000 </r>
       <r>   12.7953   -0.0000 </r>
       <r>   14.9562    0.0000 </r>
       <r>   15.1505    0.0000 </r>
       <r>   15.3425    0.0000 </r>
       <r>   15.4697    0.0000 </r>
       <r>   16.4002    0.0000 </r>
       <r>   16.4218    0.0000 </r>
       <r>   16.5858    0.0000 </r>
       <r>   16.6116    0.0000 </r>
       <r>   18.1122    0.0000 </r>
       <r>   18.3344    0.0000 </r>
       <r>   18.7168    0.0000 </r>
       <r>   18.7456    0.0000 </r>
       <r>   18.8181    0.0000 </r>
       <r>   18.8824    0.0000 </r>
       <r>   18.9109    0.0000 </r>
       <r>   19.3786    0.0000 </r>
       <r>   19.5268    0.0000 </r>
       <r>   19.9811    0.0000 </r>
       <r>   19.9945    0.0000 </r>
       <r>   20.2143    0.0000 </r>
       <r>   20.2341    0.0000 </r>
       <r>   20.7623    0.0000 </r>
       <r>   20.7876    0.0000 </r>
       <r>   20.8745    0.0000 </r>
       <r>   20.8869    0.0000 </r>
       <r>   21.3889    0.0000 </r>
       <r>   21.3982    0.0000 </r>
      </set>
      <set comment="kpoint 13">
       <r>    1.4132    1.0000 </r>
       <r>    1.5579    1.0000 </r>
       <r>    2.6671    1.0000 </r>
       <r>    2.7218    1.0000 </r>
       <r>    2.7218    1.0000 </r>
       <r>    3.1051    1.0000 </r>
       <r>    4.7704    1.0000 </r>
       <r>    5.0790    1.0000 </r>
       <r>    5.0790    1.0000 </r>
       <r>    5.0897    1.0000 </r>
       <r>    5.1018    1.0000 </r>
       <r>    5.1367    1.0000 </r>
       <r>    5.1367    1.0000 </r>
       <r>    5.1552    1.0000 </r>
       <r>    5.1639    1.0000 </r>
       <r>    5.2157    1.0000 </r>
       <r>    5.2190    1.0000 </r>
       <r>    5.2190    1.0000 </r>
       <r>    5.2249    1.0000 </r>
       <r>    5.2302    1.0000 </r>
       <r>    5.2302    1.0000 </r>
       <r>    5.3127    1.0000 </r>
       <r>    5.4078    1.0000 </r>
       <r>    5.4078    1.0000 </r>
       <r>    5.5000    1.0000 </r>
       <r>    5.6457    1.0000 </r>
       <r>    5.7244    1.0000 </r>
       <r>    5.9030    1.0000 </r>
       <r>    5.9590    1.0000 </r>
       <r>    5.9590    1.0000 </r>
       <r>    5.9613    1.0000 </r>
       <r>    6.0094    1.0000 </r>
       <r>    6.1456    1.0000 </r>
       <r>    6.2224    1.0000 </r>
       <r>    6.2224    1.0000 </r>
       <r>    6.2299    1.0000 </r>
       <r>    6.2503    1.0000 </r>
       <r>    6.2532    1.0000 </r>
       <r>    6.4235    1.0000 </r>
       <r>    6.4235    1.0000 </r>
       <r>    6.5644    1.0000 </r>
       <r>    6.6022    1.0000 </r>
       <r>    6.6151    1.0000 </r>
       <r>    6.6486    1.0000 </r>
       <r>    6.6486    1.0000 </r>
       <r>    6.6675    1.0000 </r>
       <r>    6.6675    1.0000 </r>
       <r>    6.7146    1.0000 </r>
       <r>    6.7249    1.0000 </r>
       <r>    6.7644    1.0000 </r>
       <r>    6.7644    1.0000 </r>
       <r>    6.8012    1.0000 </r>
       <r>    6.8491    1.0000 </r>
       <r>    6.8804    1.0000 </r>
       <r>    6.8962    1.0000 </r>
       <r>    6.8990    1.0000 </r>
       <r>    6.9328    1.0000 </r>
       <r>    6.9328    1.0000 </r>
       <r>    7.0470    1.0000 </r>
       <r>    7.0556    1.0000 </r>
       <r>    7.1253    1.0000 </r>
       <r>    7.1253    1.0000 </r>
       <r>    7.2835    1.0000 </r>
       <r>    7.2835    1.0000 </r>
       <r>    7.3012    1.0000 </r>
       <r>    7.3091    1.0000 </r>
       <r>    7.3245    1.0000 </r>
       <r>    7.4318    1.0000 </r>
       <r>    7.4318    1.0000 </r>
       <r>    7.4390    1.0000 </r>
       <r>    7.4390    1.0000 </r>
       <r>    7.4591    1.0000 </r>
       <r>    7.4673    1.0000 </r>
       <r>    7.4805    1.0000 </r>
       <r>    7.5959    1.0000 </r>
       <r>    7.5968    1.0000 </r>
       <r>    7.5968    1.0000 </r>
       <r>    7.6690    1.0000 </r>
       <r>    7.6690    1.0000 </r>
       <r>    7.6700    1.0000 </r>
       <r>    7.6709    1.0000 </r>
       <r>    7.6852    1.0000 </r>
       <r>    7.6852    1.0000 </r>
       <r>    7.6880    1.0000 </r>
       <r>    7.7768    1.0000 </r>
       <r>    7.7768    1.0000 </r>
       <r>    7.8272    1.0000 </r>
       <r>    7.8272    1.0000 </r>
       <r>    7.8400    1.0000 </r>
       <r>    7.8830    1.0000 </r>
       <r>    7.9506    1.0000 </r>
       <r>    7.9600    1.0000 </r>
       <r>    7.9840    1.0000 </r>
       <r>    8.0006    1.0000 </r>
       <r>    8.0006    1.0000 </r>
       <r>    8.1284    1.0000 </r>
       <r>    8.2455    1.0000 </r>
       <r>    8.3329    1.0000 </r>
       <r>    8.3845    1.0001 </r>
       <r>    8.4088    1.0001 </r>
       <r>    8.4145    1.0001 </r>
       <r>    8.4145    1.0001 </r>
       <r>    8.4499    1.0003 </r>
       <r>    8.4499    1.0003 </r>
       <r>    8.4685    1.0005 </r>
       <r>    8.4941    1.0009 </r>
       <r>    8.5915    1.0065 </r>
       <r>    8.5915    1.0065 </r>
       <r>    8.6043    1.0080 </r>
       <r>    8.6096    1.0087 </r>
       <r>    8.6600    1.0177 </r>
       <r>    8.6600    1.0177 </r>
       <r>    8.7168    1.0304 </r>
       <r>    8.7399    1.0342 </r>
       <r>    8.7899    1.0310 </r>
       <r>    8.7899    1.0310 </r>
       <r>    8.8432    0.9912 </r>
       <r>    8.8987    0.8846 </r>
       <r>    8.8987    0.8846 </r>
       <r>    8.9351    0.7734 </r>
       <r>    8.9658    0.6588 </r>
       <r>    9.0409    0.3471 </r>
       <r>    9.0797    0.2040 </r>
       <r>    9.0797    0.2040 </r>
       <r>    9.1602    0.0151 </r>
       <r>    9.2112   -0.0284 </r>
       <r>    9.2220   -0.0321 </r>
       <r>    9.2220   -0.0321 </r>
       <r>    9.2248   -0.0328 </r>
       <r>    9.2701   -0.0340 </r>
       <r>    9.3094   -0.0265 </r>
       <r>    9.3094   -0.0265 </r>
       <r>    9.4319   -0.0050 </r>
       <r>    9.4390   -0.0044 </r>
       <r>    9.4391   -0.0044 </r>
       <r>    9.4456   -0.0039 </r>
       <r>   10.5930   -0.0000 </r>
       <r>   10.5930   -0.0000 </r>
       <r>   10.6140   -0.0000 </r>
       <r>   10.7943   -0.0000 </r>
       <r>   10.7997   -0.0000 </r>
       <r>   10.8660   -0.0000 </r>
       <r>   10.8660   -0.0000 </r>
       <r>   10.8731   -0.0000 </r>
       <r>   11.0669   -0.0000 </r>
       <r>   11.0669   -0.0000 </r>
       <r>   11.0681   -0.0000 </r>
       <r>   11.1043   -0.0000 </r>
       <r>   11.1249   -0.0000 </r>
       <r>   11.2485   -0.0000 </r>
       <r>   11.3629   -0.0000 </r>
       <r>   11.3629   -0.0000 </r>
       <r>   12.0430   -0.0000 </r>
       <r>   14.5419    0.0000 </r>
       <r>   14.6945    0.0000 </r>
       <r>   14.9685    0.0000 </r>
       <r>   14.9685    0.0000 </r>
       <r>   16.1606    0.0000 </r>
       <r>   16.2211    0.0000 </r>
       <r>   16.2468    0.0000 </r>
       <r>   16.2526    0.0000 </r>
       <r>   16.2526    0.0000 </r>
       <r>   16.4495    0.0000 </r>
       <r>   16.4495    0.0000 </r>
       <r>   16.6214    0.0000 </r>
       <r>   18.6497    0.0000 </r>
       <r>   18.9615    0.0000 </r>
       <r>   19.0406    0.0000 </r>
       <r>   19.0465    0.0000 </r>
       <r>   19.0465    0.0000 </r>
       <r>   19.5983    0.0000 </r>
       <r>   19.5983    0.0000 </r>
       <r>   19.7867    0.0000 </r>
       <r>   20.1432    0.0000 </r>
       <r>   21.2663    0.0000 </r>
       <r>   21.3311    0.0000 </r>
       <r>   21.3375    0.0000 </r>
       <r>   21.3375    0.0000 </r>
       <r>   21.3692    0.0000 </r>
       <r>   21.3692    0.0000 </r>
       <r>   21.4123    0.0000 </r>
       <r>   21.4161    0.0000 </r>
      </set>
      <set comment="kpoint 14">
       <r>    0.8806    1.0000 </r>
       <r>    2.1357    1.0000 </r>
       <r>    2.2648    1.0000 </r>
       <r>    2.6865    1.0000 </r>
       <r>    3.6493    1.0000 </r>
       <r>    3.8131    1.0000 </r>
       <r>    4.0427    1.0000 </r>
       <r>    4.5941    1.0000 </r>
       <r>    4.6653    1.0000 </r>
       <r>    4.7521    1.0000 </r>
       <r>    4.7818    1.0000 </r>
       <r>    4.8382    1.0000 </r>
       <r>    4.8741    1.0000 </r>
       <r>    5.0133    1.0000 </r>
       <r>    5.0875    1.0000 </r>
       <r>    5.2034    1.0000 </r>
       <r>    5.2688    1.0000 </r>
       <r>    5.4302    1.0000 </r>
       <r>    5.4348    1.0000 </r>
       <r>    5.4605    1.0000 </r>
       <r>    5.4997    1.0000 </r>
       <r>    5.5402    1.0000 </r>
       <r>    5.5816    1.0000 </r>
       <r>    5.6509    1.0000 </r>
       <r>    5.7499    1.0000 </r>
       <r>    5.7515    1.0000 </r>
       <r>    5.7702    1.0000 </r>
       <r>    5.8546    1.0000 </r>
       <r>    5.8634    1.0000 </r>
       <r>    5.9841    1.0000 </r>
       <r>    6.0195    1.0000 </r>
       <r>    6.0415    1.0000 </r>
       <r>    6.0740    1.0000 </r>
       <r>    6.1339    1.0000 </r>
       <r>    6.1632    1.0000 </r>
       <r>    6.2060    1.0000 </r>
       <r>    6.3101    1.0000 </r>
       <r>    6.3361    1.0000 </r>
       <r>    6.3815    1.0000 </r>
       <r>    6.4524    1.0000 </r>
       <r>    6.4717    1.0000 </r>
       <r>    6.5055    1.0000 </r>
       <r>    6.5389    1.0000 </r>
       <r>    6.5742    1.0000 </r>
       <r>    6.5921    1.0000 </r>
       <r>    6.6097    1.0000 </r>
       <r>    6.7041    1.0000 </r>
       <r>    6.7140    1.0000 </r>
       <r>    6.7491    1.0000 </r>
       <r>    6.7628    1.0000 </r>
       <r>    6.7816    1.0000 </r>
       <r>    6.8021    1.0000 </r>
       <r>    6.8517    1.0000 </r>
       <r>    6.9140    1.0000 </r>
       <r>    6.9290    1.0000 </r>
       <r>    7.0057    1.0000 </r>
       <r>    7.0533    1.0000 </r>
       <r>    7.0685    1.0000 </r>
       <r>    7.0970    1.0000 </r>
       <r>    7.1703    1.0000 </r>
       <r>    7.2022    1.0000 </r>
       <r>    7.2046    1.0000 </r>
       <r>    7.2119    1.0000 </r>
       <r>    7.2386    1.0000 </r>
       <r>    7.2750    1.0000 </r>
       <r>    7.3155    1.0000 </r>
       <r>    7.3207    1.0000 </r>
       <r>    7.3362    1.0000 </r>
       <r>    7.3742    1.0000 </r>
       <r>    7.3906    1.0000 </r>
       <r>    7.4286    1.0000 </r>
       <r>    7.4381    1.0000 </r>
       <r>    7.4746    1.0000 </r>
       <r>    7.4876    1.0000 </r>
       <r>    7.5200    1.0000 </r>
       <r>    7.5747    1.0000 </r>
       <r>    7.6294    1.0000 </r>
       <r>    7.6718    1.0000 </r>
       <r>    7.6877    1.0000 </r>
       <r>    7.6971    1.0000 </r>
       <r>    7.7098    1.0000 </r>
       <r>    7.7335    1.0000 </r>
       <r>    7.7417    1.0000 </r>
       <r>    7.7917    1.0000 </r>
       <r>    7.8085    1.0000 </r>
       <r>    7.8466    1.0000 </r>
       <r>    7.9196    1.0000 </r>
       <r>    7.9473    1.0000 </r>
       <r>    8.0218    1.0000 </r>
       <r>    8.0290    1.0000 </r>
       <r>    8.0798    1.0000 </r>
       <r>    8.0868    1.0000 </r>
       <r>    8.1320    1.0000 </r>
       <r>    8.1424    1.0000 </r>
       <r>    8.1650    1.0000 </r>
       <r>    8.2107    1.0000 </r>
       <r>    8.2425    1.0000 </r>
       <r>    8.2501    1.0000 </r>
       <r>    8.2816    1.0000 </r>
       <r>    8.3189    1.0000 </r>
       <r>    8.3413    1.0000 </r>
       <r>    8.3455    1.0000 </r>
       <r>    8.3557    1.0000 </r>
       <r>    8.3643    1.0000 </r>
       <r>    8.4273    1.0002 </r>
       <r>    8.4478    1.0003 </r>
       <r>    8.4905    1.0009 </r>
       <r>    8.5368    1.0023 </r>
       <r>    8.6163    1.0097 </r>
       <r>    8.6234    1.0108 </r>
       <r>    8.6671    1.0192 </r>
       <r>    8.7539    1.0354 </r>
       <r>    8.7604    1.0355 </r>
       <r>    8.7891    1.0312 </r>
       <r>    8.8168    1.0172 </r>
       <r>    8.8515    0.9800 </r>
       <r>    8.8657    0.9570 </r>
       <r>    8.9486    0.7252 </r>
       <r>    8.9930    0.5470 </r>
       <r>    8.9969    0.5302 </r>
       <r>    9.0338    0.3757 </r>
       <r>    9.0365    0.3648 </r>
       <r>    9.0767    0.2141 </r>
       <r>    9.0794    0.2051 </r>
       <r>    9.0884    0.1760 </r>
       <r>    9.1083    0.1186 </r>
       <r>    9.1246    0.0789 </r>
       <r>    9.1438    0.0407 </r>
       <r>    9.1860   -0.0130 </r>
       <r>    9.2351   -0.0346 </r>
       <r>    9.2490   -0.0355 </r>
       <r>    9.2889   -0.0309 </r>
       <r>    9.3275   -0.0223 </r>
       <r>    9.3458   -0.0182 </r>
       <r>    9.3472   -0.0179 </r>
       <r>    9.3599   -0.0152 </r>
       <r>    9.3749   -0.0124 </r>
       <r>    9.7805   -0.0000 </r>
       <r>    9.8468   -0.0000 </r>
       <r>   10.0119   -0.0000 </r>
       <r>   10.0602   -0.0000 </r>
       <r>   10.1746   -0.0000 </r>
       <r>   10.2242   -0.0000 </r>
       <r>   10.6278   -0.0000 </r>
       <r>   11.1191   -0.0000 </r>
       <r>   11.4822   -0.0000 </r>
       <r>   11.6789   -0.0000 </r>
       <r>   11.7164   -0.0000 </r>
       <r>   12.3197   -0.0000 </r>
       <r>   12.4187   -0.0000 </r>
       <r>   12.5103   -0.0000 </r>
       <r>   12.6645   -0.0000 </r>
       <r>   13.2298   -0.0000 </r>
       <r>   13.7627   -0.0000 </r>
       <r>   13.8363   -0.0000 </r>
       <r>   14.1295   -0.0000 </r>
       <r>   15.5853    0.0000 </r>
       <r>   15.7045    0.0000 </r>
       <r>   15.9972    0.0000 </r>
       <r>   16.1700    0.0000 </r>
       <r>   16.4468    0.0000 </r>
       <r>   16.5886    0.0000 </r>
       <r>   16.9295    0.0000 </r>
       <r>   17.0450    0.0000 </r>
       <r>   18.1410    0.0000 </r>
       <r>   18.1495    0.0000 </r>
       <r>   18.2112    0.0000 </r>
       <r>   18.4051    0.0000 </r>
       <r>   18.7500    0.0000 </r>
       <r>   18.7830    0.0000 </r>
       <r>   18.9140    0.0000 </r>
       <r>   18.9198    0.0000 </r>
       <r>   19.6899    0.0000 </r>
       <r>   19.8014    0.0000 </r>
       <r>   19.9170    0.0000 </r>
       <r>   20.5717    0.0000 </r>
       <r>   20.6430    0.0000 </r>
       <r>   20.8107    0.0000 </r>
       <r>   21.0299    0.0000 </r>
       <r>   21.3430    0.0000 </r>
       <r>   21.5124    0.0000 </r>
       <r>   22.1038    0.0000 </r>
      </set>
      <set comment="kpoint 15">
       <r>    1.3562    1.0000 </r>
       <r>    1.5425    1.0000 </r>
       <r>    2.2290    1.0000 </r>
       <r>    2.4777    1.0000 </r>
       <r>    3.7850    1.0000 </r>
       <r>    3.8658    1.0000 </r>
       <r>    4.4213    1.0000 </r>
       <r>    4.4734    1.0000 </r>
       <r>    4.7244    1.0000 </r>
       <r>    4.7941    1.0000 </r>
       <r>    4.8796    1.0000 </r>
       <r>    4.9493    1.0000 </r>
       <r>    5.0067    1.0000 </r>
       <r>    5.0903    1.0000 </r>
       <r>    5.0906    1.0000 </r>
       <r>    5.1444    1.0000 </r>
       <r>    5.1832    1.0000 </r>
       <r>    5.2787    1.0000 </r>
       <r>    5.3145    1.0000 </r>
       <r>    5.3513    1.0000 </r>
       <r>    5.3831    1.0000 </r>
       <r>    5.4902    1.0000 </r>
       <r>    5.5186    1.0000 </r>
       <r>    5.6484    1.0000 </r>
       <r>    5.6918    1.0000 </r>
       <r>    5.7185    1.0000 </r>
       <r>    5.7808    1.0000 </r>
       <r>    5.7817    1.0000 </r>
       <r>    5.8601    1.0000 </r>
       <r>    5.9466    1.0000 </r>
       <r>    5.9889    1.0000 </r>
       <r>    6.1201    1.0000 </r>
       <r>    6.1209    1.0000 </r>
       <r>    6.1674    1.0000 </r>
       <r>    6.2473    1.0000 </r>
       <r>    6.3092    1.0000 </r>
       <r>    6.3112    1.0000 </r>
       <r>    6.3228    1.0000 </r>
       <r>    6.3919    1.0000 </r>
       <r>    6.4534    1.0000 </r>
       <r>    6.5005    1.0000 </r>
       <r>    6.5303    1.0000 </r>
       <r>    6.5450    1.0000 </r>
       <r>    6.5572    1.0000 </r>
       <r>    6.6236    1.0000 </r>
       <r>    6.6245    1.0000 </r>
       <r>    6.6789    1.0000 </r>
       <r>    6.6838    1.0000 </r>
       <r>    6.7519    1.0000 </r>
       <r>    6.7589    1.0000 </r>
       <r>    6.8272    1.0000 </r>
       <r>    6.8626    1.0000 </r>
       <r>    6.9109    1.0000 </r>
       <r>    6.9313    1.0000 </r>
       <r>    6.9467    1.0000 </r>
       <r>    6.9733    1.0000 </r>
       <r>    6.9966    1.0000 </r>
       <r>    7.0419    1.0000 </r>
       <r>    7.0486    1.0000 </r>
       <r>    7.0615    1.0000 </r>
       <r>    7.0663    1.0000 </r>
       <r>    7.0951    1.0000 </r>
       <r>    7.1619    1.0000 </r>
       <r>    7.1947    1.0000 </r>
       <r>    7.2465    1.0000 </r>
       <r>    7.2577    1.0000 </r>
       <r>    7.2984    1.0000 </r>
       <r>    7.3070    1.0000 </r>
       <r>    7.3737    1.0000 </r>
       <r>    7.3926    1.0000 </r>
       <r>    7.4469    1.0000 </r>
       <r>    7.4695    1.0000 </r>
       <r>    7.5136    1.0000 </r>
       <r>    7.5330    1.0000 </r>
       <r>    7.5519    1.0000 </r>
       <r>    7.5594    1.0000 </r>
       <r>    7.6052    1.0000 </r>
       <r>    7.6237    1.0000 </r>
       <r>    7.6565    1.0000 </r>
       <r>    7.6746    1.0000 </r>
       <r>    7.7522    1.0000 </r>
       <r>    7.7813    1.0000 </r>
       <r>    7.8285    1.0000 </r>
       <r>    7.8718    1.0000 </r>
       <r>    7.8811    1.0000 </r>
       <r>    7.9214    1.0000 </r>
       <r>    7.9309    1.0000 </r>
       <r>    7.9376    1.0000 </r>
       <r>    7.9420    1.0000 </r>
       <r>    8.0069    1.0000 </r>
       <r>    8.0097    1.0000 </r>
       <r>    8.0381    1.0000 </r>
       <r>    8.1078    1.0000 </r>
       <r>    8.1145    1.0000 </r>
       <r>    8.1197    1.0000 </r>
       <r>    8.1334    1.0000 </r>
       <r>    8.1816    1.0000 </r>
       <r>    8.2067    1.0000 </r>
       <r>    8.2540    1.0000 </r>
       <r>    8.2801    1.0000 </r>
       <r>    8.3087    1.0000 </r>
       <r>    8.3245    1.0000 </r>
       <r>    8.3613    1.0000 </r>
       <r>    8.4048    1.0001 </r>
       <r>    8.4134    1.0001 </r>
       <r>    8.4949    1.0009 </r>
       <r>    8.5012    1.0011 </r>
       <r>    8.5323    1.0021 </r>
       <r>    8.5325    1.0021 </r>
       <r>    8.6355    1.0128 </r>
       <r>    8.6422    1.0141 </r>
       <r>    8.6903    1.0245 </r>
       <r>    8.7175    1.0305 </r>
       <r>    8.7779    1.0339 </r>
       <r>    8.8325    1.0034 </r>
       <r>    8.8555    0.9740 </r>
       <r>    8.9032    0.8726 </r>
       <r>    8.9603    0.6804 </r>
       <r>    8.9650    0.6620 </r>
       <r>    9.0103    0.4737 </r>
       <r>    9.0457    0.3282 </r>
       <r>    9.0463    0.3256 </r>
       <r>    9.0754    0.2183 </r>
       <r>    9.0942    0.1582 </r>
       <r>    9.1554    0.0219 </r>
       <r>    9.1667    0.0067 </r>
       <r>    9.1743   -0.0020 </r>
       <r>    9.2026   -0.0243 </r>
       <r>    9.2128   -0.0291 </r>
       <r>    9.2289   -0.0337 </r>
       <r>    9.2569   -0.0352 </r>
       <r>    9.2650   -0.0346 </r>
       <r>    9.3628   -0.0147 </r>
       <r>    9.3790   -0.0117 </r>
       <r>    9.3941   -0.0094 </r>
       <r>    9.3956   -0.0092 </r>
       <r>    9.8596   -0.0000 </r>
       <r>    9.8861   -0.0000 </r>
       <r>    9.9792   -0.0000 </r>
       <r>    9.9898   -0.0000 </r>
       <r>   10.4995   -0.0000 </r>
       <r>   10.5824   -0.0000 </r>
       <r>   10.7160   -0.0000 </r>
       <r>   11.1140   -0.0000 </r>
       <r>   11.1218   -0.0000 </r>
       <r>   11.2262   -0.0000 </r>
       <r>   11.2933   -0.0000 </r>
       <r>   11.9452   -0.0000 </r>
       <r>   12.0242   -0.0000 </r>
       <r>   12.2465   -0.0000 </r>
       <r>   12.3106   -0.0000 </r>
       <r>   12.5546   -0.0000 </r>
       <r>   12.7380   -0.0000 </r>
       <r>   12.7807   -0.0000 </r>
       <r>   13.4812   -0.0000 </r>
       <r>   13.6796   -0.0000 </r>
       <r>   15.2598    0.0000 </r>
       <r>   15.4854    0.0000 </r>
       <r>   15.7213    0.0000 </r>
       <r>   15.9085    0.0000 </r>
       <r>   16.5587    0.0000 </r>
       <r>   16.9257    0.0000 </r>
       <r>   17.5134    0.0000 </r>
       <r>   17.5251    0.0000 </r>
       <r>   18.4321    0.0000 </r>
       <r>   18.5032    0.0000 </r>
       <r>   18.6760    0.0000 </r>
       <r>   18.8148    0.0000 </r>
       <r>   18.9915    0.0000 </r>
       <r>   19.0104    0.0000 </r>
       <r>   19.0912    0.0000 </r>
       <r>   19.1275    0.0000 </r>
       <r>   19.9695    0.0000 </r>
       <r>   20.0498    0.0000 </r>
       <r>   20.1255    0.0000 </r>
       <r>   20.1888    0.0000 </r>
       <r>   20.4883    0.0000 </r>
       <r>   21.0068    0.0000 </r>
       <r>   21.4181    0.0000 </r>
       <r>   21.4381    0.0000 </r>
       <r>   21.4550    0.0000 </r>
       <r>   21.5780    0.0000 </r>
      </set>
      <set comment="kpoint 16">
       <r>    1.5626    1.0000 </r>
       <r>    1.6589    1.0000 </r>
       <r>    2.0008    1.0000 </r>
       <r>    2.2708    1.0000 </r>
       <r>    3.5696    1.0000 </r>
       <r>    3.7628    1.0000 </r>
       <r>    4.4784    1.0000 </r>
       <r>    4.6202    1.0000 </r>
       <r>    4.8466    1.0000 </r>
       <r>    5.0636    1.0000 </r>
       <r>    5.0704    1.0000 </r>
       <r>    5.0789    1.0000 </r>
       <r>    5.0799    1.0000 </r>
       <r>    5.0951    1.0000 </r>
       <r>    5.1534    1.0000 </r>
       <r>    5.2247    1.0000 </r>
       <r>    5.2252    1.0000 </r>
       <r>    5.2320    1.0000 </r>
       <r>    5.2420    1.0000 </r>
       <r>    5.2510    1.0000 </r>
       <r>    5.2745    1.0000 </r>
       <r>    5.4280    1.0000 </r>
       <r>    5.4408    1.0000 </r>
       <r>    5.4473    1.0000 </r>
       <r>    5.6580    1.0000 </r>
       <r>    5.6727    1.0000 </r>
       <r>    5.7371    1.0000 </r>
       <r>    5.7527    1.0000 </r>
       <r>    5.9371    1.0000 </r>
       <r>    5.9564    1.0000 </r>
       <r>    5.9953    1.0000 </r>
       <r>    6.0893    1.0000 </r>
       <r>    6.1504    1.0000 </r>
       <r>    6.2601    1.0000 </r>
       <r>    6.2623    1.0000 </r>
       <r>    6.2704    1.0000 </r>
       <r>    6.3014    1.0000 </r>
       <r>    6.3473    1.0000 </r>
       <r>    6.3640    1.0000 </r>
       <r>    6.3786    1.0000 </r>
       <r>    6.4912    1.0000 </r>
       <r>    6.5064    1.0000 </r>
       <r>    6.5142    1.0000 </r>
       <r>    6.5583    1.0000 </r>
       <r>    6.6410    1.0000 </r>
       <r>    6.6616    1.0000 </r>
       <r>    6.7691    1.0000 </r>
       <r>    6.7750    1.0000 </r>
       <r>    6.7838    1.0000 </r>
       <r>    6.7922    1.0000 </r>
       <r>    6.8194    1.0000 </r>
       <r>    6.8301    1.0000 </r>
       <r>    6.8392    1.0000 </r>
       <r>    6.8943    1.0000 </r>
       <r>    6.8949    1.0000 </r>
       <r>    6.9373    1.0000 </r>
       <r>    7.0045    1.0000 </r>
       <r>    7.0159    1.0000 </r>
       <r>    7.0225    1.0000 </r>
       <r>    7.0349    1.0000 </r>
       <r>    7.1204    1.0000 </r>
       <r>    7.1570    1.0000 </r>
       <r>    7.1606    1.0000 </r>
       <r>    7.1754    1.0000 </r>
       <r>    7.1764    1.0000 </r>
       <r>    7.2697    1.0000 </r>
       <r>    7.3236    1.0000 </r>
       <r>    7.3502    1.0000 </r>
       <r>    7.3518    1.0000 </r>
       <r>    7.3844    1.0000 </r>
       <r>    7.4215    1.0000 </r>
       <r>    7.4764    1.0000 </r>
       <r>    7.5290    1.0000 </r>
       <r>    7.5506    1.0000 </r>
       <r>    7.5590    1.0000 </r>
       <r>    7.5730    1.0000 </r>
       <r>    7.5846    1.0000 </r>
       <r>    7.5954    1.0000 </r>
       <r>    7.6067    1.0000 </r>
       <r>    7.7223    1.0000 </r>
       <r>    7.7360    1.0000 </r>
       <r>    7.7483    1.0000 </r>
       <r>    7.7530    1.0000 </r>
       <r>    7.7615    1.0000 </r>
       <r>    7.8688    1.0000 </r>
       <r>    7.8878    1.0000 </r>
       <r>    7.8908    1.0000 </r>
       <r>    7.9403    1.0000 </r>
       <r>    7.9495    1.0000 </r>
       <r>    7.9945    1.0000 </r>
       <r>    8.0269    1.0000 </r>
       <r>    8.0388    1.0000 </r>
       <r>    8.0690    1.0000 </r>
       <r>    8.0795    1.0000 </r>
       <r>    8.1212    1.0000 </r>
       <r>    8.1471    1.0000 </r>
       <r>    8.1771    1.0000 </r>
       <r>    8.1856    1.0000 </r>
       <r>    8.1885    1.0000 </r>
       <r>    8.2158    1.0000 </r>
       <r>    8.2493    1.0000 </r>
       <r>    8.3052    1.0000 </r>
       <r>    8.3401    1.0000 </r>
       <r>    8.3820    1.0000 </r>
       <r>    8.3887    1.0001 </r>
       <r>    8.5057    1.0012 </r>
       <r>    8.5610    1.0038 </r>
       <r>    8.5635    1.0039 </r>
       <r>    8.5924    1.0066 </r>
       <r>    8.6027    1.0078 </r>
       <r>    8.6408    1.0138 </r>
       <r>    8.7007    1.0269 </r>
       <r>    8.7746    1.0344 </r>
       <r>    8.7923    1.0302 </r>
       <r>    8.8341    1.0017 </r>
       <r>    8.8511    0.9806 </r>
       <r>    8.9567    0.6945 </r>
       <r>    8.9793    0.6040 </r>
       <r>    9.0057    0.4932 </r>
       <r>    9.0157    0.4508 </r>
       <r>    9.0225    0.4224 </r>
       <r>    9.0472    0.3223 </r>
       <r>    9.1014    0.1373 </r>
       <r>    9.1055    0.1261 </r>
       <r>    9.1592    0.0165 </r>
       <r>    9.1617    0.0131 </r>
       <r>    9.1668    0.0066 </r>
       <r>    9.1784   -0.0062 </r>
       <r>    9.2107   -0.0282 </r>
       <r>    9.2860   -0.0314 </r>
       <r>    9.2885   -0.0309 </r>
       <r>    9.3483   -0.0176 </r>
       <r>    9.3823   -0.0112 </r>
       <r>    9.3977   -0.0088 </r>
       <r>    9.4384   -0.0044 </r>
       <r>    9.4395   -0.0043 </r>
       <r>    9.8864   -0.0000 </r>
       <r>    9.9479   -0.0000 </r>
       <r>   10.6018   -0.0000 </r>
       <r>   10.7841   -0.0000 </r>
       <r>   10.8236   -0.0000 </r>
       <r>   10.8667   -0.0000 </r>
       <r>   10.9038   -0.0000 </r>
       <r>   10.9536   -0.0000 </r>
       <r>   10.9641   -0.0000 </r>
       <r>   10.9790   -0.0000 </r>
       <r>   11.2676   -0.0000 </r>
       <r>   11.3563   -0.0000 </r>
       <r>   11.4398   -0.0000 </r>
       <r>   11.4607   -0.0000 </r>
       <r>   12.0288   -0.0000 </r>
       <r>   12.2550   -0.0000 </r>
       <r>   12.4106   -0.0000 </r>
       <r>   13.4363   -0.0000 </r>
       <r>   13.6222   -0.0000 </r>
       <r>   13.9402   -0.0000 </r>
       <r>   15.4028    0.0000 </r>
       <r>   15.4093    0.0000 </r>
       <r>   15.4138    0.0000 </r>
       <r>   15.6975    0.0000 </r>
       <r>   16.3725    0.0000 </r>
       <r>   17.7083    0.0000 </r>
       <r>   17.7230    0.0000 </r>
       <r>   17.7883    0.0000 </r>
       <r>   17.9679    0.0000 </r>
       <r>   18.0104    0.0000 </r>
       <r>   18.6916    0.0000 </r>
       <r>   18.8115    0.0000 </r>
       <r>   19.2779    0.0000 </r>
       <r>   19.6235    0.0000 </r>
       <r>   19.6389    0.0000 </r>
       <r>   19.6700    0.0000 </r>
       <r>   19.8110    0.0000 </r>
       <r>   19.8754    0.0000 </r>
       <r>   20.1680    0.0000 </r>
       <r>   20.2767    0.0000 </r>
       <r>   20.3115    0.0000 </r>
       <r>   20.4469    0.0000 </r>
       <r>   20.6742    0.0000 </r>
       <r>   20.7401    0.0000 </r>
       <r>   21.5485    0.0000 </r>
       <r>   21.6301    0.0000 </r>
      </set>
     </set>
    </set>
   </array>
  </eigenvalues>
  <separator name="orbital magnetization" >
   <v name="MAGDIPOLOUT">      0.00000000      0.00000000      0.00000000</v>
  </separator>
  <dos>
   <i name="efermi">      9.00408664 </i>
   <total>
    <array>
     <dimension dim="1">gridpoints</dimension>
     <dimension dim="2">spin</dimension>
     <field>energy</field>
     <field>total</field>
     <field>integrated</field>
     <set>
      <set comment="spin 1">
       <r>    -1.9031     0.0000     0.0000 </r>
       <r>    -1.8164     0.0000     0.0000 </r>
       <r>    -1.7297     0.0000     0.0000 </r>
       <r>    -1.6430     0.0000     0.0000 </r>
       <r>    -1.5564     0.0000     0.0000 </r>
       <r>    -1.4697    -0.0000    -0.0000 </r>
       <r>    -1.3830    -0.0000    -0.0000 </r>
       <r>    -1.2963    -0.0000    -0.0000 </r>
       <r>    -1.2096    -0.0000    -0.0000 </r>
       <r>    -1.1229    -0.0000    -0.0000 </r>
       <r>    -1.0362    -0.0000    -0.0000 </r>
       <r>    -0.9495    -0.0000    -0.0000 </r>
       <r>    -0.8628    -0.0000    -0.0000 </r>
       <r>    -0.7761    -0.0000    -0.0000 </r>
       <r>    -0.6895    -0.0000    -0.0000 </r>
       <r>    -0.6028    -0.0000    -0.0000 </r>
       <r>    -0.5161    -0.0000    -0.0000 </r>
       <r>    -0.4294    -0.0000    -0.0000 </r>
       <r>    -0.3427    -0.0002    -0.0000 </r>
       <r>    -0.2560    -0.0009    -0.0001 </r>
       <r>    -0.1693    -0.0037    -0.0004 </r>
       <r>    -0.0826    -0.0096    -0.0013 </r>
       <r>     0.0041    -0.0097    -0.0021 </r>
       <r>     0.0908     0.0259     0.0002 </r>
       <r>     0.1774     0.1208     0.0106 </r>
       <r>     0.2641     0.2377     0.0312 </r>
       <r>     0.3508     0.3331     0.0601 </r>
       <r>     0.4375     0.4614     0.1001 </r>
       <r>     0.5242     0.6352     0.1552 </r>
       <r>     0.6109     0.6857     0.2146 </r>
       <r>     0.6976     0.5737     0.2644 </r>
       <r>     0.7843     0.5875     0.3153 </r>
       <r>     0.8710     0.8593     0.3898 </r>
       <r>     0.9576     1.1000     0.4851 </r>
       <r>     1.0443     1.0976     0.5803 </r>
       <r>     1.1310     0.9562     0.6632 </r>
       <r>     1.2177     0.8225     0.7345 </r>
       <r>     1.3044     0.7962     0.8035 </r>
       <r>     1.3911     0.9332     0.8844 </r>
       <r>     1.4778     1.1973     0.9882 </r>
       <r>     1.5645     1.4516     1.1140 </r>
       <r>     1.6512     1.4933     1.2435 </r>
       <r>     1.7379     1.2939     1.3556 </r>
       <r>     1.8245     1.0780     1.4491 </r>
       <r>     1.9112     1.0372     1.5390 </r>
       <r>     1.9979     1.1512     1.6388 </r>
       <r>     2.0846     1.3817     1.7586 </r>
       <r>     2.1713     1.7739     1.9124 </r>
       <r>     2.2580     2.0838     2.0930 </r>
       <r>     2.3447     1.9096     2.2585 </r>
       <r>     2.4314     1.4395     2.3833 </r>
       <r>     2.5181     1.2681     2.4933 </r>
       <r>     2.6048     1.5536     2.6279 </r>
       <r>     2.6914     1.9660     2.7984 </r>
       <r>     2.7781     2.1396     2.9839 </r>
       <r>     2.8648     2.0823     3.1644 </r>
       <r>     2.9515     2.1575     3.3514 </r>
       <r>     3.0382     2.4108     3.5604 </r>
       <r>     3.1249     2.5287     3.7796 </r>
       <r>     3.2116     2.5023     3.9965 </r>
       <r>     3.2983     2.4848     4.2119 </r>
       <r>     3.3850     2.3894     4.4191 </r>
       <r>     3.4716     2.2610     4.6151 </r>
       <r>     3.5583     2.5159     4.8332 </r>
       <r>     3.6450     3.3247     5.1214 </r>
       <r>     3.7317     4.1877     5.4844 </r>
       <r>     3.8184     4.5126     5.8756 </r>
       <r>     3.9051     4.2993     6.2483 </r>
       <r>     3.9918     3.9474     6.5905 </r>
       <r>     4.0785     3.9481     6.9328 </r>
       <r>     4.1652     4.9997     7.3662 </r>
       <r>     4.2519     7.3109     8.0000 </r>
       <r>     4.3385     9.9497     8.8625 </r>
       <r>     4.4252    11.8279     9.8879 </r>
       <r>     4.5119    12.7626    10.9943 </r>
       <r>     4.5986    13.2036    12.1389 </r>
       <r>     4.6853    13.8066    13.3358 </r>
       <r>     4.7720    15.1491    14.6491 </r>
       <r>     4.8587    17.0189    16.1244 </r>
       <r>     4.9454    18.5463    17.7322 </r>
       <r>     5.0321    19.4276    19.4164 </r>
       <r>     5.1188    20.6595    21.2073 </r>
       <r>     5.2054    23.1912    23.2178 </r>
       <r>     5.2921    25.9243    25.4651 </r>
       <r>     5.3788    26.8905    27.7963 </r>
       <r>     5.4655    25.9871    30.0491 </r>
       <r>     5.5522    24.8571    32.2039 </r>
       <r>     5.6389    24.6504    34.3409 </r>
       <r>     5.7256    24.9686    36.5054 </r>
       <r>     5.8123    24.7877    38.6542 </r>
       <r>     5.8990    24.0469    40.7388 </r>
       <r>     5.9856    24.1716    42.8343 </r>
       <r>     6.0723    26.0470    45.0923 </r>
       <r>     6.1590    28.4607    47.5595 </r>
       <r>     6.2457    30.1397    50.1723 </r>
       <r>     6.3324    31.2832    52.8842 </r>
       <r>     6.4191    32.3763    55.6909 </r>
       <r>     6.5058    33.8669    58.6268 </r>
       <r>     6.5925    36.6649    61.8053 </r>
       <r>     6.6792    40.7179    65.3351 </r>
       <r>     6.7659    43.3135    69.0900 </r>
       <r>     6.8525    41.5415    72.6912 </r>
       <r>     6.9392    36.5301    75.8580 </r>
       <r>     7.0259    31.9655    78.6291 </r>
       <r>     7.1126    29.5142    81.1876 </r>
       <r>     7.1993    28.5676    83.6642 </r>
       <r>     7.2860    28.3906    86.1253 </r>
       <r>     7.3727    28.9188    88.6323 </r>
       <r>     7.4594    30.6570    91.2899 </r>
       <r>     7.5461    33.5263    94.1963 </r>
       <r>     7.6328    36.0491    97.3214 </r>
       <r>     7.7194    36.7311   100.5056 </r>
       <r>     7.8061    35.7654   103.6061 </r>
       <r>     7.8928    34.6918   106.6135 </r>
       <r>     7.9795    34.6103   109.6139 </r>
       <r>     8.0662    35.9621   112.7314 </r>
       <r>     8.1529    39.7445   116.1768 </r>
       <r>     8.2396    46.2635   120.1874 </r>
       <r>     8.3263    52.5209   124.7404 </r>
       <r>     8.4130    52.6531   129.3049 </r>
       <r>     8.4996    43.0211   133.0344 </r>
       <r>     8.5863    27.6948   135.4352 </r>
       <r>     8.6730    14.8052   136.7187 </r>
       <r>     8.7597     7.5593   137.3740 </r>
       <r>     8.8464     4.0216   137.7226 </r>
       <r>     8.9331     2.4583   137.9358 </r>
       <r>     9.0198     2.2874   138.1341 </r>
       <r>     9.1065     3.0872   138.4017 </r>
       <r>     9.1932     4.4921   138.7911 </r>
       <r>     9.2799     5.7377   139.2885 </r>
       <r>     9.3665     5.9546   139.8047 </r>
       <r>     9.4532     5.0948   140.2464 </r>
       <r>     9.5399     3.8148   140.5771 </r>
       <r>     9.6266     2.8824   140.8270 </r>
       <r>     9.7133     2.6922   141.0603 </r>
       <r>     9.8000     2.8977   141.3115 </r>
       <r>     9.8867     3.0722   141.5779 </r>
       <r>     9.9734     3.6152   141.8913 </r>
       <r>    10.0601     4.8452   142.3113 </r>
       <r>    10.1468     5.7749   142.8119 </r>
       <r>    10.2334     5.3436   143.2752 </r>
       <r>    10.3201     4.0700   143.6280 </r>
       <r>    10.4068     3.1059   143.8972 </r>
       <r>    10.4935     2.6798   144.1295 </r>
       <r>    10.5802     2.4092   144.3384 </r>
       <r>    10.6669     2.2147   144.5304 </r>
       <r>    10.7536     2.2928   144.7291 </r>
       <r>    10.8403     2.7210   144.9650 </r>
       <r>    10.9270     3.3564   145.2560 </r>
       <r>    11.0136     4.0072   145.6034 </r>
       <r>    11.1003     4.6558   146.0070 </r>
       <r>    11.1870     5.1058   146.4496 </r>
       <r>    11.2737     4.8966   146.8741 </r>
       <r>    11.3604     4.1018   147.2297 </r>
       <r>    11.4471     3.2721   147.5133 </r>
       <r>    11.5338     2.7158   147.7488 </r>
       <r>    11.6205     2.5294   147.9681 </r>
       <r>    11.7072     2.6185   148.1951 </r>
       <r>    11.7939     2.6110   148.4214 </r>
       <r>    11.8805     2.3594   148.6259 </r>
       <r>    11.9672     2.2116   148.8177 </r>
       <r>    12.0539     2.4057   149.0262 </r>
       <r>    12.1406     2.7097   149.2611 </r>
       <r>    12.2273     2.9506   149.5169 </r>
       <r>    12.3140     3.2511   149.7987 </r>
       <r>    12.4007     3.7266   150.1218 </r>
       <r>    12.4874     4.3967   150.5029 </r>
       <r>    12.5741     4.9641   150.9333 </r>
       <r>    12.6608     4.6616   151.3374 </r>
       <r>    12.7474     3.2974   151.6232 </r>
       <r>    12.8341     1.9652   151.7936 </r>
       <r>    12.9208     1.5743   151.9301 </r>
       <r>    13.0075     1.7298   152.0800 </r>
       <r>    13.0942     1.8700   152.2421 </r>
       <r>    13.1809     2.1325   152.4270 </r>
       <r>    13.2676     2.6151   152.6537 </r>
       <r>    13.3543     2.8979   152.9049 </r>
       <r>    13.4410     2.6186   153.1319 </r>
       <r>    13.5276     2.1710   153.3201 </r>
       <r>    13.6143     2.2647   153.5165 </r>
       <r>    13.7010     2.6960   153.7502 </r>
       <r>    13.7877     2.7083   153.9850 </r>
       <r>    13.8744     2.3262   154.1866 </r>
       <r>    13.9611     2.0849   154.3674 </r>
       <r>    14.0478     2.1287   154.5519 </r>
       <r>    14.1345     2.2419   154.7463 </r>
       <r>    14.2212     2.1948   154.9365 </r>
       <r>    14.3079     1.9873   155.1088 </r>
       <r>    14.3945     1.7610   155.2614 </r>
       <r>    14.4812     1.4597   155.3880 </r>
       <r>    14.5679     1.0607   155.4799 </r>
       <r>    14.6546     0.8772   155.5560 </r>
       <r>    14.7413     1.1919   155.6593 </r>
       <r>    14.8280     1.9701   155.8301 </r>
       <r>    14.9147     2.9473   156.0856 </r>
       <r>    15.0014     3.7275   156.4087 </r>
       <r>    15.0881     3.9412   156.7504 </r>
       <r>    15.1748     3.6082   157.0632 </r>
       <r>    15.2614     3.2529   157.3452 </r>
       <r>    15.3481     3.2698   157.6286 </r>
       <r>    15.4348     3.4950   157.9316 </r>
       <r>    15.5215     3.7172   158.2539 </r>
       <r>    15.6082     3.8810   158.5903 </r>
       <r>    15.6949     3.7935   158.9192 </r>
       <r>    15.7816     3.4737   159.2203 </r>
       <r>    15.8683     3.2881   159.5053 </r>
       <r>    15.9550     3.3748   159.7979 </r>
       <r>    16.0416     3.6790   160.1168 </r>
       <r>    16.1283     4.1145   160.4735 </r>
       <r>    16.2150     4.4026   160.8552 </r>
       <r>    16.3017     4.3919   161.2359 </r>
       <r>    16.3884     4.1687   161.5973 </r>
       <r>    16.4751     3.9551   161.9402 </r>
       <r>    16.5618     4.0419   162.2905 </r>
       <r>    16.6485     4.1844   162.6533 </r>
       <r>    16.7352     3.7906   162.9819 </r>
       <r>    16.8219     3.0432   163.2457 </r>
       <r>    16.9085     2.6697   163.4771 </r>
       <r>    16.9952     2.7363   163.7143 </r>
       <r>    17.0819     2.8118   163.9581 </r>
       <r>    17.1686     2.9004   164.2095 </r>
       <r>    17.2553     3.0828   164.4768 </r>
       <r>    17.3420     2.9296   164.7308 </r>
       <r>    17.4287     2.3846   164.9375 </r>
       <r>    17.5154     2.2203   165.1300 </r>
       <r>    17.6021     2.7089   165.3648 </r>
       <r>    17.6888     3.1352   165.6366 </r>
       <r>    17.7754     3.1639   165.9109 </r>
       <r>    17.8621     3.2979   166.1968 </r>
       <r>    17.9488     3.7408   166.5210 </r>
       <r>    18.0355     4.0847   166.8751 </r>
       <r>    18.1222     4.0748   167.2284 </r>
       <r>    18.2089     3.7316   167.5519 </r>
       <r>    18.2956     3.1170   167.8221 </r>
       <r>    18.3823     2.6253   168.0497 </r>
       <r>    18.4690     2.7018   168.2839 </r>
       <r>    18.5556     3.1512   168.5571 </r>
       <r>    18.6423     3.6586   168.8742 </r>
       <r>    18.7290     4.2592   169.2435 </r>
       <r>    18.8157     4.6729   169.6485 </r>
       <r>    18.9024     4.4560   170.0348 </r>
       <r>    18.9891     3.8605   170.3695 </r>
       <r>    19.0758     3.3769   170.6622 </r>
       <r>    19.1625     2.9940   170.9218 </r>
       <r>    19.2492     2.7384   171.1592 </r>
       <r>    19.3359     3.1260   171.4302 </r>
       <r>    19.4225     4.3604   171.8082 </r>
       <r>    19.5092     5.5502   172.2893 </r>
       <r>    19.5959     5.6338   172.7777 </r>
       <r>    19.6826     5.0231   173.2132 </r>
       <r>    19.7693     4.8610   173.6346 </r>
       <r>    19.8560     5.0742   174.0745 </r>
       <r>    19.9427     4.9876   174.5068 </r>
       <r>    20.0294     4.6881   174.9132 </r>
       <r>    20.1161     4.4253   175.2969 </r>
       <r>    20.2028     4.2610   175.6662 </r>
       <r>    20.2894     4.5369   176.0595 </r>
       <r>    20.3761     5.1629   176.5071 </r>
       <r>    20.4628     5.2969   176.9663 </r>
       <r>    20.5495     4.6728   177.3714 </r>
       <r>    20.6362     4.0049   177.7186 </r>
       <r>    20.7229     3.8771   178.0547 </r>
       <r>    20.8096     4.0872   178.4090 </r>
       <r>    20.8963     4.0622   178.7612 </r>
       <r>    20.9830     3.7229   179.0839 </r>
       <r>    21.0696     3.6759   179.4026 </r>
       <r>    21.1563     4.2119   179.7677 </r>
       <r>    21.2430     4.7275   180.1775 </r>
       <r>    21.3297     4.7043   180.5853 </r>
       <r>    21.4164     4.4032   180.9670 </r>
       <r>    21.5031     3.9327   181.3080 </r>
       <r>    21.5898     2.8292   181.5532 </r>
       <r>    21.6765     1.3394   181.6693 </r>
       <r>    21.7632     0.5590   181.7178 </r>
       <r>    21.8499     0.7916   181.7864 </r>
       <r>    21.9365     1.1590   181.8869 </r>
       <r>    22.0232     0.9545   181.9696 </r>
       <r>    22.1099     0.4106   182.0052 </r>
       <r>    22.1966     0.0386   182.0086 </r>
       <r>    22.2833    -0.0546   182.0039 </r>
       <r>    22.3700    -0.0329   182.0010 </r>
       <r>    22.4567    -0.0096   182.0002 </r>
       <r>    22.5434    -0.0017   182.0000 </r>
       <r>    22.6301    -0.0002   182.0000 </r>
       <r>    22.7168    -0.0000   182.0000 </r>
       <r>    22.8034    -0.0000   182.0000 </r>
       <r>    22.8901    -0.0000   182.0000 </r>
       <r>    22.9768    -0.0000   182.0000 </r>
       <r>    23.0635    -0.0000   182.0000 </r>
       <r>    23.1502    -0.0000   182.0000 </r>
       <r>    23.2369    -0.0000   182.0000 </r>
       <r>    23.3236     0.0000   182.0000 </r>
       <r>    23.4103     0.0000   182.0000 </r>
       <r>    23.4970     0.0000   182.0000 </r>
       <r>    23.5836     0.0000   182.0000 </r>
       <r>    23.6703     0.0000   182.0000 </r>
       <r>    23.7570     0.0000   182.0000 </r>
       <r>    23.8437     0.0000   182.0000 </r>
       <r>    23.9304     0.0000   182.0000 </r>
       <r>    24.0171     0.0000   182.0000 </r>
       <r>    24.1038     0.0000   182.0000 </r>
      </set>
      <set comment="spin 2">
       <r>    -1.9031     0.0000     0.0000 </r>
       <r>    -1.8164     0.0000     0.0000 </r>
       <r>    -1.7297     0.0000     0.0000 </r>
       <r>    -1.6430     0.0000     0.0000 </r>
       <r>    -1.5564    -0.0000    -0.0000 </r>
       <r>    -1.4697    -0.0000    -0.0000 </r>
       <r>    -1.3830    -0.0000    -0.0000 </r>
       <r>    -1.2963    -0.0000    -0.0000 </r>
       <r>    -1.2096    -0.0000    -0.0000 </r>
       <r>    -1.1229    -0.0000    -0.0000 </r>
       <r>    -1.0362    -0.0000    -0.0000 </r>
       <r>    -0.9495    -0.0000    -0.0000 </r>
       <r>    -0.8628    -0.0000    -0.0000 </r>
       <r>    -0.7761    -0.0000    -0.0000 </r>
       <r>    -0.6895    -0.0000    -0.0000 </r>
       <r>    -0.6028    -0.0000    -0.0000 </r>
       <r>    -0.5161    -0.0000    -0.0000 </r>
       <r>    -0.4294    -0.0000    -0.0000 </r>
       <r>    -0.3427    -0.0003    -0.0000 </r>
       <r>    -0.2560    -0.0016    -0.0002 </r>
       <r>    -0.1693    -0.0058    -0.0007 </r>
       <r>    -0.0826    -0.0115    -0.0017 </r>
       <r>     0.0041    -0.0022    -0.0019 </r>
       <r>     0.0908     0.0560     0.0030 </r>
       <r>     0.1774     0.1672     0.0175 </r>
       <r>     0.2641     0.2758     0.0414 </r>
       <r>     0.3508     0.3725     0.0737 </r>
       <r>     0.4375     0.5272     0.1194 </r>
       <r>     0.5242     0.6783     0.1782 </r>
       <r>     0.6109     0.6505     0.2346 </r>
       <r>     0.6976     0.5427     0.2816 </r>
       <r>     0.7843     0.6617     0.3390 </r>
       <r>     0.8710     0.9652     0.4227 </r>
       <r>     0.9576     1.1213     0.5199 </r>
       <r>     1.0443     1.0492     0.6108 </r>
       <r>     1.1310     0.8989     0.6888 </r>
       <r>     1.2177     0.7901     0.7573 </r>
       <r>     1.3044     0.8127     0.8277 </r>
       <r>     1.3911     0.9960     0.9141 </r>
       <r>     1.4778     1.2754     1.0246 </r>
       <r>     1.5645     1.4832     1.1532 </r>
       <r>     1.6512     1.4373     1.2778 </r>
       <r>     1.7379     1.2018     1.3820 </r>
       <r>     1.8245     1.0288     1.4712 </r>
       <r>     1.9112     1.0418     1.5615 </r>
       <r>     1.9979     1.1708     1.6630 </r>
       <r>     2.0846     1.4123     1.7854 </r>
       <r>     2.1713     1.8124     1.9425 </r>
       <r>     2.2580     2.0641     2.1215 </r>
       <r>     2.3447     1.8108     2.2784 </r>
       <r>     2.4314     1.3378     2.3944 </r>
       <r>     2.5181     1.2128     2.4996 </r>
       <r>     2.6048     1.5214     2.6314 </r>
       <r>     2.6914     1.9279     2.7986 </r>
       <r>     2.7781     2.0819     2.9791 </r>
       <r>     2.8648     1.9801     3.1507 </r>
       <r>     2.9515     1.9951     3.3237 </r>
       <r>     3.0382     2.2379     3.5177 </r>
       <r>     3.1249     2.3968     3.7254 </r>
       <r>     3.2116     2.3638     3.9304 </r>
       <r>     3.2983     2.2856     4.1285 </r>
       <r>     3.3850     2.1992     4.3191 </r>
       <r>     3.4716     2.1080     4.5019 </r>
       <r>     3.5583     2.1684     4.6899 </r>
       <r>     3.6450     2.5553     4.9114 </r>
       <r>     3.7317     3.1643     5.1857 </r>
       <r>     3.8184     3.6660     5.5035 </r>
       <r>     3.9051     3.8358     5.8360 </r>
       <r>     3.9918     3.7183     6.1584 </r>
       <r>     4.0785     3.4448     6.4570 </r>
       <r>     4.1652     3.0460     6.7211 </r>
       <r>     4.2519     2.8170     6.9653 </r>
       <r>     4.3385     3.4757     7.2666 </r>
       <r>     4.4252     5.1333     7.7116 </r>
       <r>     4.5119     6.7244     8.2945 </r>
       <r>     4.5986     7.5102     8.9456 </r>
       <r>     4.6853     8.0812     9.6461 </r>
       <r>     4.7720     9.0470    10.4304 </r>
       <r>     4.8587    10.1910    11.3139 </r>
       <r>     4.9454    11.3331    12.2963 </r>
       <r>     5.0321    12.6853    13.3960 </r>
       <r>     5.1188    13.9050    14.6014 </r>
       <r>     5.2054    14.2078    15.8331 </r>
       <r>     5.2921    13.8467    17.0334 </r>
       <r>     5.3788    13.7553    18.2259 </r>
       <r>     5.4655    14.0323    19.4423 </r>
       <r>     5.5522    14.6951    20.7162 </r>
       <r>     5.6389    16.7694    22.1700 </r>
       <r>     5.7256    20.4079    23.9391 </r>
       <r>     5.8123    23.6478    25.9892 </r>
       <r>     5.8990    24.9140    28.1489 </r>
       <r>     5.9856    24.5874    30.2804 </r>
       <r>     6.0723    23.6046    32.3267 </r>
       <r>     6.1590    22.8064    34.3038 </r>
       <r>     6.2457    22.6604    36.2682 </r>
       <r>     6.3324    22.5610    38.2240 </r>
       <r>     6.4191    22.0103    40.1321 </r>
       <r>     6.5058    21.8008    42.0220 </r>
       <r>     6.5925    22.8326    44.0013 </r>
       <r>     6.6792    25.0133    46.1697 </r>
       <r>     6.7659    27.4245    48.5471 </r>
       <r>     6.8525    29.0184    51.0627 </r>
       <r>     6.9392    29.6912    53.6366 </r>
       <r>     7.0259    30.3016    56.2635 </r>
       <r>     7.1126    31.5482    58.9984 </r>
       <r>     7.1993    33.5488    61.9067 </r>
       <r>     7.2860    36.1348    65.0392 </r>
       <r>     7.3727    38.5324    68.3796 </r>
       <r>     7.4594    39.0807    71.7675 </r>
       <r>     7.5461    36.7981    74.9575 </r>
       <r>     7.6328    33.0940    77.8264 </r>
       <r>     7.7194    30.2915    80.4524 </r>
       <r>     7.8061    29.0657    82.9721 </r>
       <r>     7.8928    28.6067    85.4520 </r>
       <r>     7.9795    28.6002    87.9313 </r>
       <r>     8.0662    29.7915    90.5139 </r>
       <r>     8.1529    32.2060    93.3059 </r>
       <r>     8.2396    34.5770    96.3033 </r>
       <r>     8.3263    35.7895    99.4059 </r>
       <r>     8.4130    34.9309   102.4340 </r>
       <r>     8.4996    31.8917   105.1987 </r>
       <r>     8.5863    29.1483   107.7256 </r>
       <r>     8.6730    29.2741   110.2633 </r>
       <r>     8.7597    31.5037   112.9944 </r>
       <r>     8.8464    33.9475   115.9373 </r>
       <r>     8.9331    36.5592   119.1066 </r>
       <r>     9.0198    39.7063   122.5487 </r>
       <r>     9.1065    42.4204   126.2261 </r>
       <r>     9.1932    42.9497   129.9494 </r>
       <r>     9.2799    39.2252   133.3498 </r>
       <r>     9.3665    30.1934   135.9673 </r>
       <r>     9.4532    18.0396   137.5311 </r>
       <r>     9.5399     7.5947   138.1895 </r>
       <r>     9.6266     2.4509   138.4020 </r>
       <r>     9.7133     2.2950   138.6009 </r>
       <r>     9.8000     4.4918   138.9903 </r>
       <r>     9.8867     6.5104   139.5547 </r>
       <r>     9.9734     6.8642   140.1498 </r>
       <r>    10.0601     5.7371   140.6471 </r>
       <r>    10.1468     4.3658   141.0256 </r>
       <r>    10.2334     3.3506   141.3160 </r>
       <r>    10.3201     2.7234   141.5521 </r>
       <r>    10.4068     3.0005   141.8123 </r>
       <r>    10.4935     4.4547   142.1984 </r>
       <r>    10.5802     6.0171   142.7201 </r>
       <r>    10.6669     6.2038   143.2579 </r>
       <r>    10.7536     4.9044   143.6830 </r>
       <r>    10.8403     3.3910   143.9770 </r>
       <r>    10.9270     2.6683   144.2083 </r>
       <r>    11.0136     2.6643   144.4393 </r>
       <r>    11.1003     2.9137   144.6919 </r>
       <r>    11.1870     3.2177   144.9708 </r>
       <r>    11.2737     3.5475   145.2783 </r>
       <r>    11.3604     3.9521   145.6209 </r>
       <r>    11.4471     4.5466   146.0151 </r>
       <r>    11.5338     5.0227   146.4505 </r>
       <r>    11.6205     4.8939   146.8748 </r>
       <r>    11.7072     4.3394   147.2509 </r>
       <r>    11.7939     3.6940   147.5712 </r>
       <r>    11.8805     3.0571   147.8362 </r>
       <r>    11.9672     2.7459   148.0742 </r>
       <r>    12.0539     2.7842   148.3156 </r>
       <r>    12.1406     2.7725   148.5559 </r>
       <r>    12.2273     2.7499   148.7943 </r>
       <r>    12.3140     2.8467   149.0411 </r>
       <r>    12.4007     2.7521   149.2797 </r>
       <r>    12.4874     2.5100   149.4973 </r>
       <r>    12.5741     2.7414   149.7349 </r>
       <r>    12.6608     3.7902   150.0635 </r>
       <r>    12.7474     5.1545   150.5103 </r>
       <r>    12.8341     5.6450   150.9997 </r>
       <r>    12.9208     4.5418   151.3934 </r>
       <r>    13.0075     2.6860   151.6263 </r>
       <r>    13.0942     1.5910   151.7642 </r>
       <r>    13.1809     1.6412   151.9065 </r>
       <r>    13.2676     2.0550   152.0846 </r>
       <r>    13.3543     2.3046   152.2844 </r>
       <r>    13.4410     2.5140   152.5023 </r>
       <r>    13.5276     2.7372   152.7396 </r>
       <r>    13.6143     2.7986   152.9822 </r>
       <r>    13.7010     2.6650   153.2133 </r>
       <r>    13.7877     2.5795   153.4369 </r>
       <r>    13.8744     2.6382   153.6656 </r>
       <r>    13.9611     2.5327   153.8851 </r>
       <r>    14.0478     2.1939   154.0753 </r>
       <r>    14.1345     1.9800   154.2470 </r>
       <r>    14.2212     2.0771   154.4270 </r>
       <r>    14.3079     2.3445   154.6303 </r>
       <r>    14.3945     2.4562   154.8432 </r>
       <r>    14.4812     2.2212   155.0358 </r>
       <r>    14.5679     1.8835   155.1990 </r>
       <r>    14.6546     1.6030   155.3380 </r>
       <r>    14.7413     1.2331   155.4449 </r>
       <r>    14.8280     0.9344   155.5259 </r>
       <r>    14.9147     1.0037   155.6129 </r>
       <r>    15.0014     1.3292   155.7281 </r>
       <r>    15.0881     1.7188   155.8772 </r>
       <r>    15.1748     2.2354   156.0709 </r>
       <r>    15.2614     2.8795   156.3206 </r>
       <r>    15.3481     3.3886   156.6143 </r>
       <r>    15.4348     3.5386   156.9211 </r>
       <r>    15.5215     3.4497   157.2201 </r>
       <r>    15.6082     3.4944   157.5231 </r>
       <r>    15.6949     3.7715   157.8500 </r>
       <r>    15.7816     3.9487   158.1923 </r>
       <r>    15.8683     3.8990   158.5303 </r>
       <r>    15.9550     3.8481   158.8639 </r>
       <r>    16.0416     3.8285   159.1958 </r>
       <r>    16.1283     3.7201   159.5183 </r>
       <r>    16.2150     3.6865   159.8379 </r>
       <r>    16.3017     4.0565   160.1895 </r>
       <r>    16.3884     4.6643   160.5939 </r>
       <r>    16.4751     4.8898   161.0178 </r>
       <r>    16.5618     4.5272   161.4102 </r>
       <r>    16.6485     3.9888   161.7560 </r>
       <r>    16.7352     3.8457   162.0894 </r>
       <r>    16.8219     4.1835   162.4521 </r>
       <r>    16.9085     4.2598   162.8214 </r>
       <r>    16.9952     3.5764   163.1314 </r>
       <r>    17.0819     2.7600   163.3707 </r>
       <r>    17.1686     2.5135   163.5886 </r>
       <r>    17.2553     2.7293   163.8252 </r>
       <r>    17.3420     3.0432   164.0890 </r>
       <r>    17.4287     3.2643   164.3720 </r>
       <r>    17.5154     3.1528   164.6453 </r>
       <r>    17.6021     2.6474   164.8748 </r>
       <r>    17.6888     2.3233   165.0762 </r>
       <r>    17.7754     2.6613   165.3069 </r>
       <r>    17.8621     3.1781   165.5824 </r>
       <r>    17.9488     3.3160   165.8698 </r>
       <r>    18.0355     3.3836   166.1632 </r>
       <r>    18.1222     3.7582   166.4890 </r>
       <r>    18.2089     4.1780   166.8511 </r>
       <r>    18.2956     4.2336   167.2182 </r>
       <r>    18.3823     3.7773   167.5456 </r>
       <r>    18.4690     2.9641   167.8026 </r>
       <r>    18.5556     2.3478   168.0061 </r>
       <r>    18.6423     2.4672   168.2200 </r>
       <r>    18.7290     3.1402   168.4922 </r>
       <r>    18.8157     3.7665   168.8187 </r>
       <r>    18.9024     4.2093   169.1836 </r>
       <r>    18.9891     4.5474   169.5778 </r>
       <r>    19.0758     4.4766   169.9659 </r>
       <r>    19.1625     3.9544   170.3087 </r>
       <r>    19.2492     3.4675   170.6093 </r>
       <r>    19.3359     3.1737   170.8844 </r>
       <r>    19.4225     2.9961   171.1442 </r>
       <r>    19.5092     3.3262   171.4325 </r>
       <r>    19.5959     4.4598   171.8191 </r>
       <r>    19.6826     5.6218   172.3065 </r>
       <r>    19.7693     5.7949   172.8088 </r>
       <r>    19.8560     5.3396   173.2717 </r>
       <r>    19.9427     5.1869   173.7214 </r>
       <r>    20.0294     5.2687   174.1781 </r>
       <r>    20.1161     5.1453   174.6242 </r>
       <r>    20.2028     4.7813   175.0386 </r>
       <r>    20.2894     4.3010   175.4115 </r>
       <r>    20.3761     4.1195   175.7686 </r>
       <r>    20.4628     4.6698   176.1734 </r>
       <r>    20.5495     5.4218   176.6434 </r>
       <r>    20.6362     5.3651   177.1085 </r>
       <r>    20.7229     4.5212   177.5005 </r>
       <r>    20.8096     3.8284   177.8324 </r>
       <r>    20.8963     3.8075   178.1624 </r>
       <r>    20.9830     4.0931   178.5173 </r>
       <r>    21.0696     4.1109   178.8736 </r>
       <r>    21.1563     3.8976   179.2115 </r>
       <r>    21.2430     4.0099   179.5591 </r>
       <r>    21.3297     4.5570   179.9542 </r>
       <r>    21.4164     4.9644   180.3846 </r>
       <r>    21.5031     4.8916   180.8086 </r>
       <r>    21.5898     4.4111   181.1910 </r>
       <r>    21.6765     3.3627   181.4825 </r>
       <r>    21.7632     1.8391   181.6420 </r>
       <r>    21.8499     0.7457   181.7066 </r>
       <r>    21.9365     0.6607   181.7639 </r>
       <r>    22.0232     1.0087   181.8513 </r>
       <r>    22.1099     1.0074   181.9386 </r>
       <r>    22.1966     0.6020   181.9908 </r>
       <r>    22.2833     0.1844   182.0068 </r>
       <r>    22.3700    -0.0136   182.0056 </r>
       <r>    22.4567    -0.0404   182.0021 </r>
       <r>    22.5434    -0.0189   182.0005 </r>
       <r>    22.6301    -0.0048   182.0001 </r>
       <r>    22.7168    -0.0008   182.0000 </r>
       <r>    22.8034    -0.0001   182.0000 </r>
       <r>    22.8901    -0.0000   182.0000 </r>
       <r>    22.9768    -0.0000   182.0000 </r>
       <r>    23.0635    -0.0000   182.0000 </r>
       <r>    23.1502    -0.0000   182.0000 </r>
       <r>    23.2369    -0.0000   182.0000 </r>
       <r>    23.3236    -0.0000   182.0000 </r>
       <r>    23.4103    -0.0000   182.0000 </r>
       <r>    23.4970     0.0000   182.0000 </r>
       <r>    23.5836     0.0000   182.0000 </r>
       <r>    23.6703     0.0000   182.0000 </r>
       <r>    23.7570     0.0000   182.0000 </r>
       <r>    23.8437     0.0000   182.0000 </r>
       <r>    23.9304     0.0000   182.0000 </r>
       <r>    24.0171     0.0000   182.0000 </r>
       <r>    24.1038     0.0000   182.0000 </r>
      </set>
     </set>
    </array>
   </total>
  </dos>
 </calculation>
 <structure name="finalpos" >
  <crystal>
   <varray name="basis" >
    <v>       6.43403770      -0.00000001       3.71469322 </v>
    <v>       2.14467822       6.06607096       3.71469322 </v>
    <v>       0.00000000       0.00000000       7.42938641 </v>
   </varray>
   <i name="volume">    289.96396853 </i>
   <varray name="rec_basis" >
    <v>       0.15542340      -0.05495042      -0.00000000 </v>
    <v>       0.00000000       0.16485135      -0.00000000 </v>
    <v>      -0.07771170      -0.05495046       0.13460062 </v>
   </varray>
  </crystal>
  <varray name="positions" >
   <v>      -0.00000000      -0.00000000       0.32946023 </v>
   <v>       0.00000000       0.00000000       0.67053977 </v>
   <v>       0.00000000       0.32946023       0.00000000 </v>
   <v>       0.00017535       0.33327488       0.33327488 </v>
   <v>       0.00000000       0.32946023       0.67053977 </v>
   <v>      -0.00000000       0.67053977      -0.00000000 </v>
   <v>      -0.00000000       0.67053977       0.32946023 </v>
   <v>      -0.00017535       0.66672512       0.66672512 </v>
   <v>       0.32946023       0.00000000      -0.00000000 </v>
   <v>       0.33327488       0.00017535       0.33327488 </v>
   <v>       0.32946023       0.00000000       0.67053977 </v>
   <v>       0.33327488       0.33327488       0.00017535 </v>
   <v>       0.33327488       0.33327488       0.33327488 </v>
   <v>       0.33230599       0.33230599       0.66769401 </v>
   <v>       0.32946023       0.67053977      -0.00000000 </v>
   <v>       0.33230599       0.66769401       0.33230599 </v>
   <v>       0.33230599       0.66769401       0.66769401 </v>
   <v>       0.67053977      -0.00000000       0.00000000 </v>
   <v>       0.67053977      -0.00000000       0.32946023 </v>
   <v>       0.66672512      -0.00017535       0.66672512 </v>
   <v>       0.67053977       0.32946023       0.00000000 </v>
   <v>       0.66769401       0.33230599       0.33230599 </v>
   <v>       0.66769401       0.33230599       0.66769401 </v>
   <v>       0.66672512       0.66672512      -0.00017535 </v>
   <v>       0.66769401       0.66769401       0.33230599 </v>
   <v>       0.66672512       0.66672512       0.66672512 </v>
  </varray>
 </structure>
</modeling>
