 running    1 mpi-ranks, with    2 threads/rank, on    1 nodes
 distrk:  each k-point on    1 cores,    1 groups
 distr:  one band on    1 cores,    1 groups
 OpenACC runtime initialized ...    1 GPUs detected
 vasp.6.4.2 20Jul23 (build Mar  2 2025 11:04:54) complex                         
 POSCAR found type information on POSCAR Nb
 POSCAR found :  1 types and       1 ions
 scaLAPACK will be used selectively (only on CPU)
 LDA part: xc-table for Pade appr. of Perdew
 -----------------------------------------------------------------------------
|                                                                             |
|           W    W    AA    RRRRR   N    N  II  N    N   GGGG   !!!           |
|           W    W   A  A   R    R  NN   N  II  NN   N  G    G  !!!           |
|           W    W  A    A  R    R  N N  N  II  N N  N  G       !!!           |
|           W WW W  AAAAAA  RRRRR   N  N N  II  N  N N  G  GGG   !            |
|           WW  WW  A    A  R   R   N   NN  II  N   NN  G    G                |
|           W    W  A    A  R    R  N    N  II  N    N   GGGG   !!!           |
|                                                                             |
|     The requested file  could not be found or opened for reading            |
|     k-point information. Automatic k-point generation is used as a          |
|     fallback, which may lead to unwanted results.                           |
|                                                                             |
 -----------------------------------------------------------------------------

 POSCAR, INCAR and KPOINTS ok, starting setup
 FFT: planning ... GRIDC
 FFT: planning ... GRID_SOFT
 FFT: planning ... GRID
 WAVECAR not read
 entering main loop
       N       E                     dE             d eps       ncg     rms          rms(c)
DAV:   1     0.605246698004E+02    0.60525E+02   -0.61940E+03  1040   0.119E+03
DAV:   2    -0.885857640268E+01   -0.69383E+02   -0.66569E+02  1220   0.341E+02
DAV:   3    -0.105625600119E+02   -0.17040E+01   -0.16016E+01  1353   0.507E+01
DAV:   4    -0.106028827674E+02   -0.40323E-01   -0.39962E-01  1365   0.625E+00
DAV:   5    -0.106031915526E+02   -0.30879E-03   -0.30864E-03  1252   0.367E-01    0.170E+01
DAV:   6    -0.101856884840E+02    0.41750E+00   -0.58226E-01  1545   0.121E+01    0.736E+00
DAV:   7    -0.100864588704E+02    0.99230E-01   -0.30992E-01  1537   0.855E+00    0.447E-01
DAV:   8    -0.100841554028E+02    0.23035E-02   -0.39241E-03  1262   0.101E+00    0.204E-01
DAV:   9    -0.100841839124E+02   -0.28510E-04   -0.13103E-04  1488   0.175E-01    0.150E-02
DAV:  10    -0.100841707759E+02    0.13137E-04   -0.77317E-06  1232   0.286E-02    0.247E-03
DAV:  11    -0.100841708751E+02   -0.99180E-07   -0.13893E-07   721   0.580E-03
   1 F= -.10084171E+02 E0= -.10083774E+02  d E =-.119054E-02
Warning: ieee_invalid is signaling
Warning: ieee_divide_by_zero is signaling
Warning: ieee_underflow is signaling
Warning: ieee_inexact is signaling
FORTRAN STOP
