<?xml version="1.0" encoding="ISO-8859-1"?>
<modeling>
 <generator>
  <i name="program" type="string">vasp </i>
  <i name="version" type="string">6.4.2  </i>
  <i name="subversion" type="string">20Jul23 (build Mar  2 2025 11:04:54) complex                          parallel </i>
  <i name="platform" type="string">LinuxNV </i>
  <i name="date" type="string">2026 04 07 </i>
  <i name="time" type="string">10:56:35 </i>
 </generator>
 <incar>
  <i type="string" name="SYSTEM">KSPACING convergence test (0.25)</i>
  <i type="string" name="PREC">Accurate</i>
  <i type="int" name="IBRION">    -1</i>
  <i name="EDIFF">      0.00000010</i>
  <i type="int" name="NSW">     0</i>
  <i type="int" name="ISIF">     2</i>
  <i name="ENCUT">    500.00000000</i>
  <i type="int" name="ISMEAR">     1</i>
  <i name="SIGMA">      0.20000000</i>
  <i name="KSPACING">      0.25000000</i>
  <i type="logical" name="KGAMMA"> T  </i>
  <i type="logical" name="LWAVE"> F  </i>
  <i type="logical" name="LCHARG"> F  </i>
 </incar>
 <primitive_cell>
  <structure name="primitive_cell" >
   <crystal>
    <varray name="basis" >
     <v>       2.70883657       0.00000000      -0.95771729 </v>
     <v>      -1.35441778       2.34592025      -0.95771729 </v>
     <v>       0.00000000       0.00000001       2.87315290 </v>
    </varray>
    <i name="volume">     18.25806662 </i>
    <varray name="rec_basis" >
     <v>       0.36916217       0.21313590      -0.00000000 </v>
     <v>      -0.00000000       0.42627195      -0.00000000 </v>
     <v>       0.12305401       0.21313587       0.34804970 </v>
    </varray>
   </crystal>
   <varray name="positions" >
    <v>       0.00000000       0.00000000       0.00000000 </v>
   </varray>
  </structure>
  <varray name="primitive_index" >
   <v type="int" >        1 </v>
  </varray>
 </primitive_cell>
 <kpoints>
  <generation param="Gamma">
   <v type="int" name="divisions">      11       11       11 </v>
   <v name="usershift">      0.00000000       0.00000000       0.00000000 </v>
   <v name="genvec1">      0.09090909      -0.00000000      -0.00000000 </v>
   <v name="genvec2">      0.00000000       0.09090909      -0.00000000 </v>
   <v name="genvec3">      0.00000000      -0.00000000       0.09090909 </v>
   <v name="shift">      0.00000000       0.00000000       0.00000000 </v>
  </generation>
  <varray name="kpointlist" >
   <v>       0.00000000       0.00000000       0.00000000 </v>
   <v>       0.09090909       0.00000000       0.00000000 </v>
   <v>       0.18181818       0.00000000       0.00000000 </v>
   <v>       0.27272727       0.00000000       0.00000000 </v>
   <v>       0.36363636       0.00000000       0.00000000 </v>
   <v>       0.45454545       0.00000000       0.00000000 </v>
   <v>       0.09090909       0.09090909       0.00000000 </v>
   <v>       0.18181818       0.09090909       0.00000000 </v>
   <v>       0.27272727       0.09090909       0.00000000 </v>
   <v>       0.36363636       0.09090909       0.00000000 </v>
   <v>       0.45454545       0.09090909       0.00000000 </v>
   <v>       0.18181818       0.18181818       0.00000000 </v>
   <v>       0.27272727       0.18181818       0.00000000 </v>
   <v>       0.36363636       0.18181818       0.00000000 </v>
   <v>       0.27272727       0.27272727       0.00000000 </v>
   <v>       0.36363636       0.27272727       0.00000000 </v>
   <v>       0.09090909       0.09090909       0.09090909 </v>
   <v>       0.18181818       0.09090909       0.09090909 </v>
   <v>       0.27272727       0.09090909       0.09090909 </v>
   <v>       0.36363636       0.09090909       0.09090909 </v>
   <v>      -0.09090909       0.09090909       0.09090909 </v>
   <v>       0.18181818       0.18181818       0.09090909 </v>
   <v>       0.27272727       0.18181818       0.09090909 </v>
   <v>       0.36363636       0.18181818       0.09090909 </v>
   <v>      -0.18181818       0.18181818       0.09090909 </v>
   <v>       0.27272727       0.27272727       0.09090909 </v>
   <v>      -0.27272727       0.27272727       0.09090909 </v>
   <v>      -0.18181818       0.27272727       0.09090909 </v>
   <v>      -0.36363636       0.36363636       0.09090909 </v>
   <v>      -0.27272727       0.36363636       0.09090909 </v>
   <v>      -0.45454545       0.45454545       0.09090909 </v>
   <v>      -0.36363636       0.45454545       0.09090909 </v>
   <v>      -0.27272727       0.45454545       0.09090909 </v>
   <v>      -0.45454545      -0.45454545       0.09090909 </v>
   <v>      -0.36363636      -0.45454545       0.09090909 </v>
   <v>      -0.36363636      -0.36363636       0.09090909 </v>
   <v>       0.18181818       0.18181818       0.18181818 </v>
   <v>       0.27272727       0.18181818       0.18181818 </v>
   <v>      -0.18181818       0.18181818       0.18181818 </v>
   <v>       0.27272727       0.27272727       0.18181818 </v>
   <v>      -0.27272727       0.27272727       0.18181818 </v>
   <v>      -0.36363636       0.36363636       0.18181818 </v>
   <v>      -0.27272727       0.36363636       0.18181818 </v>
   <v>      -0.45454545       0.45454545       0.18181818 </v>
   <v>      -0.36363636       0.45454545       0.18181818 </v>
   <v>      -0.45454545      -0.45454545       0.18181818 </v>
   <v>      -0.36363636      -0.45454545       0.18181818 </v>
   <v>      -0.27272727       0.27272727       0.27272727 </v>
   <v>      -0.36363636       0.36363636       0.27272727 </v>
   <v>      -0.45454545       0.45454545       0.27272727 </v>
   <v>      -0.36363636       0.45454545       0.27272727 </v>
   <v>      -0.45454545      -0.45454545       0.27272727 </v>
   <v>      -0.36363636       0.36363636       0.36363636 </v>
   <v>      -0.45454545       0.45454545       0.36363636 </v>
   <v>      -0.45454545      -0.45454545       0.36363636 </v>
   <v>      -0.45454545       0.45454545       0.45454545 </v>
  </varray>
  <varray name="weights" >
   <v>       0.00075131 </v>
   <v>       0.00901578 </v>
   <v>       0.00901578 </v>
   <v>       0.00901578 </v>
   <v>       0.00901578 </v>
   <v>       0.00901578 </v>
   <v>       0.01803156 </v>
   <v>       0.03606311 </v>
   <v>       0.03606311 </v>
   <v>       0.03606311 </v>
   <v>       0.01803156 </v>
   <v>       0.01803156 </v>
   <v>       0.03606311 </v>
   <v>       0.03606311 </v>
   <v>       0.01803156 </v>
   <v>       0.01803156 </v>
   <v>       0.00601052 </v>
   <v>       0.01803156 </v>
   <v>       0.01803156 </v>
   <v>       0.01803156 </v>
   <v>       0.00450789 </v>
   <v>       0.01803156 </v>
   <v>       0.03606311 </v>
   <v>       0.01803156 </v>
   <v>       0.01803156 </v>
   <v>       0.01803156 </v>
   <v>       0.01803156 </v>
   <v>       0.01803156 </v>
   <v>       0.01803156 </v>
   <v>       0.03606311 </v>
   <v>       0.01803156 </v>
   <v>       0.03606311 </v>
   <v>       0.01803156 </v>
   <v>       0.01803156 </v>
   <v>       0.03606311 </v>
   <v>       0.00601052 </v>
   <v>       0.00601052 </v>
   <v>       0.01803156 </v>
   <v>       0.00450789 </v>
   <v>       0.00601052 </v>
   <v>       0.01803156 </v>
   <v>       0.01803156 </v>
   <v>       0.01803156 </v>
   <v>       0.01803156 </v>
   <v>       0.03606311 </v>
   <v>       0.01803156 </v>
   <v>       0.01803156 </v>
   <v>       0.00450789 </v>
   <v>       0.01803156 </v>
   <v>       0.01803156 </v>
   <v>       0.01803156 </v>
   <v>       0.01803156 </v>
   <v>       0.00450789 </v>
   <v>       0.01803156 </v>
   <v>       0.00601052 </v>
   <v>       0.00450789 </v>
  </varray>
 </kpoints>
 <parameters>
  <separator name="general" >
   <i type="string" name="SYSTEM">KSPACING convergence test (0.25)</i>
   <i type="logical" name="LCOMPAT"> F  </i>
  </separator>
  <separator name="electronic" >
   <i type="string" name="PREC">accura</i>
   <i name="ENMAX">    500.00000000</i>
   <i name="ENAUG">    355.06700000</i>
   <i name="EDIFF">      0.00000010</i>
   <i type="int" name="IALGO">    38</i>
   <i type="int" name="IWAVPR">    10</i>
   <i type="int" name="NBANDS">     9</i>
   <i type="int" name="NBANDSLOW">    -1</i>
   <i type="int" name="NBANDSHIGH">    -1</i>
   <i name="NELECT">     11.00000000</i>
   <i type="int" name="TURBO">     0</i>
   <i type="int" name="IRESTART">     0</i>
   <i type="int" name="NREBOOT">     0</i>
   <i type="int" name="NMIN">     0</i>
   <i name="EREF">      0.00000000</i>
   <separator name="electronic smearing" >
    <i type="int" name="ISMEAR">     1</i>
    <i name="SIGMA">      0.20000000</i>
    <i name="KSPACING">      0.25000000</i>
    <i type="logical" name="KGAMMA"> T  </i>
    <i type="logical" name="KBLOWUP"> T  </i>
   </separator>
   <separator name="electronic projectors" >
    <i type="logical" name="LREAL"> F  </i>
    <v name="ROPT">      0.00000000</v>
    <i type="int" name="LMAXPAW">  -100</i>
    <i type="int" name="LMAXMIX">     2</i>
    <i type="logical" name="NLSPLINE"> F  </i>
   </separator>
   <separator name="electronic startup" >
    <i type="int" name="ISTART">     0</i>
    <i type="int" name="ICHARG">     2</i>
    <i type="int" name="INIWAV">     1</i>
   </separator>
   <separator name="electronic spin" >
    <i type="int" name="ISPIN">     1</i>
    <i type="logical" name="LNONCOLLINEAR"> F  </i>
    <v name="MAGMOM">      1.00000000</v>
    <i name="NUPDOWN">     -1.00000000</i>
    <i type="logical" name="LSORBIT"> F  </i>
    <v name="SAXIS">      0.00000000      0.00000000      1.00000000</v>
    <i type="logical" name="LSPIRAL"> F  </i>
    <v name="QSPIRAL">      0.00000000      0.00000000      0.00000000</v>
    <i type="logical" name="LZEROZ"> F  </i>
   </separator>
   <separator name="electronic exchange-correlation" >
    <i type="logical" name="LASPH"> F  </i>
    <i type="logical" name="LMETAGGA"> F  </i>
   </separator>
   <separator name="electronic convergence" >
    <i type="int" name="NELM">    60</i>
    <i type="int" name="NELMDL">    -5</i>
    <i type="int" name="NELMIN">     2</i>
    <i name="ENINI">    500.00000000</i>
    <separator name="electronic convergence detail" >
     <i type="logical" name="LDIAG"> T  </i>
     <i type="logical" name="LSUBROT"> F  </i>
     <i name="WEIMIN">      0.00000000</i>
     <i name="EBREAK">      0.00000000</i>
     <i name="DEPER">      0.30000000</i>
     <i type="int" name="NRMM">     4</i>
     <i name="TIME">      0.40000000</i>
    </separator>
   </separator>
   <separator name="electronic mixer" >
    <i name="AMIX">      0.40000000</i>
    <i name="BMIX">      1.00000000</i>
    <i name="AMIN">      0.10000000</i>
    <i name="AMIX_MAG">      1.60000000</i>
    <i name="BMIX_MAG">      1.00000000</i>
    <separator name="electronic mixer details" >
     <i type="int" name="IMIX">     4</i>
     <i type="logical" name="MIXFIRST"> F  </i>
     <i type="int" name="MAXMIX">   -45</i>
     <i name="WC">    100.00000000</i>
     <i type="int" name="INIMIX">     1</i>
     <i type="int" name="MIXPRE">     1</i>
     <i type="int" name="MREMOVE">     5</i>
    </separator>
   </separator>
   <separator name="electronic dipolcorrection" >
    <i type="logical" name="LDIPOL"> F  </i>
    <i type="logical" name="LMONO"> F  </i>
    <i type="int" name="IDIPOL">     0</i>
    <i name="EPSILON">      1.00000000</i>
    <v name="DIPOL">   -100.00000000   -100.00000000   -100.00000000</v>
    <i name="EFIELD">      0.00000000</i>
   </separator>
  </separator>
  <separator name="grids" >
   <i type="int" name="NGX">    24</i>
   <i type="int" name="NGY">    24</i>
   <i type="int" name="NGZ">    24</i>
   <i type="int" name="NGXF">    48</i>
   <i type="int" name="NGYF">    48</i>
   <i type="int" name="NGZF">    48</i>
   <i type="logical" name="ADDGRID"> F  </i>
  </separator>
  <separator name="ionic" >
   <i type="int" name="NSW">     0</i>
   <i type="int" name="IBRION">    -1</i>
   <i type="int" name="MDALGO">     0</i>
   <i type="int" name="ISIF">     2</i>
   <i name="PSTRESS">      0.00000000</i>
   <i name="EDIFFG">      0.00000100</i>
   <i type="int" name="NFREE">     0</i>
   <i name="POTIM">      0.50000000</i>
   <i name="SMASS">     -3.00000000</i>
   <i name="SCALEE">      1.00000000</i>
  </separator>
  <separator name="ionic md" >
   <i name="TEBEG">      0.00010000</i>
   <i name="TEEND">      0.00010000</i>
   <i type="int" name="NBLOCK">     1</i>
   <i type="int" name="KBLOCK">     1</i>
   <i type="int" name="NPACO">   256</i>
   <i name="APACO">     10.00000000</i>
  </separator>
  <separator name="symmetry" >
   <i type="int" name="ISYM">     2</i>
   <i name="SYMPREC">      0.00001000</i>
  </separator>
  <separator name="dos" >
   <i type="int" name="LORBIT">     0</i>
   <v name="RWIGS">     -1.00000000</v>
   <i type="int" name="NEDOS">   301</i>
   <i name="EMIN">     10.00000000</i>
   <i name="EMAX">    -10.00000000</i>
   <i name="EFERMI">      0.00000000</i>
  </separator>
  <separator name="writing" >
   <i type="int" name="NWRITE">     2</i>
   <i type="logical" name="LWAVE"> F  </i>
   <i type="logical" name="LDOWNSAMPLE"> F  </i>
   <i type="logical" name="LCHARG"> F  </i>
   <i type="logical" name="LPARD"> F  </i>
   <i type="logical" name="LVTOT"> F  </i>
   <i type="logical" name="LVHAR"> F  </i>
   <i type="logical" name="LELF"> F  </i>
   <i type="logical" name="LOPTICS"> F  </i>
   <v name="STM">      0.00000000      0.00000000      0.00000000      0.00000000      0.00000000      0.00000000      0.00000000</v>
  </separator>
  <separator name="performance" >
   <i type="int" name="NPAR">     1</i>
   <i type="int" name="NSIM">     4</i>
   <i type="int" name="NBLK">    -1</i>
   <i type="logical" name="LPLANE"> T  </i>
   <i type="logical" name="LSCALAPACK"> T  </i>
   <i type="logical" name="LSCAAWARE"> F  </i>
   <i type="logical" name="LSCALU"> F  </i>
   <i type="logical" name="LASYNC"> F  </i>
   <i type="logical" name="LORBITALREAL"> F  </i>
  </separator>
  <separator name="miscellaneous" >
   <i type="int" name="IDIOT">     3</i>
   <i type="int" name="PHON_NSTRUCT">    -1</i>
   <i type="logical" name="LMUSIC"> F  </i>
   <v name="POMASS">     92.00000000</v>
   <v name="DARWINR">      0.00000000</v>
   <v name="DARWINV">      1.00000000</v>
   <i type="logical" name="LCORR"> T  </i>
  </separator>
  <i type="logical" name="GGA_COMPAT"> T  </i>
  <i type="logical" name="LBERRY"> F  </i>
  <i type="int" name="ICORELEVEL">     0</i>
  <i type="logical" name="LDAU"> F  </i>
  <i type="int" name="I_CONSTRAINED_M">     0</i>
  <separator name="electronic exchange-correlation" >
   <i type="string" name="GGA">--</i>
   <i type="int" name="VOSKOWN">     0</i>
   <i type="logical" name="LHFCALC"> F  </i>
   <i type="string" name="PRECFOCK"></i>
   <i type="logical" name="LSYMGRAD"> F  </i>
   <i type="logical" name="LHFONE"> F  </i>
   <i type="logical" name="LRHFCALC"> F  </i>
   <i type="logical" name="LTHOMAS"> F  </i>
   <i type="logical" name="LMODELHF"> F  </i>
   <i type="logical" name="LFOCKACE"> F  </i>
   <i name="ENCUT4O">     -1.00000000</i>
   <i type="int" name="EXXOEP">     0</i>
   <i type="int" name="FOURORBIT">     0</i>
   <i name="AEXX">      0.00000000</i>
   <i name="HFALPHA">      0.00000000</i>
   <i name="MCALPHA">      0.00000000</i>
   <i name="ALDAX">      1.00000000</i>
   <i name="AGGAX">      1.00000000</i>
   <i name="ALDAC">      1.00000000</i>
   <i name="AGGAC">      1.00000000</i>
   <i type="int" name="NKREDX">     1</i>
   <i type="int" name="NKREDY">     1</i>
   <i type="int" name="NKREDZ">     1</i>
   <i type="logical" name="SHIFTRED"> F  </i>
   <i type="logical" name="ODDONLY"> F  </i>
   <i type="logical" name="EVENONLY"> F  </i>
   <i type="int" name="LMAXFOCK">     0</i>
   <i type="int" name="NMAXFOCKAE">     0</i>
   <i type="logical" name="LFOCKAEDFT"> F  </i>
   <i name="HFSCREEN">      0.00000000</i>
   <i name="HFSCREENC">      0.00000000</i>
   <i type="int" name="NBANDSGWLOW">     0</i>
  </separator>
  <separator name="vdW DFT" >
   <i type="logical" name="LUSE_VDW"> F  </i>
   <i type="int" name="IVDW_NL">     1</i>
   <i type="logical" name="LSPIN_VDW"> F  </i>
   <i name="Zab_VDW">     -0.84910000</i>
   <i name="PARAM1">      0.12340000</i>
   <i name="PARAM2">      1.00000000</i>
   <i name="PARAM3">      0.00000000</i>
  </separator>
  <separator name="model GW" >
   <i type="int" name="MODEL_GW">     0</i>
   <i name="MODEL_EPS0">     10.95483997</i>
   <i name="MODEL_ALPHA">      1.00000000</i>
  </separator>
  <separator name="linear response parameters" >
   <i type="logical" name="LEPSILON"> F  </i>
   <i type="logical" name="LRPA"> F  </i>
   <i type="logical" name="LNABLA"> F  </i>
   <i type="logical" name="LVEL"> F  </i>
   <i name="CSHIFT">      0.10000000</i>
   <i name="OMEGAMAX">     -1.00000000</i>
   <i name="DEG_THRESHOLD">      0.00200000</i>
   <i name="RTIME">     -0.10000000</i>
   <i name="WPLASMAI">      0.00000000</i>
   <v name="DFIELD">      0.00000000      0.00000000      0.00000000</v>
   <v name="WPLASMA">      0.00000000      0.00000000      0.00000000      0.00000000      0.00000000      0.00000000      0.00000000      0.00000000      0.00000000</v>
  </separator>
  <separator name="orbital magnetization" >
   <i type="logical" name="NUCIND"> F  </i>
   <v name="MAGPOS">      0.00000000      0.00000000      0.00000000</v>
   <i type="logical" name="LNICSALL"> T  </i>
   <i type="logical" name="ORBITALMAG"> F  </i>
   <i type="logical" name="LMAGBLOCH"> F  </i>
   <i type="logical" name="LCHIMAG"> F  </i>
   <i type="logical" name="LGAUGE"> T  </i>
   <i type="int" name="MAGATOM">     0</i>
   <v name="MAGDIPOL">      0.00000000      0.00000000      0.00000000</v>
   <v name="AVECCONST">      0.00000000      0.00000000      0.00000000</v>
  </separator>
  <separator name="response functions" >
   <i type="logical" name="LALL_IN_ONE"> F  </i>
   <i type="int" name="IALL_IN_ONE">    -1</i>
   <i type="int" name="NBANDS_WAVE">    -1</i>
   <i type="logical" name="LFINITE_TEMPERATURE"> F  </i>
   <i type="logical" name="LADDER"> F  </i>
   <i type="logical" name="LRPAFORCE"> F  </i>
   <i type="logical" name="LFXC"> F  </i>
   <i type="logical" name="LHARTREE"> T  </i>
   <i type="int" name="IBSE">     0</i>
   <v type="int" name="KPOINT">    -1     0     0     0</v>
   <i type="logical" name="LTCTC"> F  </i>
   <i type="logical" name="LTCTE"> F  </i>
   <i type="logical" name="LTETE"> F  </i>
   <i type="logical" name="LTRIPLET"> F  </i>
   <i type="logical" name="LFXCEPS"> F  </i>
   <i type="logical" name="LFXHEG"> F  </i>
   <i type="int" name="NATURALO">     2</i>
   <i type="logical" name="LHOLEGF"> F  </i>
   <i type="logical" name="L2ORDER"> F  </i>
   <i type="logical" name="LDMP1"> F  </i>
   <i type="logical" name="LMP2LT"> F  </i>
   <i type="logical" name="LSMP2LT"> F  </i>
   <i type="logical" name="LGWLF"> F  </i>
   <i name="ENCUTGW">     -1.60000002</i>
   <i name="ENCUTGWSOFT">     -1.60000002</i>
   <i name="ENCUTLF">     -1.00000000</i>
   <i type="logical" name="LESF_SPLINES"> F  </i>
   <i type="int" name="LMAXMP2">    -1</i>
   <i name="SCISSOR">      0.00000000</i>
   <i type="int" name="NOMEGA">     0</i>
   <i type="int" name="NOMEGAR">     0</i>
   <i type="int" name="NBANDSGW">    -1</i>
   <i type="int" name="NBANDSO">    -1</i>
   <i type="int" name="NBANDSV">    -1</i>
   <i type="int" name="NELMGW">     1</i>
   <i type="int" name="NELMHF">     1</i>
   <i type="int" name="DIM">     3</i>
   <i type="int" name="IESPILON">     4</i>
   <i type="int" name="ANTIRES">     0</i>
   <i name="OMEGAMAX">    -30.00000000</i>
   <i name="OMEGAMIN">    -30.00000000</i>
   <i name="OMEGATL">   -200.00000000</i>
   <i type="int" name="OMEGAGRID">     0</i>
   <i name="CSHIFT">     -0.10000000</i>
   <i type="logical" name="LSELFENERGY"> F  </i>
   <i type="logical" name="LSPECTRAL"> F  </i>
   <i type="logical" name="LSPECTRALGW"> F  </i>
   <i type="logical" name="LSINGLES"> F  </i>
   <i type="logical" name="LFERMIGW"> F  </i>
   <i type="logical" name="ODDONLYGW"> F  </i>
   <i type="logical" name="EVENONLYGW"> F  </i>
   <i type="int" name="NKREDLFX">     1</i>
   <i type="int" name="NKREDLFY">     1</i>
   <i type="int" name="NKREDLFZ">     1</i>
   <i type="int" name="MAXMEM">  2800</i>
   <i type="int" name="TELESCOPE">     0</i>
   <i type="int" name="NTAUPAR">    -1</i>
   <i type="int" name="NOMEGAPAR">    -1</i>
   <i name="DAMP_NEWTON">      0.80000001</i>
   <i name="LAMBDA">      1.00000000</i>
  </separator>
  <separator name="External order field" >
   <i name="OFIELD_KAPPA">      0.00000000</i>
   <v name="OFIELD_K">      0.00000000      0.00000000      0.00000000</v>
   <i name="OFIELD_Q6_NEAR">      0.00000000</i>
   <i name="OFIELD_Q6_FAR">      0.00000000</i>
   <i name="OFIELD_A">      0.00000000</i>
  </separator>
  <separator name="optional k-points parameters" >
   <i type="int" name="KPOINTS_OPT_MODE">     1</i>
   <i type="logical" name="LKPOINTS_OPT"> F  </i>
  </separator>
 </parameters>
 <atominfo>
  <atoms>       1 </atoms>
  <types>       1 </types>
  <array name="atoms" >
   <dimension dim="1">ion</dimension>
   <field type="string">element</field>
   <field type="int">atomtype</field>
   <set>
    <rc><c>Nb</c><c>   1</c></rc>
   </set>
  </array>
  <array name="atomtypes" >
   <dimension dim="1">type</dimension>
   <field type="int">atomspertype</field>
   <field type="string">element</field>
   <field>mass</field>
   <field>valence</field>
   <field type="string">pseudopotential</field>
   <set>
    <rc><c>   1</c><c>Nb</c><c>     92.00000000</c><c>     11.00000000</c><c>  PAW_PBE Nb_pv 08Apr2002               </c></rc>
   </set>
  </array>
 </atominfo>
 <structure name="initialpos" >
  <crystal>
   <varray name="basis" >
    <v>       2.70883657       0.00000000      -0.95771729 </v>
    <v>      -1.35441778       2.34592025      -0.95771729 </v>
    <v>       0.00000000       0.00000001       2.87315290 </v>
   </varray>
   <i name="volume">     18.25806662 </i>
   <varray name="rec_basis" >
    <v>       0.36916217       0.21313590      -0.00000000 </v>
    <v>      -0.00000000       0.42627195      -0.00000000 </v>
    <v>       0.12305401       0.21313587       0.34804970 </v>
   </varray>
  </crystal>
  <varray name="positions" >
   <v>       0.00000000       0.00000000       0.00000000 </v>
  </varray>
 </structure>
 <calculation>
  <scstep>
   <time name="dav">    0.96    0.96</time>
   <time name="total">    0.99    0.99</time>
   <energy>
    <i name="alphaZ">    123.97495790 </i>
    <i name="ewald">   -955.63732147 </i>
    <i name="hartreedc">   -139.26165564 </i>
    <i name="XCdc">     26.29593049 </i>
    <i name="pawpsdc">    835.68788449 </i>
    <i name="pawaedc">   -819.73330985 </i>
    <i name="eentropy">     -0.00138513 </i>
    <i name="bandstr">    -54.19085383 </i>
    <i name="atom">   1043.39042284 </i>
    <i name="e_fr_energy">     60.52466980 </i>
    <i name="e_wo_entrp">     60.52605493 </i>
    <i name="e_0_energy">     60.52513151 </i>
   </energy>
  </scstep>
  <scstep>
   <time name="dav">    0.91    0.91</time>
   <time name="total">    0.91    0.91</time>
   <energy>
    <i name="e_fr_energy">     -8.85857640 </i>
    <i name="e_wo_entrp">     -8.86053060 </i>
    <i name="e_0_energy">     -8.85922780 </i>
   </energy>
  </scstep>
  <scstep>
   <time name="dav">    1.00    1.00</time>
   <time name="total">    1.00    1.00</time>
   <energy>
    <i name="e_fr_energy">    -10.56256001 </i>
    <i name="e_wo_entrp">    -10.56679577 </i>
    <i name="e_0_energy">    -10.56397193 </i>
   </energy>
  </scstep>
  <scstep>
   <time name="dav">    1.00    1.00</time>
   <time name="total">    1.00    1.00</time>
   <energy>
    <i name="e_fr_energy">    -10.60288277 </i>
    <i name="e_wo_entrp">    -10.60778208 </i>
    <i name="e_0_energy">    -10.60451587 </i>
   </energy>
  </scstep>
  <scstep>
   <time name="dav">    0.93    0.93</time>
   <time name="total">    1.01    1.01</time>
   <energy>
    <i name="e_fr_energy">    -10.60319155 </i>
    <i name="e_wo_entrp">    -10.60808600 </i>
    <i name="e_0_energy">    -10.60482304 </i>
   </energy>
  </scstep>
  <scstep>
   <time name="dav">    1.10    1.10</time>
   <time name="total">    1.19    1.18</time>
   <energy>
    <i name="e_fr_energy">    -10.18568848 </i>
    <i name="e_wo_entrp">    -10.18734645 </i>
    <i name="e_0_energy">    -10.18624114 </i>
   </energy>
  </scstep>
  <scstep>
   <time name="dav">    1.10    1.10</time>
   <time name="total">    1.19    1.18</time>
   <energy>
    <i name="e_fr_energy">    -10.08645887 </i>
    <i name="e_wo_entrp">    -10.08538342 </i>
    <i name="e_0_energy">    -10.08610039 </i>
   </energy>
  </scstep>
  <scstep>
   <time name="dav">    0.94    0.94</time>
   <time name="total">    1.03    1.02</time>
   <energy>
    <i name="e_fr_energy">    -10.08415540 </i>
    <i name="e_wo_entrp">    -10.08301391 </i>
    <i name="e_0_energy">    -10.08377491 </i>
   </energy>
  </scstep>
  <scstep>
   <time name="dav">    1.06    1.06</time>
   <time name="total">    1.16    1.15</time>
   <energy>
    <i name="e_fr_energy">    -10.08418391 </i>
    <i name="e_wo_entrp">    -10.08297807 </i>
    <i name="e_0_energy">    -10.08378197 </i>
   </energy>
  </scstep>
  <scstep>
   <time name="dav">    0.92    0.92</time>
   <time name="total">    1.02    1.01</time>
   <energy>
    <i name="e_fr_energy">    -10.08417078 </i>
    <i name="e_wo_entrp">    -10.08298132 </i>
    <i name="e_0_energy">    -10.08377429 </i>
   </energy>
  </scstep>
  <scstep>
   <time name="dav">    0.64    0.63</time>
   <time name="total">    0.65    0.65</time>
   <energy>
    <i name="alphaZ">    123.97495790 </i>
    <i name="ewald">   -955.63732147 </i>
    <i name="hartreedc">   -122.64116542 </i>
    <i name="XCdc">     25.46576919 </i>
    <i name="pawpsdc">   1433.82798782 </i>
    <i name="pawaedc">  -1421.41384217 </i>
    <i name="eentropy">     -0.00119054 </i>
    <i name="bandstr">   -137.04978902 </i>
    <i name="atom">   1043.39042284 </i>
    <i name="e_fr_energy">    -10.08417088 </i>
    <i name="e_wo_entrp">    -10.08298033 </i>
    <i name="e_0_energy">    -10.08377403 </i>
   </energy>
  </scstep>
  <structure>
   <crystal>
    <varray name="basis" >
     <v>       2.70883657       0.00000000      -0.95771729 </v>
     <v>      -1.35441778       2.34592025      -0.95771729 </v>
     <v>       0.00000000       0.00000001       2.87315290 </v>
    </varray>
    <i name="volume">     18.25806662 </i>
    <varray name="rec_basis" >
     <v>       0.36916217       0.21313590      -0.00000000 </v>
     <v>      -0.00000000       0.42627195      -0.00000000 </v>
     <v>       0.12305401       0.21313587       0.34804970 </v>
    </varray>
   </crystal>
   <varray name="positions" >
    <v>       0.00000000       0.00000000       0.00000000 </v>
   </varray>
  </structure>
  <varray name="forces" >
   <v>       0.00000000       0.00000000       0.00000000 </v>
  </varray>
  <varray name="stress" >
   <v>      13.44748207       0.00000291       0.00000170 </v>
   <v>       0.00000291      13.44747027       0.00000300 </v>
   <v>       0.00000170       0.00000300      13.44746183 </v>
  </varray>
  <energy>
   <i name="e_fr_energy">    -10.08417088 </i>
   <i name="e_wo_entrp">    -10.08298033 </i>
   <i name="e_0_energy">    -10.08377403 </i>
  </energy>
  <time name="totalsc">   12.96   12.72</time>
  <eigenvalues>
   <array>
    <dimension dim="1">band</dimension>
    <dimension dim="2">kpoint</dimension>
    <dimension dim="3">spin</dimension>
    <field>eigene</field>
    <field>occ</field>
    <set>
     <set comment="spin 1">
      <set comment="kpoint 1">
       <r>  -24.8831    1.0000 </r>
       <r>  -24.8831    1.0000 </r>
       <r>  -24.8831    1.0000 </r>
       <r>   -1.0400    1.0000 </r>
       <r>    5.2191   -0.0102 </r>
       <r>    5.2191   -0.0102 </r>
       <r>    5.2191   -0.0102 </r>
       <r>    8.0766   -0.0000 </r>
       <r>    8.0766   -0.0000 </r>
      </set>
      <set comment="kpoint 2">
       <r>  -24.9945    1.0000 </r>
       <r>  -24.9168    1.0000 </r>
       <r>  -24.8839    1.0000 </r>
       <r>   -0.7075    1.0000 </r>
       <r>    5.0222   -0.0171 </r>
       <r>    5.1696   -0.0198 </r>
       <r>    5.5454   -0.0000 </r>
       <r>    7.8075   -0.0000 </r>
       <r>    8.0858   -0.0000 </r>
      </set>
      <set comment="kpoint 3">
       <r>  -25.2852    1.0000 </r>
       <r>  -25.0061    1.0000 </r>
       <r>  -24.8863    1.0000 </r>
       <r>    0.1607    1.0000 </r>
       <r>    4.5373    1.0282 </r>
       <r>    4.9307    0.1420 </r>
       <r>    6.4879   -0.0000 </r>
       <r>    7.5064   -0.0000 </r>
       <r>    8.1436   -0.0000 </r>
      </set>
      <set comment="kpoint 4">
       <r>  -25.6495    1.0000 </r>
       <r>  -25.1209    1.0000 </r>
       <r>  -24.8895    1.0000 </r>
       <r>    1.0741    1.0000 </r>
       <r>    3.9766    1.0000 </r>
       <r>    4.8228    0.5516 </r>
       <r>    7.6565   -0.0000 </r>
       <r>    7.9271   -0.0000 </r>
       <r>    8.2982   -0.0000 </r>
      </set>
      <set comment="kpoint 5">
       <r>  -25.9697    1.0000 </r>
       <r>  -25.2243    1.0000 </r>
       <r>  -24.8926    1.0000 </r>
       <r>    1.3340    1.0000 </r>
       <r>    3.5174    1.0000 </r>
       <r>    5.6552   -0.0000 </r>
       <r>    8.0001   -0.0000 </r>
       <r>    8.5362   -0.0000 </r>
       <r>    9.5979   -0.0000 </r>
      </set>
      <set comment="kpoint 6">
       <r>  -26.1541    1.0000 </r>
       <r>  -25.2848    1.0000 </r>
       <r>  -24.8944    1.0000 </r>
       <r>    1.2183    1.0000 </r>
       <r>    3.2647    1.0000 </r>
       <r>    6.8646   -0.0000 </r>
       <r>    8.1282   -0.0000 </r>
       <r>    8.7355   -0.0000 </r>
       <r>   10.9013    0.0000 </r>
      </set>
      <set comment="kpoint 7">
       <r>  -25.1943    1.0000 </r>
       <r>  -24.9546    1.0000 </r>
       <r>  -24.9105    1.0000 </r>
       <r>   -0.0971    1.0000 </r>
       <r>    4.7722    0.7519 </r>
       <r>    4.8787    0.3198 </r>
       <r>    6.2400   -0.0000 </r>
       <r>    7.4458   -0.0000 </r>
       <r>    8.1992   -0.0000 </r>
      </set>
      <set comment="kpoint 8">
       <r>  -25.5051    1.0000 </r>
       <r>  -25.0628    1.0000 </r>
       <r>  -24.9237    1.0000 </r>
       <r>    0.8757    1.0000 </r>
       <r>    4.2590    1.0002 </r>
       <r>    4.5493    1.0307 </r>
       <r>    7.3000   -0.0000 </r>
       <r>    7.5265   -0.0000 </r>
       <r>    8.4057   -0.0000 </r>
      </set>
      <set comment="kpoint 9">
       <r>  -25.8247    1.0000 </r>
       <r>  -25.1915    1.0000 </r>
       <r>  -24.9297    1.0000 </r>
       <r>    1.5362    1.0000 </r>
       <r>    3.7507    1.0000 </r>
       <r>    4.7709    0.7566 </r>
       <r>    7.6095   -0.0000 </r>
       <r>    8.6111   -0.0000 </r>
       <r>    9.1780   -0.0000 </r>
      </set>
      <set comment="kpoint 10">
       <r>  -26.0592    1.0000 </r>
       <r>  -25.2898    1.0000 </r>
       <r>  -24.9335    1.0000 </r>
       <r>    1.5181    1.0000 </r>
       <r>    3.4141    1.0000 </r>
       <r>    5.7936   -0.0000 </r>
       <r>    7.9728   -0.0000 </r>
       <r>    8.8539   -0.0000 </r>
       <r>   10.8022    0.0000 </r>
      </set>
      <set comment="kpoint 11">
       <r>  -26.1448    1.0000 </r>
       <r>  -25.3262    1.0000 </r>
       <r>  -24.9349    1.0000 </r>
       <r>    1.4264    1.0000 </r>
       <r>    3.2968    1.0000 </r>
       <r>    6.4292   -0.0000 </r>
       <r>    8.0087   -0.0000 </r>
       <r>    9.0777   -0.0000 </r>
       <r>   11.5692    0.0000 </r>
      </set>
      <set comment="kpoint 12">
       <r>  -25.7460    1.0000 </r>
       <r>  -25.1757    1.0000 </r>
       <r>  -24.9739    1.0000 </r>
       <r>    1.7703    1.0000 </r>
       <r>    3.8924    1.0000 </r>
       <r>    4.2168    1.0001 </r>
       <r>    7.3040   -0.0000 </r>
       <r>    8.6809   -0.0000 </r>
       <r>    9.1752   -0.0000 </r>
      </set>
      <set comment="kpoint 13">
       <r>  -25.9352    1.0000 </r>
       <r>  -25.3285    1.0000 </r>
       <r>  -24.9962    1.0000 </r>
       <r>    2.1532    1.0000 </r>
       <r>    3.5673    1.0000 </r>
       <r>    4.6014    1.0349 </r>
       <r>    7.6388   -0.0000 </r>
       <r>    8.8497   -0.0000 </r>
       <r>   11.0514    0.0000 </r>
      </set>
      <set comment="kpoint 14">
       <r>  -26.0357    1.0000 </r>
       <r>  -25.4328    1.0000 </r>
       <r>  -25.0047    1.0000 </r>
       <r>    2.0519    1.0000 </r>
       <r>    3.4481    1.0000 </r>
       <r>    5.2568   -0.0055 </r>
       <r>    7.9316   -0.0000 </r>
       <r>    9.0529   -0.0000 </r>
       <r>   12.6125    0.0000 </r>
      </set>
      <set comment="kpoint 15">
       <r>  -25.9427    1.0000 </r>
       <r>  -25.5257    1.0000 </r>
       <r>  -25.0324    1.0000 </r>
       <r>    2.5645    1.0000 </r>
       <r>    3.5275    1.0000 </r>
       <r>    4.5355    1.0278 </r>
       <r>    7.9656   -0.0000 </r>
       <r>    8.8601   -0.0000 </r>
       <r>   13.1426    0.0000 </r>
      </set>
      <set comment="kpoint 16">
       <r>  -25.9009    1.0000 </r>
       <r>  -25.6475    1.0000 </r>
       <r>  -25.0424    1.0000 </r>
       <r>    2.6207    1.0000 </r>
       <r>    3.6649    1.0000 </r>
       <r>    4.4592    1.0116 </r>
       <r>    8.2465   -0.0000 </r>
       <r>    8.8293   -0.0000 </r>
       <r>   14.6108    0.0000 </r>
      </set>
      <set comment="kpoint 17">
       <r>  -25.4592    1.0000 </r>
       <r>  -24.9643    1.0000 </r>
       <r>  -24.9643    1.0000 </r>
       <r>    0.7036    1.0000 </r>
       <r>    4.3104    1.0007 </r>
       <r>    4.3104    1.0007 </r>
       <r>    7.5241   -0.0000 </r>
       <r>    7.9020   -0.0000 </r>
       <r>    7.9020   -0.0000 </r>
      </set>
      <set comment="kpoint 18">
       <r>  -25.7305    1.0000 </r>
       <r>  -25.1020    1.0000 </r>
       <r>  -24.9772    1.0000 </r>
       <r>    1.6878    1.0000 </r>
       <r>    3.7873    1.0000 </r>
       <r>    4.0397    1.0000 </r>
       <r>    7.8992   -0.0000 </r>
       <r>    8.2946   -0.0000 </r>
       <r>    9.1941   -0.0000 </r>
      </set>
      <set comment="kpoint 19">
       <r>  -25.9455    1.0000 </r>
       <r>  -25.2548    1.0000 </r>
       <r>  -24.9891    1.0000 </r>
       <r>    2.0039    1.0000 </r>
       <r>    3.4130    1.0000 </r>
       <r>    4.7472    0.8349 </r>
       <r>    8.1246   -0.0000 </r>
       <r>    8.5948   -0.0000 </r>
       <r>   10.9816    0.0000 </r>
      </set>
      <set comment="kpoint 20">
       <r>  -26.0625    1.0000 </r>
       <r>  -25.3528    1.0000 </r>
       <r>  -24.9962    1.0000 </r>
       <r>    1.8628    1.0000 </r>
       <r>    3.2208    1.0000 </r>
       <r>    5.8579   -0.0000 </r>
       <r>    8.2906   -0.0000 </r>
       <r>    8.7775   -0.0000 </r>
       <r>   12.3054    0.0000 </r>
      </set>
      <set comment="kpoint 21">
       <r>  -25.0336    1.0000 </r>
       <r>  -24.9510    1.0000 </r>
       <r>  -24.9510    1.0000 </r>
       <r>   -0.3853    1.0000 </r>
       <r>    5.1795   -0.0176 </r>
       <r>    5.1795   -0.0176 </r>
       <r>    5.5297   -0.0000 </r>
       <r>    7.1856   -0.0000 </r>
       <r>    8.4032   -0.0000 </r>
      </set>
      <set comment="kpoint 22">
       <r>  -25.8863    1.0000 </r>
       <r>  -25.2137    1.0000 </r>
       <r>  -25.0568    1.0000 </r>
       <r>    2.5422    1.0000 </r>
       <r>    3.5420    1.0000 </r>
       <r>    3.7917    1.0000 </r>
       <r>    8.1180   -0.0000 </r>
       <r>    8.5867   -0.0000 </r>
       <r>   11.1165    0.0000 </r>
      </set>
      <set comment="kpoint 23">
       <r>  -25.9478    1.0000 </r>
       <r>  -25.3853    1.0000 </r>
       <r>  -25.0890    1.0000 </r>
       <r>    2.5888    1.0000 </r>
       <r>    3.3682    1.0000 </r>
       <r>    4.6108    1.0336 </r>
       <r>    8.3461   -0.0000 </r>
       <r>    8.7882   -0.0000 </r>
       <r>   12.9109    0.0000 </r>
      </set>
      <set comment="kpoint 24">
       <r>  -25.9522    1.0000 </r>
       <r>  -25.4706    1.0000 </r>
       <r>  -25.0981    1.0000 </r>
       <r>    2.4974    1.0000 </r>
       <r>    3.3110    1.0000 </r>
       <r>    5.1607   -0.0218 </r>
       <r>    8.4631   -0.0000 </r>
       <r>    8.8519   -0.0000 </r>
       <r>   13.8243    0.0000 </r>
      </set>
      <set comment="kpoint 25">
       <r>  -25.2905    1.0000 </r>
       <r>  -25.0416    1.0000 </r>
       <r>  -24.9711    1.0000 </r>
       <r>    0.4571    1.0000 </r>
       <r>    4.8190    0.5676 </r>
       <r>    5.0090   -0.0058 </r>
       <r>    6.3770   -0.0000 </r>
       <r>    6.6172   -0.0000 </r>
       <r>    8.6593   -0.0000 </r>
      </set>
      <set comment="kpoint 26">
       <r>  -25.8347    1.0000 </r>
       <r>  -25.5889    1.0000 </r>
       <r>  -25.1403    1.0000 </r>
       <r>    2.7870    1.0000 </r>
       <r>    3.7682    1.0000 </r>
       <r>    4.4099    1.0052 </r>
       <r>    8.5813   -0.0000 </r>
       <r>    8.8075   -0.0000 </r>
       <r>   14.6827    0.0000 </r>
      </set>
      <set comment="kpoint 27">
       <r>  -25.6384    1.0000 </r>
       <r>  -25.1581    1.0000 </r>
       <r>  -24.9712    1.0000 </r>
       <r>    1.3608    1.0000 </r>
       <r>    4.2910    1.0004 </r>
       <r>    4.6539    1.0123 </r>
       <r>    6.8656   -0.0000 </r>
       <r>    7.8182   -0.0000 </r>
       <r>    8.8643   -0.0000 </r>
      </set>
      <set comment="kpoint 28">
       <r>  -25.5265    1.0000 </r>
       <r>  -25.1466    1.0000 </r>
       <r>  -25.0299    1.0000 </r>
       <r>    1.3450    1.0000 </r>
       <r>    4.4857    1.0166 </r>
       <r>    4.7914    0.6797 </r>
       <r>    6.3071   -0.0000 </r>
       <r>    7.3825   -0.0000 </r>
       <r>    8.9889   -0.0000 </r>
      </set>
      <set comment="kpoint 29">
       <r>  -25.9461    1.0000 </r>
       <r>  -25.2629    1.0000 </r>
       <r>  -24.9698    1.0000 </r>
       <r>    1.6224    1.0000 </r>
       <r>    3.8511    1.0000 </r>
       <r>    5.0132   -0.0098 </r>
       <r>    7.4497   -0.0000 </r>
       <r>    9.1784   -0.0000 </r>
       <r>    9.5059   -0.0000 </r>
      </set>
      <set comment="kpoint 30">
       <r>  -25.8015    1.0000 </r>
       <r>  -25.2802    1.0000 </r>
       <r>  -25.0427    1.0000 </r>
       <r>    2.0158    1.0000 </r>
       <r>    3.9480    1.0000 </r>
       <r>    4.6443    1.0196 </r>
       <r>    6.7685   -0.0000 </r>
       <r>    8.7187   -0.0000 </r>
       <r>    9.5206   -0.0000 </r>
      </set>
      <set comment="kpoint 31">
       <r>  -26.1237    1.0000 </r>
       <r>  -25.3243    1.0000 </r>
       <r>  -24.9689    1.0000 </r>
       <r>    1.4869    1.0000 </r>
       <r>    3.6076    1.0000 </r>
       <r>    5.7132   -0.0000 </r>
       <r>    7.5534   -0.0000 </r>
       <r>    9.8998   -0.0000 </r>
       <r>   10.8329    0.0000 </r>
      </set>
      <set comment="kpoint 32">
       <r>  -26.0092    1.0000 </r>
       <r>  -25.3846    1.0000 </r>
       <r>  -25.0432    1.0000 </r>
       <r>    2.0006    1.0000 </r>
       <r>    3.8817    1.0000 </r>
       <r>    4.7505    0.8246 </r>
       <r>    7.2262   -0.0000 </r>
       <r>    9.4344   -0.0000 </r>
       <r>   11.1239    0.0000 </r>
      </set>
      <set comment="kpoint 33">
       <r>  -25.9195    1.0000 </r>
       <r>  -25.4563    1.0000 </r>
       <r>  -25.0713    1.0000 </r>
       <r>    2.5854    1.0000 </r>
       <r>    3.3890    1.0000 </r>
       <r>    4.6873    0.9726 </r>
       <r>    7.1441   -0.0000 </r>
       <r>    8.9299   -0.0000 </r>
       <r>   11.3990    0.0000 </r>
      </set>
      <set comment="kpoint 34">
       <r>  -26.0857    1.0000 </r>
       <r>  -25.4234    1.0000 </r>
       <r>  -25.0427    1.0000 </r>
       <r>    1.8879    1.0000 </r>
       <r>    3.8649    1.0000 </r>
       <r>    4.9395    0.1178 </r>
       <r>    7.2330   -0.0000 </r>
       <r>    9.9911   -0.0000 </r>
       <r>   12.1077    0.0000 </r>
      </set>
      <set comment="kpoint 35">
       <r>  -25.9656    1.0000 </r>
       <r>  -25.5936    1.0000 </r>
       <r>  -25.0774    1.0000 </r>
       <r>    2.6217    1.0000 </r>
       <r>    3.6048    1.0000 </r>
       <r>    4.2923    1.0004 </r>
       <r>    7.6304   -0.0000 </r>
       <r>    9.2154   -0.0000 </r>
       <r>   13.4477    0.0000 </r>
      </set>
      <set comment="kpoint 36">
       <r>  -25.8135    1.0000 </r>
       <r>  -25.8135    1.0000 </r>
       <r>  -25.0844    1.0000 </r>
       <r>    3.2721    1.0000 </r>
       <r>    3.5460    1.0000 </r>
       <r>    3.5460    1.0000 </r>
       <r>    8.5573   -0.0000 </r>
       <r>    8.5573   -0.0000 </r>
       <r>   15.3863    0.0000 </r>
      </set>
      <set comment="kpoint 37">
       <r>  -25.9078    1.0000 </r>
       <r>  -25.2486    1.0000 </r>
       <r>  -25.2486    1.0000 </r>
       <r>    3.3834    1.0000 </r>
       <r>    3.3834    1.0000 </r>
       <r>    3.6449    1.0000 </r>
       <r>    8.6271   -0.0000 </r>
       <r>    8.6271   -0.0000 </r>
       <r>   13.0753    0.0000 </r>
      </set>
      <set comment="kpoint 38">
       <r>  -25.8313    1.0000 </r>
       <r>  -25.4551    1.0000 </r>
       <r>  -25.2694    1.0000 </r>
       <r>    3.2503    1.0000 </r>
       <r>    3.3361    1.0000 </r>
       <r>    4.4317    1.0076 </r>
       <r>    8.7211   -0.0000 </r>
       <r>    8.8464   -0.0000 </r>
       <r>   14.5499    0.0000 </r>
      </set>
      <set comment="kpoint 39">
       <r>  -25.3615    1.0000 </r>
       <r>  -25.1357    1.0000 </r>
       <r>  -25.1357    1.0000 </r>
       <r>    1.2178    1.0000 </r>
       <r>    5.2993   -0.0025 </r>
       <r>    5.3337   -0.0012 </r>
       <r>    5.3337   -0.0012 </r>
       <r>    6.4197   -0.0000 </r>
       <r>    9.1000   -0.0000 </r>
      </set>
      <set comment="kpoint 40">
       <r>  -25.6261    1.0000 </r>
       <r>  -25.6261    1.0000 </r>
       <r>  -25.3555    1.0000 </r>
       <r>    3.3121    1.0000 </r>
       <r>    3.9646    1.0000 </r>
       <r>    3.9646    1.0000 </r>
       <r>    8.8604   -0.0000 </r>
       <r>    8.8604   -0.0000 </r>
       <r>   14.5749    0.0000 </r>
      </set>
      <set comment="kpoint 41">
       <r>  -25.6154    1.0000 </r>
       <r>  -25.2565    1.0000 </r>
       <r>  -25.1783    1.0000 </r>
       <r>    2.0395    1.0000 </r>
       <r>    4.1967    1.0000 </r>
       <r>    5.1574   -0.0225 </r>
       <r>    6.0088   -0.0000 </r>
       <r>    7.5940   -0.0000 </r>
       <r>    9.3722   -0.0000 </r>
      </set>
      <set comment="kpoint 42">
       <r>  -25.8831    1.0000 </r>
       <r>  -25.3652    1.0000 </r>
       <r>  -25.1720    1.0000 </r>
       <r>    2.2797    1.0000 </r>
       <r>    3.8572    1.0000 </r>
       <r>    4.8122    0.5958 </r>
       <r>    6.6499   -0.0000 </r>
       <r>    9.2766   -0.0000 </r>
       <r>   10.0218   -0.0000 </r>
      </set>
      <set comment="kpoint 43">
       <r>  -25.7798    1.0000 </r>
       <r>  -25.4028    1.0000 </r>
       <r>  -25.2338    1.0000 </r>
       <r>    2.5955    1.0000 </r>
       <r>    3.3898    1.0000 </r>
       <r>    5.3538   -0.0008 </r>
       <r>    6.4126   -0.0000 </r>
       <r>    8.5609   -0.0000 </r>
       <r>   10.0099   -0.0000 </r>
      </set>
      <set comment="kpoint 44">
       <r>  -26.0415    1.0000 </r>
       <r>  -25.4288    1.0000 </r>
       <r>  -25.1644    1.0000 </r>
       <r>    2.0566    1.0000 </r>
       <r>    4.1310    1.0000 </r>
       <r>    4.6046    1.0346 </r>
       <r>    6.6640   -0.0000 </r>
       <r>   10.6538    0.0000 </r>
       <r>   11.4321    0.0000 </r>
      </set>
      <set comment="kpoint 45">
       <r>  -25.9276    1.0000 </r>
       <r>  -25.5269    1.0000 </r>
       <r>  -25.2341    1.0000 </r>
       <r>    2.5324    1.0000 </r>
       <r>    3.2656    1.0000 </r>
       <r>    5.0087   -0.0056 </r>
       <r>    6.9986   -0.0000 </r>
       <r>    9.4931   -0.0000 </r>
       <r>   11.7783    0.0000 </r>
      </set>
      <set comment="kpoint 46">
       <r>  -25.9848    1.0000 </r>
       <r>  -25.5729    1.0000 </r>
       <r>  -25.2309    1.0000 </r>
       <r>    2.3386    1.0000 </r>
       <r>    3.4693    1.0000 </r>
       <r>    4.7591    0.7971 </r>
       <r>    7.1078   -0.0000 </r>
       <r>   10.1550   -0.0000 </r>
       <r>   13.2702    0.0000 </r>
      </set>
      <set comment="kpoint 47">
       <r>  -25.8907    1.0000 </r>
       <r>  -25.7170    1.0000 </r>
       <r>  -25.2387    1.0000 </r>
       <r>    2.7464    1.0000 </r>
       <r>    2.9454    1.0000 </r>
       <r>    4.5705    1.0342 </r>
       <r>    8.1481   -0.0000 </r>
       <r>    9.2708   -0.0000 </r>
       <r>   14.2088    0.0000 </r>
      </set>
      <set comment="kpoint 48">
       <r>  -25.6417    1.0000 </r>
       <r>  -25.3828    1.0000 </r>
       <r>  -25.3828    1.0000 </r>
       <r>    2.5735    1.0000 </r>
       <r>    3.4249    1.0000 </r>
       <r>    6.1078   -0.0000 </r>
       <r>    6.1078   -0.0000 </r>
       <r>    7.7445   -0.0000 </r>
       <r>    9.6971   -0.0000 </r>
      </set>
      <set comment="kpoint 49">
       <r>  -25.8035    1.0000 </r>
       <r>  -25.4963    1.0000 </r>
       <r>  -25.4238    1.0000 </r>
       <r>    2.5632    1.0000 </r>
       <r>    2.8191    1.0000 </r>
       <r>    6.2564   -0.0000 </r>
       <r>    6.6978   -0.0000 </r>
       <r>    9.0444   -0.0000 </r>
       <r>   10.5775    0.0000 </r>
      </set>
      <set comment="kpoint 50">
       <r>  -25.9321    1.0000 </r>
       <r>  -25.5627    1.0000 </r>
       <r>  -25.4119    1.0000 </r>
       <r>    2.1688    1.0000 </r>
       <r>    2.7976    1.0000 </r>
       <r>    6.1587   -0.0000 </r>
       <r>    6.8467   -0.0000 </r>
       <r>   10.4285    0.0000 </r>
       <r>   12.4923    0.0000 </r>
      </set>
      <set comment="kpoint 51">
       <r>  -25.8540    1.0000 </r>
       <r>  -25.6422    1.0000 </r>
       <r>  -25.4549    1.0000 </r>
       <r>    2.2160    1.0000 </r>
       <r>    2.4347    1.0000 </r>
       <r>    6.3048   -0.0000 </r>
       <r>    7.8103   -0.0000 </r>
       <r>    9.6174   -0.0000 </r>
       <r>   12.2658    0.0000 </r>
      </set>
      <set comment="kpoint 52">
       <r>  -25.8728    1.0000 </r>
       <r>  -25.7116    1.0000 </r>
       <r>  -25.4499    1.0000 </r>
       <r>    2.0588    1.0000 </r>
       <r>    2.3031    1.0000 </r>
       <r>    6.2044   -0.0000 </r>
       <r>    8.3231   -0.0000 </r>
       <r>   10.0082   -0.0000 </r>
       <r>   14.2503    0.0000 </r>
      </set>
      <set comment="kpoint 53">
       <r>  -25.7623    1.0000 </r>
       <r>  -25.6140    1.0000 </r>
       <r>  -25.6140    1.0000 </r>
       <r>    2.0312    1.0000 </r>
       <r>    2.2423    1.0000 </r>
       <r>    7.6825   -0.0000 </r>
       <r>    7.6825   -0.0000 </r>
       <r>    9.1913   -0.0000 </r>
       <r>   11.3109    0.0000 </r>
      </set>
      <set comment="kpoint 54">
       <r>  -25.8297    1.0000 </r>
       <r>  -25.6828    1.0000 </r>
       <r>  -25.6313    1.0000 </r>
       <r>    1.6812    1.0000 </r>
       <r>    1.8570    1.0000 </r>
       <r>    8.0785   -0.0000 </r>
       <r>    8.3020   -0.0000 </r>
       <r>   10.2345    0.0000 </r>
       <r>   13.0431    0.0000 </r>
      </set>
      <set comment="kpoint 55">
       <r>  -25.7857    1.0000 </r>
       <r>  -25.7857    1.0000 </r>
       <r>  -25.6425    1.0000 </r>
       <r>    1.5580    1.0000 </r>
       <r>    1.5580    1.0000 </r>
       <r>    8.2021   -0.0000 </r>
       <r>    9.8516   -0.0000 </r>
       <r>    9.8516   -0.0000 </r>
       <r>   14.7378    0.0000 </r>
      </set>
      <set comment="kpoint 56">
       <r>  -25.7734    1.0000 </r>
       <r>  -25.7529    1.0000 </r>
       <r>  -25.7529    1.0000 </r>
       <r>    1.3019    1.0000 </r>
       <r>    1.3525    1.0000 </r>
       <r>    9.7896   -0.0000 </r>
       <r>    9.7897   -0.0000 </r>
       <r>   10.2085    0.0000 </r>
       <r>   13.6354    0.0000 </r>
      </set>
     </set>
    </set>
   </array>
  </eigenvalues>
  <separator name="orbital magnetization" >
   <v name="MAGDIPOLOUT">      0.00000000      0.00000000      0.00000000</v>
  </separator>
  <dos>
   <i name="efermi">      4.83502632 </i>
   <total>
    <array>
     <dimension dim="1">gridpoints</dimension>
     <dimension dim="2">spin</dimension>
     <field>energy</field>
     <field>total</field>
     <field>integrated</field>
     <set>
      <set comment="spin 1">
       <r>   -28.2311     0.0000     0.0000 </r>
       <r>   -28.0788     0.0000     0.0000 </r>
       <r>   -27.9264     0.0000     0.0000 </r>
       <r>   -27.7741    -0.0000    -0.0000 </r>
       <r>   -27.6218    -0.0000    -0.0000 </r>
       <r>   -27.4695    -0.0000    -0.0000 </r>
       <r>   -27.3172    -0.0000    -0.0000 </r>
       <r>   -27.1649    -0.0000    -0.0000 </r>
       <r>   -27.0126    -0.0000    -0.0000 </r>
       <r>   -26.8602    -0.0000    -0.0000 </r>
       <r>   -26.7079    -0.0002    -0.0000 </r>
       <r>   -26.5556    -0.0059    -0.0009 </r>
       <r>   -26.4033    -0.0583    -0.0098 </r>
       <r>   -26.2510    -0.0567    -0.0184 </r>
       <r>   -26.0987     1.0595     0.1429 </r>
       <r>   -25.9464     3.7122     0.7084 </r>
       <r>   -25.7940     4.6008     1.4091 </r>
       <r>   -25.6417     3.4376     1.9327 </r>
       <r>   -25.4894     3.6739     2.4923 </r>
       <r>   -25.3371     4.7406     3.2144 </r>
       <r>   -25.1848     5.3709     4.0324 </r>
       <r>   -25.0325     6.2849     4.9897 </r>
       <r>   -24.8802     5.4270     5.8163 </r>
       <r>   -24.7278     1.4806     6.0419 </r>
       <r>   -24.5755    -0.1917     6.0127 </r>
       <r>   -24.4232    -0.0781     6.0008 </r>
       <r>   -24.2709    -0.0049     6.0000 </r>
       <r>   -24.1186    -0.0001     6.0000 </r>
       <r>   -23.9663    -0.0000     6.0000 </r>
       <r>   -23.8139    -0.0000     6.0000 </r>
       <r>   -23.6616    -0.0000     6.0000 </r>
       <r>   -23.5093     0.0000     6.0000 </r>
       <r>   -23.3570     0.0000     6.0000 </r>
       <r>   -23.2047     0.0000     6.0000 </r>
       <r>   -23.0524     0.0000     6.0000 </r>
       <r>   -22.9001     0.0000     6.0000 </r>
       <r>   -22.7477     0.0000     6.0000 </r>
       <r>   -22.5954     0.0000     6.0000 </r>
       <r>   -22.4431     0.0000     6.0000 </r>
       <r>   -22.2908     0.0000     6.0000 </r>
       <r>   -22.1385     0.0000     6.0000 </r>
       <r>   -21.9862     0.0000     6.0000 </r>
       <r>   -21.8339     0.0000     6.0000 </r>
       <r>   -21.6815     0.0000     6.0000 </r>
       <r>   -21.5292     0.0000     6.0000 </r>
       <r>   -21.3769     0.0000     6.0000 </r>
       <r>   -21.2246     0.0000     6.0000 </r>
       <r>   -21.0723     0.0000     6.0000 </r>
       <r>   -20.9200     0.0000     6.0000 </r>
       <r>   -20.7677     0.0000     6.0000 </r>
       <r>   -20.6153     0.0000     6.0000 </r>
       <r>   -20.4630     0.0000     6.0000 </r>
       <r>   -20.3107     0.0000     6.0000 </r>
       <r>   -20.1584     0.0000     6.0000 </r>
       <r>   -20.0061     0.0000     6.0000 </r>
       <r>   -19.8538     0.0000     6.0000 </r>
       <r>   -19.7015     0.0000     6.0000 </r>
       <r>   -19.5491     0.0000     6.0000 </r>
       <r>   -19.3968     0.0000     6.0000 </r>
       <r>   -19.2445     0.0000     6.0000 </r>
       <r>   -19.0922     0.0000     6.0000 </r>
       <r>   -18.9399     0.0000     6.0000 </r>
       <r>   -18.7876     0.0000     6.0000 </r>
       <r>   -18.6352     0.0000     6.0000 </r>
       <r>   -18.4829     0.0000     6.0000 </r>
       <r>   -18.3306     0.0000     6.0000 </r>
       <r>   -18.1783     0.0000     6.0000 </r>
       <r>   -18.0260     0.0000     6.0000 </r>
       <r>   -17.8737     0.0000     6.0000 </r>
       <r>   -17.7214     0.0000     6.0000 </r>
       <r>   -17.5690     0.0000     6.0000 </r>
       <r>   -17.4167     0.0000     6.0000 </r>
       <r>   -17.2644     0.0000     6.0000 </r>
       <r>   -17.1121     0.0000     6.0000 </r>
       <r>   -16.9598     0.0000     6.0000 </r>
       <r>   -16.8075     0.0000     6.0000 </r>
       <r>   -16.6552     0.0000     6.0000 </r>
       <r>   -16.5028     0.0000     6.0000 </r>
       <r>   -16.3505     0.0000     6.0000 </r>
       <r>   -16.1982     0.0000     6.0000 </r>
       <r>   -16.0459     0.0000     6.0000 </r>
       <r>   -15.8936     0.0000     6.0000 </r>
       <r>   -15.7413     0.0000     6.0000 </r>
       <r>   -15.5890     0.0000     6.0000 </r>
       <r>   -15.4366     0.0000     6.0000 </r>
       <r>   -15.2843     0.0000     6.0000 </r>
       <r>   -15.1320     0.0000     6.0000 </r>
       <r>   -14.9797     0.0000     6.0000 </r>
       <r>   -14.8274     0.0000     6.0000 </r>
       <r>   -14.6751     0.0000     6.0000 </r>
       <r>   -14.5227     0.0000     6.0000 </r>
       <r>   -14.3704     0.0000     6.0000 </r>
       <r>   -14.2181     0.0000     6.0000 </r>
       <r>   -14.0658     0.0000     6.0000 </r>
       <r>   -13.9135     0.0000     6.0000 </r>
       <r>   -13.7612     0.0000     6.0000 </r>
       <r>   -13.6089     0.0000     6.0000 </r>
       <r>   -13.4565     0.0000     6.0000 </r>
       <r>   -13.3042     0.0000     6.0000 </r>
       <r>   -13.1519     0.0000     6.0000 </r>
       <r>   -12.9996     0.0000     6.0000 </r>
       <r>   -12.8473     0.0000     6.0000 </r>
       <r>   -12.6950     0.0000     6.0000 </r>
       <r>   -12.5427     0.0000     6.0000 </r>
       <r>   -12.3903     0.0000     6.0000 </r>
       <r>   -12.2380     0.0000     6.0000 </r>
       <r>   -12.0857     0.0000     6.0000 </r>
       <r>   -11.9334     0.0000     6.0000 </r>
       <r>   -11.7811     0.0000     6.0000 </r>
       <r>   -11.6288     0.0000     6.0000 </r>
       <r>   -11.4765     0.0000     6.0000 </r>
       <r>   -11.3241     0.0000     6.0000 </r>
       <r>   -11.1718     0.0000     6.0000 </r>
       <r>   -11.0195     0.0000     6.0000 </r>
       <r>   -10.8672     0.0000     6.0000 </r>
       <r>   -10.7149     0.0000     6.0000 </r>
       <r>   -10.5626     0.0000     6.0000 </r>
       <r>   -10.4103     0.0000     6.0000 </r>
       <r>   -10.2579     0.0000     6.0000 </r>
       <r>   -10.1056     0.0000     6.0000 </r>
       <r>    -9.9533     0.0000     6.0000 </r>
       <r>    -9.8010     0.0000     6.0000 </r>
       <r>    -9.6487     0.0000     6.0000 </r>
       <r>    -9.4964     0.0000     6.0000 </r>
       <r>    -9.3440     0.0000     6.0000 </r>
       <r>    -9.1917     0.0000     6.0000 </r>
       <r>    -9.0394     0.0000     6.0000 </r>
       <r>    -8.8871     0.0000     6.0000 </r>
       <r>    -8.7348     0.0000     6.0000 </r>
       <r>    -8.5825     0.0000     6.0000 </r>
       <r>    -8.4302     0.0000     6.0000 </r>
       <r>    -8.2778     0.0000     6.0000 </r>
       <r>    -8.1255     0.0000     6.0000 </r>
       <r>    -7.9732     0.0000     6.0000 </r>
       <r>    -7.8209     0.0000     6.0000 </r>
       <r>    -7.6686     0.0000     6.0000 </r>
       <r>    -7.5163     0.0000     6.0000 </r>
       <r>    -7.3640     0.0000     6.0000 </r>
       <r>    -7.2116     0.0000     6.0000 </r>
       <r>    -7.0593     0.0000     6.0000 </r>
       <r>    -6.9070     0.0000     6.0000 </r>
       <r>    -6.7547     0.0000     6.0000 </r>
       <r>    -6.6024     0.0000     6.0000 </r>
       <r>    -6.4501     0.0000     6.0000 </r>
       <r>    -6.2978     0.0000     6.0000 </r>
       <r>    -6.1454     0.0000     6.0000 </r>
       <r>    -5.9931     0.0000     6.0000 </r>
       <r>    -5.8408     0.0000     6.0000 </r>
       <r>    -5.6885     0.0000     6.0000 </r>
       <r>    -5.5362     0.0000     6.0000 </r>
       <r>    -5.3839     0.0000     6.0000 </r>
       <r>    -5.2316     0.0000     6.0000 </r>
       <r>    -5.0792     0.0000     6.0000 </r>
       <r>    -4.9269     0.0000     6.0000 </r>
       <r>    -4.7746     0.0000     6.0000 </r>
       <r>    -4.6223     0.0000     6.0000 </r>
       <r>    -4.4700     0.0000     6.0000 </r>
       <r>    -4.3177     0.0000     6.0000 </r>
       <r>    -4.1653     0.0000     6.0000 </r>
       <r>    -4.0130     0.0000     6.0000 </r>
       <r>    -3.8607     0.0000     6.0000 </r>
       <r>    -3.7084     0.0000     6.0000 </r>
       <r>    -3.5561     0.0000     6.0000 </r>
       <r>    -3.4038     0.0000     6.0000 </r>
       <r>    -3.2515     0.0000     6.0000 </r>
       <r>    -3.0991     0.0000     6.0000 </r>
       <r>    -2.9468     0.0000     6.0000 </r>
       <r>    -2.7945     0.0000     6.0000 </r>
       <r>    -2.6422    -0.0000     6.0000 </r>
       <r>    -2.4899    -0.0000     6.0000 </r>
       <r>    -2.3376    -0.0000     6.0000 </r>
       <r>    -2.1853    -0.0000     6.0000 </r>
       <r>    -2.0329    -0.0000     6.0000 </r>
       <r>    -1.8806    -0.0000     6.0000 </r>
       <r>    -1.7283    -0.0000     6.0000 </r>
       <r>    -1.5760    -0.0000     6.0000 </r>
       <r>    -1.4237    -0.0001     6.0000 </r>
       <r>    -1.2714    -0.0003     5.9999 </r>
       <r>    -1.1191     0.0015     6.0002 </r>
       <r>    -0.9667     0.0025     6.0006 </r>
       <r>    -0.8144     0.0195     6.0035 </r>
       <r>    -0.6621     0.0662     6.0136 </r>
       <r>    -0.5098     0.0444     6.0204 </r>
       <r>    -0.3575     0.0247     6.0241 </r>
       <r>    -0.2052     0.0540     6.0324 </r>
       <r>    -0.0528     0.1339     6.0528 </r>
       <r>     0.0995     0.1100     6.0695 </r>
       <r>     0.2518     0.0650     6.0794 </r>
       <r>     0.4041     0.0898     6.0931 </r>
       <r>     0.5564     0.1292     6.1128 </r>
       <r>     0.7087     0.0876     6.1261 </r>
       <r>     0.8610     0.2310     6.1613 </r>
       <r>     1.0134     0.2621     6.2012 </r>
       <r>     1.1657     0.1406     6.2226 </r>
       <r>     1.3180     0.4022     6.2839 </r>
       <r>     1.4703     0.9525     6.4289 </r>
       <r>     1.6226     1.1452     6.6034 </r>
       <r>     1.7749     0.7773     6.7218 </r>
       <r>     1.9272     0.9502     6.8665 </r>
       <r>     2.0796     1.7334     7.1305 </r>
       <r>     2.2319     1.4494     7.3513 </r>
       <r>     2.3842     0.8027     7.4736 </r>
       <r>     2.5365     1.3676     7.6819 </r>
       <r>     2.6888     1.8551     7.9644 </r>
       <r>     2.8411     0.9851     8.1145 </r>
       <r>     2.9934     0.2896     8.1586 </r>
       <r>     3.1458     0.1619     8.1832 </r>
       <r>     3.2981     1.2827     8.3786 </r>
       <r>     3.4504     2.4186     8.7470 </r>
       <r>     3.6027     2.0911     9.0655 </r>
       <r>     3.7550     1.5546     9.3023 </r>
       <r>     3.9073     1.6631     9.5556 </r>
       <r>     4.0596     1.1754     9.7346 </r>
       <r>     4.2120     0.8492     9.8640 </r>
       <r>     4.3643     1.1587    10.0405 </r>
       <r>     4.5166     1.4757    10.2652 </r>
       <r>     4.6689     2.3115    10.6173 </r>
       <r>     4.8212     2.3392    10.9736 </r>
       <r>     4.9735     1.5161    11.2045 </r>
       <r>     5.1259     1.0255    11.3607 </r>
       <r>     5.2782     0.8658    11.4926 </r>
       <r>     5.4305     0.5062    11.5697 </r>
       <r>     5.5828     0.1986    11.5999 </r>
       <r>     5.7351     0.3880    11.6590 </r>
       <r>     5.8874     0.5302    11.7398 </r>
       <r>     6.0397     0.3422    11.7919 </r>
       <r>     6.1921     0.5673    11.8783 </r>
       <r>     6.3444     0.9725    12.0265 </r>
       <r>     6.4967     0.7903    12.1468 </r>
       <r>     6.6490     0.6436    12.2449 </r>
       <r>     6.8013     0.8600    12.3758 </r>
       <r>     6.9536     0.7191    12.4854 </r>
       <r>     7.1059     0.6184    12.5796 </r>
       <r>     7.2583     0.9360    12.7221 </r>
       <r>     7.4106     1.0902    12.8882 </r>
       <r>     7.5629     1.4318    13.1063 </r>
       <r>     7.7152     1.5481    13.3421 </r>
       <r>     7.8675     1.1538    13.5178 </r>
       <r>     8.0198     1.4764    13.7427 </r>
       <r>     8.1721     1.5313    13.9759 </r>
       <r>     8.3245     1.5180    14.2071 </r>
       <r>     8.4768     1.3708    14.4159 </r>
       <r>     8.6291     1.5884    14.6579 </r>
       <r>     8.7814     2.3449    15.0150 </r>
       <r>     8.9337     2.3589    15.3743 </r>
       <r>     9.0860     1.5428    15.6093 </r>
       <r>     9.2383     1.4927    15.8367 </r>
       <r>     9.3907     1.2295    16.0239 </r>
       <r>     9.5430     1.1399    16.1976 </r>
       <r>     9.6953     0.7070    16.3052 </r>
       <r>     9.8476     0.3266    16.3550 </r>
       <r>     9.9999     0.6547    16.4547 </r>
       <r>    10.1522     0.6848    16.5590 </r>
       <r>    10.3046     0.3510    16.6125 </r>
       <r>    10.4569     0.2010    16.6431 </r>
       <r>    10.6092     0.2740    16.6848 </r>
       <r>    10.7615     0.4325    16.7507 </r>
       <r>    10.9138     0.5879    16.8403 </r>
       <r>    11.0661     0.7498    16.9545 </r>
       <r>    11.2184     0.6600    17.0550 </r>
       <r>    11.3708     0.3117    17.1025 </r>
       <r>    11.5231     0.3204    17.1513 </r>
       <r>    11.6754     0.2722    17.1927 </r>
       <r>    11.8277     0.2881    17.2366 </r>
       <r>    11.9800     0.1549    17.2602 </r>
       <r>    12.1323     0.1408    17.2816 </r>
       <r>    12.2846     0.3001    17.3274 </r>
       <r>    12.4370     0.3062    17.3740 </r>
       <r>    12.5893     0.3427    17.4262 </r>
       <r>    12.7416     0.2850    17.4696 </r>
       <r>    12.8939     0.2428    17.5066 </r>
       <r>    13.0462     0.4123    17.5694 </r>
       <r>    13.1985     0.3749    17.6265 </r>
       <r>    13.3508     0.2985    17.6719 </r>
       <r>    13.5032     0.3175    17.7203 </r>
       <r>    13.6555     0.1703    17.7462 </r>
       <r>    13.8078     0.1149    17.7637 </r>
       <r>    13.9601     0.1054    17.7798 </r>
       <r>    14.1124     0.0743    17.7911 </r>
       <r>    14.2647     0.2416    17.8279 </r>
       <r>    14.4171     0.1878    17.8565 </r>
       <r>    14.5694     0.2797    17.8991 </r>
       <r>    14.7217     0.4337    17.9652 </r>
       <r>    14.8740     0.1662    17.9905 </r>
       <r>    15.0263    -0.0089    17.9891 </r>
       <r>    15.1786    -0.0092    17.9877 </r>
       <r>    15.3309     0.0233    17.9913 </r>
       <r>    15.4833     0.0463    17.9983 </r>
       <r>    15.6356     0.0137    18.0004 </r>
       <r>    15.7879    -0.0022    18.0001 </r>
       <r>    15.9402    -0.0006    18.0000 </r>
       <r>    16.0925    -0.0000    18.0000 </r>
       <r>    16.2448    -0.0000    18.0000 </r>
       <r>    16.3971    -0.0000    18.0000 </r>
       <r>    16.5495    -0.0000    18.0000 </r>
       <r>    16.7018    -0.0000    18.0000 </r>
       <r>    16.8541     0.0000    18.0000 </r>
       <r>    17.0064     0.0000    18.0000 </r>
       <r>    17.1587     0.0000    18.0000 </r>
       <r>    17.3110     0.0000    18.0000 </r>
       <r>    17.4633     0.0000    18.0000 </r>
      </set>
     </set>
    </array>
   </total>
  </dos>
 </calculation>
 <structure name="finalpos" >
  <crystal>
   <varray name="basis" >
    <v>       2.70883657       0.00000000      -0.95771729 </v>
    <v>      -1.35441778       2.34592025      -0.95771729 </v>
    <v>       0.00000000       0.00000001       2.87315290 </v>
   </varray>
   <i name="volume">     18.25806662 </i>
   <varray name="rec_basis" >
    <v>       0.36916217       0.21313590      -0.00000000 </v>
    <v>      -0.00000000       0.42627195      -0.00000000 </v>
    <v>       0.12305401       0.21313587       0.34804970 </v>
   </varray>
  </crystal>
  <varray name="positions" >
   <v>       0.00000000       0.00000000       0.00000000 </v>
  </varray>
 </structure>
</modeling>
