    1    1    1    1
  0.1604024E+02  0.2751762E-09  0.2751762E-09  0.2751762E-09  0.5000000E-15
   1.0000000000000000E-004
  CAR 
 EOS Calculation scale_0.960             
      5    220      6
 
  0.1262379E-14  0.1262379E-14  0.1262379E-14  0.1457938E-03
      1         -1.551037   1.000000
      2          7.536077   0.000000
      3          7.536080   0.000000
      4          7.536092   0.000000
      5         11.231364   0.000000
      6         11.231368   0.000000
 
  0.5263158E-01  0.1257541E-14  0.1262379E-14  0.1749526E-02
      1         -1.410612   1.000000
      2          7.438878   0.000000
      3          7.509097   0.000000
      4          7.677680   0.000000
      5         11.062809   0.000000
      6         11.229290   0.000000
 
  0.1052632E+00  0.1270663E-14  0.1262379E-14  0.1749526E-02
      1         -1.003787   1.000000
      2          7.170258   0.000000
      3          7.397256   0.000000
      4          8.098523   0.000000
      5         10.706911   0.000000
      6         11.231789   0.000000
 
  0.1578947E+00  0.1251575E-14  0.1262379E-14  0.1749526E-02
      1         -0.376562   1.000000
      2          6.786361   0.771905
      3          7.148971   0.000000
      4          8.786651   0.000000
      5         10.450109   0.000000
      6         11.260365   0.000000
 
  0.2105263E+00  0.1239510E-14  0.1262379E-14  0.1749526E-02
      1          0.382212   1.000000
      2          6.351573   1.000000
      3          6.818367   0.436388
      4          9.721135   0.000000
      5         10.446268   0.000000
      6         11.338914   0.000000
 
  0.2631579E+00  0.1236184E-14  0.1262379E-14  0.1749526E-02
      1          1.122551   1.000000
      2          5.921517   1.000000
      3          6.616750   1.000000
      4         10.652425   0.000000
      5         10.869549   0.000000
      6         11.483656   0.000000
 
  0.3157895E+00  0.1236284E-14  0.1262379E-14  0.1749526E-02
      1          1.651039   1.000000
      2          5.537776   1.000000
      3          6.787080   0.765711
      4         10.948791   0.000000
      5         11.695250   0.000000
      6         12.180919   0.000000
 
  0.3684211E+00  0.1220794E-14  0.1262379E-14  0.1749526E-02
      1          1.875301   1.000000
      2          5.229085   1.000000
      3          7.398631   0.000000
      4         11.204680   0.000000
      5         11.951376   0.000000
      6         13.567100   0.000000
 
  0.4210526E+00  0.1206843E-14  0.1262379E-14  0.1749526E-02
      1          1.900498   1.000000
      2          5.014149   1.000000
      3          8.234627   0.000000
      4         11.301151   0.000000
      5         12.199341   0.000000
      6         14.856281   0.000000
 
  0.4736842E+00  0.1208833E-14  0.1262379E-14  0.1749526E-02
      1          1.874688   1.000000
      2          4.904094   1.000000
      3          8.893296   0.000000
      4         11.234348   0.000000
      5         12.358666   0.000000
      6         15.712026   0.000000
 
  0.5263158E-01  0.5263158E-01  0.1262379E-14  0.3499052E-02
      1         -1.136661   1.000000
      2          7.302269   0.000000
      3          7.376085   0.000000
      4          7.978138   0.000000
      5         10.778328   0.000000
      6         11.253315   0.000000
 
  0.1052632E+00  0.5263158E-01  0.1262379E-14  0.6998105E-02
      1         -0.616736   1.000000
      2          6.981785   0.000001
      3          7.178427   0.000000
      4          8.549898   0.000000
      5         10.430696   0.000000
      6         11.318364   0.000000
 
  0.1578947E+00  0.5263158E-01  0.1262379E-14  0.6998105E-02
      1          0.086563   1.000000
      2          6.565983   1.000000
      3          6.877980   0.032428
      4          9.371617   0.000000
      5         10.274188   0.000000
      6         11.419703   0.000000
 
  0.2105263E+00  0.5263158E-01  0.1262379E-14  0.6998105E-02
      1          0.859728   1.000000
      2          6.131180   1.000000
      3          6.581808   1.000000
      4         10.305986   0.000000
      5         10.485247   0.000000
      6         11.562605   0.000000
 
  0.2631579E+00  0.5263158E-01  0.1262379E-14  0.6998105E-02
      1          1.523751   1.000000
      2          5.726746   1.000000
      3          6.528209   1.000000
      4         10.618809   0.000000
      5         11.678202   0.000000
      6         11.745581   0.000000
 
  0.3157895E+00  0.5263158E-01  0.1262379E-14  0.6998105E-02
      1          1.904637   1.000000
      2          5.385957   1.000000
      3          6.905553   0.004318
      4         10.946721   0.000000
      5         11.951970   0.000000
      6         13.033443   0.000000
 
  0.3684211E+00  0.5263158E-01  0.1262379E-14  0.6998105E-02
      1          2.009957   1.000000
      2          5.129664   1.000000
      3          7.642273   0.000000
      4         11.182044   0.000000
      5         12.176483   0.000000
      6         14.385136   0.000000
 
  0.4210526E+00  0.5263158E-01  0.1262379E-14  0.6998105E-02
      1          1.993607   1.000000
      2          4.971015   1.000000
      3          8.414974   0.000000
      4         11.203769   0.000000
      5         12.398784   0.000000
      6         15.493910   0.000000
 
  0.4736842E+00  0.5263158E-01  0.1262379E-14  0.3499052E-02
      1          1.975473   1.000000
      2          4.917347   1.000000
      3          8.772449   0.000000
      4         11.143309   0.000000
      5         12.501575   0.000000
      6         15.954061   0.000000
 
  0.1052632E+00  0.1052632E+00  0.1262379E-14  0.3499052E-02
      1         -0.013188   1.000000
      2          6.715846   0.996924
      3          6.810655   0.523124
      4          9.291169   0.000000
      5         10.148401   0.000000
      6         11.504202   0.000000
 
  0.1578947E+00  0.1052632E+00  0.1262379E-14  0.6998105E-02
      1          0.732140   1.000000
      2          6.320814   1.000000
      3          6.470098   1.000000
      4         10.057459   0.000000
      5         10.283283   0.000000
      6         11.714171   0.000000
 
  0.2105263E+00  0.1052632E+00  0.1262379E-14  0.6998105E-02
      1          1.484618   1.000000
      2          5.899786   1.000000
      3          6.265318   1.000000
      4         10.210341   0.000000
      5         11.459358   0.000000
      6         11.917975   0.000000
 
  0.2631579E+00  0.1052632E+00  0.1262379E-14  0.6998105E-02
      1          2.045563   1.000000
      2          5.547685   1.000000
      3          6.364993   1.000000
      4         10.516100   0.000000
      5         12.092231   0.000000
      6         12.785029   0.000000
 
  0.3157895E+00  0.1052632E+00  0.1262379E-14  0.6998105E-02
      1          2.288992   1.000000
      2          5.277993   1.000000
      3          6.876409   0.035788
      4         10.857760   0.000000
      5         12.246668   0.000000
      6         14.154376   0.000000
 
  0.3684211E+00  0.1052632E+00  0.1262379E-14  0.6998105E-02
      1          2.314131   1.000000
      2          5.093353   1.000000
      3          7.600716   0.000000
      4         11.043879   0.000000
      5         12.447509   0.000000
      6         15.402724   0.000000
 
  0.4210526E+00  0.1052632E+00  0.1262379E-14  0.6998105E-02
      1          2.284748   1.000000
      2          4.999244   1.000000
      3          8.152138   0.000000
      4         11.017718   0.000000
      5         12.664552   0.000000
      6         16.224564   0.000000
 
  0.1578947E+00  0.1578947E+00  0.1262379E-14  0.3499052E-02
      1          1.480415   1.000000
      2          5.970448   1.000000
      3          6.158325   1.000000
      4         10.040472   0.000000
      5         11.398991   0.000000
      6         11.997272   0.000000
 
  0.2105263E+00  0.1578947E+00  0.1262379E-14  0.6998105E-02
      1          2.182788   1.000000
      2          5.601298   1.000000
      3          6.060857   1.000000
      4         10.208583   0.000000
      5         12.185622   0.000000
      6         12.716358   0.000000
 
  0.2631579E+00  0.1578947E+00  0.1262379E-14  0.6998105E-02
      1          2.634060   1.000000
      2          5.353222   1.000000
      3          6.255070   1.000000
      4         10.517993   0.000000
      5         12.301728   0.000000
      6         14.105019   0.000000
 
  0.3157895E+00  0.1578947E+00  0.1262379E-14  0.6998105E-02
      1          2.772352   1.000000
      2          5.196910   1.000000
      3          6.772572   0.871845
      4         10.828581   0.000000
      5         12.398293   0.000000
      6         15.461635   0.000000
 
  0.3684211E+00  0.1578947E+00  0.1262379E-14  0.6998105E-02
      1          2.758636   1.000000
      2          5.104095   1.000000
      3          7.335816   0.000000
      4         10.942531   0.000000
      5         12.612645   0.000000
      6         16.563351   0.000000
 
  0.4210526E+00  0.1578947E+00  0.1262379E-14  0.3499052E-02
      1          2.738998   1.000000
      2          5.072739   1.000000
      3          7.583061   0.000000
      4         10.927829   0.000000
      5         12.765227   0.000000
      6         17.028043   0.000000
 
  0.2105263E+00  0.2105263E+00  0.1262379E-14  0.3499052E-02
      1          2.811981   1.000000
      2          5.314092   1.000000
      3          6.055604   1.000000
      4         10.375032   0.000000
      5         12.317925   0.000000
      6         14.108601   0.000000
 
  0.2631579E+00  0.2105263E+00  0.1262379E-14  0.6998105E-02
      1          3.186963   1.000000
      2          5.174241   1.000000
      3          6.258109   1.000000
      4         10.672604   0.000000
      5         12.332807   0.000000
      6         15.547155   0.000000
 
  0.3157895E+00  0.2105263E+00  0.1262379E-14  0.6998105E-02
      1          3.285778   1.000000
      2          5.152225   1.000000
      3          6.612529   1.000000
      4         10.948728   0.000000
      5         12.400631   0.000000
      6         16.877780   0.000000
 
  0.3684211E+00  0.2105263E+00  0.1262379E-14  0.6998105E-02
      1          3.277636   1.000000
      2          5.156472   1.000000
      3          6.892991   0.011579
      4         11.038910   0.000000
      5         12.603274   0.000000
      6         17.802838   0.000000
 
  0.2631579E+00  0.2631579E+00  0.1262379E-14  0.3499052E-02
      1          3.565520   1.000000
      2          5.124664   1.000000
      3          6.312915   1.000000
      4         10.974663   0.000000
      5         12.277804   0.000000
      6         17.007263   0.000000
 
  0.3157895E+00  0.2631579E+00  0.1262379E-14  0.6998105E-02
      1          3.714312   1.000000
      2          5.222438   1.000000
      3          6.344607   1.000000
      4         11.276702   0.000000
      5         12.309129   0.000000
      6         17.951662   0.000000
 
  0.3684211E+00  0.2631579E+00  0.1262379E-14  0.3499052E-02
      1          3.740484   1.000000
      2          5.293443   1.000000
      3          6.347046   1.000000
      4         11.378065   0.000000
      5         12.397366   0.000000
      6         17.451101   0.000000
 
  0.3157895E+00  0.3157895E+00  0.1262379E-14  0.3499052E-02
      1          3.935298   1.000000
      2          5.480672   1.000000
      3          5.975933   1.000000
      4         11.704638   0.000000
      5         12.139749   0.000000
      6         17.115544   0.000000
 
  0.5263158E-01  0.5263158E-01  0.5263158E-01  0.1166351E-02
      1         -0.744415   1.000000
      2          7.068049   0.000000
      3          7.068052   0.000000
      4          8.539481   0.000000
      5         10.925988   0.000000
      6         10.925990   0.000000
 
  0.1052632E+00  0.5263158E-01  0.5263158E-01  0.3499052E-02
      1         -0.132914   1.000000
      2          6.658540   0.999994
      3          6.780626   0.817888
      4          9.317223   0.000000
      5         10.660665   0.000000
      6         11.108030   0.000000
 
  0.1578947E+00  0.5263158E-01  0.5263158E-01  0.3499052E-02
      1          0.621123   1.000000
      2          6.222511   1.000000
      3          6.460211   1.000000
      4         10.285483   0.000000
      5         10.629113   0.000000
      6         11.302608   0.000000
 
  0.2105263E+00  0.5263158E-01  0.5263158E-01  0.3499052E-02
      1          1.378328   1.000000
      2          5.809772   1.000000
      3          6.264939   1.000000
      4         10.722284   0.000000
      5         11.515054   0.000000
      6         11.520363   0.000000
 
  0.2631579E+00  0.5263158E-01  0.5263158E-01  0.3499052E-02
      1          1.935713   1.000000
      2          5.451923   1.000000
      3          6.426360   1.000000
      4         10.987313   0.000000
      5         11.753267   0.000000
      6         12.826705   0.000000
 
  0.3157895E+00  0.5263158E-01  0.5263158E-01  0.3499052E-02
      1          2.173964   1.000000
      2          5.169152   1.000000
      3          7.038379   0.000000
      4         11.238303   0.000000
      5         12.007526   0.000000
      6         14.174590   0.000000
 
  0.3684211E+00  0.5263158E-01  0.5263158E-01  0.3499052E-02
      1          2.198664   1.000000
      2          4.974308   1.000000
      3          7.879479   0.000000
      4         11.363082   0.000000
      5         12.239047   0.000000
      6         15.392284   0.000000
 
  0.4210526E+00  0.5263158E-01  0.5263158E-01  0.3499052E-02
      1          2.170450   1.000000
      2          4.875076   1.000000
      3          8.526852   0.000000
      4         11.342437   0.000000
      5         12.383232   0.000000
      6         16.185825   0.000000
 
 -0.5263158E-01  0.5263158E-01  0.5263158E-01  0.8747631E-03
      1         -1.271324   1.000000
      2          7.493814   0.000000
      3          7.493819   0.000000
      4          7.669215   0.000000
      5         10.718081   0.000000
      6         11.403116   0.000000
 
  0.1052632E+00  0.1052632E+00  0.5263158E-01  0.3499052E-02
      1          0.541169   1.000000
      2          6.307591   1.000000
      3          6.348404   1.000000
      4         10.297129   0.000000
      5         10.655737   0.000000
      6         11.249926   0.000000
 
  0.1578947E+00  0.1052632E+00  0.5263158E-01  0.6998105E-02
      1          1.318908   1.000000
      2          5.903146   1.000000
      3          6.033999   1.000000
      4         10.677019   0.000000
      5         11.450940   0.000000
      6         11.539975   0.000000
 
  0.2105263E+00  0.1052632E+00  0.5263158E-01  0.6998105E-02
      1          2.034219   1.000000
      2          5.537331   1.000000
      3          5.953091   1.000000
      4         10.846082   0.000000
      5         11.787928   0.000000
      6         12.772479   0.000000
 
  0.2631579E+00  0.1052632E+00  0.5263158E-01  0.6998105E-02
      1          2.468438   1.000000
      2          5.247684   1.000000
      3          6.296763   1.000000
      4         11.099792   0.000000
      5         12.024795   0.000000
      6         14.132817   0.000000
 
  0.3157895E+00  0.1052632E+00  0.5263158E-01  0.6998105E-02
      1          2.586443   1.000000
      2          5.038044   1.000000
      3          7.034009   0.000000
      4         11.325890   0.000000
      5         12.228796   0.000000
      6         15.418643   0.000000
 
  0.3684211E+00  0.1052632E+00  0.5263158E-01  0.6998105E-02
      1          2.565682   1.000000
      2          4.910887   1.000000
      3          7.805946   0.000000
      4         11.410518   0.000000
      5         12.399751   0.000000
      6         16.422022   0.000000
 
  0.4210526E+00  0.1052632E+00  0.5263158E-01  0.3499052E-02
      1          2.544960   1.000000
      2          4.868253   1.000000
      3          8.149955   0.000000
      4         11.400383   0.000000
      5         12.476999   0.000000
      6         16.833346   0.000000
 
 -0.1052632E+00  0.1052632E+00  0.5263158E-01  0.3499052E-02
      1         -0.867659   1.000000
      2          7.277282   0.000000
      3          7.412640   0.000000
      4          8.043540   0.000000
      5         10.220511   0.000000
      6         11.539961   0.000000
 
  0.1578947E+00  0.1578947E+00  0.5263158E-01  0.3499052E-02
      1          2.089155   1.000000
      2          5.597176   1.000000
      3          5.734543   1.000000
      4         10.754394   0.000000
      5         11.842862   0.000000
      6         12.765246   0.000000
 
  0.2105263E+00  0.1578947E+00  0.5263158E-01  0.6998105E-02
      1          2.740567   1.000000
      2          5.317656   1.000000
      3          5.749763   1.000000
      4         10.936218   0.000000
      5         12.100945   0.000000
      6         14.149555   0.000000
 
  0.2631579E+00  0.1578947E+00  0.5263158E-01  0.6998105E-02
      1          3.054256   1.000000
      2          5.122928   1.000000
      3          6.201349   1.000000
      4         11.188163   0.000000
      5         12.267922   0.000000
      6         15.511194   0.000000
 
  0.3157895E+00  0.1578947E+00  0.5263158E-01  0.6998105E-02
      1          3.092772   1.000000
      2          4.999385   1.000000
      3          6.916273   0.001698
      4         11.394982   0.000000
      5         12.390337   0.000000
      6         16.687881   0.000000
 
  0.3684211E+00  0.1578947E+00  0.5263158E-01  0.6998105E-02
      1          3.062032   1.000000
      2          4.938803   1.000000
      3          7.456745   0.000000
      4         11.455892   0.000000
      5         12.512226   0.000000
      6         17.444707   0.000000
 
 -0.1578947E+00  0.1578947E+00  0.5263158E-01  0.3499052E-02
      1         -0.245006   1.000000
      2          6.904790   0.004600
      3          7.186000   0.000000
      4          8.727720   0.000000
      5          9.872772   0.000000
      6         11.654899   0.000000
 
 -0.1052632E+00  0.1578947E+00  0.5263158E-01  0.3499052E-02
      1         -0.357022   1.000000
      2          7.132517   0.000000
      3          7.233041   0.000000
      4          8.493132   0.000000
      5          9.686794   0.000000
      6         11.762947   0.000000
 
  0.2105263E+00  0.2105263E+00  0.5263158E-01  0.3499052E-02
      1          3.307846   1.000000
      2          5.177863   1.000000
      3          5.795872   1.000000
      4         11.117389   0.000000
      5         12.288284   0.000000
      6         15.558965   0.000000
 
  0.2631579E+00  0.2105263E+00  0.5263158E-01  0.6998105E-02
      1          3.552856   1.000000
      2          5.119188   1.000000
      3          6.185842   1.000000
      4         11.363662   0.000000
      5         12.357685   0.000000
      6         16.881277   0.000000
 
  0.3157895E+00  0.2105263E+00  0.5263158E-01  0.6998105E-02
      1          3.581611   1.000000
      2          5.094713   1.000000
      3          6.686566   0.999820
      4         11.552984   0.000000
      5         12.424134   0.000000
      6         17.859650   0.000000
 
  0.3684211E+00  0.2105263E+00  0.5263158E-01  0.3499052E-02
      1          3.572418   1.000000
      2          5.087398   1.000000
      3          6.910780   0.002769
      4         11.601442   0.000000
      5         12.491610   0.000000
      6         17.524834   0.000000
 
 -0.2105263E+00  0.2105263E+00  0.5263158E-01  0.3499052E-02
      1          0.509510   1.000000
      2          6.477889   1.000000
      3          6.833442   0.278767
      4          9.662410   0.000000
      5          9.837214   0.000000
      6         11.784761   0.000000
 
 -0.1578947E+00  0.2105263E+00  0.5263158E-01  0.6998105E-02
      1          0.334680   1.000000
      2          6.782754   0.801550
      3          6.928559   0.000525
      4          9.280816   0.000000
      5          9.432988   0.000000
      6         11.956379   0.000000
 
  0.2631579E+00  0.2631579E+00  0.5263158E-01  0.3499052E-02
      1          3.819572   1.000000
      2          5.259002   1.000000
      3          6.248921   1.000000
      4         11.620080   0.000000
      5         12.346410   0.000000
      6         17.817663   0.000000
 
  0.3157895E+00  0.2631579E+00  0.5263158E-01  0.6998105E-02
      1          3.896612   1.000000
      2          5.398584   1.000000
      3          6.327981   1.000000
      4         11.829280   0.000000
      5         12.343954   0.000000
      6         16.972687   0.000000
 
 -0.2631579E+00  0.2631579E+00  0.5263158E-01  0.3499052E-02
      1          1.249217   1.000000
      2          6.054082   1.000000
      3          6.570741   1.000000
      4         10.067686   0.000000
      5         10.812620   0.000000
      6         11.933955   0.000000
 
 -0.2105263E+00  0.2631579E+00  0.5263158E-01  0.6998105E-02
      1          1.099401   1.000000
      2          6.349632   1.000000
      3          6.587444   1.000000
      4          9.518283   0.000000
      5         10.333351   0.000000
      6         12.127911   0.000000
 
 -0.1578947E+00  0.2631579E+00  0.5263158E-01  0.3499052E-02
      1          1.052869   1.000000
      2          6.443427   1.000000
      3          6.632125   1.000000
      4          9.271236   0.000000
      5         10.188364   0.000000
      6         12.207360   0.000000
 
  0.3157895E+00  0.3157895E+00  0.5263158E-01  0.1166351E-02
      1          3.990223   1.000000
      2          5.863583   1.000000
      3          5.863591   1.000000
      4         12.137413   0.000000
      5         12.137416   0.000000
      6         16.561049   0.000000
 
 -0.3157895E+00  0.3157895E+00  0.5263158E-01  0.3499052E-02
      1          1.781283   1.000000
      2          5.675178   1.000000
      3          6.652019   0.999997
      4         10.443835   0.000000
      5         12.088963   0.000000
      6         12.127050   0.000000
 
 -0.2631579E+00  0.3157895E+00  0.5263158E-01  0.6998105E-02
      1          1.765690   1.000000
      2          5.951810   1.000000
      3          6.411590   1.000000
      4          9.857358   0.000000
      5         11.568383   0.000000
      6         12.273094   0.000000
 
 -0.2105263E+00  0.3157895E+00  0.5263158E-01  0.6998105E-02
      1          1.788890   1.000000
      2          5.979065   1.000000
      3          6.440962   1.000000
      4          9.421671   0.000000
      5         11.326483   0.000000
      6         12.395220   0.000000
 
 -0.3684211E+00  0.3684211E+00  0.5263158E-01  0.3499052E-02
      1          2.006675   1.000000
      2          5.370011   1.000000
      3          7.153393   0.000000
      4         10.809512   0.000000
      5         12.263575   0.000000
      6         13.517848   0.000000
 
 -0.3157895E+00  0.3684211E+00  0.5263158E-01  0.6998105E-02
      1          2.154365   1.000000
      2          5.632551   1.000000
      3          6.601361   1.000000
      4         10.293197   0.000000
      5         12.355993   0.000000
      6         12.972946   0.000000
 
 -0.2631579E+00  0.3684211E+00  0.5263158E-01  0.6998105E-02
      1          2.359840   1.000000
      2          5.662321   1.000000
      3          6.360967   1.000000
      4          9.790313   0.000000
      5         12.271532   0.000000
      6         12.863014   0.000000
 
 -0.2105263E+00  0.3684211E+00  0.5263158E-01  0.3499052E-02
      1          2.462836   1.000000
      2          5.543607   1.000000
      3          6.406991   1.000000
      4          9.569059   0.000000
      5         12.203682   0.000000
      6         12.882466   0.000000
 
 -0.4210526E+00  0.4210526E+00  0.5263158E-01  0.3499052E-02
      1          2.028793   1.000000
      2          5.157361   1.000000
      3          7.867279   0.000000
      4         10.947269   0.000000
      5         12.531956   0.000000
      6         14.813516   0.000000
 
 -0.3684211E+00  0.4210526E+00  0.5263158E-01  0.6998105E-02
      1          2.258552   1.000000
      2          5.392845   1.000000
      3          7.130515   0.000000
      4         10.590751   0.000000
      5         12.586652   0.000000
      6         14.334947   0.000000
 
 -0.3157895E+00  0.4210526E+00  0.5263158E-01  0.6998105E-02
      1          2.620746   1.000000
      2          5.500354   1.000000
      3          6.544969   1.000000
      4         10.199296   0.000000
      5         12.448955   0.000000
      6         14.186276   0.000000
 
 -0.2631579E+00  0.4210526E+00  0.5263158E-01  0.6998105E-02
      1          2.951480   1.000000
      2          5.284556   1.000000
      3          6.428195   1.000000
      4          9.916427   0.000000
      5         12.300623   0.000000
      6         14.196674   0.000000
 
 -0.4736842E+00  0.4736842E+00  0.5263158E-01  0.3499052E-02
      1          2.000171   1.000000
      2          5.048429   1.000000
      3          8.426365   0.000000
      4         10.855454   0.000000
      5         12.801064   0.000000
      6         15.675727   0.000000
 
 -0.4210526E+00  0.4736842E+00  0.5263158E-01  0.6998105E-02
      1          2.235962   1.000000
      2          5.243230   1.000000
      3          7.714745   0.000000
      4         10.574927   0.000000
      5         12.975522   0.000000
      6         15.467414   0.000000
 
 -0.3684211E+00  0.4736842E+00  0.5263158E-01  0.6998105E-02
      1          2.646639   1.000000
      2          5.396939   1.000000
      3          6.956547   0.000024
      4         10.371208   0.000000
      5         12.773627   0.000000
      6         15.495724   0.000000
 
 -0.3157895E+00  0.4736842E+00  0.5263158E-01  0.6998105E-02
      1          3.139596   1.000000
      2          5.266278   1.000000
      3          6.519569   1.000000
      4         10.273718   0.000000
      5         12.396080   0.000000
      6         15.641377   0.000000
 
 -0.2631579E+00  0.4736842E+00  0.5263158E-01  0.3499052E-02
      1          3.423069   1.000000
      2          5.040017   1.000000
      3          6.450443   1.000000
      4         10.253873   0.000000
      5         12.212956   0.000000
      6         15.710991   0.000000
 
 -0.4736842E+00 -0.4736842E+00  0.5263158E-01  0.3499052E-02
      1          2.214895   1.000000
      2          5.192390   1.000000
      3          7.984741   0.000000
      4         10.487386   0.000000
      5         13.195147   0.000000
      6         15.940564   0.000000
 
 -0.4210526E+00 -0.4736842E+00  0.5263158E-01  0.6998105E-02
      1          2.612345   1.000000
      2          5.338464   1.000000
      3          7.302771   0.000000
      4         10.307634   0.000000
      5         13.189279   0.000000
      6         16.382385   0.000000
 
 -0.3684211E+00 -0.4736842E+00  0.5263158E-01  0.6998105E-02
      1          3.139586   1.000000
      2          5.339957   1.000000
      3          6.656451   0.999995
      4         10.393387   0.000000
      5         12.771448   0.000000
      6         16.887524   0.000000
 
 -0.3157895E+00 -0.4736842E+00  0.5263158E-01  0.6998105E-02
      1          3.648366   1.000000
      2          5.071945   1.000000
      3          6.350764   1.000000
      4         10.635160   0.000000
      5         12.287883   0.000000
      6         17.210129   0.000000
 
 -0.4210526E+00 -0.4210526E+00  0.5263158E-01  0.3499052E-02
      1          3.120355   1.000000
      2          5.372724   1.000000
      3          6.727021   0.992315
      4         10.383277   0.000000
      5         13.035836   0.000000
      6         17.439291   0.000000
 
 -0.3684211E+00 -0.4210526E+00  0.5263158E-01  0.6998105E-02
      1          3.683453   1.000000
      2          5.264484   1.000000
      3          6.190483   1.000000
      4         10.801325   0.000000
      5         12.580015   0.000000
      6         18.170762   0.000000
 
 -0.3157895E+00 -0.4210526E+00  0.5263158E-01  0.3499052E-02
      1          4.020248   1.000000
      2          5.086420   1.000000
      3          5.991153   1.000000
      4         11.168482   0.000000
      5         12.201215   0.000000
      6         17.948659   0.000000
 
 -0.3684211E+00 -0.3684211E+00  0.5263158E-01  0.3499052E-02
      1          4.133967   1.000000
      2          5.277151   1.000000
      3          5.680648   1.000000
      4         11.448027   0.000000
      5         12.172389   0.000000
      6         17.452628   0.000000
 
  0.1052632E+00  0.1052632E+00  0.1052632E+00  0.1166351E-02
      1          1.265005   1.000000
      2          5.921989   1.000000
      3          5.921990   1.000000
      4         11.119762   0.000000
      5         11.119764   0.000000
      6         11.482834   0.000000
 
  0.1578947E+00  0.1052632E+00  0.1052632E+00  0.3499052E-02
      1          2.062293   1.000000
      2          5.558710   1.000000
      3          5.645062   1.000000
      4         11.150711   0.000000
      5         11.515020   0.000000
      6         12.804727   0.000000
 
  0.2105263E+00  0.1052632E+00  0.1052632E+00  0.3499052E-02
      1          2.723384   1.000000
      2          5.267824   1.000000
      3          5.681738   1.000000
      4         11.302950   0.000000
      5         11.845739   0.000000
      6         14.192739   0.000000
 
  0.2631579E+00  0.1052632E+00  0.1052632E+00  0.3499052E-02
      1          3.017333   1.000000
      2          5.051270   1.000000
      3          6.222912   1.000000
      4         11.494392   0.000000
      5         12.119521   0.000000
      6         15.531378   0.000000
 
  0.3157895E+00  0.1052632E+00  0.1052632E+00  0.3499052E-02
      1          3.036806   1.000000
      2          4.908169   1.000000
      3          7.050512   0.000000
      4         11.628677   0.000000
      5         12.328257   0.000000
      6         16.647537   0.000000
 
  0.3684211E+00  0.1052632E+00  0.1052632E+00  0.3499052E-02
      1          2.998457   1.000000
      2          4.837085   1.000000
      3          7.679411   0.000000
      4         11.661767   0.000000
      5         12.445531   0.000000
      6         17.330439   0.000000
 
 -0.1052632E+00  0.1052632E+00  0.1052632E+00  0.8747631E-03
      1         -0.473172   1.000000
      2          7.428720   0.000000
      3          7.428724   0.000000
      4          8.064669   0.000000
      5          9.475408   0.000000
      6         11.873485   0.000000
 
  0.1578947E+00  0.1578947E+00  0.1052632E+00  0.3499052E-02
      1          2.861753   1.000000
      2          5.319237   1.000000
      3          5.367655   1.000000
      4         11.364874   0.000000
      5         11.792055   0.000000
      6         14.226141   0.000000
 
  0.2105263E+00  0.1578947E+00  0.1052632E+00  0.6998105E-02
      1          3.450594   1.000000
      2          5.116213   1.000000
      3          5.507140   1.000000
      4         11.538831   0.000000
      5         12.091658   0.000000
      6         15.634923   0.000000
 
  0.2631579E+00  0.1578947E+00  0.1052632E+00  0.6998105E-02
      1          3.608522   1.000000
      2          4.978134   1.000000
      3          6.167047   1.000000
      4         11.716527   0.000000
      5         12.306308   0.000000
      6         16.882778   0.000000
 
  0.3157895E+00  0.1578947E+00  0.1052632E+00  0.6998105E-02
      1          3.573839   1.000000
      2          4.900166   1.000000
      3          6.916604   0.001648
      4         11.823455   0.000000
      5         12.444007   0.000000
      6         17.738198   0.000000
 
  0.3684211E+00  0.1578947E+00  0.1052632E+00  0.3499052E-02
      1          3.546630   1.000000
      2          4.875010   1.000000
      3          7.246237   0.000000
      4         11.845063   0.000000
      5         12.498542   0.000000
      6         17.595909   0.000000
 
 -0.1578947E+00  0.1578947E+00  0.1052632E+00  0.3499052E-02
      1          0.135443   1.000000
      2          7.216160   0.000000
      3          7.303051   0.000000
      4          8.609013   0.000000
      5          8.917258   0.000000
      6         12.125255   0.000000
 
  0.2105263E+00  0.2105263E+00  0.1052632E+00  0.3499052E-02
      1          3.938650   1.000000
      2          5.118566   1.000000
      3          5.606635   1.000000
      4         11.730730   0.000000
      5         12.303680   0.000000
      6         16.987466   0.000000
 
  0.2631579E+00  0.2105263E+00  0.1052632E+00  0.6998105E-02
      1          4.043241   1.000000
      2          5.113450   1.000000
      3          6.145730   1.000000
      4         11.914562   0.000000
      5         12.415732   0.000000
      6         17.803070   0.000000
 
  0.3157895E+00  0.2105263E+00  0.1052632E+00  0.6998105E-02
      1          4.027136   1.000000
      2          5.099031   1.000000
      3          6.620629   1.000000
      4         12.015805   0.000000
      5         12.480543   0.000000
      6         16.934562   0.000000
 
 -0.2105263E+00  0.2105263E+00  0.1052632E+00  0.3499052E-02
      1          0.875529   1.000000
      2          6.838862   0.229709
      3          6.882325   0.024469
      4          8.863950   0.000000
      5          9.515937   0.000000
      6         12.314996   0.000000
 
 -0.1578947E+00  0.2105263E+00  0.1052632E+00  0.3499052E-02
      1          0.802591   1.000000
      2          7.005399   0.000000
      3          7.144627   0.000000
      4          8.508003   0.000000
      5          9.203095   0.000000
      6         12.389666   0.000000
 
  0.2631579E+00  0.2631579E+00  0.1052632E+00  0.3499052E-02
      1          4.196746   1.000000
      2          5.414388   1.000000
      3          6.159028   1.000000
      4         12.117969   0.000000
      5         12.431425   0.000000
      6         16.700014   0.000000
 
  0.3157895E+00  0.2631579E+00  0.1052632E+00  0.3499052E-02
      1          4.221711   1.000000
      2          5.560117   1.000000
      3          6.176706   1.000000
      4         12.224347   0.000000
      5         12.418389   0.000000
      6         16.249143   0.000000
 
 -0.2631579E+00  0.2631579E+00  0.1052632E+00  0.3499052E-02
      1          1.610205   1.000000
      2          6.433930   1.000000
      3          6.442056   1.000000
      4          9.195003   0.000000
      5         10.660876   0.000000
      6         12.443167   0.000000
 
 -0.2105263E+00  0.2631579E+00  0.1052632E+00  0.6998105E-02
      1          1.545464   1.000000
      2          6.442877   1.000000
      3          6.893215   0.011389
      4          8.644580   0.000000
      5         10.180745   0.000000
      6         12.552365   0.000000
 
 -0.3157895E+00  0.3157895E+00  0.1052632E+00  0.3499052E-02
      1          2.151044   1.000000
      2          6.081027   1.000000
      3          6.282347   1.000000
      4          9.686786   0.000000
      5         11.978874   0.000000
      6         12.531073   0.000000
 
 -0.2631579E+00  0.3157895E+00  0.1052632E+00  0.6998105E-02
      1          2.209857   1.000000
      2          5.978645   1.000000
      3          6.601849   1.000000
      4          9.087804   0.000000
      5         11.380085   0.000000
      6         12.640980   0.000000
 
 -0.2105263E+00  0.3157895E+00  0.1052632E+00  0.3499052E-02
      1          2.244047   1.000000
      2          5.867714   1.000000
      3          6.870526   0.050981
      4          8.774835   0.000000
      5         11.182269   0.000000
      6         12.684137   0.000000
 
 -0.3684211E+00  0.3684211E+00  0.1052632E+00  0.3499052E-02
      1          2.378828   1.000000
      2          5.787948   1.000000
      3          6.537345   1.000000
      4         10.096792   0.000000
      5         12.719609   0.000000
      6         13.379796   0.000000
 
 -0.3157895E+00  0.3684211E+00  0.1052632E+00  0.6998105E-02
      1          2.612346   1.000000
      2          5.813205   1.000000
      3          6.391741   1.000000
      4          9.588846   0.000000
      5         12.428260   0.000000
      6         13.049673   0.000000
 
 -0.2631579E+00  0.3684211E+00  0.1052632E+00  0.6998105E-02
      1          2.823343   1.000000
      2          5.437735   1.000000
      3          6.756520   0.943991
      4          9.183031   0.000000
      5         12.052444   0.000000
      6         13.097253   0.000000
 
 -0.4210526E+00  0.4210526E+00  0.1052632E+00  0.3499052E-02
      1          2.389490   1.000000
      2          5.582876   1.000000
      3          7.029764   0.000000
      4         10.160642   0.000000
      5         13.193628   0.000000
      6         14.692152   0.000000
 
 -0.3684211E+00  0.4210526E+00  0.1052632E+00  0.6998105E-02
      1          2.711350   1.000000
      2          5.807757   1.000000
      3          6.447149   1.000000
      4          9.832111   0.000000
      5         12.938432   0.000000
      6         14.312848   0.000000
 
 -0.3157895E+00  0.4210526E+00  0.1052632E+00  0.6998105E-02
      1          3.117436   1.000000
      2          5.338457   1.000000
      3          6.602953   1.000000
      4          9.619336   0.000000
      5         12.374536   0.000000
      6         14.326556   0.000000
 
 -0.2631579E+00  0.4210526E+00  0.1052632E+00  0.3499052E-02
      1          3.352587   1.000000
      2          5.018244   1.000000
      3          6.755570   0.946959
      4          9.544050   0.000000
      5         12.114174   0.000000
      6         14.358982   0.000000
 
 -0.4736842E+00  0.4736842E+00  0.1052632E+00  0.3499052E-02
      1          2.350784   1.000000
      2          5.477604   1.000000
      3          7.439464   0.000000
      4         10.002639   0.000000
      5         13.699364   0.000000
      6         15.572103   0.000000
 
 -0.4210526E+00  0.4736842E+00  0.1052632E+00  0.6998105E-02
      1          2.671555   1.000000
      2          5.748797   1.000000
      3          6.752722   0.955114
      4          9.733885   0.000000
      5         13.617954   0.000000
      6         15.477740   0.000000
 
 -0.3684211E+00  0.4736842E+00  0.1052632E+00  0.6998105E-02
      1          3.139049   1.000000
      2          5.533082   1.000000
      3          6.457706   1.000000
      4          9.762068   0.000000
      5         12.922813   0.000000
      6         15.704824   0.000000
 
 -0.3157895E+00  0.4736842E+00  0.1052632E+00  0.6998105E-02
      1          3.640847   1.000000
      2          4.929240   1.000000
      3          6.540832   1.000000
      4          9.989420   0.000000
      5         12.253679   0.000000
      6         15.876910   0.000000
 
 -0.4736842E+00 -0.4736842E+00  0.1052632E+00  0.3499052E-02
      1          2.642699   1.000000
      2          5.717497   1.000000
      3          6.922036   0.000993
      4          9.626767   0.000000
      5         13.991053   0.000000
      6         15.977921   0.000000
 
 -0.4210526E+00 -0.4736842E+00  0.1052632E+00  0.6998105E-02
      1          3.088894   1.000000
      2          5.755220   1.000000
      3          6.351661   1.000000
      4          9.699547   0.000000
      5         13.552635   0.000000
      6         16.709242   0.000000
 
 -0.3684211E+00 -0.4736842E+00  0.1052632E+00  0.6998105E-02
      1          3.653380   1.000000
      2          5.231191   1.000000
      3          6.170945   1.000000
      4         10.192147   0.000000
      5         12.765593   0.000000
      6         17.289991   0.000000
 
 -0.3157895E+00 -0.4736842E+00  0.1052632E+00  0.3499052E-02
      1          4.109983   1.000000
      2          4.724298   1.000000
      3          6.154532   1.000000
      4         10.603437   0.000000
      5         12.249776   0.000000
      6         17.488198   0.000000
 
 -0.4210526E+00 -0.4210526E+00  0.1052632E+00  0.3499052E-02
      1          3.624511   1.000000
      2          5.608907   1.000000
      3          5.795930   1.000000
      4         10.219669   0.000000
      5         13.114536   0.000000
      6         18.012372   0.000000
 
 -0.3684211E+00 -0.4210526E+00  0.1052632E+00  0.6998105E-02
      1          4.243716   1.000000
      2          5.026083   1.000000
      3          5.601454   1.000000
      4         11.005335   0.000000
      5         12.440595   0.000000
      6         18.052872   0.000000
 
 -0.3684211E+00 -0.3684211E+00  0.1052632E+00  0.1166351E-02
      1          4.772625   1.000000
      2          5.006552   1.000000
      3          5.006558   1.000000
      4         11.846782   0.000000
      5         11.846784   0.000000
      6         17.627555   0.000000
 
  0.1578947E+00  0.1578947E+00  0.1578947E+00  0.1166351E-02
      1          3.709310   1.000000
      2          5.125264   1.000000
      3          5.125265   1.000000
      4         11.844361   0.000000
      5         11.844363   0.000000
      6         15.699183   0.000000
 
  0.2105263E+00  0.1578947E+00  0.1578947E+00  0.3499052E-02
      1          4.229777   1.000000
      2          5.000181   1.000000
      3          5.356566   1.000000
      4         11.957281   0.000000
      5         12.189281   0.000000
      6         17.060423   0.000000
 
  0.2631579E+00  0.1578947E+00  0.1578947E+00  0.3499052E-02
      1          4.221423   1.000000
      2          4.928142   1.000000
      3          6.134536   1.000000
      4         12.064124   0.000000
      5         12.410154   0.000000
      6         17.834228   0.000000
 
  0.3157895E+00  0.1578947E+00  0.1578947E+00  0.3499052E-02
      1          4.155395   1.000000
      2          4.895912   1.000000
      3          6.733061   0.987861
      4         12.113723   0.000000
      5         12.517969   0.000000
      6         16.932785   0.000000
 
 -0.1578947E+00  0.1578947E+00  0.1578947E+00  0.8747631E-03
      1          0.720536   1.000000
      2          7.474578   0.000000
      3          7.474581   0.000000
      4          7.967621   0.000000
      5          8.709829   0.000000
      6         12.462005   0.000000
 
  0.2105263E+00  0.2105263E+00  0.1578947E+00  0.3499052E-02
      1          4.634579   1.000000
      2          5.111677   1.000000
      3          5.490894   1.000000
      4         12.174629   0.000000
      5         12.367737   0.000000
      6         17.813257   0.000000
 
  0.2631579E+00  0.2105263E+00  0.1578947E+00  0.6998105E-02
      1          4.612345   1.000000
      2          5.136139   1.000000
      3          6.079364   1.000000
      4         12.286779   0.000000
      5         12.499765   0.000000
      6         16.583320   0.000000
 
  0.3157895E+00  0.2105263E+00  0.1578947E+00  0.3499052E-02
      1          4.588847   1.000000
      2          5.133341   1.000000
      3          6.355876   1.000000
      4         12.320860   0.000000
      5         12.546693   0.000000
      6         16.114626   0.000000
 
 -0.2105263E+00  0.2105263E+00  0.1578947E+00  0.3499052E-02
      1          1.431235   1.000000
      2          6.909441   0.003109
      3          7.352231   0.000000
      4          7.970534   0.000000
      5          9.391876   0.000000
      6         12.652824   0.000000
 
  0.2631579E+00  0.2631579E+00  0.1578947E+00  0.3499052E-02
      1          4.668901   1.000000
      2          5.552288   1.000000
      3          5.965181   1.000000
      4         12.433916   0.000000
      5         12.520158   0.000000
      6         15.813648   0.000000
 
 -0.2631579E+00  0.2631579E+00  0.1578947E+00  0.3499052E-02
      1          2.144990   1.000000
      2          6.180130   1.000000
      3          7.048940   0.000000
      4          8.469198   0.000000
      5         10.473365   0.000000
      6         12.706835   0.000000
 
 -0.2105263E+00  0.2631579E+00  0.1578947E+00  0.3499052E-02
      1          2.128438   1.000000
      2          6.247441   1.000000
      3          7.417066   0.000000
      4          8.089613   0.000000
      5         10.107621   0.000000
      6         12.736425   0.000000
 
 -0.3157895E+00  0.3157895E+00  0.1578947E+00  0.3499052E-02
      1          2.689201   1.000000
      2          5.757506   1.000000
      3          6.734065   0.986936
      4          9.034528   0.000000
      5         11.774842   0.000000
      6         12.735147   0.000000
 
 -0.2631579E+00  0.3157895E+00  0.1578947E+00  0.6998105E-02
      1          2.765995   1.000000
      2          5.607097   1.000000
      3          7.250618   0.000000
      4          8.566329   0.000000
      5         11.188433   0.000000
      6         12.742791   0.000000
 
 -0.3684211E+00  0.3684211E+00  0.1578947E+00  0.3499052E-02
      1          2.914418   1.000000
      2          5.757442   1.000000
      3          6.467793   1.000000
      4          9.389030   0.000000
      5         13.039748   0.000000
      6         13.179813   0.000000
 
 -0.3157895E+00  0.3684211E+00  0.1578947E+00  0.6998105E-02
      1          3.174940   1.000000
      2          5.273886   1.000000
      3          7.004114   0.000000
      4          9.070020   0.000000
      5         12.220730   0.000000
      6         13.155439   0.000000
 
 -0.2631579E+00  0.3684211E+00  0.1578947E+00  0.3499052E-02
      1          3.314099   1.000000
      2          5.051710   1.000000
      3          7.275473   0.000000
      4          8.932919   0.000000
      5         11.849650   0.000000
      6         13.180675   0.000000
 
 -0.4210526E+00  0.4210526E+00  0.1578947E+00  0.3499052E-02
      1          2.895661   1.000000
      2          6.055696   1.000000
      3          6.278273   1.000000
      4          9.340498   0.000000
      5         13.808034   0.000000
      6         14.511146   0.000000
 
 -0.3684211E+00  0.4210526E+00  0.1578947E+00  0.6998105E-02
      1          3.251768   1.000000
      2          5.355890   1.000000
      3          6.763323   0.918755
      4          9.243867   0.000000
      5         13.022441   0.000000
      6         14.360396   0.000000
 
 -0.3157895E+00  0.4210526E+00  0.1578947E+00  0.6998105E-02
      1          3.644886   1.000000
      2          4.774328   1.000000
      3          7.040347   0.000000
      4          9.420939   0.000000
      5         12.189574   0.000000
      6         14.433581   0.000000
 
 -0.4736842E+00  0.4736842E+00  0.1578947E+00  0.3499052E-02
      1          2.833544   1.000000
      2          6.180251   1.000000
      3          6.342534   1.000000
      4          9.141150   0.000000
      5         14.604851   0.000000
      6         15.415607   0.000000
 
 -0.4210526E+00  0.4736842E+00  0.1578947E+00  0.6998105E-02
      1          3.169254   1.000000
      2          5.654049   1.000000
      3          6.549569   1.000000
      4          9.122260   0.000000
      5         13.974706   0.000000
      6         15.604532   0.000000
 
 -0.3684211E+00  0.4736842E+00  0.1578947E+00  0.6998105E-02
      1          3.630753   1.000000
      2          4.947518   1.000000
      3          6.679081   0.999921
      4          9.636425   0.000000
      5         12.882564   0.000000
      6         15.910298   0.000000
 
 -0.3157895E+00  0.4736842E+00  0.1578947E+00  0.3499052E-02
      1          4.067212   1.000000
      2          4.422878   1.000000
      3          6.692319   0.999669
      4         10.083485   0.000000
      5         12.254217   0.000000
      6         16.011609   0.000000
 
 -0.4736842E+00 -0.4736842E+00  0.1578947E+00  0.3499052E-02
      1          3.123018   1.000000
      2          5.837396   1.000000
      3          6.429585   1.000000
      4          9.030489   0.000000
      5         14.484309   0.000000
      6         16.196104   0.000000
 
 -0.4210526E+00 -0.4736842E+00  0.1578947E+00  0.6998105E-02
      1          3.533054   1.000000
      2          5.265329   1.000000
      3          6.337486   1.000000
      4          9.644310   0.000000
      5         13.650249   0.000000
      6         17.118068   0.000000
 
 -0.3684211E+00 -0.4736842E+00  0.1578947E+00  0.6998105E-02
      1          4.050992   1.000000
      2          4.647735   1.000000
      3          6.203080   1.000000
      4         10.545638   0.000000
      5         12.682063   0.000000
      6         17.563149   0.000000
 
 -0.4210526E+00 -0.4210526E+00  0.1578947E+00  0.3499052E-02
      1          3.976535   1.000000
      2          4.902175   1.000000
      3          5.913267   1.000000
      4         10.662212   0.000000
      5         13.019957   0.000000
      6         18.392920   0.000000
 
 -0.3684211E+00 -0.4210526E+00  0.1578947E+00  0.3499052E-02
      1          4.388548   1.000000
      2          4.544829   1.000000
      3          5.717336   1.000000
      4         11.483076   0.000000
      5         12.368783   0.000000
      6         18.056828   0.000000
 
  0.2105263E+00  0.2105263E+00  0.2105263E+00  0.1166351E-02
      1          5.129116   1.000000
      2          5.129117   1.000000
      3          5.589743   1.000000
      4         12.445976   0.000000
      5         12.445978   0.000000
      6         16.468702   0.000000
 
  0.2631579E+00  0.2105263E+00  0.2105263E+00  0.3499052E-02
      1          5.145517   1.000000
      2          5.191486   1.000000
      3          5.927892   1.000000
      4         12.495149   0.000000
      5         12.569520   0.000000
      6         15.669087   0.000000
 
 -0.2105263E+00  0.2105263E+00  0.2105263E+00  0.8747631E-03
      1          2.092881   1.000000
      2          6.475064   1.000000
      3          7.756271   0.000000
      4          7.756273   0.000000
      5          9.580612   0.000000
      6         12.761593   0.000000
 
  0.2631579E+00  0.2631579E+00  0.2105263E+00  0.1166351E-02
      1          5.170050   1.000000
      2          5.633859   1.000000
      3          5.633864   1.000000
      4         12.578952   0.000000
      5         12.578954   0.000000
      6         15.333602   0.000000
 
 -0.2631579E+00  0.2631579E+00  0.2105263E+00  0.3499052E-02
      1          2.746501   1.000000
      2          5.734472   1.000000
      3          7.774001   0.000000
      4          8.161134   0.000000
      5         10.373964   0.000000
      6         12.692783   0.000000
 
 -0.3157895E+00  0.3157895E+00  0.2105263E+00  0.3499052E-02
      1          3.253534   1.000000
      2          5.159705   1.000000
      3          7.587873   0.000000
      4          8.684365   0.000000
      5         11.578862   0.000000
      6         12.683504   0.000000
 
 -0.2631579E+00  0.3157895E+00  0.2105263E+00  0.3499052E-02
      1          3.290091   1.000000
      2          5.107420   1.000000
      3          7.943477   0.000000
      4          8.509239   0.000000
      5         11.146137   0.000000
      6         12.623713   0.000000
 
 -0.3684211E+00  0.3684211E+00  0.2105263E+00  0.3499052E-02
      1          3.446855   1.000000
      2          4.961913   1.000000
      3          7.381335   0.000000
      4          8.950610   0.000000
      5         12.957645   0.000000
      6         13.148346   0.000000
 
 -0.3157895E+00  0.3684211E+00  0.2105263E+00  0.6998105E-02
      1          3.647040   1.000000
      2          4.637862   1.000000
      3          7.802482   0.000000
      4          9.000105   0.000000
      5         12.028043   0.000000
      6         13.114425   0.000000
 
 -0.4210526E+00  0.4210526E+00  0.2105263E+00  0.3499052E-02
      1          3.357009   1.000000
      2          5.110554   1.000000
      3          7.222236   0.000000
      4          8.845927   0.000000
      5         14.205582   0.000000
      6         14.297406   0.000000
 
 -0.3684211E+00  0.4210526E+00  0.2105263E+00  0.6998105E-02
      1          3.646737   1.000000
      2          4.573977   1.000000
      3          7.561092   0.000000
      4          9.208353   0.000000
      5         12.927694   0.000000
      6         14.382725   0.000000
 
 -0.3157895E+00  0.4210526E+00  0.2105263E+00  0.3499052E-02
      1          3.934947   1.000000
      2          4.199255   1.000000
      3          7.589448   0.000000
      4          9.668983   0.000000
      5         12.219011   0.000000
      6         14.423069   0.000000
 
 -0.4736842E+00  0.4736842E+00  0.2105263E+00  0.3499052E-02
      1          3.249098   1.000000
      2          5.289034   1.000000
      3          7.137497   0.000000
      4          8.662833   0.000000
      5         15.226731   0.000000
      6         15.322044   0.000000
 
 -0.4210526E+00  0.4736842E+00  0.2105263E+00  0.6998105E-02
      1          3.476796   1.000000
      2          4.743058   1.000000
      3          7.341681   0.000000
      4          9.169488   0.000000
      5         14.018026   0.000000
      6         15.780754   0.000000
 
 -0.3684211E+00  0.4736842E+00  0.2105263E+00  0.6998105E-02
      1          3.805141   1.000000
      2          4.245818   1.000000
      3          7.240493   0.000000
      4         10.148939   0.000000
      5         12.817429   0.000000
      6         15.994952   0.000000
 
 -0.4736842E+00 -0.4736842E+00  0.2105263E+00  0.3499052E-02
      1          3.403274   1.000000
      2          4.830068   1.000000
      3          7.248954   0.000000
      4          9.127832   0.000000
      5         14.589781   0.000000
      6         16.571904   0.000000
 
 -0.4210526E+00 -0.4736842E+00  0.2105263E+00  0.6998105E-02
      1          3.639271   1.000000
      2          4.396261   1.000000
      3          6.996049   0.000000
      4         10.292710   0.000000
      5         13.579611   0.000000
      6         17.429311   0.000000
 
 -0.3684211E+00 -0.4736842E+00  0.2105263E+00  0.3499052E-02
      1          3.869651   1.000000
      2          4.098877   1.000000
      3          6.883382   0.022802
      4         11.141415   0.000000
      5         12.790514   0.000000
      6         17.633868   0.000000
 
 -0.4210526E+00 -0.4210526E+00  0.2105263E+00  0.3499052E-02
      1          3.842232   1.000000
      2          4.108842   1.000000
      3          6.737592   0.983187
      4         11.563931   0.000000
      5         12.833583   0.000000
      6         18.278546   0.000000
 
 -0.2631579E+00  0.2631579E+00  0.2631579E+00  0.8747631E-03
      1          3.281216   1.000000
      2          5.135116   1.000000
      3          8.355403   0.000000
      4          8.355404   0.000000
      5         10.635903   0.000000
      6         12.518606   0.000000
 
 -0.3157895E+00  0.3157895E+00  0.2631579E+00  0.3499052E-02
      1          3.647955   1.000000
      2          4.559569   1.000000
      3          8.534134   0.000000
      4          8.801588   0.000000
      5         11.506753   0.000000
      6         12.506463   0.000000
 
 -0.3684211E+00  0.3684211E+00  0.2631579E+00  0.3499052E-02
      1          3.726508   1.000000
      2          4.242482   1.000000
      3          8.477695   0.000000
      4          9.055843   0.000000
      5         12.767317   0.000000
      6         13.106382   0.000000
 
 -0.3157895E+00  0.3684211E+00  0.2631579E+00  0.3499052E-02
      1          3.817643   1.000000
      2          4.062459   1.000000
      3          8.657755   0.000000
      4          9.403082   0.000000
      5         12.109783   0.000000
      6         13.002281   0.000000
 
 -0.4210526E+00  0.4210526E+00  0.2631579E+00  0.3499052E-02
      1          3.505051   1.000000
      2          4.281046   1.000000
      3          8.382348   0.000000
      4          8.999772   0.000000
      5         14.082013   0.000000
      6         14.377668   0.000000
 
 -0.3684211E+00  0.4210526E+00  0.2631579E+00  0.6998105E-02
      1          3.635786   1.000000
      2          3.921032   1.000000
      3          8.497553   0.000000
      4          9.862421   0.000000
      5         12.862975   0.000000
      6         14.328903   0.000000
 
 -0.4736842E+00  0.4736842E+00  0.2631579E+00  0.3499052E-02
      1          3.345919   1.000000
      2          4.347396   1.000000
      3          8.322724   0.000000
      4          8.886551   0.000000
      5         15.028181   0.000000
      6         15.779082   0.000000
 
 -0.4210526E+00  0.4736842E+00  0.2631579E+00  0.6998105E-02
      1          3.390925   1.000000
      2          3.944649   1.000000
      3          8.333196   0.000000
      4          9.989044   0.000000
      5         13.928812   0.000000
      6         15.869831   0.000000
 
 -0.3684211E+00  0.4736842E+00  0.2631579E+00  0.3499052E-02
      1          3.479418   1.000000
      2          3.732285   1.000000
      3          8.255214   0.000000
      4         10.867562   0.000000
      5         13.033639   0.000000
      6         15.956757   0.000000
 
 -0.4736842E+00 -0.4736842E+00  0.2631579E+00  0.3499052E-02
      1          3.306326   1.000000
      2          3.952112   1.000000
      3          8.267874   0.000000
      4         10.002424   0.000000
      5         14.504515   0.000000
      6         16.891247   0.000000
 
 -0.4210526E+00 -0.4736842E+00  0.2631579E+00  0.6998105E-02
      1          3.368152   1.000000
      2          3.654302   1.000000
      3          8.103055   0.000000
      4         11.377408   0.000000
      5         13.471339   0.000000
      6         17.560654   0.000000
 
 -0.4210526E+00 -0.4210526E+00  0.2631579E+00  0.1166351E-02
      1          3.456122   1.000000
      2          3.456125   1.000000
      3          8.017497   0.000000
      4         12.626701   0.000000
      5         12.626706   0.000000
      6         18.324508   0.000000
 
 -0.3157895E+00  0.3157895E+00  0.3157895E+00  0.8747631E-03
      1          3.773072   1.000000
      2          4.016504   1.000000
      3          9.311590   0.000000
      4          9.311592   0.000000
      5         11.807286   0.000000
      6         12.492151   0.000000
 
 -0.3684211E+00  0.3684211E+00  0.3157895E+00  0.3499052E-02
      1          3.572235   1.000000
      2          3.723006   1.000000
      3          9.649296   0.000000
      4          9.751964   0.000000
      5         12.702493   0.000000
      6         13.086518   0.000000
 
 -0.4210526E+00  0.4210526E+00  0.3157895E+00  0.3499052E-02
      1          3.264286   1.000000
      2          3.623140   1.000000
      3          9.707742   0.000000
      4          9.856857   0.000000
      5         13.900798   0.000000
      6         14.424358   0.000000
 
 -0.3684211E+00  0.4210526E+00  0.3157895E+00  0.3499052E-02
      1          3.237619   1.000000
      2          3.496296   1.000000
      3          9.714700   0.000000
      4         10.691946   0.000000
      5         13.122494   0.000000
      6         14.262315   0.000000
 
 -0.4736842E+00  0.4736842E+00  0.3157895E+00  0.3499052E-02
      1          3.106075   1.000000
      2          3.557254   1.000000
      3          9.700185   0.000000
      4          9.833786   0.000000
      5         14.841729   0.000000
      6         16.001802   0.000000
 
 -0.4210526E+00  0.4736842E+00  0.3157895E+00  0.6998105E-02
      1          3.039513   1.000000
      2          3.309112   1.000000
      3          9.645471   0.000000
      4         11.205703   0.000000
      5         13.869448   0.000000
      6         15.865118   0.000000
 
 -0.4736842E+00 -0.4736842E+00  0.3157895E+00  0.3499052E-02
      1          2.975501   1.000000
      2          3.237633   1.000000
      3          9.612099   0.000000
      4         11.320659   0.000000
      5         14.369332   0.000000
      6         17.069753   0.000000
 
 -0.4210526E+00 -0.4736842E+00  0.3157895E+00  0.3499052E-02
      1          2.971538   1.000000
      2          3.085093   1.000000
      3          9.556885   0.000000
      4         12.448606   0.000000
      5         13.549847   0.000000
      6         17.546742   0.000000
 
 -0.3684211E+00  0.3684211E+00  0.3684211E+00  0.8747631E-03
      1          3.155752   1.000000
      2          3.415232   1.000000
      3         10.631592   0.000000
      4         10.631594   0.000000
      5         12.982235   0.000000
      6         13.421983   0.000000
 
 -0.4210526E+00  0.4210526E+00  0.3684211E+00  0.3499052E-02
      1          2.872931   1.000000
      2          3.125422   1.000000
      3         11.100264   0.000000
      4         11.120435   0.000000
      5         13.811607   0.000000
      6         14.517038   0.000000
 
 -0.4736842E+00  0.4736842E+00  0.3684211E+00  0.3499052E-02
      1          2.745305   1.000000
      2          2.944134   1.000000
      3         11.220040   0.000000
      4         11.246281   0.000000
      5         14.686491   0.000000
      6         16.078920   0.000000
 
 -0.4210526E+00  0.4736842E+00  0.3684211E+00  0.3499052E-02
      1          2.673567   1.000000
      2          2.835986   1.000000
      3         11.198043   0.000000
      4         12.330388   0.000000
      5         14.071045   0.000000
      6         15.848991   0.000000
 
 -0.4736842E+00 -0.4736842E+00  0.3684211E+00  0.3499052E-02
      1          2.629127   1.000000
      2          2.710711   1.000000
      3         11.204918   0.000000
      4         12.803290   0.000000
      5         14.245101   0.000000
      6         17.138608   0.000000
 
 -0.4210526E+00  0.4210526E+00  0.4210526E+00  0.8747631E-03
      1          2.573052   1.000000
      2          2.749337   1.000000
      3         12.289166   0.000000
      4         12.289170   0.000000
      5         13.984611   0.000000
      6         14.982159   0.000000
 
 -0.4736842E+00  0.4736842E+00  0.4210526E+00  0.3499052E-02
      1          2.440244   1.000000
      2          2.523611   1.000000
      3         12.796833   0.000000
      4         12.831067   0.000000
      5         14.580218   0.000000
      6         16.121987   0.000000
 
 -0.4736842E+00 -0.4736842E+00  0.4210526E+00  0.1166351E-02
      1          2.387968   1.000000
      2          2.387968   1.000000
      3         12.892999   0.000000
      4         14.161003   0.000000
      5         14.161013   0.000000
      6         17.153261   0.000000
 
 -0.4736842E+00  0.4736842E+00  0.4736842E+00  0.8747631E-03
      1          2.279294   1.000000
      2          2.302968   1.000000
      3         14.131493   0.000000
      4         14.131497   0.000000
      5         14.581984   0.000000
      6         16.329044   0.000000
