   1   1   0   0
  0.1707768E+02  0.2890555E-09  0.2890556E-09  0.2890555E-09  0.5000000E-15
   1.0000000000000000E-004
  CAR 
 static single-point for EOS (converged p
     30.86639806     -1.88257216  301      9.41773016      1.00000000
     -1.883  0.0000E+00  0.0000E+00
     -1.773  0.0000E+00  0.0000E+00
     -1.664  0.0000E+00  0.0000E+00
     -1.555  0.0000E+00  0.0000E+00
     -1.446  0.0000E+00  0.0000E+00
     -1.337  0.0000E+00  0.0000E+00
     -1.228  0.0000E+00  0.0000E+00
     -1.118  0.0000E+00  0.0000E+00
     -1.009  0.0000E+00  0.0000E+00
     -0.900  0.0000E+00  0.0000E+00
     -0.791  0.0000E+00  0.0000E+00
     -0.682  0.6976E-18  0.7615E-19
     -0.573  0.6852E-09  0.7479E-10
     -0.463  0.7765E-04  0.8477E-05
     -0.354  0.3364E-02  0.3757E-03
     -0.245  0.3224E-01  0.3895E-02
     -0.136  0.1986E-01  0.6063E-02
     -0.027  0.4973E-01  0.1149E-01
      0.082  0.7802E-01  0.2001E-01
      0.192  0.1677E-01  0.2184E-01
      0.301  0.1011E+00  0.3288E-01
      0.410  0.7420E-01  0.4098E-01
      0.519  0.8754E-01  0.5054E-01
      0.628  0.6871E-01  0.5804E-01
      0.737  0.4770E-01  0.6324E-01
      0.847  0.2128E+00  0.8647E-01
      0.956  0.6769E-01  0.9386E-01
      1.065  0.1431E+00  0.1095E+00
      1.174  0.6167E-01  0.1162E+00
      1.283  0.1147E+00  0.1287E+00
      1.392  0.2463E+00  0.1556E+00
      1.501  0.1689E+00  0.1741E+00
      1.611  0.1476E+00  0.1902E+00
      1.720  0.1335E+00  0.2048E+00
      1.829  0.1395E+00  0.2200E+00
      1.938  0.4130E+00  0.2651E+00
      2.047  0.2579E+00  0.2932E+00
      2.156  0.3930E+00  0.3361E+00
      2.266  0.5834E+00  0.3998E+00
      2.375  0.5674E+00  0.4617E+00
      2.484  0.1038E+01  0.5751E+00
      2.593  0.6898E+00  0.6504E+00
      2.702  0.1495E+01  0.8136E+00
      2.811  0.1448E+01  0.9716E+00
      2.921  0.1395E+01  0.1124E+01
      3.030  0.2293E+01  0.1374E+01
      3.139  0.1757E+01  0.1566E+01
      3.248  0.1785E+01  0.1761E+01
      3.357  0.1561E+01  0.1931E+01
      3.466  0.1611E+01  0.2107E+01
      3.576  0.1762E+01  0.2299E+01
      3.685  0.1126E+01  0.2422E+01
      3.794  0.1266E+01  0.2561E+01
      3.903  0.1321E+01  0.2705E+01
      4.012  0.1662E+01  0.2886E+01
      4.121  0.1913E+01  0.3095E+01
      4.231  0.1955E+01  0.3309E+01
      4.340  0.1906E+01  0.3517E+01
      4.449  0.1949E+01  0.3729E+01
      4.558  0.2056E+01  0.3954E+01
      4.667  0.2013E+01  0.4174E+01
      4.776  0.2183E+01  0.4412E+01
      4.886  0.2317E+01  0.4665E+01
      4.995  0.3356E+01  0.5031E+01
      5.104  0.3287E+01  0.5390E+01
      5.213  0.2795E+01  0.5695E+01
      5.322  0.1887E+01  0.5901E+01
      5.431  0.1524E+01  0.6067E+01
      5.541  0.2013E+01  0.6287E+01
      5.650  0.1503E+01  0.6451E+01
      5.759  0.1584E+01  0.6624E+01
      5.868  0.2240E+01  0.6869E+01
      5.977  0.1733E+01  0.7058E+01
      6.086  0.1842E+01  0.7259E+01
      6.196  0.1943E+01  0.7471E+01
      6.305  0.2437E+01  0.7737E+01
      6.414  0.2339E+01  0.7993E+01
      6.523  0.1291E+01  0.8134E+01
      6.632  0.1262E+01  0.8271E+01
      6.741  0.1748E+01  0.8462E+01
      6.850  0.2298E+01  0.8713E+01
      6.960  0.1151E+01  0.8839E+01
      7.069  0.1602E+01  0.9013E+01
      7.178  0.2328E+01  0.9268E+01
      7.287  0.1992E+01  0.9485E+01
      7.396  0.2711E+01  0.9781E+01
      7.505  0.2597E+01  0.1006E+02
      7.615  0.2052E+01  0.1029E+02
      7.724  0.1839E+01  0.1049E+02
      7.833  0.7984E+00  0.1058E+02
      7.942  0.1024E+00  0.1059E+02
      8.051  0.4469E-01  0.1059E+02
      8.160  0.1566E+00  0.1061E+02
      8.270  0.1627E+00  0.1063E+02
      8.379  0.4384E+00  0.1068E+02
      8.488  0.5955E+00  0.1074E+02
      8.597  0.4014E+00  0.1078E+02
      8.706  0.1754E+00  0.1080E+02
      8.815  0.1148E+00  0.1082E+02
      8.925  0.4927E-01  0.1082E+02
      9.034  0.2331E+00  0.1085E+02
      9.143  0.5538E+00  0.1091E+02
      9.252  0.4398E+00  0.1096E+02
      9.361  0.2588E+00  0.1098E+02
      9.470  0.3003E+00  0.1102E+02
      9.580  0.1808E+00  0.1104E+02
      9.689  0.2342E+00  0.1106E+02
      9.798  0.1707E+00  0.1108E+02
      9.907  0.2291E+00  0.1110E+02
     10.016  0.3276E+00  0.1114E+02
     10.125  0.3875E+00  0.1118E+02
     10.235  0.4208E+00  0.1123E+02
     10.344  0.1732E+00  0.1125E+02
     10.453  0.2477E+00  0.1127E+02
     10.562  0.3915E+00  0.1132E+02
     10.671  0.3489E+00  0.1136E+02
     10.780  0.8873E-01  0.1137E+02
     10.890  0.1268E+00  0.1138E+02
     10.999  0.2431E+00  0.1141E+02
     11.108  0.3590E+00  0.1144E+02
     11.217  0.3393E+00  0.1148E+02
     11.326  0.1834E+00  0.1150E+02
     11.435  0.4050E+00  0.1155E+02
     11.545  0.4625E+00  0.1160E+02
     11.654  0.2085E+00  0.1162E+02
     11.763  0.5517E-01  0.1163E+02
     11.872  0.1004E+00  0.1164E+02
     11.981  0.1939E+00  0.1166E+02
     12.090  0.2059E+00  0.1168E+02
     12.199  0.4065E+00  0.1172E+02
     12.309  0.2891E+00  0.1176E+02
     12.418  0.2866E+00  0.1179E+02
     12.527  0.4305E+00  0.1183E+02
     12.636  0.5593E+00  0.1190E+02
     12.745  0.2064E+00  0.1192E+02
     12.854  0.2060E+00  0.1194E+02
     12.964  0.4619E+00  0.1199E+02
     13.073  0.6086E+00  0.1206E+02
     13.182  0.4500E+00  0.1211E+02
     13.291  0.5586E-01  0.1211E+02
     13.400  0.3044E-01  0.1212E+02
     13.509  0.3222E+00  0.1215E+02
     13.619  0.2987E+00  0.1218E+02
     13.728  0.2622E+00  0.1221E+02
     13.837  0.3679E+00  0.1225E+02
     13.946  0.2798E+00  0.1228E+02
     14.055  0.3214E+00  0.1232E+02
     14.164  0.4997E+00  0.1237E+02
     14.274  0.2715E+00  0.1240E+02
     14.383  0.7747E-01  0.1241E+02
     14.492  0.2063E+00  0.1243E+02
     14.601  0.3162E+00  0.1247E+02
     14.710  0.3159E+00  0.1250E+02
     14.819  0.5060E+00  0.1256E+02
     14.929  0.7502E+00  0.1264E+02
     15.038  0.3107E+00  0.1267E+02
     15.147  0.2297E+00  0.1270E+02
     15.256  0.1986E+00  0.1272E+02
     15.365  0.4504E+00  0.1277E+02
     15.474  0.2612E+00  0.1280E+02
     15.584  0.1055E+00  0.1281E+02
     15.693  0.3709E+00  0.1285E+02
     15.802  0.4716E+00  0.1290E+02
     15.911  0.4792E+00  0.1295E+02
     16.020  0.2638E+00  0.1298E+02
     16.129  0.1671E+00  0.1300E+02
     16.239  0.2809E+00  0.1303E+02
     16.348  0.1056E+00  0.1304E+02
     16.457  0.2572E+00  0.1307E+02
     16.566  0.3230E+00  0.1311E+02
     16.675  0.5556E+00  0.1317E+02
     16.784  0.4368E+00  0.1321E+02
     16.894  0.1720E+00  0.1323E+02
     17.003  0.2147E+00  0.1326E+02
     17.112  0.3542E+00  0.1330E+02
     17.221  0.4278E+00  0.1334E+02
     17.330  0.2176E+00  0.1337E+02
     17.439  0.5276E+00  0.1342E+02
     17.548  0.5197E+00  0.1348E+02
     17.658  0.1643E+00  0.1350E+02
     17.767  0.2256E+00  0.1352E+02
     17.876  0.3752E+00  0.1356E+02
     17.985  0.4609E+00  0.1361E+02
     18.094  0.5320E+00  0.1367E+02
     18.203  0.3147E+00  0.1371E+02
     18.313  0.1976E+00  0.1373E+02
     18.422  0.3611E+00  0.1377E+02
     18.531  0.1973E+00  0.1379E+02
     18.640  0.6101E+00  0.1386E+02
     18.749  0.3370E+00  0.1389E+02
     18.858  0.2281E+00  0.1392E+02
     18.968  0.2900E+00  0.1395E+02
     19.077  0.3446E+00  0.1399E+02
     19.186  0.8559E+00  0.1408E+02
     19.295  0.5632E+00  0.1414E+02
     19.404  0.3785E+00  0.1418E+02
     19.513  0.3517E+00  0.1422E+02
     19.623  0.3546E+00  0.1426E+02
     19.732  0.6824E+00  0.1433E+02
     19.841  0.4946E+00  0.1439E+02
     19.950  0.2228E+00  0.1441E+02
     20.059  0.3077E+00  0.1445E+02
     20.168  0.7196E+00  0.1452E+02
     20.278  0.7996E+00  0.1461E+02
     20.387  0.7995E+00  0.1470E+02
     20.496  0.3248E+00  0.1473E+02
     20.605  0.5743E+00  0.1480E+02
     20.714  0.2079E+00  0.1482E+02
     20.823  0.3125E+00  0.1485E+02
     20.933  0.3838E+00  0.1490E+02
     21.042  0.4700E+00  0.1495E+02
     21.151  0.6894E+00  0.1502E+02
     21.260  0.7784E+00  0.1511E+02
     21.369  0.6296E+00  0.1518E+02
     21.478  0.4437E+00  0.1522E+02
     21.588  0.5769E+00  0.1529E+02
     21.697  0.2311E+00  0.1531E+02
     21.806  0.4279E+00  0.1536E+02
     21.915  0.3742E+00  0.1540E+02
     22.024  0.2021E+00  0.1542E+02
     22.133  0.6281E+00  0.1549E+02
     22.243  0.9461E+00  0.1559E+02
     22.352  0.7353E+00  0.1567E+02
     22.461  0.2337E+00  0.1570E+02
     22.570  0.3939E+00  0.1574E+02
     22.679  0.7553E+00  0.1583E+02
     22.788  0.3766E+00  0.1587E+02
     22.897  0.2048E+00  0.1589E+02
     23.007  0.4978E+00  0.1594E+02
     23.116  0.6876E+00  0.1602E+02
     23.225  0.3425E+00  0.1606E+02
     23.334  0.6557E+00  0.1613E+02
     23.443  0.7671E+00  0.1621E+02
     23.552  0.7049E+00  0.1629E+02
     23.662  0.4170E+00  0.1633E+02
     23.771  0.1106E+01  0.1645E+02
     23.880  0.3733E+00  0.1650E+02
     23.989  0.7570E+00  0.1658E+02
     24.098  0.4428E+00  0.1663E+02
     24.207  0.6401E+00  0.1670E+02
     24.317  0.3942E+00  0.1674E+02
     24.426  0.6108E+00  0.1681E+02
     24.535  0.6476E+00  0.1688E+02
     24.644  0.7489E+00  0.1696E+02
     24.753  0.7743E+00  0.1704E+02
     24.862  0.3467E+00  0.1708E+02
     24.972  0.2785E+00  0.1711E+02
     25.081  0.9212E+00  0.1721E+02
     25.190  0.4961E+00  0.1727E+02
     25.299  0.6453E+00  0.1734E+02
     25.408  0.3896E+00  0.1738E+02
     25.517  0.4677E+00  0.1743E+02
     25.627  0.4587E+00  0.1748E+02
     25.736  0.2822E+00  0.1751E+02
     25.845  0.2956E+00  0.1754E+02
     25.954  0.1953E+00  0.1756E+02
     26.063  0.3831E+00  0.1761E+02
     26.172  0.3030E+00  0.1764E+02
     26.282  0.2049E+00  0.1766E+02
     26.391  0.1113E+00  0.1767E+02
     26.500  0.1734E+00  0.1769E+02
     26.609  0.2576E+00  0.1772E+02
     26.718  0.2397E+00  0.1775E+02
     26.827  0.2265E+00  0.1777E+02
     26.937  0.2066E+00  0.1779E+02
     27.046  0.1383E+00  0.1781E+02
     27.155  0.1029E+00  0.1782E+02
     27.264  0.9742E-01  0.1783E+02
     27.373  0.3682E+00  0.1787E+02
     27.482  0.2891E+00  0.1790E+02
     27.592  0.1092E+00  0.1791E+02
     27.701  0.3870E-01  0.1792E+02
     27.810  0.9168E-01  0.1793E+02
     27.919  0.1899E+00  0.1795E+02
     28.028  0.2054E+00  0.1797E+02
     28.137  0.1259E+00  0.1799E+02
     28.246  0.1180E-01  0.1799E+02
     28.356  0.1681E-01  0.1799E+02
     28.465  0.1782E-01  0.1799E+02
     28.574  0.7268E-02  0.1799E+02
     28.683  0.3388E-05  0.1799E+02
     28.792  0.2946E-07  0.1799E+02
     28.901  0.1286E-02  0.1799E+02
     29.011  0.2202E-01  0.1799E+02
     29.120  0.9261E-02  0.1800E+02
     29.229  0.1757E-01  0.1800E+02
     29.338  0.3421E-02  0.1800E+02
     29.447  0.2122E-01  0.1800E+02
     29.556  0.6212E-03  0.1800E+02
     29.666  0.5481E-08  0.1800E+02
     29.775  0.5580E-17  0.1800E+02
     29.884  0.0000E+00  0.1800E+02
     29.993  0.0000E+00  0.1800E+02
     30.102  0.0000E+00  0.1800E+02
     30.211  0.0000E+00  0.1800E+02
     30.321  0.0000E+00  0.1800E+02
     30.430  0.0000E+00  0.1800E+02
     30.539  0.0000E+00  0.1800E+02
     30.648  0.0000E+00  0.1800E+02
     30.757  0.0000E+00  0.1800E+02
     30.866  0.0000E+00  0.1800E+02
