       N       E                     dE             d eps       ncg     rms          rms(c)
DAV:   1     0.758254349662E+02    0.75825E+02   -0.69072E+03  6888   0.128E+03
DAV:   2    -0.161459044083E+02   -0.91971E+02   -0.84178E+02  6720   0.245E+02
DAV:   3    -0.182678528028E+02   -0.21219E+01   -0.20256E+01  7554   0.537E+01
DAV:   4    -0.182821946567E+02   -0.14342E-01   -0.14334E-01  7376   0.392E+00
DAV:   5    -0.182823668792E+02   -0.17222E-03   -0.17222E-03  7710   0.393E-01    0.146E+01
DAV:   6    -0.165797337608E+02    0.17026E+01   -0.18558E+01  6876   0.812E+01    0.118E+01
DAV:   7    -0.162337479153E+02    0.34599E+00   -0.21733E+00  6942   0.270E+01    0.510E+00
DAV:   8    -0.162509764683E+02   -0.17229E-01   -0.45561E-02  8458   0.209E+00    0.246E+00
DAV:   9    -0.162411470613E+02    0.98294E-02   -0.29938E-02  8926   0.188E+00    0.104E+00
DAV:  10    -0.162433520103E+02   -0.22049E-02   -0.97720E-04  7762   0.414E-01    0.745E-01
DAV:  11    -0.162450769546E+02   -0.17249E-02   -0.34810E-03  8320   0.641E-01    0.133E-01
DAV:  12    -0.162450752016E+02    0.17530E-05   -0.15809E-04  8304   0.146E-01    0.321E-02
DAV:  13    -0.162450797049E+02   -0.45033E-05   -0.12937E-05  8148   0.383E-02    0.100E-02
DAV:  14    -0.162450801557E+02   -0.45084E-06   -0.35075E-06  6888   0.252E-02
   1 F= -.16245080E+02 E0= -.16245013E+02  d E =-.200114E-03  mag=     5.1938
