   2   2   0   0
  0.3784348E+02  0.4230000E-09  0.4230000E-09  0.4230000E-09  0.5000000E-15
   1.0000000000000000E-004
  CAR 
 unknown system                          
      8.96247444     -3.27679495  301      0.51712828      1.00000000
     -3.277  0.0000E+00  0.0000E+00
     -3.236  0.0000E+00  0.0000E+00
     -3.195  0.0000E+00  0.0000E+00
     -3.154  0.0000E+00  0.0000E+00
     -3.114  0.0000E+00  0.0000E+00
     -3.073  0.0000E+00  0.0000E+00
     -3.032  0.0000E+00  0.0000E+00
     -2.991  0.1371E-15  0.5592E-17
     -2.950  0.5694E-12  0.2324E-13
     -2.910  0.6435E-09  0.2628E-10
     -2.869  0.2022E-06  0.8276E-08
     -2.828  0.1848E-04  0.7622E-06
     -2.787  0.5430E-03  0.2291E-04
     -2.746  0.6134E-02  0.2732E-03
     -2.706  0.3228E-01  0.1590E-02
     -2.665  0.8850E-01  0.5201E-02
     -2.624  0.1348E+00  0.1070E-01
     -2.583  0.1432E+00  0.1654E-01
     -2.542  0.1960E+00  0.2454E-01
     -2.502  0.2805E+00  0.3599E-01
     -2.461  0.2360E+00  0.4561E-01
     -2.420  0.1769E+00  0.5283E-01
     -2.379  0.2777E+00  0.6416E-01
     -2.338  0.3719E+00  0.7933E-01
     -2.298  0.3490E+00  0.9357E-01
     -2.257  0.2883E+00  0.1053E+00
     -2.216  0.3441E+00  0.1194E+00
     -2.175  0.4254E+00  0.1367E+00
     -2.134  0.2894E+00  0.1485E+00
     -2.094  0.2705E+00  0.1596E+00
     -2.053  0.4792E+00  0.1791E+00
     -2.012  0.5252E+00  0.2006E+00
     -1.971  0.4534E+00  0.2191E+00
     -1.930  0.4873E+00  0.2389E+00
     -1.890  0.4908E+00  0.2590E+00
     -1.849  0.3166E+00  0.2719E+00
     -1.808  0.2637E+00  0.2826E+00
     -1.767  0.4563E+00  0.3012E+00
     -1.726  0.6905E+00  0.3294E+00
     -1.686  0.6375E+00  0.3554E+00
     -1.645  0.4786E+00  0.3749E+00
     -1.604  0.6407E+00  0.4011E+00
     -1.563  0.6203E+00  0.4264E+00
     -1.522  0.3356E+00  0.4401E+00
     -1.482  0.3551E+00  0.4546E+00
     -1.441  0.6053E+00  0.4793E+00
     -1.400  0.7102E+00  0.5082E+00
     -1.359  0.6344E+00  0.5341E+00
     -1.319  0.5563E+00  0.5568E+00
     -1.278  0.6167E+00  0.5820E+00
     -1.237  0.5249E+00  0.6034E+00
     -1.196  0.5235E+00  0.6248E+00
     -1.155  0.8611E+00  0.6599E+00
     -1.115  0.8533E+00  0.6947E+00
     -1.074  0.5871E+00  0.7186E+00
     -1.033  0.6083E+00  0.7435E+00
     -0.992  0.7590E+00  0.7744E+00
     -0.951  0.5561E+00  0.7971E+00
     -0.911  0.2987E+00  0.8093E+00
     -0.870  0.4980E+00  0.8296E+00
     -0.829  0.8868E+00  0.8658E+00
     -0.788  0.9143E+00  0.9031E+00
     -0.747  0.7598E+00  0.9341E+00
     -0.707  0.9166E+00  0.9715E+00
     -0.666  0.9875E+00  0.1012E+01
     -0.625  0.6788E+00  0.1039E+01
     -0.584  0.6070E+00  0.1064E+01
     -0.543  0.6534E+00  0.1091E+01
     -0.503  0.6697E+00  0.1118E+01
     -0.462  0.6521E+00  0.1145E+01
     -0.421  0.7498E+00  0.1175E+01
     -0.380  0.9657E+00  0.1215E+01
     -0.339  0.6733E+00  0.1242E+01
     -0.299  0.5174E+00  0.1263E+01
     -0.258  0.9784E+00  0.1303E+01
     -0.217  0.1138E+01  0.1350E+01
     -0.176  0.8778E+00  0.1386E+01
     -0.135  0.9383E+00  0.1424E+01
     -0.095  0.9836E+00  0.1464E+01
     -0.054  0.6179E+00  0.1489E+01
     -0.013  0.4739E+00  0.1508E+01
      0.028  0.8106E+00  0.1542E+01
      0.069  0.1205E+01  0.1591E+01
      0.109  0.1105E+01  0.1636E+01
      0.150  0.9053E+00  0.1673E+01
      0.191  0.9514E+00  0.1712E+01
      0.232  0.6725E+00  0.1739E+01
      0.273  0.4757E+00  0.1758E+01
      0.313  0.8198E+00  0.1792E+01
      0.354  0.1064E+01  0.1835E+01
      0.395  0.1018E+01  0.1877E+01
      0.436  0.9569E+00  0.1916E+01
      0.477  0.1037E+01  0.1958E+01
      0.517  0.1030E+01  0.2000E+01
      0.558  0.7602E+00  0.2031E+01
      0.599  0.1152E+01  0.2078E+01
      0.640  0.1637E+01  0.2145E+01
      0.681  0.1240E+01  0.2196E+01
      0.721  0.6766E+00  0.2223E+01
      0.762  0.7146E+00  0.2252E+01
      0.803  0.8287E+00  0.2286E+01
      0.844  0.5637E+00  0.2309E+01
      0.885  0.6481E+00  0.2336E+01
      0.925  0.1128E+01  0.2382E+01
      0.966  0.1308E+01  0.2435E+01
      1.007  0.1286E+01  0.2487E+01
      1.048  0.1441E+01  0.2546E+01
      1.089  0.1079E+01  0.2590E+01
      1.129  0.7696E+00  0.2622E+01
      1.170  0.1059E+01  0.2665E+01
      1.211  0.1391E+01  0.2722E+01
      1.252  0.1250E+01  0.2773E+01
      1.293  0.1129E+01  0.2819E+01
      1.333  0.1424E+01  0.2877E+01
      1.374  0.1326E+01  0.2931E+01
      1.415  0.8619E+00  0.2966E+01
      1.456  0.9352E+00  0.3004E+01
      1.497  0.1162E+01  0.3052E+01
      1.537  0.1176E+01  0.3100E+01
      1.578  0.1166E+01  0.3147E+01
      1.619  0.8488E+00  0.3182E+01
      1.660  0.5383E+00  0.3204E+01
      1.701  0.7356E+00  0.3234E+01
      1.741  0.1153E+01  0.3281E+01
      1.782  0.1254E+01  0.3332E+01
      1.823  0.1204E+01  0.3381E+01
      1.864  0.1382E+01  0.3437E+01
      1.904  0.1337E+01  0.3492E+01
      1.945  0.9330E+00  0.3530E+01
      1.986  0.6502E+00  0.3557E+01
      2.027  0.8117E+00  0.3590E+01
      2.068  0.1153E+01  0.3637E+01
      2.108  0.1237E+01  0.3687E+01
      2.149  0.1277E+01  0.3739E+01
      2.190  0.1573E+01  0.3803E+01
      2.231  0.1606E+01  0.3869E+01
      2.272  0.1250E+01  0.3920E+01
      2.312  0.1038E+01  0.3962E+01
      2.353  0.8248E+00  0.3996E+01
      2.394  0.7814E+00  0.4028E+01
      2.435  0.1011E+01  0.4069E+01
      2.476  0.9813E+00  0.4109E+01
      2.516  0.9104E+00  0.4146E+01
      2.557  0.7766E+00  0.4178E+01
      2.598  0.8511E+00  0.4213E+01
      2.639  0.1400E+01  0.4270E+01
      2.680  0.2087E+01  0.4355E+01
      2.720  0.2236E+01  0.4446E+01
      2.761  0.1638E+01  0.4513E+01
      2.802  0.1334E+01  0.4567E+01
      2.843  0.1491E+01  0.4628E+01
      2.884  0.1431E+01  0.4686E+01
      2.924  0.1219E+01  0.4736E+01
      2.965  0.1586E+01  0.4801E+01
      3.006  0.1591E+01  0.4866E+01
      3.047  0.6905E+00  0.4894E+01
      3.088  0.4543E+00  0.4913E+01
      3.128  0.8845E+00  0.4949E+01
      3.169  0.1019E+01  0.4990E+01
      3.210  0.1322E+01  0.5044E+01
      3.251  0.1619E+01  0.5110E+01
      3.292  0.1394E+01  0.5167E+01
      3.332  0.1463E+01  0.5227E+01
      3.373  0.1609E+01  0.5292E+01
      3.414  0.1368E+01  0.5348E+01
      3.455  0.1163E+01  0.5396E+01
      3.496  0.1356E+01  0.5451E+01
      3.536  0.1384E+01  0.5507E+01
      3.577  0.1369E+01  0.5563E+01
      3.618  0.1376E+01  0.5619E+01
      3.659  0.1202E+01  0.5668E+01
      3.700  0.8864E+00  0.5705E+01
      3.740  0.6102E+00  0.5730E+01
      3.781  0.1046E+01  0.5772E+01
      3.822  0.1872E+01  0.5849E+01
      3.863  0.1708E+01  0.5918E+01
      3.904  0.1335E+01  0.5973E+01
      3.944  0.1392E+01  0.6029E+01
      3.985  0.1291E+01  0.6082E+01
      4.026  0.1298E+01  0.6135E+01
      4.067  0.1449E+01  0.6194E+01
      4.108  0.1408E+01  0.6252E+01
      4.148  0.1079E+01  0.6296E+01
      4.189  0.1168E+01  0.6343E+01
      4.230  0.1451E+01  0.6403E+01
      4.271  0.1211E+01  0.6452E+01
      4.312  0.1275E+01  0.6504E+01
      4.352  0.1641E+01  0.6571E+01
      4.393  0.1642E+01  0.6638E+01
      4.434  0.1351E+01  0.6693E+01
      4.475  0.1176E+01  0.6741E+01
      4.516  0.1157E+01  0.6788E+01
      4.556  0.1077E+01  0.6832E+01
      4.597  0.1167E+01  0.6880E+01
      4.638  0.1368E+01  0.6936E+01
      4.679  0.1443E+01  0.6994E+01
      4.720  0.1357E+01  0.7050E+01
      4.760  0.1243E+01  0.7100E+01
      4.801  0.9089E+00  0.7138E+01
      4.842  0.7482E+00  0.7168E+01
      4.883  0.1568E+01  0.7232E+01
      4.924  0.2428E+01  0.7331E+01
      4.964  0.1725E+01  0.7401E+01
      5.005  0.8918E+00  0.7438E+01
      5.046  0.9767E+00  0.7478E+01
      5.087  0.1396E+01  0.7535E+01
      5.128  0.1214E+01  0.7584E+01
      5.168  0.8629E+00  0.7619E+01
      5.209  0.9790E+00  0.7659E+01
      5.250  0.1050E+01  0.7702E+01
      5.291  0.1070E+01  0.7746E+01
      5.331  0.1250E+01  0.7797E+01
      5.372  0.1438E+01  0.7855E+01
      5.413  0.1360E+01  0.7911E+01
      5.454  0.1649E+01  0.7978E+01
      5.495  0.1739E+01  0.8049E+01
      5.535  0.1264E+01  0.8101E+01
      5.576  0.1294E+01  0.8153E+01
      5.617  0.1302E+01  0.8207E+01
      5.658  0.1172E+01  0.8254E+01
      5.699  0.1485E+01  0.8315E+01
      5.739  0.1748E+01  0.8386E+01
      5.780  0.1332E+01  0.8441E+01
      5.821  0.6859E+00  0.8469E+01
      5.862  0.5670E+00  0.8492E+01
      5.903  0.7648E+00  0.8523E+01
      5.943  0.8278E+00  0.8557E+01
      5.984  0.9654E+00  0.8596E+01
      6.025  0.1023E+01  0.8638E+01
      6.066  0.1041E+01  0.8680E+01
      6.107  0.1351E+01  0.8735E+01
      6.147  0.1835E+01  0.8810E+01
      6.188  0.1727E+01  0.8881E+01
      6.229  0.1141E+01  0.8927E+01
      6.270  0.1071E+01  0.8971E+01
      6.311  0.1327E+01  0.9025E+01
      6.351  0.1073E+01  0.9069E+01
      6.392  0.7987E+00  0.9102E+01
      6.433  0.8633E+00  0.9137E+01
      6.474  0.7551E+00  0.9168E+01
      6.515  0.8439E+00  0.9202E+01
      6.555  0.1180E+01  0.9250E+01
      6.596  0.1214E+01  0.9300E+01
      6.637  0.1030E+01  0.9342E+01
      6.678  0.6320E+00  0.9367E+01
      6.719  0.2305E+00  0.9377E+01
      6.759  0.3774E+00  0.9392E+01
      6.800  0.9022E+00  0.9429E+01
      6.841  0.1124E+01  0.9475E+01
      6.882  0.1178E+01  0.9523E+01
      6.923  0.1241E+01  0.9574E+01
      6.963  0.1245E+01  0.9624E+01
      7.004  0.1311E+01  0.9678E+01
      7.045  0.1141E+01  0.9724E+01
      7.086  0.6684E+00  0.9752E+01
      7.127  0.3178E+00  0.9765E+01
      7.167  0.2550E+00  0.9775E+01
      7.208  0.2927E+00  0.9787E+01
      7.249  0.4043E+00  0.9804E+01
      7.290  0.6167E+00  0.9829E+01
      7.331  0.4033E+00  0.9845E+01
      7.371  0.1877E+00  0.9853E+01
      7.412  0.3828E+00  0.9868E+01
      7.453  0.4073E+00  0.9885E+01
      7.494  0.1497E+00  0.9891E+01
      7.535  0.1055E+00  0.9895E+01
      7.575  0.1629E+00  0.9902E+01
      7.616  0.1563E+00  0.9908E+01
      7.657  0.2660E+00  0.9919E+01
      7.698  0.4084E+00  0.9936E+01
      7.739  0.3210E+00  0.9949E+01
      7.779  0.2082E+00  0.9958E+01
      7.820  0.1838E+00  0.9965E+01
      7.861  0.1778E+00  0.9972E+01
      7.902  0.1224E+00  0.9977E+01
      7.943  0.3190E-01  0.9979E+01
      7.983  0.2332E-01  0.9980E+01
      8.024  0.1020E+00  0.9984E+01
      8.065  0.1491E+00  0.9990E+01
      8.106  0.6618E-01  0.9993E+01
      8.147  0.8796E-02  0.9993E+01
      8.187  0.3411E-03  0.9993E+01
      8.228  0.3800E-05  0.9993E+01
      8.269  0.9021E-05  0.9993E+01
      8.310  0.5472E-03  0.9993E+01
      8.351  0.9518E-02  0.9993E+01
      8.391  0.4873E-01  0.9995E+01
      8.432  0.7517E-01  0.9998E+01
      8.473  0.3519E-01  0.1000E+02
      8.514  0.4937E-02  0.1000E+02
      8.554  0.2023E-03  0.1000E+02
      8.595  0.2359E-05  0.1000E+02
      8.636  0.7657E-08  0.1000E+02
      8.677  0.6816E-11  0.1000E+02
      8.718  0.1645E-14  0.1000E+02
      8.758  0.0000E+00  0.1000E+02
      8.799  0.0000E+00  0.1000E+02
      8.840  0.0000E+00  0.1000E+02
      8.881  0.0000E+00  0.1000E+02
      8.922  0.0000E+00  0.1000E+02
      8.962  0.0000E+00  0.1000E+02
