    2    2    1    1
  0.3784348E+02  0.4230000E-09  0.4230000E-09  0.4230000E-09  0.5000000E-15
   1.0000000000000000E-004
  CAR 
 unknown system                          
      2    120      5
 
  0.1262379E-14  0.1262379E-14  0.1262379E-14  0.2962963E-03
      1         -2.720465   1.000000
      2          4.999148   0.000000
      3          4.999148   0.000000
      4          5.328339   0.000000
      5          5.328339   0.000000
 
  0.6666667E-01  0.1262379E-14  0.1262379E-14  0.1777778E-02
      1         -2.682140   1.000000
      2          4.281701   0.000000
      3          5.036385   0.000000
      4          5.360433   0.000000
      5          5.360433   0.000000
 
  0.1333333E+00  0.1262379E-14  0.1262379E-14  0.1777778E-02
      1         -2.567264   1.000000
      2          3.411619   0.000000
      3          5.148091   0.000000
      4          5.456765   0.000000
      5          5.456765   0.000000
 
  0.2000000E+00  0.1262379E-14  0.1262379E-14  0.1777778E-02
      1         -2.376218   1.000000
      2          2.562644   0.000000
      3          5.334260   0.000000
      4          5.617480   0.000000
      5          5.617480   0.000000
 
  0.2666667E+00  0.1262379E-14  0.1262379E-14  0.1777778E-02
      1         -2.109606   1.000000
      2          1.757277   0.000000
      3          5.594876   0.000000
      4          5.842809   0.000000
      5          5.842809   0.000000
 
  0.3333333E+00  0.1262379E-14  0.1262379E-14  0.1777778E-02
      1         -1.768287   1.000000
      2          1.006329   0.000000
      3          5.929915   0.000000
      4          6.133055   0.000000
      5          6.133055   0.000000
 
  0.4000000E+00  0.1262379E-14  0.1262379E-14  0.1777778E-02
      1         -1.353413   1.000000
      2          0.316119   1.000000
      3          6.339345   0.000000
      4          6.488581   0.000000
      5          6.488581   0.000000
 
  0.4666667E+00  0.1262379E-14  0.1262379E-14  0.1777778E-02
      1         -0.866417   1.000000
      2         -0.309141   1.000000
      3          6.823120   0.000000
      4          6.909770   0.000000
      5          6.909770   0.000000
 
  0.6666667E-01  0.6666667E-01  0.1262379E-14  0.3555556E-02
      1         -2.643827   1.000000
      2          4.176613   0.000000
      3          4.508572   0.000000
      4          5.392525   0.000000
      5          5.666946   0.000000
 
  0.1333333E+00  0.6666667E-01  0.1262379E-14  0.7111111E-02
      1         -2.529017   1.000000
      2          3.430212   0.000000
      3          4.498611   0.000000
      4          5.488850   0.000000
      5          5.828821   0.000000
 
  0.2000000E+00  0.6666667E-01  0.1262379E-14  0.7111111E-02
      1         -2.338070   1.000000
      2          2.593427   0.000000
      3          4.663403   0.000000
      4          5.649551   0.000000
      5          6.019703   0.000000
 
  0.2666667E+00  0.6666667E-01  0.1262379E-14  0.7111111E-02
      1         -2.071602   1.000000
      2          1.791497   0.000000
      3          4.905593   0.000000
      4          5.874855   0.000000
      5          6.274615   0.000000
 
  0.3333333E+00  0.6666667E-01  0.1262379E-14  0.7111111E-02
      1         -1.730468   1.000000
      2          1.041978   0.000000
      3          5.219129   0.000000
      4          6.165060   0.000000
      5          6.598329   0.000000
 
  0.4000000E+00  0.6666667E-01  0.1262379E-14  0.7111111E-02
      1         -1.315829   1.000000
      2          0.352539   0.999998
      3          5.602475   0.000000
      4          6.520524   0.000000
      5          6.991823   0.000000
 
  0.4666667E+00  0.6666667E-01  0.1262379E-14  0.7111111E-02
      1         -0.829126   1.000000
      2         -0.272219   1.000000
      3          6.054781   0.000000
      4          6.575298   0.000000
      5          6.941619   0.000000
 
  0.1333333E+00  0.1333333E+00  0.1262379E-14  0.3555556E-02
      1         -2.414388   1.000000
      2          3.349628   0.000000
      3          3.823572   0.000000
      4          5.585152   0.000000
      5          6.062545   0.000000
 
  0.2000000E+00  0.1333333E+00  0.1262379E-14  0.7111111E-02
      1         -2.223748   1.000000
      2          2.675342   0.000000
      3          3.825415   0.000000
      4          5.745805   0.000000
      5          6.283845   0.000000
 
  0.2666667E+00  0.1333333E+00  0.1262379E-14  0.7111111E-02
      1         -1.957711   1.000000
      2          1.892226   0.000000
      3          4.048958   0.000000
      4          5.971023   0.000000
      5          6.558432   0.000000
 
  0.3333333E+00  0.1333333E+00  0.1262379E-14  0.7111111E-02
      1         -1.617139   1.000000
      2          1.148338   0.000000
      3          4.357772   0.000000
      4          6.261092   0.000000
      5          6.903031   0.000000
 
  0.4000000E+00  0.1333333E+00  0.1262379E-14  0.7111111E-02
      1         -1.203208   1.000000
      2          0.461527   0.942100
      3          4.739951   0.000000
      4          6.302759   0.000000
      5          6.616340   0.000000
 
  0.4666667E+00  0.1333333E+00  0.1262379E-14  0.7111111E-02
      1         -0.717396   1.000000
      2         -0.161629   1.000000
      3          5.192472   0.000000
      4          5.713825   0.000000
      5          7.037093   0.000000
 
  0.2000000E+00  0.2000000E+00  0.1262379E-14  0.3555556E-02
      1         -2.033623   1.000000
      2          2.658599   0.000000
      3          3.170509   0.000000
      4          5.906360   0.000000
      5          6.520030   0.000000
 
  0.2666667E+00  0.2000000E+00  0.1262379E-14  0.7111111E-02
      1         -1.768303   1.000000
      2          2.046904   0.000000
      3          3.224765   0.000000
      4          6.131408   0.000000
      5          6.803151   0.000000
 
  0.3333333E+00  0.2000000E+00  0.1262379E-14  0.7111111E-02
      1         -1.428687   1.000000
      2          1.322754   0.000000
      3          3.517077   0.000000
      4          6.124095   0.000000
      5          6.421191   0.000000
 
  0.4000000E+00  0.2000000E+00  0.1262379E-14  0.7111111E-02
      1         -1.015953   1.000000
      2          0.642076   0.000205
      3          3.897129   0.000000
      4          5.466475   0.000000
      5          6.775964   0.000000
 
  0.4666667E+00  0.2000000E+00  0.1262379E-14  0.7111111E-02
      1         -0.531681   1.000000
      2          0.022040   1.000000
      3          4.350957   0.000000
      4          4.874773   0.000000
      5          7.195924   0.000000
 
  0.2666667E+00  0.2666667E+00  0.1262379E-14  0.3555556E-02
      1         -1.504017   1.000000
      2          2.106050   0.000000
      3          2.611611   0.000000
      4          6.062716   0.000000
      5          6.356147   0.000000
 
  0.3333333E+00  0.2666667E+00  0.1262379E-14  0.7111111E-02
      1         -1.165758   1.000000
      2          1.553163   0.000000
      3          2.737079   0.000000
      4          5.338717   0.000000
      5          6.645382   0.000000
 
  0.4000000E+00  0.2666667E+00  0.1262379E-14  0.7111111E-02
      1         -0.754784   1.000000
      2          0.891402   0.000000
      3          3.103346   0.000000
      4          4.677715   0.000000
      5          6.999190   0.000000
 
  0.4666667E+00  0.2666667E+00  0.1262379E-14  0.7111111E-02
      1         -0.272823   1.000000
      2          0.277535   1.000000
      3          3.556570   0.000000
      4          4.082752   0.000000
      5          7.417414   0.000000
 
  0.3333333E+00  0.3333333E+00  0.1262379E-14  0.3555556E-02
      1         -0.829325   1.000000
      2          1.692020   0.000000
      3          2.176073   0.000000
      4          4.611171   0.000000
      5          6.933592   0.000000
 
  0.4000000E+00  0.3333333E+00  0.1262379E-14  0.7111111E-02
      1         -0.420798   1.000000
      2          1.198056   0.000000
      3          2.380459   0.000000
      4          3.946590   0.000000
      5          7.285449   0.000000
 
  0.4666667E+00  0.3333333E+00  0.1262379E-14  0.7111111E-02
      1          0.057685   1.000000
      2          0.601934   0.008228
      3          2.822224   0.000000
      4          3.348743   0.000000
      5          7.699709   0.000000
 
  0.4000000E+00  0.4000000E+00  0.1262379E-14  0.3555556E-02
      1         -0.015786   1.000000
      2          1.416233   0.000000
      3          1.879127   0.000000
      4          3.278966   0.000000
      5          7.633131   0.000000
 
  0.4666667E+00  0.4000000E+00  0.1262379E-14  0.7111111E-02
      1          0.456638   0.956452
      2          0.984010   0.000000
      3          2.163768   0.000000
      4          2.680327   0.000000
      5          8.037154   0.000000
 
  0.4666667E+00  0.4666667E+00  0.1262379E-14  0.3555556E-02
      1          0.912495   0.000000
      2          1.278415   0.000000
      3          1.728856   0.000000
      4          2.091138   0.000000
      5          8.406144   0.000000
 
  0.6666667E-01  0.6666667E-01  0.6666667E-01  0.2370370E-02
      1         -2.605534   1.000000
      2          4.211589   0.000000
      3          4.211589   0.000000
      4          5.017871   0.000000
      5          6.326620   0.000000
 
  0.1333333E+00  0.6666667E-01  0.6666667E-01  0.7111111E-02
      1         -2.490788   1.000000
      2          3.451836   0.000000
      3          4.316500   0.000000
      4          5.010037   0.000000
      5          6.429769   0.000000
 
  0.2000000E+00  0.6666667E-01  0.6666667E-01  0.7111111E-02
      1         -2.299941   1.000000
      2          2.624365   0.000000
      3          4.491300   0.000000
      4          5.157482   0.000000
      5          6.601885   0.000000
 
  0.2666667E+00  0.6666667E-01  0.6666667E-01  0.7111111E-02
      1         -2.033618   1.000000
      2          1.825689   0.000000
      3          4.735913   0.000000
      4          5.387994   0.000000
      5          6.843260   0.000000
 
  0.3333333E+00  0.6666667E-01  0.6666667E-01  0.7111111E-02
      1         -1.692669   1.000000
      2          1.077591   0.000000
      3          5.050233   0.000000
      4          5.689855   0.000000
      5          7.154277   0.000000
 
  0.4000000E+00  0.6666667E-01  0.6666667E-01  0.7111111E-02
      1         -1.278266   1.000000
      2          0.388927   0.999856
      3          5.434128   0.000000
      4          6.059425   0.000000
      5          7.001323   0.000000
 
  0.4666667E+00  0.6666667E-01  0.6666667E-01  0.7111111E-02
      1         -0.791860   1.000000
      2         -0.235324   1.000000
      3          5.887426   0.000000
      4          6.409919   0.000000
      5          6.494782   0.000000
 
  0.1333333E+00  0.1333333E+00  0.6666667E-01  0.7111111E-02
      1         -2.376222   1.000000
      2          3.384331   0.000000
      3          3.789659   0.000000
      4          4.934282   0.000000
      5          6.792914   0.000000
 
  0.2000000E+00  0.1333333E+00  0.6666667E-01  0.1422222E-01
      1         -2.185683   1.000000
      2          2.707148   0.000000
      3          3.820799   0.000000
      4          5.073209   0.000000
      5          7.013295   0.000000
 
  0.2666667E+00  0.1333333E+00  0.6666667E-01  0.1422222E-01
      1         -1.919788   1.000000
      2          1.926352   0.000000
      3          4.048928   0.000000
      4          5.303881   0.000000
      5          7.272586   0.000000
 
  0.3333333E+00  0.1333333E+00  0.6666667E-01  0.1422222E-01
      1         -1.579409   1.000000
      2          1.183836   0.000000
      3          4.358590   0.000000
      4          5.608486   0.000000
      5          6.959403   0.000000
 
  0.4000000E+00  0.1333333E+00  0.6666667E-01  0.1422222E-01
      1         -1.165715   1.000000
      2          0.497814   0.707571
      3          4.740690   0.000000
      4          5.982048   0.000000
      5          6.303415   0.000000
 
  0.4666667E+00  0.1333333E+00  0.6666667E-01  0.1422222E-01
      1         -0.680203   1.000000
      2         -0.124819   1.000000
      3          5.192935   0.000000
      4          5.714176   0.000000
      5          6.422051   0.000000
 
  0.2000000E+00  0.2000000E+00  0.6666667E-01  0.7111111E-02
      1         -1.995661   1.000000
      2          2.693172   0.000000
      3          3.188335   0.000000
      4          5.212348   0.000000
      5          7.270912   0.000000
 
  0.2666667E+00  0.2000000E+00  0.6666667E-01  0.1422222E-01
      1         -1.730486   1.000000
      2          2.081033   0.000000
      3          3.249374   0.000000
      4          5.443045   0.000000
      5          6.866950   0.000000
 
  0.3333333E+00  0.2000000E+00  0.6666667E-01  0.1422222E-01
      1         -1.391066   1.000000
      2          1.358047   0.000000
      3          3.542565   0.000000
      4          5.747409   0.000000
      5          6.147097   0.000000
 
  0.4000000E+00  0.2000000E+00  0.6666667E-01  0.1422222E-01
      1         -0.978576   1.000000
      2          0.678187   0.000003
      3          3.922437   0.000000
      4          5.490151   0.000000
      5          6.120483   0.000000
 
  0.4666667E+00  0.2000000E+00  0.6666667E-01  0.1422222E-01
      1         -0.494615   1.000000
      2          0.058703   1.000000
      3          4.375793   0.000000
      4          4.899043   0.000000
      5          6.559605   0.000000
 
  0.2666667E+00  0.2666667E+00  0.6666667E-01  0.7111111E-02
      1         -1.466352   1.000000
      2          2.140541   0.000000
      3          2.642028   0.000000
      4          5.672829   0.000000
      5          6.089574   0.000000
 
  0.3333333E+00  0.2666667E+00  0.6666667E-01  0.1422222E-01
      1         -1.128292   1.000000
      2          1.588135   0.000000
      3          2.769068   0.000000
      4          5.367578   0.000000
      5          5.975617   0.000000
 
  0.4000000E+00  0.2666667E+00  0.6666667E-01  0.1422222E-01
      1         -0.717576   1.000000
      2          0.927240   0.000000
      3          3.135179   0.000000
      4          4.707684   0.000000
      5          6.346337   0.000000
 
  0.4666667E+00  0.2666667E+00  0.6666667E-01  0.1422222E-01
      1         -0.235945   1.000000
      2          0.313976   1.000000
      3          3.587938   0.000000
      4          4.113503   0.000000
      5          6.781829   0.000000
 
  0.3333333E+00  0.3333333E+00  0.6666667E-01  0.7111111E-02
      1         -0.792072   1.000000
      2          1.726456   0.000000
      3          2.210716   0.000000
      4          4.642397   0.000000
      5          6.275738   0.000000
 
  0.4000000E+00  0.3333333E+00  0.6666667E-01  0.1422222E-01
      1         -0.383820   1.000000
      2          1.233422   0.000000
      3          2.414958   0.000000
      4          3.979079   0.000000
      5          6.642242   0.000000
 
  0.4666667E+00  0.3333333E+00  0.6666667E-01  0.1422222E-01
      1          0.094300   1.000000
      2          0.638050   0.000313
      3          2.856183   0.000000
      4          3.382066   0.000000
      5          7.070445   0.000000
 
  0.4000000E+00  0.4000000E+00  0.6666667E-01  0.7111111E-02
      1          0.020884   1.000000
      2          1.450633   0.000000
      3          1.915454   0.000000
      4          3.312776   0.000000
      5          7.001180   0.000000
 
  0.4666667E+00  0.4000000E+00  0.6666667E-01  0.1422222E-01
      1          0.492877   0.753619
      2          1.019571   0.000000
      3          2.199218   0.000000
      4          2.715009   0.000000
      5          7.413310   0.000000
 
  0.4666667E+00  0.4666667E+00  0.6666667E-01  0.7111111E-02
      1          0.948115   0.000000
      2          1.312799   0.000000
      3          1.765823   0.000000
      4          2.126839   0.000000
      5          7.777802   0.000000
 
  0.1333333E+00  0.1333333E+00  0.1333333E+00  0.2370370E-02
      1         -2.261835   1.000000
      2          3.488445   0.000000
      3          3.488445   0.000000
      4          4.446955   0.000000
      5          7.681819   0.000000
 
  0.2000000E+00  0.1333333E+00  0.1333333E+00  0.7111111E-02
      1         -2.071610   1.000000
      2          2.794686   0.000000
      3          3.661987   0.000000
      4          4.455702   0.000000
      5          7.855281   0.000000
 
  0.2666667E+00  0.1333333E+00  0.1333333E+00  0.7111111E-02
      1         -1.806146   1.000000
      2          2.026912   0.000000
      3          3.904984   0.000000
      4          4.659428   0.000000
      5          7.551630   0.000000
 
  0.3333333E+00  0.1333333E+00  0.1333333E+00  0.7111111E-02
      1         -1.466342   1.000000
      2          1.289729   0.000000
      3          4.217462   0.000000
      4          4.959923   0.000000
      5          6.822789   0.000000
 
  0.4000000E+00  0.1333333E+00  0.1333333E+00  0.7111111E-02
      1         -1.053370   1.000000
      2          0.606396   0.005787
      3          4.599466   0.000000
      4          5.336770   0.000000
      5          6.162805   0.000000
 
  0.4666667E+00  0.1333333E+00  0.1333333E+00  0.7111111E-02
      1         -0.568773   1.000000
      2         -0.014570   1.000000
      3          5.051029   0.000000
      4          5.572161   0.000000
      5          5.782478   0.000000
 
  0.2000000E+00  0.2000000E+00  0.1333333E+00  0.7111111E-02
      1         -1.881895   1.000000
      2          2.796904   0.000000
      3          3.202977   0.000000
      4          4.399749   0.000000
      5          7.682843   0.000000
 
  0.2666667E+00  0.2000000E+00  0.1333333E+00  0.1422222E-01
      1         -1.617165   1.000000
      2          2.182023   0.000000
      3          3.301865   0.000000
      4          4.595843   0.000000
      5          6.917186   0.000000
 
  0.3333333E+00  0.2000000E+00  0.1333333E+00  0.1422222E-01
      1         -1.278329   1.000000
      2          1.463352   0.000000
      3          3.600008   0.000000
      4          4.894879   0.000000
      5          6.199063   0.000000
 
  0.4000000E+00  0.2000000E+00  0.1333333E+00  0.1422222E-01
      1         -0.866587   1.000000
      2          0.786235   0.000000
      3          3.979756   0.000000
      4          5.271310   0.000000
      5          5.543113   0.000000
 
  0.4666667E+00  0.2000000E+00  0.1333333E+00  0.1422222E-01
      1         -0.383572   1.000000
      2          0.168500   1.000000
      3          4.431719   0.000000
      4          4.953357   0.000000
      5          5.716914   0.000000
 
  0.2666667E+00  0.2666667E+00  0.1333333E+00  0.7111111E-02
      1         -1.353488   1.000000
      2          2.244032   0.000000
      3          2.725597   0.000000
      4          4.792307   0.000000
      5          6.164813   0.000000
 
  0.3333333E+00  0.2666667E+00  0.1333333E+00  0.1422222E-01
      1         -1.016031   1.000000
      2          1.692592   0.000000
      3          2.860547   0.000000
      4          5.089987   0.000000
      5          5.450000   0.000000
 
  0.4000000E+00  0.2666667E+00  0.1333333E+00  0.1422222E-01
      1         -0.606101   1.000000
      2          1.034467   0.000000
      3          3.226666   0.000000
      4          4.793570   0.000000
      5          5.463721   0.000000
 
  0.4666667E+00  0.2666667E+00  0.1333333E+00  0.1422222E-01
      1         -0.125472   1.000000
      2          0.423105   0.996086
      3          3.678074   0.000000
      4          4.201763   0.000000
      5          5.905115   0.000000
 
  0.3333333E+00  0.3333333E+00  0.1333333E+00  0.7111111E-02
      1         -0.680457   1.000000
      2          1.829783   0.000000
      3          2.312261   0.000000
      4          4.734015   0.000000
      5          5.384706   0.000000
 
  0.4000000E+00  0.3333333E+00  0.1333333E+00  0.1422222E-01
      1         -0.273040   1.000000
      2          1.339280   0.000000
      3          2.516968   0.000000
      4          4.074979   0.000000
      5          5.753547   0.000000
 
  0.4666667E+00  0.3333333E+00  0.1333333E+00  0.1422222E-01
      1          0.203970   1.000000
      2          0.746197   0.000000
      3          2.956691   0.000000
      4          3.480620   0.000000
      5          6.186429   0.000000
 
  0.4000000E+00  0.4000000E+00  0.1333333E+00  0.7111111E-02
      1          0.130725   1.000000
      2          1.553856   0.000000
      3          2.023326   0.000000
      4          3.413257   0.000000
      5          6.113625   0.000000
 
  0.4666667E+00  0.4000000E+00  0.1333333E+00  0.1422222E-01
      1          0.601421   0.008559
      2          1.126074   0.000000
      3          2.304817   0.000000
      4          2.818301   0.000000
      5          6.527983   0.000000
 
  0.4666667E+00  0.4666667E+00  0.1333333E+00  0.7111111E-02
      1          1.054813   0.000000
      2          1.415971   0.000000
      3          1.875950   0.000000
      4          2.233358   0.000000
      5          6.888832   0.000000
 
  0.2000000E+00  0.2000000E+00  0.2000000E+00  0.2370370E-02
      1         -1.692699   1.000000
      2          2.969835   0.000000
      3          2.969835   0.000000
      4          3.945364   0.000000
      5          7.649524   0.000000
 
  0.2666667E+00  0.2000000E+00  0.2000000E+00  0.7111111E-02
      1         -1.428728   1.000000
      2          2.340496   0.000000
      3          3.212030   0.000000
      4          4.013467   0.000000
      5          6.852999   0.000000
 
  0.3333333E+00  0.2000000E+00  0.2000000E+00  0.7111111E-02
      1         -1.090875   1.000000
      2          1.636091   0.000000
      3          3.523573   0.000000
      4          4.287392   0.000000
      5          6.124455   0.000000
 
  0.4000000E+00  0.2000000E+00  0.2000000E+00  0.7111111E-02
      1         -0.680412   1.000000
      2          0.965161   0.000000
      3          3.904562   0.000000
      4          4.659844   0.000000
      5          5.465074   0.000000
 
  0.4666667E+00  0.2000000E+00  0.2000000E+00  0.7111111E-02
      1         -0.199036   1.000000
      2          0.350800   0.999999
      3          4.355090   0.000000
      4          4.875250   0.000000
      5          5.106928   0.000000
 
  0.2666667E+00  0.2666667E+00  0.2000000E+00  0.7111111E-02
      1         -1.165817   1.000000
      2          2.416573   0.000000
      3          2.814580   0.000000
      4          4.017705   0.000000
      5          6.263651   0.000000
 
  0.3333333E+00  0.2666667E+00  0.2000000E+00  0.1422222E-01
      1         -0.829392   1.000000
      2          1.864501   0.000000
      3          2.984798   0.000000
      4          4.283170   0.000000
      5          5.564495   0.000000
 
  0.4000000E+00  0.2666667E+00  0.2000000E+00  0.1422222E-01
      1         -0.420796   1.000000
      2          1.212030   0.000000
      3          3.353838   0.000000
      4          4.651651   0.000000
      5          4.912747   0.000000
 
  0.4666667E+00  0.2666667E+00  0.2000000E+00  0.1422222E-01
      1          0.058088   1.000000
      2          0.604264   0.006859
      3          3.803496   0.000000
      4          4.324272   0.000000
      5          5.094419   0.000000
 
  0.3333333E+00  0.3333333E+00  0.2000000E+00  0.7111111E-02
      1         -0.494908   1.000000
      2          2.002059   0.000000
      3          2.469781   0.000000
      4          4.546555   0.000000
      5          4.877630   0.000000
 
  0.4000000E+00  0.3333333E+00  0.2000000E+00  0.1422222E-01
      1         -0.088925   1.000000
      2          1.514769   0.000000
      3          2.679874   0.000000
      4          4.227829   0.000000
      5          4.909939   0.000000
 
  0.4666667E+00  0.3333333E+00  0.2000000E+00  0.1422222E-01
      1          0.386165   0.999894
      2          0.925705   0.000000
      3          3.117742   0.000000
      4          3.638366   0.000000
      5          5.343499   0.000000
 
  0.4000000E+00  0.4000000E+00  0.2000000E+00  0.7111111E-02
      1          0.313230   1.000000
      2          1.725965   0.000000
      3          2.198513   0.000000
      4          3.576872   0.000000
      5          5.263938   0.000000
 
  0.4666667E+00  0.4000000E+00  0.2000000E+00  0.1422222E-01
      1          0.781705   0.000000
      2          1.302939   0.000000
      3          2.477761   0.000000
      4          2.987390   0.000000
      5          5.677784   0.000000
 
  0.4666667E+00  0.4666667E+00  0.2000000E+00  0.7111111E-02
      1          1.232066   0.000000
      2          1.587998   0.000000
      3          2.056581   0.000000
      4          2.408616   0.000000
      5          6.035515   0.000000
 
  0.2666667E+00  0.2666667E+00  0.2666667E+00  0.2370370E-02
      1         -0.904013   1.000000
      2          2.658241   0.000000
      3          2.658241   0.000000
      4          3.617005   0.000000
      5          6.294340   0.000000
 
  0.3333333E+00  0.2666667E+00  0.2666667E+00  0.7111111E-02
      1         -0.569086   1.000000
      2          2.094404   0.000000
      3          2.969153   0.000000
      4          3.756023   0.000000
      5          5.566430   0.000000
 
  0.4000000E+00  0.2666667E+00  0.2666667E+00  0.7111111E-02
      1         -0.162448   1.000000
      2          1.457022   0.000000
      3          3.349437   0.000000
      4          4.100655   0.000000
      5          4.907724   0.000000
 
  0.4666667E+00  0.2666667E+00  0.2666667E+00  0.7111111E-02
      1          0.313773   1.000000
      2          0.856053   0.000000
      3          3.799228   0.000000
      4          4.318633   0.000000
      5          4.537790   0.000000
 
  0.3333333E+00  0.3333333E+00  0.2666667E+00  0.7111111E-02
      1         -0.236185   1.000000
      2          2.243379   0.000000
      3          2.634927   0.000000
      4          3.829658   0.000000
      5          5.046781   0.000000
 
  0.4000000E+00  0.3333333E+00  0.2666667E+00  0.1422222E-01
      1          0.167682   1.000000
      2          1.757551   0.000000
      3          2.876384   0.000000
      4          4.162685   0.000000
      5          4.415012   0.000000
 
  0.4666667E+00  0.3333333E+00  0.2666667E+00  0.1422222E-01
      1          0.639875   0.000258
      2          1.175164   0.000000
      3          3.314978   0.000000
      4          3.831894   0.000000
      5          4.590032   0.000000
 
  0.4000000E+00  0.4000000E+00  0.2666667E+00  0.7111111E-02
      1          0.567482   0.077191
      2          1.967058   0.000000
      3          2.428798   0.000000
      4          3.794292   0.000000
      5          4.487060   0.000000
 
  0.4666667E+00  0.4000000E+00  0.2666667E+00  0.1422222E-01
      1          1.032668   0.000000
      2          1.548971   0.000000
      3          2.710365   0.000000
      4          3.214881   0.000000
      5          4.894584   0.000000
 
  0.4666667E+00  0.4666667E+00  0.2666667E+00  0.7111111E-02
      1          1.478887   0.000000
      2          1.828981   0.000000
      3          2.301710   0.000000
      4          2.647785   0.000000
      5          5.244992   0.000000
 
  0.3333333E+00  0.3333333E+00  0.3333333E+00  0.2370370E-02
      1          0.094539   1.000000
      2          2.553858   0.000000
      3          2.553858   0.000000
      4          3.490954   0.000000
      5          5.148369   0.000000
 
  0.4000000E+00  0.3333333E+00  0.3333333E+00  0.7111111E-02
      1          0.495406   0.730525
      2          2.057967   0.000000
      3          2.933646   0.000000
      4          3.696939   0.000000
      5          4.490257   0.000000
 
  0.4666667E+00  0.3333333E+00  0.3333333E+00  0.7111111E-02
      1          0.963262   0.000000
      2          1.491238   0.000000
      3          3.382898   0.000000
      4          3.901748   0.000000
      5          4.095621   0.000000
 
  0.4000000E+00  0.4000000E+00  0.3333333E+00  0.7111111E-02
      1          0.891918   0.000000
      2          2.277268   0.000000
      3          2.665730   0.000000
      4          3.833258   0.000000
      5          4.038027   0.000000
 
  0.4666667E+00  0.4000000E+00  0.3333333E+00  0.1422222E-01
      1          1.352358   0.000000
      2          1.861451   0.000000
      3          2.975414   0.000000
      4          3.476921   0.000000
      5          4.208081   0.000000
 
  0.4666667E+00  0.4666667E+00  0.3333333E+00  0.7111111E-02
      1          1.793431   0.000000
      2          2.139055   0.000000
      3          2.596911   0.000000
      4          2.939316   0.000000
      5          4.528223   0.000000
 
  0.4000000E+00  0.4000000E+00  0.4000000E+00  0.2370370E-02
      1          1.283714   0.000000
      2          2.656738   0.000000
      3          2.656738   0.000000
      4          3.548510   0.000000
      5          4.212222   0.000000
 
  0.4666667E+00  0.4000000E+00  0.4000000E+00  0.7111111E-02
      1          1.736561   0.000000
      2          2.230248   0.000000
      3          3.105636   0.000000
      4          3.624107   0.000000
      5          3.782248   0.000000
 
  0.4666667E+00  0.4666667E+00  0.4000000E+00  0.7111111E-02
      1          2.171420   0.000000
      2          2.518373   0.000000
      3          2.895609   0.000000
      4          3.251067   0.000000
      5          3.910818   0.000000
 
  0.4666667E+00  0.4666667E+00  0.4666667E+00  0.2370370E-02
      1          2.597612   0.000000
      2          2.967095   0.000000
      3          2.967095   0.000000
      4          3.485377   0.000000
      5          3.485377   0.000000
