   39   39  200    1
  0.1261021E+02  0.1271690E-08  0.1271689E-08  0.6358446E-09  0.5000000E-15
   1.0000000000000000E-004
  CAR 
 CaCO3 Calcite Supercell Relaxation (Ca7C
    232     68    144
 
  0.1262379E-14  0.1262379E-14  0.1262379E-14  0.7812500E-02
      1        -21.302482   1.000000
      2        -21.264263   1.000000
      3        -21.243299   1.000000
      4        -21.238989   1.000000
      5        -21.201020   1.000000
      6        -21.185384   1.000000
      7        -21.132623   1.000000
      8        -21.079115   1.000000
      9        -19.255120   1.000000
     10        -19.238554   1.000000
     11        -19.155808   1.000000
     12        -19.116093   1.000000
     13        -19.079837   1.000000
     14        -19.073305   1.000000
     15        -19.036930   1.000000
     16        -19.036318   1.000000
     17        -19.013170   1.000000
     18        -18.972010   1.000000
     19        -18.960443   1.000000
     20        -18.914456   1.000000
     21        -18.823657   1.000000
     22        -18.772454   1.000000
     23        -18.732266   1.000000
     24        -18.726470   1.000000
     25        -18.703755   1.000000
     26        -18.629707   1.000000
     27        -18.614960   1.000000
     28        -18.592153   1.000000
     29        -18.566842   1.000000
     30        -18.090771   1.000000
     31        -18.032989   1.000000
     32        -18.017771   1.000000
     33        -17.966917   1.000000
     34        -17.852310   1.000000
     35        -17.824378   1.000000
     36        -17.773686   1.000000
     37        -17.718601   1.000000
     38        -17.718187   1.000000
     39        -17.684805   1.000000
     40        -17.678040   1.000000
     41        -17.653019   1.000000
     42        -17.540651   1.000000
     43        -17.531789   1.000000
     44        -17.497462   1.000000
     45        -17.466260   1.000000
     46         -7.266987   1.000000
     47         -7.054871   1.000000
     48         -6.997648   1.000000
     49         -6.919966   1.000000
     50         -6.906768   1.000000
     51         -6.902765   1.000000
     52         -6.884057   1.000000
     53         -6.750980   1.000000
     54         -5.620963   1.000000
     55         -5.607960   1.000000
     56         -5.557405   1.000000
     57         -5.527283   1.000000
     58         -5.524201   1.000000
     59         -5.454510   1.000000
     60         -5.417371   1.000000
     61         -5.383778   1.000000
     62         -5.318861   1.000000
     63         -5.311751   1.000000
     64         -5.257526   1.000000
     65         -5.217024   1.000000
     66         -5.213093   1.000000
     67         -5.148691   1.000000
     68         -5.140689   1.000000
     69         -5.127163   1.000000
     70         -5.090361   1.000000
     71         -4.967734   1.000000
     72         -4.949010   1.000000
     73         -4.851596   1.000000
     74         -4.809512   1.000000
     75         -4.798907   1.000000
     76         -4.781398   1.000000
     77         -4.421766   1.000000
     78         -2.043500   1.000000
     79         -1.892194   1.000000
     80         -1.891213   1.000000
     81         -1.886335   1.000000
     82         -1.868415   1.000000
     83         -1.700050   1.000000
     84         -1.613439   1.000000
     85         -1.590249   1.000000
     86         -1.470446   1.000000
     87         -1.457107   1.000000
     88         -1.436739   1.000000
     89         -1.414743   1.000000
     90         -1.406652   1.000000
     91         -1.354597   1.000000
     92         -1.325378   1.000000
     93         -1.268417   1.000000
     94         -1.253143   1.000000
     95         -1.181007   1.000000
     96         -1.179822   1.000000
     97         -1.089695   1.000000
     98         -1.077616   1.000000
     99         -1.014870   1.000000
    100         -0.994651   1.000000
    101         -0.964837   1.000000
    102         -0.949740   1.000000
    103         -0.866125   1.000000
    104         -0.823716   1.000000
    105         -0.811419   1.000000
    106         -0.757719   1.000000
    107         -0.648956   1.000000
    108         -0.489790   1.000000
    109         -0.476996   1.000000
    110         -0.141171   1.000000
    111          0.168974   1.000000
    112          0.191134   1.000000
    113          0.293940   0.998361
    114          0.306914   0.994965
    115          0.333948   0.964759
    116          0.383776   0.655216
    117          0.448835   0.074833
    118          5.746099   0.000000
    119          5.941630   0.000000
    120          5.968312   0.000000
    121          5.978702   0.000000
    122          6.038115   0.000000
    123          6.103414   0.000000
    124          6.174517   0.000000
    125          6.196098   0.000000
    126          6.517024   0.000000
    127          6.811476   0.000000
    128          7.006445   0.000000
    129          7.185999   0.000000
    130          7.213840   0.000000
    131          7.236358   0.000000
    132          7.269947   0.000000
    133          7.319096   0.000000
    134          7.408565   0.000000
    135          7.455430   0.000000
    136          7.470821   0.000000
    137          7.506124   0.000000
    138          7.534148   0.000000
    139          7.623509   0.000000
    140          7.678346   0.000000
    141          7.685443   0.000000
    142          7.727617   0.000000
    143          7.742057   0.000000
    144          7.821379   0.000000
 
  0.2500000E+00  0.1259049E-14  0.1262535E-14  0.1562500E-01
      1        -21.291285   1.000000
      2        -21.270986   1.000000
      3        -21.242933   1.000000
      4        -21.228963   1.000000
      5        -21.211736   1.000000
      6        -21.187236   1.000000
      7        -21.126386   1.000000
      8        -21.091665   1.000000
      9        -19.243818   1.000000
     10        -19.189767   1.000000
     11        -19.135459   1.000000
     12        -19.122885   1.000000
     13        -19.114473   1.000000
     14        -19.091293   1.000000
     15        -19.050280   1.000000
     16        -19.016442   1.000000
     17        -18.999317   1.000000
     18        -18.970818   1.000000
     19        -18.896565   1.000000
     20        -18.867330   1.000000
     21        -18.852677   1.000000
     22        -18.805792   1.000000
     23        -18.770570   1.000000
     24        -18.720431   1.000000
     25        -18.718492   1.000000
     26        -18.665693   1.000000
     27        -18.646037   1.000000
     28        -18.627358   1.000000
     29        -18.612219   1.000000
     30        -18.042421   1.000000
     31        -18.003326   1.000000
     32        -17.957343   1.000000
     33        -17.890370   1.000000
     34        -17.864667   1.000000
     35        -17.835173   1.000000
     36        -17.807727   1.000000
     37        -17.781224   1.000000
     38        -17.686615   1.000000
     39        -17.678074   1.000000
     40        -17.633782   1.000000
     41        -17.618270   1.000000
     42        -17.576410   1.000000
     43        -17.571391   1.000000
     44        -17.516948   1.000000
     45        -17.477238   1.000000
     46         -7.209802   1.000000
     47         -7.024317   1.000000
     48         -7.001717   1.000000
     49         -6.946495   1.000000
     50         -6.932882   1.000000
     51         -6.912368   1.000000
     52         -6.886288   1.000000
     53         -6.789929   1.000000
     54         -5.595764   1.000000
     55         -5.570592   1.000000
     56         -5.547544   1.000000
     57         -5.529529   1.000000
     58         -5.469143   1.000000
     59         -5.447780   1.000000
     60         -5.406354   1.000000
     61         -5.389668   1.000000
     62         -5.330219   1.000000
     63         -5.320561   1.000000
     64         -5.295245   1.000000
     65         -5.242989   1.000000
     66         -5.230754   1.000000
     67         -5.166624   1.000000
     68         -5.144637   1.000000
     69         -5.139896   1.000000
     70         -5.097541   1.000000
     71         -5.036763   1.000000
     72         -4.928953   1.000000
     73         -4.862815   1.000000
     74         -4.835163   1.000000
     75         -4.770439   1.000000
     76         -4.691257   1.000000
     77         -4.464945   1.000000
     78         -1.992149   1.000000
     79         -1.888762   1.000000
     80         -1.852043   1.000000
     81         -1.832325   1.000000
     82         -1.793542   1.000000
     83         -1.673636   1.000000
     84         -1.621016   1.000000
     85         -1.605262   1.000000
     86         -1.472590   1.000000
     87         -1.468039   1.000000
     88         -1.448642   1.000000
     89         -1.409922   1.000000
     90         -1.387474   1.000000
     91         -1.378577   1.000000
     92         -1.305251   1.000000
     93         -1.295394   1.000000
     94         -1.273610   1.000000
     95         -1.225033   1.000000
     96         -1.200738   1.000000
     97         -1.122693   1.000000
     98         -1.078915   1.000000
     99         -1.064711   1.000000
    100         -1.038920   1.000000
    101         -0.988963   1.000000
    102         -0.971185   1.000000
    103         -0.824795   1.000000
    104         -0.809737   1.000000
    105         -0.770962   1.000000
    106         -0.713997   1.000000
    107         -0.633712   1.000000
    108         -0.552997   1.000000
    109         -0.527643   1.000000
    110         -0.044420   1.000000
    111          0.174293   1.000000
    112          0.213721   1.000000
    113          0.267998   0.999881
    114          0.300403   0.997088
    115          0.318983   0.987195
    116          0.375369   0.738010
    117          0.429217   0.187858
    118          5.782135   0.000000
    119          5.917515   0.000000
    120          5.936937   0.000000
    121          6.017191   0.000000
    122          6.123331   0.000000
    123          6.145256   0.000000
    124          6.201352   0.000000
    125          6.229244   0.000000
    126          6.411945   0.000000
    127          6.870789   0.000000
    128          7.033137   0.000000
    129          7.097814   0.000000
    130          7.156268   0.000000
    131          7.222008   0.000000
    132          7.257041   0.000000
    133          7.328547   0.000000
    134          7.368385   0.000000
    135          7.442368   0.000000
    136          7.473875   0.000000
    137          7.561240   0.000000
    138          7.575466   0.000000
    139          7.606002   0.000000
    140          7.642361   0.000000
    141          7.710659   0.000000
    142          7.723367   0.000000
    143          7.791202   0.000000
    144          7.814582   0.000000
 
  0.1262299E-14 -0.2500000E+00  0.1262353E-14  0.1562500E-01
      1        -21.291180   1.000000
      2        -21.267091   1.000000
      3        -21.252998   1.000000
      4        -21.228498   1.000000
      5        -21.206449   1.000000
      6        -21.186242   1.000000
      7        -21.126882   1.000000
      8        -21.091637   1.000000
      9        -19.226065   1.000000
     10        -19.205144   1.000000
     11        -19.174893   1.000000
     12        -19.108311   1.000000
     13        -19.082747   1.000000
     14        -19.067350   1.000000
     15        -19.060443   1.000000
     16        -19.036311   1.000000
     17        -19.022334   1.000000
     18        -18.967424   1.000000
     19        -18.899377   1.000000
     20        -18.847635   1.000000
     21        -18.845018   1.000000
     22        -18.804497   1.000000
     23        -18.788768   1.000000
     24        -18.721380   1.000000
     25        -18.705358   1.000000
     26        -18.654776   1.000000
     27        -18.640839   1.000000
     28        -18.633603   1.000000
     29        -18.621079   1.000000
     30        -18.065869   1.000000
     31        -17.986778   1.000000
     32        -17.957584   1.000000
     33        -17.908502   1.000000
     34        -17.879914   1.000000
     35        -17.842645   1.000000
     36        -17.763193   1.000000
     37        -17.746337   1.000000
     38        -17.693430   1.000000
     39        -17.684516   1.000000
     40        -17.651854   1.000000
     41        -17.635503   1.000000
     42        -17.584806   1.000000
     43        -17.527880   1.000000
     44        -17.519691   1.000000
     45        -17.497112   1.000000
     46         -7.209755   1.000000
     47         -7.030723   1.000000
     48         -7.006606   1.000000
     49         -6.942460   1.000000
     50         -6.929943   1.000000
     51         -6.916728   1.000000
     52         -6.875034   1.000000
     53         -6.788551   1.000000
     54         -5.586260   1.000000
     55         -5.580026   1.000000
     56         -5.551587   1.000000
     57         -5.512102   1.000000
     58         -5.500225   1.000000
     59         -5.431103   1.000000
     60         -5.420418   1.000000
     61         -5.363853   1.000000
     62         -5.327043   1.000000
     63         -5.318938   1.000000
     64         -5.291163   1.000000
     65         -5.252284   1.000000
     66         -5.225209   1.000000
     67         -5.180344   1.000000
     68         -5.162444   1.000000
     69         -5.147567   1.000000
     70         -5.096103   1.000000
     71         -5.029378   1.000000
     72         -4.929586   1.000000
     73         -4.865324   1.000000
     74         -4.834127   1.000000
     75         -4.763280   1.000000
     76         -4.685860   1.000000
     77         -4.467096   1.000000
     78         -1.997395   1.000000
     79         -1.893778   1.000000
     80         -1.848246   1.000000
     81         -1.829845   1.000000
     82         -1.796516   1.000000
     83         -1.669391   1.000000
     84         -1.611384   1.000000
     85         -1.579523   1.000000
     86         -1.518417   1.000000
     87         -1.489816   1.000000
     88         -1.432388   1.000000
     89         -1.420257   1.000000
     90         -1.387385   1.000000
     91         -1.360085   1.000000
     92         -1.335319   1.000000
     93         -1.292770   1.000000
     94         -1.273177   1.000000
     95         -1.226973   1.000000
     96         -1.167581   1.000000
     97         -1.127676   1.000000
     98         -1.083408   1.000000
     99         -1.069448   1.000000
    100         -1.014429   1.000000
    101         -0.986328   1.000000
    102         -0.897945   1.000000
    103         -0.846616   1.000000
    104         -0.806796   1.000000
    105         -0.779274   1.000000
    106         -0.761783   1.000000
    107         -0.632389   1.000000
    108         -0.552581   1.000000
    109         -0.530322   1.000000
    110         -0.039963   1.000000
    111          0.179511   1.000000
    112          0.212595   1.000000
    113          0.272841   0.999798
    114          0.299814   0.997234
    115          0.331968   0.968895
    116          0.356544   0.878936
    117          0.420892   0.257730
    118          5.776381   0.000000
    119          5.881838   0.000000
    120          5.918837   0.000000
    121          6.044865   0.000000
    122          6.108492   0.000000
    123          6.158535   0.000000
    124          6.199062   0.000000
    125          6.262141   0.000000
    126          6.439838   0.000000
    127          6.854803   0.000000
    128          7.026758   0.000000
    129          7.120544   0.000000
    130          7.157294   0.000000
    131          7.182428   0.000000
    132          7.264713   0.000000
    133          7.361203   0.000000
    134          7.381917   0.000000
    135          7.421353   0.000000
    136          7.484433   0.000000
    137          7.527917   0.000000
    138          7.564262   0.000000
    139          7.618750   0.000000
    140          7.666841   0.000000
    141          7.693964   0.000000
    142          7.710669   0.000000
    143          7.743493   0.000000
    144          7.784760   0.000000
 
  0.5000000E+00  0.1314101E-14  0.1262595E-14  0.7812500E-02
      1        -21.286604   1.000000
      2        -21.252173   1.000000
      3        -21.248248   1.000000
      4        -21.242816   1.000000
      5        -21.205099   1.000000
      6        -21.194631   1.000000
      7        -21.114166   1.000000
      8        -21.111285   1.000000
      9        -19.226694   1.000000
     10        -19.174739   1.000000
     11        -19.144432   1.000000
     12        -19.121386   1.000000
     13        -19.073544   1.000000
     14        -19.051008   1.000000
     15        -19.045152   1.000000
     16        -19.033155   1.000000
     17        -18.971448   1.000000
     18        -18.962751   1.000000
     19        -18.935242   1.000000
     20        -18.870604   1.000000
     21        -18.862646   1.000000
     22        -18.810974   1.000000
     23        -18.795466   1.000000
     24        -18.718337   1.000000
     25        -18.717006   1.000000
     26        -18.710082   1.000000
     27        -18.679382   1.000000
     28        -18.666137   1.000000
     29        -18.632255   1.000000
     30        -17.992541   1.000000
     31        -17.961360   1.000000
     32        -17.921377   1.000000
     33        -17.913172   1.000000
     34        -17.876544   1.000000
     35        -17.784493   1.000000
     36        -17.755960   1.000000
     37        -17.734590   1.000000
     38        -17.718130   1.000000
     39        -17.683453   1.000000
     40        -17.668867   1.000000
     41        -17.636305   1.000000
     42        -17.608670   1.000000
     43        -17.586358   1.000000
     44        -17.520241   1.000000
     45        -17.490606   1.000000
     46         -7.100506   1.000000
     47         -7.044049   1.000000
     48         -7.003105   1.000000
     49         -6.998697   1.000000
     50         -6.921285   1.000000
     51         -6.912735   1.000000
     52         -6.889744   1.000000
     53         -6.852901   1.000000
     54         -5.587834   1.000000
     55         -5.517737   1.000000
     56         -5.516684   1.000000
     57         -5.486720   1.000000
     58         -5.437934   1.000000
     59         -5.420719   1.000000
     60         -5.419351   1.000000
     61         -5.392541   1.000000
     62         -5.360449   1.000000
     63         -5.342023   1.000000
     64         -5.341429   1.000000
     65         -5.284117   1.000000
     66         -5.234395   1.000000
     67         -5.196065   1.000000
     68         -5.150054   1.000000
     69         -5.147329   1.000000
     70         -5.101302   1.000000
     71         -5.073560   1.000000
     72         -4.927848   1.000000
     73         -4.878770   1.000000
     74         -4.819116   1.000000
     75         -4.746300   1.000000
     76         -4.607448   1.000000
     77         -4.542772   1.000000
     78         -1.941986   1.000000
     79         -1.861642   1.000000
     80         -1.804799   1.000000
     81         -1.760060   1.000000
     82         -1.693183   1.000000
     83         -1.673432   1.000000
     84         -1.622680   1.000000
     85         -1.591062   1.000000
     86         -1.529850   1.000000
     87         -1.514515   1.000000
     88         -1.425230   1.000000
     89         -1.424249   1.000000
     90         -1.404449   1.000000
     91         -1.356031   1.000000
     92         -1.337627   1.000000
     93         -1.283585   1.000000
     94         -1.282446   1.000000
     95         -1.256926   1.000000
     96         -1.228559   1.000000
     97         -1.134712   1.000000
     98         -1.131475   1.000000
     99         -1.109132   1.000000
    100         -1.066724   1.000000
    101         -1.037404   1.000000
    102         -0.978305   1.000000
    103         -0.788224   1.000000
    104         -0.752277   1.000000
    105         -0.709040   1.000000
    106         -0.683336   1.000000
    107         -0.645594   1.000000
    108         -0.618159   1.000000
    109         -0.593354   1.000000
    110          0.108193   1.000000
    111          0.175143   1.000000
    112          0.194638   1.000000
    113          0.221821   1.000000
    114          0.274695   0.999754
    115          0.345862   0.929465
    116          0.354544   0.889949
    117          0.403938   0.432184
    118          5.842035   0.000000
    119          5.849321   0.000000
    120          5.958883   0.000000
    121          5.983805   0.000000
    122          6.134708   0.000000
    123          6.190452   0.000000
    124          6.234865   0.000000
    125          6.289775   0.000000
    126          6.648135   0.000000
    127          6.795101   0.000000
    128          6.955570   0.000000
    129          7.011462   0.000000
    130          7.070590   0.000000
    131          7.107315   0.000000
    132          7.222454   0.000000
    133          7.273917   0.000000
    134          7.388431   0.000000
    135          7.450154   0.000000
    136          7.457135   0.000000
    137          7.530560   0.000000
    138          7.573648   0.000000
    139          7.608582   0.000000
    140          7.652015   0.000000
    141          7.720987   0.000000
    142          7.744006   0.000000
    143          7.786857   0.000000
    144          7.833238   0.000000
 
  0.1262316E-14  0.5000000E+00  0.1262419E-14  0.7812500E-02
      1        -21.277290   1.000000
      2        -21.264977   1.000000
      3        -21.264639   1.000000
      4        -21.222641   1.000000
      5        -21.204814   1.000000
      6        -21.194568   1.000000
      7        -21.113506   1.000000
      8        -21.112186   1.000000
      9        -19.215552   1.000000
     10        -19.180909   1.000000
     11        -19.134974   1.000000
     12        -19.119754   1.000000
     13        -19.104263   1.000000
     14        -19.062790   1.000000
     15        -19.054014   1.000000
     16        -19.022263   1.000000
     17        -18.970270   1.000000
     18        -18.954602   1.000000
     19        -18.913170   1.000000
     20        -18.889504   1.000000
     21        -18.865082   1.000000
     22        -18.825183   1.000000
     23        -18.790704   1.000000
     24        -18.715235   1.000000
     25        -18.704568   1.000000
     26        -18.675700   1.000000
     27        -18.674793   1.000000
     28        -18.660279   1.000000
     29        -18.656547   1.000000
     30        -18.058848   1.000000
     31        -17.945774   1.000000
     32        -17.943784   1.000000
     33        -17.900515   1.000000
     34        -17.829007   1.000000
     35        -17.800602   1.000000
     36        -17.730445   1.000000
     37        -17.717931   1.000000
     38        -17.696206   1.000000
     39        -17.689846   1.000000
     40        -17.674041   1.000000
     41        -17.660197   1.000000
     42        -17.620847   1.000000
     43        -17.546730   1.000000
     44        -17.545784   1.000000
     45        -17.504959   1.000000
     46         -7.111726   1.000000
     47         -7.038642   1.000000
     48         -6.998162   1.000000
     49         -6.998138   1.000000
     50         -6.955454   1.000000
     51         -6.895545   1.000000
     52         -6.874451   1.000000
     53         -6.842763   1.000000
     54         -5.572650   1.000000
     55         -5.542357   1.000000
     56         -5.493735   1.000000
     57         -5.488759   1.000000
     58         -5.472859   1.000000
     59         -5.426089   1.000000
     60         -5.418273   1.000000
     61         -5.373326   1.000000
     62         -5.360244   1.000000
     63         -5.310895   1.000000
     64         -5.309839   1.000000
     65         -5.270885   1.000000
     66         -5.267252   1.000000
     67         -5.233490   1.000000
     68         -5.171441   1.000000
     69         -5.170978   1.000000
     70         -5.097613   1.000000
     71         -5.067845   1.000000
     72         -4.902350   1.000000
     73         -4.893257   1.000000
     74         -4.815557   1.000000
     75         -4.735262   1.000000
     76         -4.597438   1.000000
     77         -4.552524   1.000000
     78         -1.943256   1.000000
     79         -1.855416   1.000000
     80         -1.840473   1.000000
     81         -1.753538   1.000000
     82         -1.705823   1.000000
     83         -1.622914   1.000000
     84         -1.577679   1.000000
     85         -1.574579   1.000000
     86         -1.564141   1.000000
     87         -1.556333   1.000000
     88         -1.468541   1.000000
     89         -1.409044   1.000000
     90         -1.382106   1.000000
     91         -1.380152   1.000000
     92         -1.362871   1.000000
     93         -1.328901   1.000000
     94         -1.259694   1.000000
     95         -1.254993   1.000000
     96         -1.183791   1.000000
     97         -1.155508   1.000000
     98         -1.133993   1.000000
     99         -1.100680   1.000000
    100         -1.026482   1.000000
    101         -0.995309   1.000000
    102         -0.866796   1.000000
    103         -0.816048   1.000000
    104         -0.771477   1.000000
    105         -0.761062   1.000000
    106         -0.715160   1.000000
    107         -0.646460   1.000000
    108         -0.616927   1.000000
    109         -0.602641   1.000000
    110          0.124244   1.000000
    111          0.186404   1.000000
    112          0.202898   1.000000
    113          0.217278   1.000000
    114          0.292854   0.998516
    115          0.318510   0.987630
    116          0.355404   0.885305
    117          0.379195   0.701597
    118          5.767118   0.000000
    119          5.870202   0.000000
    120          5.888863   0.000000
    121          6.084278   0.000000
    122          6.134421   0.000000
    123          6.170774   0.000000
    124          6.245583   0.000000
    125          6.359863   0.000000
    126          6.653008   0.000000
    127          6.788066   0.000000
    128          6.932439   0.000000
    129          7.028042   0.000000
    130          7.091365   0.000000
    131          7.095575   0.000000
    132          7.162535   0.000000
    133          7.273738   0.000000
    134          7.384291   0.000000
    135          7.423113   0.000000
    136          7.499706   0.000000
    137          7.574113   0.000000
    138          7.584602   0.000000
    139          7.602045   0.000000
    140          7.633377   0.000000
    141          7.676855   0.000000
    142          7.737462   0.000000
    143          7.803171   0.000000
    144          7.821490   0.000000
 
  0.2500000E+00  0.2500000E+00  0.1262376E-14  0.1562500E-01
      1        -21.294846   1.000000
      2        -21.269829   1.000000
      3        -21.253790   1.000000
      4        -21.239749   1.000000
      5        -21.195639   1.000000
      6        -21.184178   1.000000
      7        -21.125164   1.000000
      8        -21.084882   1.000000
      9        -19.234206   1.000000
     10        -19.219906   1.000000
     11        -19.150024   1.000000
     12        -19.129691   1.000000
     13        -19.119171   1.000000
     14        -19.080243   1.000000
     15        -19.069197   1.000000
     16        -19.034220   1.000000
     17        -18.972110   1.000000
     18        -18.965983   1.000000
     19        -18.861611   1.000000
     20        -18.850601   1.000000
     21        -18.823730   1.000000
     22        -18.798586   1.000000
     23        -18.780463   1.000000
     24        -18.743637   1.000000
     25        -18.719374   1.000000
     26        -18.675201   1.000000
     27        -18.648717   1.000000
     28        -18.628947   1.000000
     29        -18.612101   1.000000
     30        -18.002729   1.000000
     31        -17.979914   1.000000
     32        -17.963805   1.000000
     33        -17.918985   1.000000
     34        -17.904099   1.000000
     35        -17.888195   1.000000
     36        -17.810627   1.000000
     37        -17.746323   1.000000
     38        -17.675504   1.000000
     39        -17.664679   1.000000
     40        -17.634308   1.000000
     41        -17.598464   1.000000
     42        -17.573413   1.000000
     43        -17.560561   1.000000
     44        -17.529513   1.000000
     45        -17.492144   1.000000
     46         -7.205483   1.000000
     47         -7.050111   1.000000
     48         -7.010766   1.000000
     49         -6.944907   1.000000
     50         -6.921613   1.000000
     51         -6.879451   1.000000
     52         -6.871994   1.000000
     53         -6.824733   1.000000
     54         -5.582270   1.000000
     55         -5.578525   1.000000
     56         -5.560948   1.000000
     57         -5.524377   1.000000
     58         -5.473707   1.000000
     59         -5.442762   1.000000
     60         -5.396241   1.000000
     61         -5.358831   1.000000
     62         -5.339281   1.000000
     63         -5.312232   1.000000
     64         -5.273390   1.000000
     65         -5.238729   1.000000
     66         -5.224259   1.000000
     67         -5.180496   1.000000
     68         -5.157811   1.000000
     69         -5.123804   1.000000
     70         -5.093535   1.000000
     71         -5.049205   1.000000
     72         -4.992761   1.000000
     73         -4.862957   1.000000
     74         -4.775187   1.000000
     75         -4.757511   1.000000
     76         -4.743315   1.000000
     77         -4.478771   1.000000
     78         -1.963194   1.000000
     79         -1.930023   1.000000
     80         -1.897303   1.000000
     81         -1.802095   1.000000
     82         -1.775916   1.000000
     83         -1.676362   1.000000
     84         -1.628712   1.000000
     85         -1.567637   1.000000
     86         -1.513739   1.000000
     87         -1.464198   1.000000
     88         -1.461535   1.000000
     89         -1.405867   1.000000
     90         -1.389142   1.000000
     91         -1.356890   1.000000
     92         -1.305662   1.000000
     93         -1.293084   1.000000
     94         -1.251454   1.000000
     95         -1.216425   1.000000
     96         -1.143130   1.000000
     97         -1.129586   1.000000
     98         -1.116265   1.000000
     99         -1.064933   1.000000
    100         -1.036895   1.000000
    101         -0.991486   1.000000
    102         -0.939347   1.000000
    103         -0.848246   1.000000
    104         -0.831071   1.000000
    105         -0.774547   1.000000
    106         -0.732563   1.000000
    107         -0.607889   1.000000
    108         -0.571765   1.000000
    109         -0.518450   1.000000
    110         -0.039840   1.000000
    111          0.170004   1.000000
    112          0.195558   1.000000
    113          0.278221   0.999644
    114          0.305541   0.995503
    115          0.346456   0.927167
    116          0.379177   0.701776
    117          0.400535   0.470280
    118          5.731363   0.000000
    119          5.872026   0.000000
    120          5.920384   0.000000
    121          5.978302   0.000000
    122          6.079114   0.000000
    123          6.215915   0.000000
    124          6.274832   0.000000
    125          6.307328   0.000000
    126          6.380705   0.000000
    127          6.879211   0.000000
    128          7.045176   0.000000
    129          7.094606   0.000000
    130          7.174317   0.000000
    131          7.191390   0.000000
    132          7.259276   0.000000
    133          7.348870   0.000000
    134          7.410410   0.000000
    135          7.430026   0.000000
    136          7.476780   0.000000
    137          7.576677   0.000000
    138          7.629483   0.000000
    139          7.641652   0.000000
    140          7.656832   0.000000
    141          7.688996   0.000000
    142          7.707983   0.000000
    143          7.748063   0.000000
    144          7.788670   0.000000
 
  0.5000000E+00  0.2500000E+00  0.1262826E-14  0.1562500E-01
      1        -21.285273   1.000000
      2        -21.273861   1.000000
      3        -21.248072   1.000000
      4        -21.235029   1.000000
      5        -21.210968   1.000000
      6        -21.179507   1.000000
      7        -21.123996   1.000000
      8        -21.095115   1.000000
      9        -19.227385   1.000000
     10        -19.180975   1.000000
     11        -19.145838   1.000000
     12        -19.119798   1.000000
     13        -19.106112   1.000000
     14        -19.090862   1.000000
     15        -19.062436   1.000000
     16        -19.036129   1.000000
     17        -18.952021   1.000000
     18        -18.922344   1.000000
     19        -18.884534   1.000000
     20        -18.865507   1.000000
     21        -18.844367   1.000000
     22        -18.799011   1.000000
     23        -18.774946   1.000000
     24        -18.771980   1.000000
     25        -18.722998   1.000000
     26        -18.717276   1.000000
     27        -18.677313   1.000000
     28        -18.653457   1.000000
     29        -18.645631   1.000000
     30        -17.980796   1.000000
     31        -17.955638   1.000000
     32        -17.923347   1.000000
     33        -17.889352   1.000000
     34        -17.881934   1.000000
     35        -17.827871   1.000000
     36        -17.802228   1.000000
     37        -17.785174   1.000000
     38        -17.681340   1.000000
     39        -17.644876   1.000000
     40        -17.636571   1.000000
     41        -17.619693   1.000000
     42        -17.592354   1.000000
     43        -17.585032   1.000000
     44        -17.547363   1.000000
     45        -17.502930   1.000000
     46         -7.111059   1.000000
     47         -7.024273   1.000000
     48         -7.012753   1.000000
     49         -6.972326   1.000000
     50         -6.963534   1.000000
     51         -6.914439   1.000000
     52         -6.886185   1.000000
     53         -6.842980   1.000000
     54         -5.580257   1.000000
     55         -5.539592   1.000000
     56         -5.510889   1.000000
     57         -5.483189   1.000000
     58         -5.468724   1.000000
     59         -5.418199   1.000000
     60         -5.392467   1.000000
     61         -5.358616   1.000000
     62         -5.351356   1.000000
     63         -5.334575   1.000000
     64         -5.323924   1.000000
     65         -5.248767   1.000000
     66         -5.242204   1.000000
     67         -5.201013   1.000000
     68         -5.168629   1.000000
     69         -5.153410   1.000000
     70         -5.118432   1.000000
     71         -5.077791   1.000000
     72         -4.994712   1.000000
     73         -4.844861   1.000000
     74         -4.794503   1.000000
     75         -4.735674   1.000000
     76         -4.646491   1.000000
     77         -4.550511   1.000000
     78         -1.950094   1.000000
     79         -1.863694   1.000000
     80         -1.792104   1.000000
     81         -1.771874   1.000000
     82         -1.706871   1.000000
     83         -1.663228   1.000000
     84         -1.650124   1.000000
     85         -1.580435   1.000000
     86         -1.490223   1.000000
     87         -1.475826   1.000000
     88         -1.466054   1.000000
     89         -1.418924   1.000000
     90         -1.398653   1.000000
     91         -1.373361   1.000000
     92         -1.331126   1.000000
     93         -1.316211   1.000000
     94         -1.274917   1.000000
     95         -1.252061   1.000000
     96         -1.215122   1.000000
     97         -1.174162   1.000000
     98         -1.117798   1.000000
     99         -1.076264   1.000000
    100         -1.018854   1.000000
    101         -0.999798   1.000000
    102         -0.966759   1.000000
    103         -0.834254   1.000000
    104         -0.796277   1.000000
    105         -0.727591   1.000000
    106         -0.704281   1.000000
    107         -0.660398   1.000000
    108         -0.586281   1.000000
    109         -0.568739   1.000000
    110          0.094323   1.000000
    111          0.175639   1.000000
    112          0.212390   1.000000
    113          0.250117   0.999985
    114          0.272275   0.999810
    115          0.314898   0.990553
    116          0.348831   0.917407
    117          0.410516   0.360594
    118          5.760424   0.000000
    119          5.849439   0.000000
    120          5.895163   0.000000
    121          5.993759   0.000000
    122          6.160992   0.000000
    123          6.241763   0.000000
    124          6.251027   0.000000
    125          6.264721   0.000000
    126          6.646096   0.000000
    127          6.925642   0.000000
    128          6.978556   0.000000
    129          7.041787   0.000000
    130          7.114826   0.000000
    131          7.168666   0.000000
    132          7.241689   0.000000
    133          7.258119   0.000000
    134          7.382321   0.000000
    135          7.383912   0.000000
    136          7.447804   0.000000
    137          7.519103   0.000000
    138          7.538142   0.000000
    139          7.561616   0.000000
    140          7.660934   0.000000
    141          7.683856   0.000000
    142          7.697220   0.000000
    143          7.738253   0.000000
    144          7.750884   0.000000
 
 -0.2500000E+00  0.5000000E+00  0.1262359E-14  0.1562500E-01
      1        -21.285465   1.000000
      2        -21.267011   1.000000
      3        -21.260780   1.000000
      4        -21.233739   1.000000
      5        -21.206620   1.000000
      6        -21.177939   1.000000
      7        -21.125724   1.000000
      8        -21.094370   1.000000
      9        -19.206359   1.000000
     10        -19.183567   1.000000
     11        -19.178300   1.000000
     12        -19.128444   1.000000
     13        -19.114423   1.000000
     14        -19.078400   1.000000
     15        -19.068722   1.000000
     16        -18.980197   1.000000
     17        -18.958978   1.000000
     18        -18.946058   1.000000
     19        -18.907719   1.000000
     20        -18.856640   1.000000
     21        -18.835002   1.000000
     22        -18.795559   1.000000
     23        -18.785893   1.000000
     24        -18.762634   1.000000
     25        -18.724456   1.000000
     26        -18.711900   1.000000
     27        -18.668599   1.000000
     28        -18.654122   1.000000
     29        -18.651481   1.000000
     30        -17.983284   1.000000
     31        -17.966052   1.000000
     32        -17.948380   1.000000
     33        -17.895323   1.000000
     34        -17.854340   1.000000
     35        -17.825182   1.000000
     36        -17.800937   1.000000
     37        -17.757144   1.000000
     38        -17.704956   1.000000
     39        -17.662431   1.000000
     40        -17.619929   1.000000
     41        -17.613915   1.000000
     42        -17.582298   1.000000
     43        -17.570342   1.000000
     44        -17.541904   1.000000
     45        -17.533806   1.000000
     46         -7.109970   1.000000
     47         -7.032156   1.000000
     48         -7.018967   1.000000
     49         -6.968971   1.000000
     50         -6.961994   1.000000
     51         -6.913567   1.000000
     52         -6.877881   1.000000
     53         -6.840051   1.000000
     54         -5.580926   1.000000
     55         -5.540888   1.000000
     56         -5.511444   1.000000
     57         -5.498590   1.000000
     58         -5.432981   1.000000
     59         -5.422620   1.000000
     60         -5.406945   1.000000
     61         -5.354185   1.000000
     62         -5.343336   1.000000
     63         -5.323747   1.000000
     64         -5.298656   1.000000
     65         -5.287143   1.000000
     66         -5.262336   1.000000
     67         -5.214772   1.000000
     68         -5.168118   1.000000
     69         -5.151607   1.000000
     70         -5.096866   1.000000
     71         -5.088183   1.000000
     72         -4.999047   1.000000
     73         -4.844154   1.000000
     74         -4.793581   1.000000
     75         -4.725189   1.000000
     76         -4.644648   1.000000
     77         -4.555024   1.000000
     78         -1.945498   1.000000
     79         -1.883286   1.000000
     80         -1.794456   1.000000
     81         -1.777079   1.000000
     82         -1.702751   1.000000
     83         -1.646277   1.000000
     84         -1.599127   1.000000
     85         -1.571598   1.000000
     86         -1.544868   1.000000
     87         -1.496458   1.000000
     88         -1.466614   1.000000
     89         -1.439282   1.000000
     90         -1.391328   1.000000
     91         -1.374597   1.000000
     92         -1.335888   1.000000
     93         -1.330678   1.000000
     94         -1.279511   1.000000
     95         -1.244277   1.000000
     96         -1.186724   1.000000
     97         -1.171086   1.000000
     98         -1.095695   1.000000
     99         -1.063650   1.000000
    100         -1.038127   1.000000
    101         -0.995701   1.000000
    102         -0.900580   1.000000
    103         -0.832324   1.000000
    104         -0.805642   1.000000
    105         -0.764842   1.000000
    106         -0.723031   1.000000
    107         -0.658789   1.000000
    108         -0.592250   1.000000
    109         -0.566453   1.000000
    110          0.099850   1.000000
    111          0.190302   1.000000
    112          0.213091   1.000000
    113          0.252958   0.999979
    114          0.264426   0.999920
    115          0.306288   0.995217
    116          0.356507   0.879147
    117          0.394294   0.540599
    118          5.746360   0.000000
    119          5.843301   0.000000
    120          5.865923   0.000000
    121          6.026991   0.000000
    122          6.128646   0.000000
    123          6.244211   0.000000
    124          6.282284   0.000000
    125          6.299593   0.000000
    126          6.643603   0.000000
    127          6.923073   0.000000
    128          6.979873   0.000000
    129          7.054154   0.000000
    130          7.096273   0.000000
    131          7.184567   0.000000
    132          7.193886   0.000000
    133          7.284021   0.000000
    134          7.362540   0.000000
    135          7.386070   0.000000
    136          7.435137   0.000000
    137          7.514601   0.000000
    138          7.546769   0.000000
    139          7.599422   0.000000
    140          7.657527   0.000000
    141          7.666237   0.000000
    142          7.693590   0.000000
    143          7.759510   0.000000
    144          7.766692   0.000000
 
 -0.2500000E+00  0.2500000E+00  0.1262335E-14  0.1562500E-01
      1        -21.282595   1.000000
      2        -21.261910   1.000000
      3        -21.255749   1.000000
      4        -21.229314   1.000000
      5        -21.204899   1.000000
      6        -21.194625   1.000000
      7        -21.113882   1.000000
      8        -21.111624   1.000000
      9        -19.203364   1.000000
     10        -19.168104   1.000000
     11        -19.152721   1.000000
     12        -19.121412   1.000000
     13        -19.111508   1.000000
     14        -19.082391   1.000000
     15        -19.068049   1.000000
     16        -19.032389   1.000000
     17        -18.951051   1.000000
     18        -18.910063   1.000000
     19        -18.901098   1.000000
     20        -18.880966   1.000000
     21        -18.841921   1.000000
     22        -18.825122   1.000000
     23        -18.797389   1.000000
     24        -18.770677   1.000000
     25        -18.700110   1.000000
     26        -18.691625   1.000000
     27        -18.684367   1.000000
     28        -18.660969   1.000000
     29        -18.649360   1.000000
     30        -18.003243   1.000000
     31        -17.945701   1.000000
     32        -17.935969   1.000000
     33        -17.870104   1.000000
     34        -17.837111   1.000000
     35        -17.820478   1.000000
     36        -17.811930   1.000000
     37        -17.786885   1.000000
     38        -17.706625   1.000000
     39        -17.663875   1.000000
     40        -17.633032   1.000000
     41        -17.617417   1.000000
     42        -17.602003   1.000000
     43        -17.555111   1.000000
     44        -17.539543   1.000000
     45        -17.521361   1.000000
     46         -7.115313   1.000000
     47         -7.017207   1.000000
     48         -6.999332   1.000000
     49         -6.980998   1.000000
     50         -6.951908   1.000000
     51         -6.947628   1.000000
     52         -6.885659   1.000000
     53         -6.820437   1.000000
     54         -5.579912   1.000000
     55         -5.543717   1.000000
     56         -5.507899   1.000000
     57         -5.477456   1.000000
     58         -5.442162   1.000000
     59         -5.425613   1.000000
     60         -5.412064   1.000000
     61         -5.388425   1.000000
     62         -5.364913   1.000000
     63         -5.357663   1.000000
     64         -5.324257   1.000000
     65         -5.260386   1.000000
     66         -5.234734   1.000000
     67         -5.193764   1.000000
     68         -5.177388   1.000000
     69         -5.148698   1.000000
     70         -5.102308   1.000000
     71         -5.081100   1.000000
     72         -4.967525   1.000000
     73         -4.840035   1.000000
     74         -4.820081   1.000000
     75         -4.725037   1.000000
     76         -4.630039   1.000000
     77         -4.533618   1.000000
     78         -1.941242   1.000000
     79         -1.893866   1.000000
     80         -1.780335   1.000000
     81         -1.741465   1.000000
     82         -1.717396   1.000000
     83         -1.657573   1.000000
     84         -1.589338   1.000000
     85         -1.582519   1.000000
     86         -1.555244   1.000000
     87         -1.502617   1.000000
     88         -1.471205   1.000000
     89         -1.425071   1.000000
     90         -1.396792   1.000000
     91         -1.362346   1.000000
     92         -1.354128   1.000000
     93         -1.328746   1.000000
     94         -1.294377   1.000000
     95         -1.253719   1.000000
     96         -1.193998   1.000000
     97         -1.146485   1.000000
     98         -1.126372   1.000000
     99         -1.087286   1.000000
    100         -1.044193   1.000000
    101         -0.982667   1.000000
    102         -0.912508   1.000000
    103         -0.822670   1.000000
    104         -0.766306   1.000000
    105         -0.756570   1.000000
    106         -0.721309   1.000000
    107         -0.651999   1.000000
    108         -0.609550   1.000000
    109         -0.566147   1.000000
    110          0.096527   1.000000
    111          0.193690   1.000000
    112          0.222262   1.000000
    113          0.241710   0.999995
    114          0.261468   0.999943
    115          0.294678   0.998247
    116          0.361573   0.847891
    117          0.405404   0.415943
    118          5.796998   0.000000
    119          5.867995   0.000000
    120          5.903607   0.000000
    121          6.068908   0.000000
    122          6.132033   0.000000
    123          6.153548   0.000000
    124          6.249048   0.000000
    125          6.334776   0.000000
    126          6.517148   0.000000
    127          6.910276   0.000000
    128          7.005718   0.000000
    129          7.012060   0.000000
    130          7.124254   0.000000
    131          7.186381   0.000000
    132          7.235681   0.000000
    133          7.285155   0.000000
    134          7.389358   0.000000
    135          7.391108   0.000000
    136          7.445503   0.000000
    137          7.480295   0.000000
    138          7.546139   0.000000
    139          7.588599   0.000000
    140          7.611288   0.000000
    141          7.650558   0.000000
    142          7.673953   0.000000
    143          7.750897   0.000000
    144          7.776094   0.000000
 
  0.5000000E+00  0.5000000E+00  0.1263184E-14  0.7812500E-02
      1        -21.282827   1.000000
      2        -21.278243   1.000000
      3        -21.256689   1.000000
      4        -21.250341   1.000000
      5        -21.191087   1.000000
      6        -21.174367   1.000000
      7        -21.130178   1.000000
      8        -21.084992   1.000000
      9        -19.225150   1.000000
     10        -19.205159   1.000000
     11        -19.162746   1.000000
     12        -19.132476   1.000000
     13        -19.105562   1.000000
     14        -19.097339   1.000000
     15        -19.048438   1.000000
     16        -19.027298   1.000000
     17        -18.937762   1.000000
     18        -18.902374   1.000000
     19        -18.886126   1.000000
     20        -18.883891   1.000000
     21        -18.812754   1.000000
     22        -18.791920   1.000000
     23        -18.788314   1.000000
     24        -18.757138   1.000000
     25        -18.746382   1.000000
     26        -18.715345   1.000000
     27        -18.692151   1.000000
     28        -18.653153   1.000000
     29        -18.616770   1.000000
     30        -18.024055   1.000000
     31        -17.962430   1.000000
     32        -17.929375   1.000000
     33        -17.869439   1.000000
     34        -17.858585   1.000000
     35        -17.837238   1.000000
     36        -17.829351   1.000000
     37        -17.734315   1.000000
     38        -17.710408   1.000000
     39        -17.647532   1.000000
     40        -17.633018   1.000000
     41        -17.608900   1.000000
     42        -17.590812   1.000000
     43        -17.554486   1.000000
     44        -17.551379   1.000000
     45        -17.530498   1.000000
     46         -7.067936   1.000000
     47         -7.044571   1.000000
     48         -7.038376   1.000000
     49         -6.995467   1.000000
     50         -6.960124   1.000000
     51         -6.922132   1.000000
     52         -6.874034   1.000000
     53         -6.829863   1.000000
     54         -5.582719   1.000000
     55         -5.546504   1.000000
     56         -5.519222   1.000000
     57         -5.486543   1.000000
     58         -5.444768   1.000000
     59         -5.416315   1.000000
     60         -5.376194   1.000000
     61         -5.366863   1.000000
     62         -5.340565   1.000000
     63         -5.302551   1.000000
     64         -5.269373   1.000000
     65         -5.259814   1.000000
     66         -5.256282   1.000000
     67         -5.210930   1.000000
     68         -5.187833   1.000000
     69         -5.165028   1.000000
     70         -5.098742   1.000000
     71         -5.094583   1.000000
     72         -5.031310   1.000000
     73         -4.873540   1.000000
     74         -4.727692   1.000000
     75         -4.727217   1.000000
     76         -4.687202   1.000000
     77         -4.572763   1.000000
     78         -1.949961   1.000000
     79         -1.946321   1.000000
     80         -1.749541   1.000000
     81         -1.701279   1.000000
     82         -1.686059   1.000000
     83         -1.668241   1.000000
     84         -1.629461   1.000000
     85         -1.580469   1.000000
     86         -1.564895   1.000000
     87         -1.486935   1.000000
     88         -1.471478   1.000000
     89         -1.445467   1.000000
     90         -1.394064   1.000000
     91         -1.378204   1.000000
     92         -1.330142   1.000000
     93         -1.277465   1.000000
     94         -1.242370   1.000000
     95         -1.234483   1.000000
     96         -1.211669   1.000000
     97         -1.200645   1.000000
     98         -1.128161   1.000000
     99         -1.059278   1.000000
    100         -1.002099   1.000000
    101         -0.988105   1.000000
    102         -0.882856   1.000000
    103         -0.871071   1.000000
    104         -0.824961   1.000000
    105         -0.783592   1.000000
    106         -0.732119   1.000000
    107         -0.667201   1.000000
    108         -0.560291   1.000000
    109         -0.554431   1.000000
    110          0.152178   1.000000
    111          0.163325   1.000000
    112          0.185593   1.000000
    113          0.200336   1.000000
    114          0.269170   0.999864
    115          0.319943   0.986270
    116          0.393342   0.551277
    117          0.393364   0.551021
    118          5.714144   0.000000
    119          5.832976   0.000000
    120          5.869228   0.000000
    121          5.965420   0.000000
    122          6.165928   0.000000
    123          6.189253   0.000000
    124          6.293953   0.000000
    125          6.330702   0.000000
    126          6.794875   0.000000
    127          6.931582   0.000000
    128          6.954514   0.000000
    129          6.992241   0.000000
    130          7.121143   0.000000
    131          7.164589   0.000000
    132          7.237792   0.000000
    133          7.271583   0.000000
    134          7.361199   0.000000
    135          7.432965   0.000000
    136          7.444962   0.000000
    137          7.523485   0.000000
    138          7.565951   0.000000
    139          7.589218   0.000000
    140          7.678737   0.000000
    141          7.703462   0.000000
    142          7.712027   0.000000
    143          7.721757   0.000000
    144          7.735298   0.000000
 
  0.1225522E-14  0.1281033E-14  0.1250000E+00  0.1562500E-01
      1        -21.289686   1.000000
      2        -21.264659   1.000000
      3        -21.245418   1.000000
      4        -21.240838   1.000000
      5        -21.202589   1.000000
      6        -21.185829   1.000000
      7        -21.127956   1.000000
      8        -21.096647   1.000000
      9        -19.235653   1.000000
     10        -19.207289   1.000000
     11        -19.150470   1.000000
     12        -19.117696   1.000000
     13        -19.104287   1.000000
     14        -19.075931   1.000000
     15        -19.065063   1.000000
     16        -19.005425   1.000000
     17        -18.975735   1.000000
     18        -18.936731   1.000000
     19        -18.918309   1.000000
     20        -18.895104   1.000000
     21        -18.851582   1.000000
     22        -18.801932   1.000000
     23        -18.760973   1.000000
     24        -18.728360   1.000000
     25        -18.722935   1.000000
     26        -18.688482   1.000000
     27        -18.636510   1.000000
     28        -18.633615   1.000000
     29        -18.609215   1.000000
     30        -18.016639   1.000000
     31        -17.982412   1.000000
     32        -17.947497   1.000000
     33        -17.924918   1.000000
     34        -17.885441   1.000000
     35        -17.845304   1.000000
     36        -17.832998   1.000000
     37        -17.734400   1.000000
     38        -17.696693   1.000000
     39        -17.685300   1.000000
     40        -17.633496   1.000000
     41        -17.605802   1.000000
     42        -17.569089   1.000000
     43        -17.549869   1.000000
     44        -17.527444   1.000000
     45        -17.497649   1.000000
     46         -7.208947   1.000000
     47         -7.058772   1.000000
     48         -7.004349   1.000000
     49         -6.934678   1.000000
     50         -6.915127   1.000000
     51         -6.897244   1.000000
     52         -6.868110   1.000000
     53         -6.825026   1.000000
     54         -5.589716   1.000000
     55         -5.563765   1.000000
     56         -5.535343   1.000000
     57         -5.527281   1.000000
     58         -5.497532   1.000000
     59         -5.444575   1.000000
     60         -5.395758   1.000000
     61         -5.384591   1.000000
     62         -5.345634   1.000000
     63         -5.315794   1.000000
     64         -5.284545   1.000000
     65         -5.233243   1.000000
     66         -5.211467   1.000000
     67         -5.187185   1.000000
     68         -5.139499   1.000000
     69         -5.126776   1.000000
     70         -5.094307   1.000000
     71         -4.993126   1.000000
     72         -4.951379   1.000000
     73         -4.854337   1.000000
     74         -4.809989   1.000000
     75         -4.783625   1.000000
     76         -4.764718   1.000000
     77         -4.468390   1.000000
     78         -1.942146   1.000000
     79         -1.901898   1.000000
     80         -1.883633   1.000000
     81         -1.835308   1.000000
     82         -1.824201   1.000000
     83         -1.669112   1.000000
     84         -1.592935   1.000000
     85         -1.575165   1.000000
     86         -1.497786   1.000000
     87         -1.479230   1.000000
     88         -1.458888   1.000000
     89         -1.411767   1.000000
     90         -1.377079   1.000000
     91         -1.370980   1.000000
     92         -1.315206   1.000000
     93         -1.297597   1.000000
     94         -1.255649   1.000000
     95         -1.196689   1.000000
     96         -1.182147   1.000000
     97         -1.145641   1.000000
     98         -1.099892   1.000000
     99         -1.044901   1.000000
    100         -1.040375   1.000000
    101         -1.006474   1.000000
    102         -0.963081   1.000000
    103         -0.845605   1.000000
    104         -0.819285   1.000000
    105         -0.783008   1.000000
    106         -0.720753   1.000000
    107         -0.630135   1.000000
    108         -0.543813   1.000000
    109         -0.539733   1.000000
    110         -0.041660   1.000000
    111          0.170523   1.000000
    112          0.200059   1.000000
    113          0.293976   0.998356
    114          0.312865   0.991916
    115          0.328353   0.975410
    116          0.375618   0.735710
    117          0.394559   0.537624
    118          5.752042   0.000000
    119          5.892827   0.000000
    120          5.975058   0.000000
    121          6.001637   0.000000
    122          6.123306   0.000000
    123          6.166318   0.000000
    124          6.194485   0.000000
    125          6.236494   0.000000
    126          6.384053   0.000000
    127          6.868991   0.000000
    128          7.056929   0.000000
    129          7.092507   0.000000
    130          7.127257   0.000000
    131          7.178084   0.000000
    132          7.228553   0.000000
    133          7.323584   0.000000
    134          7.411923   0.000000
    135          7.514320   0.000000
    136          7.545886   0.000000
    137          7.572650   0.000000
    138          7.616271   0.000000
    139          7.622055   0.000000
    140          7.656999   0.000000
    141          7.708391   0.000000
    142          7.737972   0.000000
    143          7.766789   0.000000
    144          7.785215   0.000000
 
  0.2500000E+00  0.1277029E-14  0.1250000E+00  0.1562500E-01
      1        -21.289921   1.000000
      2        -21.268892   1.000000
      3        -21.248138   1.000000
      4        -21.224913   1.000000
      5        -21.209249   1.000000
      6        -21.188978   1.000000
      7        -21.126184   1.000000
      8        -21.097365   1.000000
      9        -19.212118   1.000000
     10        -19.204318   1.000000
     11        -19.169344   1.000000
     12        -19.116595   1.000000
     13        -19.088091   1.000000
     14        -19.079121   1.000000
     15        -19.062357   1.000000
     16        -19.053277   1.000000
     17        -19.008228   1.000000
     18        -18.936482   1.000000
     19        -18.885122   1.000000
     20        -18.866462   1.000000
     21        -18.842751   1.000000
     22        -18.781946   1.000000
     23        -18.761009   1.000000
     24        -18.752925   1.000000
     25        -18.720960   1.000000
     26        -18.685706   1.000000
     27        -18.639538   1.000000
     28        -18.631289   1.000000
     29        -18.627985   1.000000
     30        -18.031160   1.000000
     31        -17.965134   1.000000
     32        -17.947770   1.000000
     33        -17.920723   1.000000
     34        -17.880165   1.000000
     35        -17.847013   1.000000
     36        -17.805905   1.000000
     37        -17.774865   1.000000
     38        -17.696168   1.000000
     39        -17.678876   1.000000
     40        -17.638356   1.000000
     41        -17.603579   1.000000
     42        -17.562681   1.000000
     43        -17.538036   1.000000
     44        -17.533904   1.000000
     45        -17.506019   1.000000
     46         -7.206073   1.000000
     47         -7.030808   1.000000
     48         -7.021347   1.000000
     49         -6.964496   1.000000
     50         -6.925051   1.000000
     51         -6.898236   1.000000
     52         -6.871267   1.000000
     53         -6.793703   1.000000
     54         -5.596936   1.000000
     55         -5.554735   1.000000
     56         -5.547561   1.000000
     57         -5.513160   1.000000
     58         -5.482714   1.000000
     59         -5.453158   1.000000
     60         -5.391298   1.000000
     61         -5.381898   1.000000
     62         -5.336306   1.000000
     63         -5.322219   1.000000
     64         -5.296556   1.000000
     65         -5.235317   1.000000
     66         -5.220393   1.000000
     67         -5.174892   1.000000
     68         -5.153341   1.000000
     69         -5.136146   1.000000
     70         -5.097672   1.000000
     71         -5.016423   1.000000
     72         -4.917676   1.000000
     73         -4.876581   1.000000
     74         -4.828954   1.000000
     75         -4.780114   1.000000
     76         -4.710374   1.000000
     77         -4.476686   1.000000
     78         -1.982074   1.000000
     79         -1.904847   1.000000
     80         -1.860398   1.000000
     81         -1.838280   1.000000
     82         -1.777954   1.000000
     83         -1.650168   1.000000
     84         -1.637110   1.000000
     85         -1.573033   1.000000
     86         -1.505402   1.000000
     87         -1.483630   1.000000
     88         -1.456875   1.000000
     89         -1.422017   1.000000
     90         -1.376049   1.000000
     91         -1.362859   1.000000
     92         -1.341655   1.000000
     93         -1.297269   1.000000
     94         -1.264794   1.000000
     95         -1.209171   1.000000
     96         -1.183050   1.000000
     97         -1.130338   1.000000
     98         -1.086692   1.000000
     99         -1.044459   1.000000
    100         -1.042209   1.000000
    101         -0.969198   1.000000
    102         -0.912207   1.000000
    103         -0.883720   1.000000
    104         -0.796035   1.000000
    105         -0.767685   1.000000
    106         -0.760122   1.000000
    107         -0.639995   1.000000
    108         -0.584139   1.000000
    109         -0.507458   1.000000
    110         -0.036907   1.000000
    111          0.169665   1.000000
    112          0.220126   1.000000
    113          0.260786   0.999947
    114          0.291835   0.998650
    115          0.326727   0.977944
    116          0.378811   0.705356
    117          0.419900   0.266877
    118          5.786777   0.000000
    119          5.844716   0.000000
    120          5.967599   0.000000
    121          6.043188   0.000000
    122          6.086419   0.000000
    123          6.126285   0.000000
    124          6.233795   0.000000
    125          6.280504   0.000000
    126          6.414097   0.000000
    127          6.880064   0.000000
    128          7.012096   0.000000
    129          7.062876   0.000000
    130          7.159847   0.000000
    131          7.184341   0.000000
    132          7.254221   0.000000
    133          7.379141   0.000000
    134          7.406437   0.000000
    135          7.469318   0.000000
    136          7.496040   0.000000
    137          7.515247   0.000000
    138          7.587496   0.000000
    139          7.606817   0.000000
    140          7.662793   0.000000
    141          7.704504   0.000000
    142          7.721849   0.000000
    143          7.739684   0.000000
    144          7.806531   0.000000
 
  0.1196836E-14 -0.2500000E+00 -0.1250000E+00  0.1562500E-01
      1        -21.284771   1.000000
      2        -21.269950   1.000000
      3        -21.250945   1.000000
      4        -21.232963   1.000000
      5        -21.200568   1.000000
      6        -21.192162   1.000000
      7        -21.126836   1.000000
      8        -21.095331   1.000000
      9        -19.216470   1.000000
     10        -19.199452   1.000000
     11        -19.165259   1.000000
     12        -19.124951   1.000000
     13        -19.103294   1.000000
     14        -19.085341   1.000000
     15        -19.046536   1.000000
     16        -19.034491   1.000000
     17        -19.001713   1.000000
     18        -18.935709   1.000000
     19        -18.891604   1.000000
     20        -18.873549   1.000000
     21        -18.864214   1.000000
     22        -18.797681   1.000000
     23        -18.749882   1.000000
     24        -18.739682   1.000000
     25        -18.721483   1.000000
     26        -18.681674   1.000000
     27        -18.639514   1.000000
     28        -18.629973   1.000000
     29        -18.619763   1.000000
     30        -18.013619   1.000000
     31        -17.976766   1.000000
     32        -17.952217   1.000000
     33        -17.910059   1.000000
     34        -17.901382   1.000000
     35        -17.857455   1.000000
     36        -17.812010   1.000000
     37        -17.732056   1.000000
     38        -17.706285   1.000000
     39        -17.690588   1.000000
     40        -17.644008   1.000000
     41        -17.606784   1.000000
     42        -17.562526   1.000000
     43        -17.547247   1.000000
     44        -17.519403   1.000000
     45        -17.501413   1.000000
     46         -7.207702   1.000000
     47         -7.020428   1.000000
     48         -7.014888   1.000000
     49         -6.983059   1.000000
     50         -6.935030   1.000000
     51         -6.896464   1.000000
     52         -6.861630   1.000000
     53         -6.791889   1.000000
     54         -5.586471   1.000000
     55         -5.568542   1.000000
     56         -5.545278   1.000000
     57         -5.513171   1.000000
     58         -5.492488   1.000000
     59         -5.425274   1.000000
     60         -5.412270   1.000000
     61         -5.386586   1.000000
     62         -5.329412   1.000000
     63         -5.307453   1.000000
     64         -5.285933   1.000000
     65         -5.263361   1.000000
     66         -5.230316   1.000000
     67         -5.179152   1.000000
     68         -5.138063   1.000000
     69         -5.122428   1.000000
     70         -5.104427   1.000000
     71         -5.016966   1.000000
     72         -4.925509   1.000000
     73         -4.862604   1.000000
     74         -4.847512   1.000000
     75         -4.767856   1.000000
     76         -4.708071   1.000000
     77         -4.481390   1.000000
     78         -1.979612   1.000000
     79         -1.923681   1.000000
     80         -1.857978   1.000000
     81         -1.838672   1.000000
     82         -1.765454   1.000000
     83         -1.673119   1.000000
     84         -1.607655   1.000000
     85         -1.582640   1.000000
     86         -1.492538   1.000000
     87         -1.470997   1.000000
     88         -1.463176   1.000000
     89         -1.415564   1.000000
     90         -1.392287   1.000000
     91         -1.353439   1.000000
     92         -1.338278   1.000000
     93         -1.308544   1.000000
     94         -1.278868   1.000000
     95         -1.205688   1.000000
     96         -1.193556   1.000000
     97         -1.111475   1.000000
     98         -1.078822   1.000000
     99         -1.047455   1.000000
    100         -1.022778   1.000000
    101         -0.995976   1.000000
    102         -0.973968   1.000000
    103         -0.834543   1.000000
    104         -0.813344   1.000000
    105         -0.760211   1.000000
    106         -0.715831   1.000000
    107         -0.656157   1.000000
    108         -0.584000   1.000000
    109         -0.513175   1.000000
    110         -0.042111   1.000000
    111          0.169572   1.000000
    112          0.222535   1.000000
    113          0.246320   0.999991
    114          0.310212   0.993434
    115          0.322635   0.983364
    116          0.379936   0.694292
    117          0.420869   0.257944
    118          5.803584   0.000000
    119          5.866311   0.000000
    120          5.881850   0.000000
    121          6.061060   0.000000
    122          6.093573   0.000000
    123          6.118100   0.000000
    124          6.254064   0.000000
    125          6.311839   0.000000
    126          6.409138   0.000000
    127          6.860995   0.000000
    128          7.030876   0.000000
    129          7.066814   0.000000
    130          7.165172   0.000000
    131          7.193853   0.000000
    132          7.238061   0.000000
    133          7.328047   0.000000
    134          7.404029   0.000000
    135          7.444627   0.000000
    136          7.507286   0.000000
    137          7.549052   0.000000
    138          7.578267   0.000000
    139          7.606522   0.000000
    140          7.689065   0.000000
    141          7.700516   0.000000
    142          7.735753   0.000000
    143          7.769883   0.000000
    144          7.835669   0.000000
 
  0.5000000E+00  0.1356291E-14  0.1250000E+00  0.1562500E-01
      1        -21.290076   1.000000
      2        -21.255162   1.000000
      3        -21.247754   1.000000
      4        -21.233388   1.000000
      5        -21.208425   1.000000
      6        -21.193713   1.000000
      7        -21.122196   1.000000
      8        -21.105447   1.000000
      9        -19.209385   1.000000
     10        -19.163497   1.000000
     11        -19.141371   1.000000
     12        -19.121696   1.000000
     13        -19.098384   1.000000
     14        -19.090812   1.000000
     15        -19.064242   1.000000
     16        -19.043547   1.000000
     17        -18.969769   1.000000
     18        -18.944795   1.000000
     19        -18.881970   1.000000
     20        -18.851406   1.000000
     21        -18.835896   1.000000
     22        -18.817645   1.000000
     23        -18.775201   1.000000
     24        -18.766048   1.000000
     25        -18.722987   1.000000
     26        -18.699518   1.000000
     27        -18.690842   1.000000
     28        -18.666907   1.000000
     29        -18.649814   1.000000
     30        -17.988218   1.000000
     31        -17.948065   1.000000
     32        -17.926770   1.000000
     33        -17.894058   1.000000
     34        -17.853654   1.000000
     35        -17.818796   1.000000
     36        -17.789436   1.000000
     37        -17.761959   1.000000
     38        -17.721832   1.000000
     39        -17.679686   1.000000
     40        -17.629551   1.000000
     41        -17.623077   1.000000
     42        -17.578745   1.000000
     43        -17.570407   1.000000
     44        -17.548396   1.000000
     45        -17.514831   1.000000
     46         -7.111243   1.000000
     47         -7.028660   1.000000
     48         -6.999792   1.000000
     49         -6.989584   1.000000
     50         -6.956588   1.000000
     51         -6.924031   1.000000
     52         -6.897537   1.000000
     53         -6.825973   1.000000
     54         -5.591625   1.000000
     55         -5.518152   1.000000
     56         -5.508139   1.000000
     57         -5.495359   1.000000
     58         -5.444685   1.000000
     59         -5.399572   1.000000
     60         -5.396792   1.000000
     61         -5.372417   1.000000
     62         -5.359771   1.000000
     63         -5.347956   1.000000
     64         -5.335786   1.000000
     65         -5.257197   1.000000
     66         -5.245765   1.000000
     67         -5.191658   1.000000
     68         -5.161996   1.000000
     69         -5.136388   1.000000
     70         -5.115024   1.000000
     71         -5.067798   1.000000
     72         -4.951872   1.000000
     73         -4.855465   1.000000
     74         -4.821441   1.000000
     75         -4.750204   1.000000
     76         -4.639173   1.000000
     77         -4.552879   1.000000
     78         -1.936817   1.000000
     79         -1.882739   1.000000
     80         -1.779986   1.000000
     81         -1.774644   1.000000
     82         -1.702983   1.000000
     83         -1.657902   1.000000
     84         -1.612513   1.000000
     85         -1.605228   1.000000
     86         -1.547446   1.000000
     87         -1.480258   1.000000
     88         -1.448477   1.000000
     89         -1.432964   1.000000
     90         -1.400879   1.000000
     91         -1.364747   1.000000
     92         -1.347562   1.000000
     93         -1.311749   1.000000
     94         -1.296492   1.000000
     95         -1.227329   1.000000
     96         -1.210447   1.000000
     97         -1.152424   1.000000
     98         -1.138425   1.000000
     99         -1.070139   1.000000
    100         -1.038586   1.000000
    101         -0.978062   1.000000
    102         -0.951228   1.000000
    103         -0.830089   1.000000
    104         -0.784764   1.000000
    105         -0.738567   1.000000
    106         -0.721237   1.000000
    107         -0.666272   1.000000
    108         -0.616761   1.000000
    109         -0.552686   1.000000
    110          0.094152   1.000000
    111          0.184631   1.000000
    112          0.216318   1.000000
    113          0.239621   0.999996
    114          0.251349   0.999983
    115          0.310929   0.993051
    116          0.369287   0.790812
    117          0.404909   0.421412
    118          5.818164   0.000000
    119          5.835858   0.000000
    120          5.926546   0.000000
    121          6.032304   0.000000
    122          6.112084   0.000000
    123          6.138104   0.000000
    124          6.247470   0.000000
    125          6.307712   0.000000
    126          6.632948   0.000000
    127          6.950444   0.000000
    128          6.981107   0.000000
    129          7.012926   0.000000
    130          7.063315   0.000000
    131          7.189290   0.000000
    132          7.245389   0.000000
    133          7.251943   0.000000
    134          7.381274   0.000000
    135          7.427858   0.000000
    136          7.471164   0.000000
    137          7.488089   0.000000
    138          7.562231   0.000000
    139          7.584238   0.000000
    140          7.632185   0.000000
    141          7.697031   0.000000
    142          7.746067   0.000000
    143          7.775711   0.000000
    144          7.787747   0.000000
 
  0.1193868E-14  0.5000000E+00 -0.1250000E+00  0.1562500E-01
      1        -21.275162   1.000000
      2        -21.266112   1.000000
      3        -21.263455   1.000000
      4        -21.222512   1.000000
      5        -21.211968   1.000000
      6        -21.191236   1.000000
      7        -21.121921   1.000000
      8        -21.103361   1.000000
      9        -19.188823   1.000000
     10        -19.180205   1.000000
     11        -19.160920   1.000000
     12        -19.130685   1.000000
     13        -19.119560   1.000000
     14        -19.072280   1.000000
     15        -19.041032   1.000000
     16        -19.014806   1.000000
     17        -18.972584   1.000000
     18        -18.960238   1.000000
     19        -18.890124   1.000000
     20        -18.859396   1.000000
     21        -18.845370   1.000000
     22        -18.833499   1.000000
     23        -18.780242   1.000000
     24        -18.751568   1.000000
     25        -18.704766   1.000000
     26        -18.696466   1.000000
     27        -18.684700   1.000000
     28        -18.660245   1.000000
     29        -18.650192   1.000000
     30        -18.023451   1.000000
     31        -17.958369   1.000000
     32        -17.900355   1.000000
     33        -17.879690   1.000000
     34        -17.849687   1.000000
     35        -17.803662   1.000000
     36        -17.793190   1.000000
     37        -17.771896   1.000000
     38        -17.730030   1.000000
     39        -17.686616   1.000000
     40        -17.631206   1.000000
     41        -17.616678   1.000000
     42        -17.593378   1.000000
     43        -17.554565   1.000000
     44        -17.540050   1.000000
     45        -17.523194   1.000000
     46         -7.119218   1.000000
     47         -7.025774   1.000000
     48         -7.003650   1.000000
     49         -6.989124   1.000000
     50         -6.959930   1.000000
     51         -6.937076   1.000000
     52         -6.870365   1.000000
     53         -6.822783   1.000000
     54         -5.567959   1.000000
     55         -5.554825   1.000000
     56         -5.486811   1.000000
     57         -5.471033   1.000000
     58         -5.466988   1.000000
     59         -5.425849   1.000000
     60         -5.399166   1.000000
     61         -5.368627   1.000000
     62         -5.365093   1.000000
     63         -5.333644   1.000000
     64         -5.304009   1.000000
     65         -5.272639   1.000000
     66         -5.237708   1.000000
     67         -5.210753   1.000000
     68         -5.190764   1.000000
     69         -5.136303   1.000000
     70         -5.098396   1.000000
     71         -5.080557   1.000000
     72         -4.948243   1.000000
     73         -4.842376   1.000000
     74         -4.823739   1.000000
     75         -4.742964   1.000000
     76         -4.631699   1.000000
     77         -4.565484   1.000000
     78         -1.936012   1.000000
     79         -1.899110   1.000000
     80         -1.815099   1.000000
     81         -1.780165   1.000000
     82         -1.677969   1.000000
     83         -1.645976   1.000000
     84         -1.578033   1.000000
     85         -1.571677   1.000000
     86         -1.547510   1.000000
     87         -1.518852   1.000000
     88         -1.452470   1.000000
     89         -1.416595   1.000000
     90         -1.399931   1.000000
     91         -1.372731   1.000000
     92         -1.367544   1.000000
     93         -1.337557   1.000000
     94         -1.283058   1.000000
     95         -1.251021   1.000000
     96         -1.171197   1.000000
     97         -1.157581   1.000000
     98         -1.129624   1.000000
     99         -1.089735   1.000000
    100         -1.025845   1.000000
    101         -0.984395   1.000000
    102         -0.871332   1.000000
    103         -0.858185   1.000000
    104         -0.776909   1.000000
    105         -0.767065   1.000000
    106         -0.704297   1.000000
    107         -0.662682   1.000000
    108         -0.626655   1.000000
    109         -0.579895   1.000000
    110          0.099430   1.000000
    111          0.188153   1.000000
    112          0.223463   1.000000
    113          0.236139   0.999998
    114          0.274585   0.999757
    115          0.289312   0.998934
    116          0.359622   0.860515
    117          0.401689   0.457309
    118          5.767633   0.000000
    119          5.829307   0.000000
    120          5.899265   0.000000
    121          6.058194   0.000000
    122          6.129117   0.000000
    123          6.149404   0.000000
    124          6.285936   0.000000
    125          6.330752   0.000000
    126          6.648242   0.000000
    127          6.905015   0.000000
    128          6.986802   0.000000
    129          7.034773   0.000000
    130          7.097740   0.000000
    131          7.180437   0.000000
    132          7.188937   0.000000
    133          7.268861   0.000000
    134          7.367354   0.000000
    135          7.417069   0.000000
    136          7.430023   0.000000
    137          7.498372   0.000000
    138          7.583792   0.000000
    139          7.607017   0.000000
    140          7.647967   0.000000
    141          7.687918   0.000000
    142          7.702791   0.000000
    143          7.742866   0.000000
    144          7.801945   0.000000
 
 -0.2500000E+00  0.1254464E-14  0.1250000E+00  0.1562500E-01
      1        -21.282402   1.000000
      2        -21.267770   1.000000
      3        -21.247928   1.000000
      4        -21.230070   1.000000
      5        -21.211948   1.000000
      6        -21.187374   1.000000
      7        -21.122758   1.000000
      8        -21.105783   1.000000
      9        -19.211219   1.000000
     10        -19.175983   1.000000
     11        -19.155626   1.000000
     12        -19.123521   1.000000
     13        -19.102900   1.000000
     14        -19.085497   1.000000
     15        -19.033666   1.000000
     16        -19.020729   1.000000
     17        -18.966456   1.000000
     18        -18.927771   1.000000
     19        -18.907564   1.000000
     20        -18.875943   1.000000
     21        -18.855027   1.000000
     22        -18.802932   1.000000
     23        -18.777503   1.000000
     24        -18.761982   1.000000
     25        -18.733860   1.000000
     26        -18.696098   1.000000
     27        -18.674287   1.000000
     28        -18.670658   1.000000
     29        -18.642856   1.000000
     30        -17.981686   1.000000
     31        -17.975742   1.000000
     32        -17.899467   1.000000
     33        -17.883318   1.000000
     34        -17.860393   1.000000
     35        -17.814029   1.000000
     36        -17.809083   1.000000
     37        -17.804406   1.000000
     38        -17.686046   1.000000
     39        -17.652462   1.000000
     40        -17.637694   1.000000
     41        -17.628566   1.000000
     42        -17.580963   1.000000
     43        -17.571900   1.000000
     44        -17.550341   1.000000
     45        -17.515003   1.000000
     46         -7.112210   1.000000
     47         -7.027617   1.000000
     48         -7.004053   1.000000
     49         -6.986307   1.000000
     50         -6.954523   1.000000
     51         -6.925987   1.000000
     52         -6.870510   1.000000
     53         -6.853456   1.000000
     54         -5.568872   1.000000
     55         -5.543471   1.000000
     56         -5.506453   1.000000
     57         -5.488328   1.000000
     58         -5.462174   1.000000
     59         -5.436464   1.000000
     60         -5.411978   1.000000
     61         -5.367763   1.000000
     62         -5.363676   1.000000
     63         -5.317852   1.000000
     64         -5.289839   1.000000
     65         -5.256111   1.000000
     66         -5.239633   1.000000
     67         -5.206958   1.000000
     68         -5.155441   1.000000
     69         -5.134325   1.000000
     70         -5.121906   1.000000
     71         -5.046259   1.000000
     72         -4.956761   1.000000
     73         -4.850247   1.000000
     74         -4.821160   1.000000
     75         -4.769272   1.000000
     76         -4.670998   1.000000
     77         -4.532446   1.000000
     78         -1.921635   1.000000
     79         -1.868077   1.000000
     80         -1.819772   1.000000
     81         -1.773554   1.000000
     82         -1.725605   1.000000
     83         -1.656561   1.000000
     84         -1.619368   1.000000
     85         -1.585301   1.000000
     86         -1.498873   1.000000
     87         -1.491167   1.000000
     88         -1.453664   1.000000
     89         -1.423655   1.000000
     90         -1.403027   1.000000
     91         -1.375085   1.000000
     92         -1.327747   1.000000
     93         -1.292989   1.000000
     94         -1.268149   1.000000
     95         -1.260771   1.000000
     96         -1.222110   1.000000
     97         -1.145494   1.000000
     98         -1.122049   1.000000
     99         -1.078918   1.000000
    100         -1.065175   1.000000
    101         -1.015017   1.000000
    102         -0.976973   1.000000
    103         -0.832299   1.000000
    104         -0.777496   1.000000
    105         -0.734336   1.000000
    106         -0.687255   1.000000
    107         -0.672518   1.000000
    108         -0.602134   1.000000
    109         -0.561848   1.000000
    110          0.089222   1.000000
    111          0.172532   1.000000
    112          0.211341   1.000000
    113          0.252161   0.999981
    114          0.271246   0.999830
    115          0.316416   0.989407
    116          0.360870   0.852525
    117          0.399664   0.480088
    118          5.786223   0.000000
    119          5.872643   0.000000
    120          5.937923   0.000000
    121          5.970651   0.000000
    122          6.177412   0.000000
    123          6.199921   0.000000
    124          6.222397   0.000000
    125          6.249351   0.000000
    126          6.529178   0.000000
    127          6.920382   0.000000
    128          7.012727   0.000000
    129          7.028710   0.000000
    130          7.134433   0.000000
    131          7.150948   0.000000
    132          7.227871   0.000000
    133          7.329165   0.000000
    134          7.337227   0.000000
    135          7.420518   0.000000
    136          7.504013   0.000000
    137          7.536101   0.000000
    138          7.563956   0.000000
    139          7.642838   0.000000
    140          7.704299   0.000000
    141          7.720478   0.000000
    142          7.723586   0.000000
    143          7.772583   0.000000
    144          7.797355   0.000000
 
  0.1213361E-14  0.2500000E+00 -0.1250000E+00  0.1562500E-01
      1        -21.276704   1.000000
      2        -21.265063   1.000000
      3        -21.262232   1.000000
      4        -21.230824   1.000000
      5        -21.208503   1.000000
      6        -21.183966   1.000000
      7        -21.122584   1.000000
      8        -21.105803   1.000000
      9        -19.201582   1.000000
     10        -19.185022   1.000000
     11        -19.159765   1.000000
     12        -19.126060   1.000000
     13        -19.118001   1.000000
     14        -19.087525   1.000000
     15        -19.048214   1.000000
     16        -18.987324   1.000000
     17        -18.959224   1.000000
     18        -18.910616   1.000000
     19        -18.894214   1.000000
     20        -18.876980   1.000000
     21        -18.858458   1.000000
     22        -18.832219   1.000000
     23        -18.795065   1.000000
     24        -18.762881   1.000000
     25        -18.717615   1.000000
     26        -18.707880   1.000000
     27        -18.673599   1.000000
     28        -18.657308   1.000000
     29        -18.640142   1.000000
     30        -18.017091   1.000000
     31        -17.944439   1.000000
     32        -17.894979   1.000000
     33        -17.893355   1.000000
     34        -17.852734   1.000000
     35        -17.827584   1.000000
     36        -17.805244   1.000000
     37        -17.788592   1.000000
     38        -17.699890   1.000000
     39        -17.669144   1.000000
     40        -17.615687   1.000000
     41        -17.597619   1.000000
     42        -17.593889   1.000000
     43        -17.575735   1.000000
     44        -17.548118   1.000000
     45        -17.529835   1.000000
     46         -7.111163   1.000000
     47         -7.044602   1.000000
     48         -7.015456   1.000000
     49         -6.971447   1.000000
     50         -6.960187   1.000000
     51         -6.905508   1.000000
     52         -6.866417   1.000000
     53         -6.854392   1.000000
     54         -5.562697   1.000000
     55         -5.546438   1.000000
     56         -5.500249   1.000000
     57         -5.484003   1.000000
     58         -5.478331   1.000000
     59         -5.418836   1.000000
     60         -5.406578   1.000000
     61         -5.381859   1.000000
     62         -5.357829   1.000000
     63         -5.321500   1.000000
     64         -5.294423   1.000000
     65         -5.271654   1.000000
     66         -5.229969   1.000000
     67         -5.216787   1.000000
     68         -5.171466   1.000000
     69         -5.139970   1.000000
     70         -5.090768   1.000000
     71         -5.060588   1.000000
     72         -4.966352   1.000000
     73         -4.833275   1.000000
     74         -4.818988   1.000000
     75         -4.768222   1.000000
     76         -4.671411   1.000000
     77         -4.535240   1.000000
     78         -1.933019   1.000000
     79         -1.888544   1.000000
     80         -1.817621   1.000000
     81         -1.767093   1.000000
     82         -1.691352   1.000000
     83         -1.647376   1.000000
     84         -1.615539   1.000000
     85         -1.568664   1.000000
     86         -1.538804   1.000000
     87         -1.499065   1.000000
     88         -1.447631   1.000000
     89         -1.435417   1.000000
     90         -1.402849   1.000000
     91         -1.381557   1.000000
     92         -1.334335   1.000000
     93         -1.307311   1.000000
     94         -1.275168   1.000000
     95         -1.243117   1.000000
     96         -1.191553   1.000000
     97         -1.148087   1.000000
     98         -1.115920   1.000000
     99         -1.096121   1.000000
    100         -1.059420   1.000000
    101         -1.002807   1.000000
    102         -0.908250   1.000000
    103         -0.834684   1.000000
    104         -0.791899   1.000000
    105         -0.751319   1.000000
    106         -0.735366   1.000000
    107         -0.630185   1.000000
    108         -0.621616   1.000000
    109         -0.574319   1.000000
    110          0.103799   1.000000
    111          0.190191   1.000000
    112          0.211579   1.000000
    113          0.255057   0.999973
    114          0.271110   0.999832
    115          0.289536   0.998911
    116          0.370706   0.779086
    117          0.383415   0.658972
    118          5.750898   0.000000
    119          5.865196   0.000000
    120          5.889198   0.000000
    121          6.048379   0.000000
    122          6.132007   0.000000
    123          6.211531   0.000000
    124          6.254072   0.000000
    125          6.287437   0.000000
    126          6.521583   0.000000
    127          6.931544   0.000000
    128          7.004777   0.000000
    129          7.058562   0.000000
    130          7.116980   0.000000
    131          7.160447   0.000000
    132          7.237044   0.000000
    133          7.266918   0.000000
    134          7.378473   0.000000
    135          7.425622   0.000000
    136          7.444003   0.000000
    137          7.569922   0.000000
    138          7.596341   0.000000
    139          7.638019   0.000000
    140          7.670424   0.000000
    141          7.693043   0.000000
    142          7.713433   0.000000
    143          7.759548   0.000000
    144          7.778620   0.000000
 
  0.2500000E+00  0.2500000E+00  0.1250000E+00  0.1562500E-01
      1        -21.298288   1.000000
      2        -21.275604   1.000000
      3        -21.251200   1.000000
      4        -21.237179   1.000000
      5        -21.193247   1.000000
      6        -21.185578   1.000000
      7        -21.126734   1.000000
      8        -21.079213   1.000000
      9        -19.244323   1.000000
     10        -19.232161   1.000000
     11        -19.167499   1.000000
     12        -19.128468   1.000000
     13        -19.114800   1.000000
     14        -19.091570   1.000000
     15        -19.073862   1.000000
     16        -19.052458   1.000000
     17        -18.958120   1.000000
     18        -18.930788   1.000000
     19        -18.902966   1.000000
     20        -18.885847   1.000000
     21        -18.834715   1.000000
     22        -18.790202   1.000000
     23        -18.751188   1.000000
     24        -18.747534   1.000000
     25        -18.717394   1.000000
     26        -18.621265   1.000000
     27        -18.609734   1.000000
     28        -18.597662   1.000000
     29        -18.570260   1.000000
     30        -18.062165   1.000000
     31        -18.008613   1.000000
     32        -17.994402   1.000000
     33        -17.944269   1.000000
     34        -17.891291   1.000000
     35        -17.875864   1.000000
     36        -17.822980   1.000000
     37        -17.790731   1.000000
     38        -17.660995   1.000000
     39        -17.650329   1.000000
     40        -17.647791   1.000000
     41        -17.622195   1.000000
     42        -17.545730   1.000000
     43        -17.535107   1.000000
     44        -17.508699   1.000000
     45        -17.478075   1.000000
     46         -7.262968   1.000000
     47         -7.045066   1.000000
     48         -7.019701   1.000000
     49         -6.964157   1.000000
     50         -6.952180   1.000000
     51         -6.853188   1.000000
     52         -6.838993   1.000000
     53         -6.762539   1.000000
     54         -5.608196   1.000000
     55         -5.589323   1.000000
     56         -5.564351   1.000000
     57         -5.542599   1.000000
     58         -5.484171   1.000000
     59         -5.456480   1.000000
     60         -5.399278   1.000000
     61         -5.350102   1.000000
     62         -5.321512   1.000000
     63         -5.319161   1.000000
     64         -5.272360   1.000000
     65         -5.234297   1.000000
     66         -5.204985   1.000000
     67         -5.150765   1.000000
     68         -5.132859   1.000000
     69         -5.115576   1.000000
     70         -5.099289   1.000000
     71         -4.979292   1.000000
     72         -4.962019   1.000000
     73         -4.863690   1.000000
     74         -4.809247   1.000000
     75         -4.787220   1.000000
     76         -4.776063   1.000000
     77         -4.460173   1.000000
     78         -2.028636   1.000000
     79         -1.966721   1.000000
     80         -1.947190   1.000000
     81         -1.818693   1.000000
     82         -1.814726   1.000000
     83         -1.685078   1.000000
     84         -1.622733   1.000000
     85         -1.613723   1.000000
     86         -1.472274   1.000000
     87         -1.467306   1.000000
     88         -1.432297   1.000000
     89         -1.410524   1.000000
     90         -1.399588   1.000000
     91         -1.352238   1.000000
     92         -1.318959   1.000000
     93         -1.254571   1.000000
     94         -1.249264   1.000000
     95         -1.176467   1.000000
     96         -1.161733   1.000000
     97         -1.105127   1.000000
     98         -1.071128   1.000000
     99         -1.029829   1.000000
    100         -1.010195   1.000000
    101         -0.966156   1.000000
    102         -0.938586   1.000000
    103         -0.890588   1.000000
    104         -0.829976   1.000000
    105         -0.777731   1.000000
    106         -0.739570   1.000000
    107         -0.661279   1.000000
    108         -0.508456   1.000000
    109         -0.498594   1.000000
    110         -0.129932   1.000000
    111          0.153840   1.000000
    112          0.197647   1.000000
    113          0.269702   0.999856
    114          0.286127   0.999215
    115          0.361621   0.847573
    116          0.406047   0.408858
    117          0.440178   0.115879
    118          5.748028   0.000000
    119          5.795149   0.000000
    120          5.909582   0.000000
    121          5.977305   0.000000
    122          6.048720   0.000000
    123          6.207171   0.000000
    124          6.268843   0.000000
    125          6.297909   0.000000
    126          6.478139   0.000000
    127          6.859346   0.000000
    128          7.024870   0.000000
    129          7.115545   0.000000
    130          7.123276   0.000000
    131          7.189957   0.000000
    132          7.244343   0.000000
    133          7.303553   0.000000
    134          7.399024   0.000000
    135          7.483693   0.000000
    136          7.527471   0.000000
    137          7.560824   0.000000
    138          7.596004   0.000000
    139          7.641602   0.000000
    140          7.668779   0.000000
    141          7.692126   0.000000
    142          7.723284   0.000000
    143          7.791115   0.000000
    144          7.812701   0.000000
 
  0.5000000E+00  0.2500000E+00  0.1250000E+00  0.1562500E-01
      1        -21.294269   1.000000
      2        -21.276501   1.000000
      3        -21.244684   1.000000
      4        -21.235324   1.000000
      5        -21.207964   1.000000
      6        -21.181125   1.000000
      7        -21.124566   1.000000
      8        -21.085265   1.000000
      9        -19.250050   1.000000
     10        -19.188607   1.000000
     11        -19.148082   1.000000
     12        -19.133310   1.000000
     13        -19.105216   1.000000
     14        -19.100561   1.000000
     15        -19.056379   1.000000
     16        -19.029585   1.000000
     17        -19.007478   1.000000
     18        -18.921239   1.000000
     19        -18.906210   1.000000
     20        -18.853800   1.000000
     21        -18.843430   1.000000
     22        -18.789324   1.000000
     23        -18.777981   1.000000
     24        -18.729796   1.000000
     25        -18.726721   1.000000
     26        -18.673720   1.000000
     27        -18.635987   1.000000
     28        -18.624320   1.000000
     29        -18.609365   1.000000
     30        -18.039561   1.000000
     31        -17.998925   1.000000
     32        -17.944765   1.000000
     33        -17.900134   1.000000
     34        -17.881420   1.000000
     35        -17.847560   1.000000
     36        -17.814089   1.000000
     37        -17.770854   1.000000
     38        -17.699847   1.000000
     39        -17.658555   1.000000
     40        -17.621098   1.000000
     41        -17.612225   1.000000
     42        -17.591777   1.000000
     43        -17.566192   1.000000
     44        -17.529230   1.000000
     45        -17.472269   1.000000
     46         -7.206856   1.000000
     47         -7.030839   1.000000
     48         -7.013447   1.000000
     49         -6.964110   1.000000
     50         -6.954970   1.000000
     51         -6.903528   1.000000
     52         -6.845221   1.000000
     53         -6.802956   1.000000
     54         -5.603750   1.000000
     55         -5.568428   1.000000
     56         -5.520721   1.000000
     57         -5.508284   1.000000
     58         -5.479330   1.000000
     59         -5.412783   1.000000
     60         -5.388431   1.000000
     61         -5.349466   1.000000
     62         -5.334002   1.000000
     63         -5.328314   1.000000
     64         -5.310193   1.000000
     65         -5.254133   1.000000
     66         -5.223903   1.000000
     67         -5.167064   1.000000
     68         -5.138239   1.000000
     69         -5.131163   1.000000
     70         -5.100251   1.000000
     71         -5.070504   1.000000
     72         -4.954352   1.000000
     73         -4.840609   1.000000
     74         -4.832196   1.000000
     75         -4.773127   1.000000
     76         -4.693468   1.000000
     77         -4.516096   1.000000
     78         -1.989791   1.000000
     79         -1.926869   1.000000
     80         -1.893604   1.000000
     81         -1.792287   1.000000
     82         -1.758214   1.000000
     83         -1.673338   1.000000
     84         -1.641397   1.000000
     85         -1.595272   1.000000
     86         -1.481551   1.000000
     87         -1.456573   1.000000
     88         -1.449892   1.000000
     89         -1.409278   1.000000
     90         -1.390845   1.000000
     91         -1.370260   1.000000
     92         -1.304843   1.000000
     93         -1.296273   1.000000
     94         -1.242867   1.000000
     95         -1.209854   1.000000
     96         -1.178006   1.000000
     97         -1.157105   1.000000
     98         -1.093350   1.000000
     99         -1.082447   1.000000
    100         -1.016079   1.000000
    101         -0.983822   1.000000
    102         -0.936935   1.000000
    103         -0.889545   1.000000
    104         -0.819763   1.000000
    105         -0.736254   1.000000
    106         -0.688290   1.000000
    107         -0.641789   1.000000
    108         -0.580946   1.000000
    109         -0.549708   1.000000
    110         -0.034148   1.000000
    111          0.158634   1.000000
    112          0.207324   1.000000
    113          0.262098   0.999939
    114          0.289919   0.998871
    115          0.325132   0.980212
    116          0.395888   0.522669
    117          0.427926   0.197852
    118          5.765503   0.000000
    119          5.811896   0.000000
    120          5.907244   0.000000
    121          5.972624   0.000000
    122          6.069922   0.000000
    123          6.204901   0.000000
    124          6.281912   0.000000
    125          6.371173   0.000000
    126          6.489739   0.000000
    127          6.937214   0.000000
    128          7.021684   0.000000
    129          7.053303   0.000000
    130          7.091793   0.000000
    131          7.213825   0.000000
    132          7.247484   0.000000
    133          7.295839   0.000000
    134          7.328479   0.000000
    135          7.452347   0.000000
    136          7.496630   0.000000
    137          7.560229   0.000000
    138          7.586565   0.000000
    139          7.637642   0.000000
    140          7.665005   0.000000
    141          7.719291   0.000000
    142          7.743380   0.000000
    143          7.779528   0.000000
    144          7.822327   0.000000
 
 -0.2500000E+00  0.5000000E+00 -0.1250000E+00  0.1562500E-01
      1        -21.289947   1.000000
      2        -21.277848   1.000000
      3        -21.256395   1.000000
      4        -21.233704   1.000000
      5        -21.198473   1.000000
      6        -21.182238   1.000000
      7        -21.127602   1.000000
      8        -21.083152   1.000000
      9        -19.229131   1.000000
     10        -19.192428   1.000000
     11        -19.187505   1.000000
     12        -19.134788   1.000000
     13        -19.111814   1.000000
     14        -19.088405   1.000000
     15        -19.065320   1.000000
     16        -19.005702   1.000000
     17        -18.980911   1.000000
     18        -18.946474   1.000000
     19        -18.893733   1.000000
     20        -18.884928   1.000000
     21        -18.835918   1.000000
     22        -18.793443   1.000000
     23        -18.777238   1.000000
     24        -18.737836   1.000000
     25        -18.708900   1.000000
     26        -18.654023   1.000000
     27        -18.643397   1.000000
     28        -18.621143   1.000000
     29        -18.609842   1.000000
     30        -18.061047   1.000000
     31        -17.983816   1.000000
     32        -17.956028   1.000000
     33        -17.941144   1.000000
     34        -17.871608   1.000000
     35        -17.830400   1.000000
     36        -17.791767   1.000000
     37        -17.747406   1.000000
     38        -17.694564   1.000000
     39        -17.670435   1.000000
     40        -17.645928   1.000000
     41        -17.625288   1.000000
     42        -17.576680   1.000000
     43        -17.542792   1.000000
     44        -17.518881   1.000000
     45        -17.499341   1.000000
     46         -7.208338   1.000000
     47         -7.029341   1.000000
     48         -7.018400   1.000000
     49         -6.976888   1.000000
     50         -6.953692   1.000000
     51         -6.890753   1.000000
     52         -6.837863   1.000000
     53         -6.800965   1.000000
     54         -5.594673   1.000000
     55         -5.575040   1.000000
     56         -5.538986   1.000000
     57         -5.514317   1.000000
     58         -5.449192   1.000000
     59         -5.427262   1.000000
     60         -5.378294   1.000000
     61         -5.347649   1.000000
     62         -5.335193   1.000000
     63         -5.310596   1.000000
     64         -5.299017   1.000000
     65         -5.274170   1.000000
     66         -5.208463   1.000000
     67         -5.201112   1.000000
     68         -5.172286   1.000000
     69         -5.124412   1.000000
     70         -5.104323   1.000000
     71         -5.053844   1.000000
     72         -4.948842   1.000000
     73         -4.855917   1.000000
     74         -4.832550   1.000000
     75         -4.756920   1.000000
     76         -4.679987   1.000000
     77         -4.523984   1.000000
     78         -1.988004   1.000000
     79         -1.936076   1.000000
     80         -1.909694   1.000000
     81         -1.783081   1.000000
     82         -1.748926   1.000000
     83         -1.665304   1.000000
     84         -1.628026   1.000000
     85         -1.599616   1.000000
     86         -1.510077   1.000000
     87         -1.486246   1.000000
     88         -1.424793   1.000000
     89         -1.421274   1.000000
     90         -1.377495   1.000000
     91         -1.357776   1.000000
     92         -1.337113   1.000000
     93         -1.291065   1.000000
     94         -1.266020   1.000000
     95         -1.216355   1.000000
     96         -1.147443   1.000000
     97         -1.127841   1.000000
     98         -1.114546   1.000000
     99         -1.054743   1.000000
    100         -0.984023   1.000000
    101         -0.975437   1.000000
    102         -0.934256   1.000000
    103         -0.855973   1.000000
    104         -0.818103   1.000000
    105         -0.757190   1.000000
    106         -0.740657   1.000000
    107         -0.631243   1.000000
    108         -0.588595   1.000000
    109         -0.553170   1.000000
    110         -0.031538   1.000000
    111          0.163480   1.000000
    112          0.210125   1.000000
    113          0.265848   0.999906
    114          0.281324   0.999512
    115          0.351034   0.907500
    116          0.378115   0.712107
    117          0.411282   0.352517
    118          5.754610   0.000000
    119          5.803771   0.000000
    120          5.850480   0.000000
    121          5.992463   0.000000
    122          6.051578   0.000000
    123          6.241537   0.000000
    124          6.326523   0.000000
    125          6.406886   0.000000
    126          6.493882   0.000000
    127          6.897023   0.000000
    128          7.012705   0.000000
    129          7.091320   0.000000
    130          7.108447   0.000000
    131          7.132556   0.000000
    132          7.270439   0.000000
    133          7.315121   0.000000
    134          7.355609   0.000000
    135          7.417814   0.000000
    136          7.469259   0.000000
    137          7.550941   0.000000
    138          7.600422   0.000000
    139          7.642805   0.000000
    140          7.662507   0.000000
    141          7.719669   0.000000
    142          7.735818   0.000000
    143          7.758750   0.000000
    144          7.825706   0.000000
 
 -0.2500000E+00  0.2500000E+00  0.1250000E+00  0.1562500E-01
      1        -21.285368   1.000000
      2        -21.259858   1.000000
      3        -21.245520   1.000000
      4        -21.236174   1.000000
      5        -21.212617   1.000000
      6        -21.191145   1.000000
      7        -21.120467   1.000000
      8        -21.105112   1.000000
      9        -19.221763   1.000000
     10        -19.168388   1.000000
     11        -19.134992   1.000000
     12        -19.124193   1.000000
     13        -19.087929   1.000000
     14        -19.084657   1.000000
     15        -19.044130   1.000000
     16        -19.026630   1.000000
     17        -18.993563   1.000000
     18        -18.926281   1.000000
     19        -18.919545   1.000000
     20        -18.881459   1.000000
     21        -18.842478   1.000000
     22        -18.813949   1.000000
     23        -18.780841   1.000000
     24        -18.731235   1.000000
     25        -18.720613   1.000000
     26        -18.709612   1.000000
     27        -18.691614   1.000000
     28        -18.659852   1.000000
     29        -18.637280   1.000000
     30        -17.997835   1.000000
     31        -17.954952   1.000000
     32        -17.915419   1.000000
     33        -17.902231   1.000000
     34        -17.853693   1.000000
     35        -17.802464   1.000000
     36        -17.798021   1.000000
     37        -17.731619   1.000000
     38        -17.713460   1.000000
     39        -17.700886   1.000000
     40        -17.654105   1.000000
     41        -17.624202   1.000000
     42        -17.593999   1.000000
     43        -17.582862   1.000000
     44        -17.530221   1.000000
     45        -17.496718   1.000000
     46         -7.104518   1.000000
     47         -7.044802   1.000000
     48         -7.011425   1.000000
     49         -6.996268   1.000000
     50         -6.939718   1.000000
     51         -6.901370   1.000000
     52         -6.888838   1.000000
     53         -6.847066   1.000000
     54         -5.583585   1.000000
     55         -5.539104   1.000000
     56         -5.494976   1.000000
     57         -5.466384   1.000000
     58         -5.449088   1.000000
     59         -5.419710   1.000000
     60         -5.416621   1.000000
     61         -5.391632   1.000000
     62         -5.345903   1.000000
     63         -5.337190   1.000000
     64         -5.318881   1.000000
     65         -5.271753   1.000000
     66         -5.242378   1.000000
     67         -5.198503   1.000000
     68         -5.146589   1.000000
     69         -5.140227   1.000000
     70         -5.110283   1.000000
     71         -5.070367   1.000000
     72         -4.952313   1.000000
     73         -4.850239   1.000000
     74         -4.828583   1.000000
     75         -4.744921   1.000000
     76         -4.636890   1.000000
     77         -4.560654   1.000000
     78         -1.937981   1.000000
     79         -1.867622   1.000000
     80         -1.833992   1.000000
     81         -1.762113   1.000000
     82         -1.691878   1.000000
     83         -1.662012   1.000000
     84         -1.617819   1.000000
     85         -1.575426   1.000000
     86         -1.534968   1.000000
     87         -1.490094   1.000000
     88         -1.443946   1.000000
     89         -1.415075   1.000000
     90         -1.409193   1.000000
     91         -1.362219   1.000000
     92         -1.353117   1.000000
     93         -1.293978   1.000000
     94         -1.272186   1.000000
     95         -1.246718   1.000000
     96         -1.228844   1.000000
     97         -1.168932   1.000000
     98         -1.131513   1.000000
     99         -1.087853   1.000000
    100         -1.042508   1.000000
    101         -1.006589   1.000000
    102         -0.964423   1.000000
    103         -0.808472   1.000000
    104         -0.764775   1.000000
    105         -0.731598   1.000000
    106         -0.683325   1.000000
    107         -0.666781   1.000000
    108         -0.628184   1.000000
    109         -0.577223   1.000000
    110          0.107543   1.000000
    111          0.175152   1.000000
    112          0.191585   1.000000
    113          0.218687   1.000000
    114          0.276907   0.999689
    115          0.344459   0.934670
    116          0.355184   0.886506
    117          0.403262   0.439715
    118          5.825101   0.000000
    119          5.836506   0.000000
    120          5.916253   0.000000
    121          5.999862   0.000000
    122          6.123633   0.000000
    123          6.195767   0.000000
    124          6.222688   0.000000
    125          6.301787   0.000000
    126          6.689450   0.000000
    127          6.905317   0.000000
    128          6.939832   0.000000
    129          7.024133   0.000000
    130          7.090863   0.000000
    131          7.122425   0.000000
    132          7.241094   0.000000
    133          7.251991   0.000000
    134          7.359533   0.000000
    135          7.428692   0.000000
    136          7.464934   0.000000
    137          7.509958   0.000000
    138          7.561257   0.000000
    139          7.637033   0.000000
    140          7.661449   0.000000
    141          7.710011   0.000000
    142          7.735258   0.000000
    143          7.751454   0.000000
    144          7.815021   0.000000
 
 -0.2500000E+00  0.2500000E+00 -0.1250000E+00  0.1562500E-01
      1        -21.282080   1.000000
      2        -21.269646   1.000000
      3        -21.252854   1.000000
      4        -21.222565   1.000000
      5        -21.206421   1.000000
      6        -21.195141   1.000000
      7        -21.123144   1.000000
      8        -21.104157   1.000000
      9        -19.209404   1.000000
     10        -19.170887   1.000000
     11        -19.135641   1.000000
     12        -19.118453   1.000000
     13        -19.102967   1.000000
     14        -19.098123   1.000000
     15        -19.064408   1.000000
     16        -19.013402   1.000000
     17        -18.998718   1.000000
     18        -18.924551   1.000000
     19        -18.900649   1.000000
     20        -18.862964   1.000000
     21        -18.838770   1.000000
     22        -18.810324   1.000000
     23        -18.798153   1.000000
     24        -18.739206   1.000000
     25        -18.725420   1.000000
     26        -18.711299   1.000000
     27        -18.677718   1.000000
     28        -18.647941   1.000000
     29        -18.645457   1.000000
     30        -18.042576   1.000000
     31        -17.945625   1.000000
     32        -17.927002   1.000000
     33        -17.890730   1.000000
     34        -17.827373   1.000000
     35        -17.821306   1.000000
     36        -17.773053   1.000000
     37        -17.747447   1.000000
     38        -17.694693   1.000000
     39        -17.682260   1.000000
     40        -17.656831   1.000000
     41        -17.617504   1.000000
     42        -17.610874   1.000000
     43        -17.563061   1.000000
     44        -17.544642   1.000000
     45        -17.514580   1.000000
     46         -7.114522   1.000000
     47         -7.040006   1.000000
     48         -7.004898   1.000000
     49         -6.995416   1.000000
     50         -6.956073   1.000000
     51         -6.896647   1.000000
     52         -6.875207   1.000000
     53         -6.845333   1.000000
     54         -5.583622   1.000000
     55         -5.531370   1.000000
     56         -5.496684   1.000000
     57         -5.482892   1.000000
     58         -5.452528   1.000000
     59         -5.411484   1.000000
     60         -5.408781   1.000000
     61         -5.395848   1.000000
     62         -5.358904   1.000000
     63         -5.322077   1.000000
     64         -5.295202   1.000000
     65         -5.266118   1.000000
     66         -5.242883   1.000000
     67         -5.218013   1.000000
     68         -5.184884   1.000000
     69         -5.149439   1.000000
     70         -5.099213   1.000000
     71         -5.072013   1.000000
     72         -4.930823   1.000000
     73         -4.867743   1.000000
     74         -4.821671   1.000000
     75         -4.741242   1.000000
     76         -4.628985   1.000000
     77         -4.563248   1.000000
     78         -1.933664   1.000000
     79         -1.871274   1.000000
     80         -1.847658   1.000000
     81         -1.744854   1.000000
     82         -1.712434   1.000000
     83         -1.628840   1.000000
     84         -1.610117   1.000000
     85         -1.575996   1.000000
     86         -1.550488   1.000000
     87         -1.517220   1.000000
     88         -1.460219   1.000000
     89         -1.411207   1.000000
     90         -1.400663   1.000000
     91         -1.380746   1.000000
     92         -1.345571   1.000000
     93         -1.330768   1.000000
     94         -1.263062   1.000000
     95         -1.251631   1.000000
     96         -1.187329   1.000000
     97         -1.157504   1.000000
     98         -1.139907   1.000000
     99         -1.086757   1.000000
    100         -1.022404   1.000000
    101         -0.978708   1.000000
    102         -0.865157   1.000000
    103         -0.826644   1.000000
    104         -0.795670   1.000000
    105         -0.756892   1.000000
    106         -0.714456   1.000000
    107         -0.697105   1.000000
    108         -0.619449   1.000000
    109         -0.572132   1.000000
    110          0.119666   1.000000
    111          0.185983   1.000000
    112          0.198950   1.000000
    113          0.216894   1.000000
    114          0.283914   0.999368
    115          0.325585   0.979588
    116          0.355318   0.885776
    117          0.384966   0.642735
    118          5.768393   0.000000
    119          5.839356   0.000000
    120          5.899405   0.000000
    121          6.053959   0.000000
    122          6.124143   0.000000
    123          6.170484   0.000000
    124          6.252203   0.000000
    125          6.338112   0.000000
    126          6.679293   0.000000
    127          6.930291   0.000000
    128          6.958638   0.000000
    129          7.006780   0.000000
    130          7.036549   0.000000
    131          7.125654   0.000000
    132          7.190487   0.000000
    133          7.283547   0.000000
    134          7.388893   0.000000
    135          7.434414   0.000000
    136          7.469692   0.000000
    137          7.511032   0.000000
    138          7.570409   0.000000
    139          7.621269   0.000000
    140          7.652427   0.000000
    141          7.678584   0.000000
    142          7.751662   0.000000
    143          7.773730   0.000000
    144          7.797265   0.000000
 
  0.5000000E+00  0.5000000E+00  0.1250000E+00  0.1562500E-01
      1        -21.294429   1.000000
      2        -21.279319   1.000000
      3        -21.265905   1.000000
      4        -21.238218   1.000000
      5        -21.189174   1.000000
      6        -21.178686   1.000000
      7        -21.125025   1.000000
      8        -21.074660   1.000000
      9        -19.231408   1.000000
     10        -19.221082   1.000000
     11        -19.177774   1.000000
     12        -19.156678   1.000000
     13        -19.123696   1.000000
     14        -19.087830   1.000000
     15        -19.049443   1.000000
     16        -19.019086   1.000000
     17        -19.000691   1.000000
     18        -18.919312   1.000000
     19        -18.866386   1.000000
     20        -18.849867   1.000000
     21        -18.826038   1.000000
     22        -18.788129   1.000000
     23        -18.762063   1.000000
     24        -18.758348   1.000000
     25        -18.722400   1.000000
     26        -18.670512   1.000000
     27        -18.645998   1.000000
     28        -18.622803   1.000000
     29        -18.601928   1.000000
     30        -18.027563   1.000000
     31        -18.004725   1.000000
     32        -17.950009   1.000000
     33        -17.922505   1.000000
     34        -17.910608   1.000000
     35        -17.852618   1.000000
     36        -17.793346   1.000000
     37        -17.759689   1.000000
     38        -17.717639   1.000000
     39        -17.651026   1.000000
     40        -17.614143   1.000000
     41        -17.600825   1.000000
     42        -17.574903   1.000000
     43        -17.552363   1.000000
     44        -17.528746   1.000000
     45        -17.501254   1.000000
     46         -7.197063   1.000000
     47         -7.046749   1.000000
     48         -7.027651   1.000000
     49         -6.974724   1.000000
     50         -6.958718   1.000000
     51         -6.868413   1.000000
     52         -6.841591   1.000000
     53         -6.813060   1.000000
     54         -5.599931   1.000000
     55         -5.577945   1.000000
     56         -5.548871   1.000000
     57         -5.489303   1.000000
     58         -5.441270   1.000000
     59         -5.404296   1.000000
     60         -5.378573   1.000000
     61         -5.339933   1.000000
     62         -5.326588   1.000000
     63         -5.317690   1.000000
     64         -5.272449   1.000000
     65         -5.256896   1.000000
     66         -5.225514   1.000000
     67         -5.190423   1.000000
     68         -5.167747   1.000000
     69         -5.117219   1.000000
     70         -5.092032   1.000000
     71         -5.081517   1.000000
     72         -5.021315   1.000000
     73         -4.872238   1.000000
     74         -4.751380   1.000000
     75         -4.745731   1.000000
     76         -4.736524   1.000000
     77         -4.551018   1.000000
     78         -1.997247   1.000000
     79         -1.979469   1.000000
     80         -1.891375   1.000000
     81         -1.751610   1.000000
     82         -1.716620   1.000000
     83         -1.679908   1.000000
     84         -1.652696   1.000000
     85         -1.591486   1.000000
     86         -1.503984   1.000000
     87         -1.475037   1.000000
     88         -1.439727   1.000000
     89         -1.396431   1.000000
     90         -1.388298   1.000000
     91         -1.367000   1.000000
     92         -1.328769   1.000000
     93         -1.283585   1.000000
     94         -1.226954   1.000000
     95         -1.217970   1.000000
     96         -1.153078   1.000000
     97         -1.133813   1.000000
     98         -1.108283   1.000000
     99         -1.054035   1.000000
    100         -1.017608   1.000000
    101         -0.980490   1.000000
    102         -0.934659   1.000000
    103         -0.857948   1.000000
    104         -0.838928   1.000000
    105         -0.744859   1.000000
    106         -0.731791   1.000000
    107         -0.624748   1.000000
    108         -0.611561   1.000000
    109         -0.532584   1.000000
    110         -0.025114   1.000000
    111          0.150403   1.000000
    112          0.195052   1.000000
    113          0.262039   0.999939
    114          0.281095   0.999523
    115          0.349563   0.914208
    116          0.398504   0.493164
    117          0.419490   0.270694
    118          5.706906   0.000000
    119          5.797379   0.000000
    120          5.860811   0.000000
    121          5.926152   0.000000
    122          6.031409   0.000000
    123          6.317871   0.000000
    124          6.328161   0.000000
    125          6.361477   0.000000
    126          6.625460   0.000000
    127          6.926802   0.000000
    128          6.974244   0.000000
    129          7.100978   0.000000
    130          7.120213   0.000000
    131          7.182450   0.000000
    132          7.257089   0.000000
    133          7.300824   0.000000
    134          7.413820   0.000000
    135          7.429648   0.000000
    136          7.511912   0.000000
    137          7.548222   0.000000
    138          7.601316   0.000000
    139          7.623252   0.000000
    140          7.651709   0.000000
    141          7.690216   0.000000
    142          7.721401   0.000000
    143          7.765122   0.000000
    144          7.787666   0.000000
 
 -0.2500000E+00  0.5000000E+00  0.1250000E+00  0.1562500E-01
      1        -21.285775   1.000000
      2        -21.274294   1.000000
      3        -21.250329   1.000000
      4        -21.242425   1.000000
      5        -21.205207   1.000000
      6        -21.178644   1.000000
      7        -21.125896   1.000000
      8        -21.089370   1.000000
      9        -19.226712   1.000000
     10        -19.191627   1.000000
     11        -19.145219   1.000000
     12        -19.120194   1.000000
     13        -19.109790   1.000000
     14        -19.098325   1.000000
     15        -19.066452   1.000000
     16        -19.021989   1.000000
     17        -18.948231   1.000000
     18        -18.912208   1.000000
     19        -18.906890   1.000000
     20        -18.872050   1.000000
     21        -18.811823   1.000000
     22        -18.793541   1.000000
     23        -18.787252   1.000000
     24        -18.750222   1.000000
     25        -18.739408   1.000000
     26        -18.720594   1.000000
     27        -18.672640   1.000000
     28        -18.658319   1.000000
     29        -18.641063   1.000000
     30        -17.987927   1.000000
     31        -17.961240   1.000000
     32        -17.924194   1.000000
     33        -17.895303   1.000000
     34        -17.856826   1.000000
     35        -17.831657   1.000000
     36        -17.793973   1.000000
     37        -17.762492   1.000000
     38        -17.743318   1.000000
     39        -17.643421   1.000000
     40        -17.625002   1.000000
     41        -17.611439   1.000000
     42        -17.593931   1.000000
     43        -17.572272   1.000000
     44        -17.550953   1.000000
     45        -17.508917   1.000000
     46         -7.109315   1.000000
     47         -7.040717   1.000000
     48         -7.016135   1.000000
     49         -6.979513   1.000000
     50         -6.964354   1.000000
     51         -6.912832   1.000000
     52         -6.888659   1.000000
     53         -6.827947   1.000000
     54         -5.581023   1.000000
     55         -5.545865   1.000000
     56         -5.511904   1.000000
     57         -5.465610   1.000000
     58         -5.427912   1.000000
     59         -5.410057   1.000000
     60         -5.390691   1.000000
     61         -5.361417   1.000000
     62         -5.348432   1.000000
     63         -5.327730   1.000000
     64         -5.293718   1.000000
     65         -5.261574   1.000000
     66         -5.240624   1.000000
     67         -5.210627   1.000000
     68         -5.189410   1.000000
     69         -5.137804   1.000000
     70         -5.108304   1.000000
     71         -5.094237   1.000000
     72         -5.003883   1.000000
     73         -4.847660   1.000000
     74         -4.782509   1.000000
     75         -4.724224   1.000000
     76         -4.657132   1.000000
     77         -4.603065   1.000000
     78         -1.975770   1.000000
     79         -1.893686   1.000000
     80         -1.777929   1.000000
     81         -1.754874   1.000000
     82         -1.693606   1.000000
     83         -1.654690   1.000000
     84         -1.629515   1.000000
     85         -1.578836   1.000000
     86         -1.503150   1.000000
     87         -1.488779   1.000000
     88         -1.471078   1.000000
     89         -1.408691   1.000000
     90         -1.393693   1.000000
     91         -1.373741   1.000000
     92         -1.346844   1.000000
     93         -1.316225   1.000000
     94         -1.278647   1.000000
     95         -1.224905   1.000000
     96         -1.213409   1.000000
     97         -1.183761   1.000000
     98         -1.147678   1.000000
     99         -1.061281   1.000000
    100         -1.017534   1.000000
    101         -0.949543   1.000000
    102         -0.911282   1.000000
    103         -0.884373   1.000000
    104         -0.799399   1.000000
    105         -0.771156   1.000000
    106         -0.694207   1.000000
    107         -0.654320   1.000000
    108         -0.603918   1.000000
    109         -0.583519   1.000000
    110          0.101581   1.000000
    111          0.174966   1.000000
    112          0.203189   1.000000
    113          0.250216   0.999985
    114          0.274336   0.999763
    115          0.308103   0.994454
    116          0.343074   0.939509
    117          0.419370   0.271821
    118          5.741649   0.000000
    119          5.821387   0.000000
    120          5.847825   0.000000
    121          5.984675   0.000000
    122          6.133765   0.000000
    123          6.244134   0.000000
    124          6.275231   0.000000
    125          6.299159   0.000000
    126          6.890570   0.000000
    127          6.939124   0.000000
    128          7.007330   0.000000
    129          7.036520   0.000000
    130          7.107524   0.000000
    131          7.146785   0.000000
    132          7.225890   0.000000
    133          7.244244   0.000000
    134          7.329943   0.000000
    135          7.337039   0.000000
    136          7.445833   0.000000
    137          7.501760   0.000000
    138          7.540296   0.000000
    139          7.574155   0.000000
    140          7.639405   0.000000
    141          7.665528   0.000000
    142          7.726383   0.000000
    143          7.746138   0.000000
    144          7.778727   0.000000
 
  0.5000000E+00  0.2500000E+00 -0.1250000E+00  0.1562500E-01
      1        -21.290594   1.000000
      2        -21.269045   1.000000
      3        -21.259529   1.000000
      4        -21.231569   1.000000
      5        -21.202614   1.000000
      6        -21.180313   1.000000
      7        -21.129938   1.000000
      8        -21.088439   1.000000
      9        -19.204142   1.000000
     10        -19.193036   1.000000
     11        -19.166871   1.000000
     12        -19.139921   1.000000
     13        -19.123351   1.000000
     14        -19.069652   1.000000
     15        -19.050607   1.000000
     16        -19.001619   1.000000
     17        -18.982579   1.000000
     18        -18.942455   1.000000
     19        -18.893903   1.000000
     20        -18.869806   1.000000
     21        -18.809178   1.000000
     22        -18.791366   1.000000
     23        -18.775025   1.000000
     24        -18.756955   1.000000
     25        -18.714288   1.000000
     26        -18.699289   1.000000
     27        -18.691197   1.000000
     28        -18.670238   1.000000
     29        -18.645881   1.000000
     30        -18.011035   1.000000
     31        -17.973664   1.000000
     32        -17.924943   1.000000
     33        -17.878346   1.000000
     34        -17.857096   1.000000
     35        -17.838396   1.000000
     36        -17.778880   1.000000
     37        -17.752889   1.000000
     38        -17.701451   1.000000
     39        -17.692292   1.000000
     40        -17.620961   1.000000
     41        -17.604904   1.000000
     42        -17.580095   1.000000
     43        -17.571032   1.000000
     44        -17.548859   1.000000
     45        -17.531057   1.000000
     46         -7.108756   1.000000
     47         -7.038434   1.000000
     48         -7.017786   1.000000
     49         -6.978316   1.000000
     50         -6.956790   1.000000
     51         -6.923131   1.000000
     52         -6.888090   1.000000
     53         -6.827894   1.000000
     54         -5.590959   1.000000
     55         -5.540818   1.000000
     56         -5.507916   1.000000
     57         -5.476956   1.000000
     58         -5.429260   1.000000
     59         -5.413644   1.000000
     60         -5.366123   1.000000
     61         -5.362766   1.000000
     62         -5.340396   1.000000
     63         -5.331594   1.000000
     64         -5.294224   1.000000
     65         -5.267606   1.000000
     66         -5.244424   1.000000
     67         -5.216787   1.000000
     68         -5.178532   1.000000
     69         -5.140071   1.000000
     70         -5.110894   1.000000
     71         -5.095901   1.000000
     72         -5.001752   1.000000
     73         -4.850664   1.000000
     74         -4.787324   1.000000
     75         -4.728619   1.000000
     76         -4.642295   1.000000
     77         -4.605675   1.000000
     78         -1.962603   1.000000
     79         -1.890008   1.000000
     80         -1.793603   1.000000
     81         -1.759746   1.000000
     82         -1.693679   1.000000
     83         -1.652983   1.000000
     84         -1.605491   1.000000
     85         -1.579850   1.000000
     86         -1.551275   1.000000
     87         -1.487103   1.000000
     88         -1.455722   1.000000
     89         -1.434996   1.000000
     90         -1.393774   1.000000
     91         -1.361470   1.000000
     92         -1.349412   1.000000
     93         -1.328280   1.000000
     94         -1.277586   1.000000
     95         -1.252516   1.000000
     96         -1.201396   1.000000
     97         -1.152195   1.000000
     98         -1.107417   1.000000
     99         -1.055764   1.000000
    100         -1.018541   1.000000
    101         -0.972180   1.000000
    102         -0.883013   1.000000
    103         -0.860098   1.000000
    104         -0.832827   1.000000
    105         -0.762633   1.000000
    106         -0.710228   1.000000
    107         -0.696289   1.000000
    108         -0.581517   1.000000
    109         -0.573038   1.000000
    110          0.095998   1.000000
    111          0.179779   1.000000
    112          0.213045   1.000000
    113          0.241357   0.999995
    114          0.262917   0.999933
    115          0.324756   0.980717
    116          0.345427   0.931112
    117          0.407665   0.391187
    118          5.749122   0.000000
    119          5.813158   0.000000
    120          5.857830   0.000000
    121          5.975134   0.000000
    122          6.105971   0.000000
    123          6.256130   0.000000
    124          6.281651   0.000000
    125          6.316727   0.000000
    126          6.904744   0.000000
    127          6.941235   0.000000
    128          6.972493   0.000000
    129          7.003336   0.000000
    130          7.109707   0.000000
    131          7.127456   0.000000
    132          7.242612   0.000000
    133          7.250116   0.000000
    134          7.352173   0.000000
    135          7.369212   0.000000
    136          7.438662   0.000000
    137          7.497598   0.000000
    138          7.545601   0.000000
    139          7.562026   0.000000
    140          7.619896   0.000000
    141          7.708994   0.000000
    142          7.718974   0.000000
    143          7.737960   0.000000
    144          7.774986   0.000000
 
 -0.2500000E+00 -0.2500000E+00  0.1250000E+00  0.1562500E-01
      1        -21.281583   1.000000
      2        -21.274936   1.000000
      3        -21.256970   1.000000
      4        -21.247375   1.000000
      5        -21.192433   1.000000
      6        -21.178062   1.000000
      7        -21.131444   1.000000
      8        -21.088825   1.000000
      9        -19.223017   1.000000
     10        -19.207217   1.000000
     11        -19.170533   1.000000
     12        -19.127570   1.000000
     13        -19.090334   1.000000
     14        -19.073192   1.000000
     15        -19.047917   1.000000
     16        -19.012654   1.000000
     17        -18.948119   1.000000
     18        -18.935758   1.000000
     19        -18.888031   1.000000
     20        -18.877868   1.000000
     21        -18.829225   1.000000
     22        -18.824234   1.000000
     23        -18.788356   1.000000
     24        -18.748359   1.000000
     25        -18.725650   1.000000
     26        -18.714018   1.000000
     27        -18.677941   1.000000
     28        -18.652540   1.000000
     29        -18.623151   1.000000
     30        -18.009841   1.000000
     31        -17.985915   1.000000
     32        -17.940026   1.000000
     33        -17.885407   1.000000
     34        -17.838052   1.000000
     35        -17.823944   1.000000
     36        -17.798275   1.000000
     37        -17.739907   1.000000
     38        -17.693116   1.000000
     39        -17.677314   1.000000
     40        -17.638306   1.000000
     41        -17.616185   1.000000
     42        -17.592116   1.000000
     43        -17.568508   1.000000
     44        -17.540433   1.000000
     45        -17.523986   1.000000
     46         -7.074822   1.000000
     47         -7.062459   1.000000
     48         -7.024195   1.000000
     49         -6.995493   1.000000
     50         -6.954057   1.000000
     51         -6.922749   1.000000
     52         -6.874043   1.000000
     53         -6.832718   1.000000
     54         -5.576331   1.000000
     55         -5.545606   1.000000
     56         -5.507815   1.000000
     57         -5.484243   1.000000
     58         -5.447928   1.000000
     59         -5.409392   1.000000
     60         -5.404786   1.000000
     61         -5.367126   1.000000
     62         -5.331549   1.000000
     63         -5.306953   1.000000
     64         -5.280747   1.000000
     65         -5.265439   1.000000
     66         -5.237344   1.000000
     67         -5.215894   1.000000
     68         -5.151473   1.000000
     69         -5.142783   1.000000
     70         -5.111946   1.000000
     71         -5.092869   1.000000
     72         -5.001243   1.000000
     73         -4.869297   1.000000
     74         -4.759107   1.000000
     75         -4.736472   1.000000
     76         -4.713197   1.000000
     77         -4.566877   1.000000
     78         -1.954785   1.000000
     79         -1.946674   1.000000
     80         -1.747039   1.000000
     81         -1.710769   1.000000
     82         -1.694605   1.000000
     83         -1.664128   1.000000
     84         -1.602647   1.000000
     85         -1.589887   1.000000
     86         -1.559061   1.000000
     87         -1.491388   1.000000
     88         -1.463091   1.000000
     89         -1.440499   1.000000
     90         -1.398254   1.000000
     91         -1.387227   1.000000
     92         -1.319205   1.000000
     93         -1.277043   1.000000
     94         -1.256231   1.000000
     95         -1.234243   1.000000
     96         -1.209585   1.000000
     97         -1.188933   1.000000
     98         -1.119472   1.000000
     99         -1.065670   1.000000
    100         -1.036478   1.000000
    101         -0.975018   1.000000
    102         -0.955615   1.000000
    103         -0.828450   1.000000
    104         -0.818082   1.000000
    105         -0.766023   1.000000
    106         -0.728837   1.000000
    107         -0.661013   1.000000
    108         -0.576463   1.000000
    109         -0.569846   1.000000
    110          0.141850   1.000000
    111          0.164670   1.000000
    112          0.182669   1.000000
    113          0.207415   1.000000
    114          0.275837   0.999722
    115          0.320248   0.985964
    116          0.389017   0.599168
    117          0.392265   0.563298
    118          5.715812   0.000000
    119          5.846556   0.000000
    120          5.873910   0.000000
    121          5.965627   0.000000
    122          6.152730   0.000000
    123          6.177664   0.000000
    124          6.294048   0.000000
    125          6.320197   0.000000
    126          6.697609   0.000000
    127          6.929819   0.000000
    128          6.964682   0.000000
    129          7.097965   0.000000
    130          7.112663   0.000000
    131          7.200185   0.000000
    132          7.231611   0.000000
    133          7.277813   0.000000
    134          7.316446   0.000000
    135          7.475218   0.000000
    136          7.523687   0.000000
    137          7.533303   0.000000
    138          7.570327   0.000000
    139          7.618752   0.000000
    140          7.682912   0.000000
    141          7.704249   0.000000
    142          7.725871   0.000000
    143          7.742080   0.000000
    144          7.790003   0.000000
 
  0.1177405E-14  0.1288427E-14  0.2500000E+00  0.1562500E-01
      1        -21.277763   1.000000
      2        -21.266944   1.000000
      3        -21.255799   1.000000
      4        -21.241876   1.000000
      5        -21.195533   1.000000
      6        -21.188123   1.000000
      7        -21.133934   1.000000
      8        -21.099332   1.000000
      9        -19.216145   1.000000
     10        -19.203879   1.000000
     11        -19.171440   1.000000
     12        -19.121280   1.000000
     13        -19.063267   1.000000
     14        -19.047750   1.000000
     15        -19.014158   1.000000
     16        -19.003532   1.000000
     17        -18.980784   1.000000
     18        -18.963535   1.000000
     19        -18.914606   1.000000
     20        -18.887292   1.000000
     21        -18.842013   1.000000
     22        -18.822842   1.000000
     23        -18.805626   1.000000
     24        -18.751523   1.000000
     25        -18.715512   1.000000
     26        -18.702249   1.000000
     27        -18.665846   1.000000
     28        -18.662028   1.000000
     29        -18.629640   1.000000
     30        -17.999423   1.000000
     31        -17.976990   1.000000
     32        -17.946949   1.000000
     33        -17.914553   1.000000
     34        -17.811806   1.000000
     35        -17.804981   1.000000
     36        -17.760365   1.000000
     37        -17.735902   1.000000
     38        -17.724320   1.000000
     39        -17.686343   1.000000
     40        -17.643431   1.000000
     41        -17.626525   1.000000
     42        -17.601222   1.000000
     43        -17.572906   1.000000
     44        -17.539540   1.000000
     45        -17.520495   1.000000
     46         -7.096749   1.000000
     47         -7.070544   1.000000
     48         -7.017193   1.000000
     49         -6.995902   1.000000
     50         -6.942185   1.000000
     51         -6.924211   1.000000
     52         -6.873983   1.000000
     53         -6.839557   1.000000
     54         -5.575772   1.000000
     55         -5.528593   1.000000
     56         -5.483157   1.000000
     57         -5.464841   1.000000
     58         -5.454281   1.000000
     59         -5.413724   1.000000
     60         -5.403353   1.000000
     61         -5.380001   1.000000
     62         -5.345543   1.000000
     63         -5.313347   1.000000
     64         -5.301810   1.000000
     65         -5.250019   1.000000
     66         -5.228076   1.000000
     67         -5.214438   1.000000
     68         -5.132774   1.000000
     69         -5.126781   1.000000
     70         -5.078811   1.000000
     71         -5.036771   1.000000
     72         -4.957240   1.000000
     73         -4.866552   1.000000
     74         -4.828557   1.000000
     75         -4.767609   1.000000
     76         -4.752084   1.000000
     77         -4.578601   1.000000
     78         -1.968108   1.000000
     79         -1.939519   1.000000
     80         -1.769859   1.000000
     81         -1.731272   1.000000
     82         -1.692184   1.000000
     83         -1.633560   1.000000
     84         -1.602443   1.000000
     85         -1.557482   1.000000
     86         -1.544064   1.000000
     87         -1.494553   1.000000
     88         -1.453524   1.000000
     89         -1.436906   1.000000
     90         -1.419006   1.000000
     91         -1.383795   1.000000
     92         -1.324874   1.000000
     93         -1.287156   1.000000
     94         -1.264628   1.000000
     95         -1.237384   1.000000
     96         -1.195400   1.000000
     97         -1.165134   1.000000
     98         -1.122160   1.000000
     99         -1.108825   1.000000
    100         -1.050230   1.000000
    101         -0.994698   1.000000
    102         -0.962217   1.000000
    103         -0.832291   1.000000
    104         -0.810218   1.000000
    105         -0.741511   1.000000
    106         -0.712160   1.000000
    107         -0.669927   1.000000
    108         -0.608649   1.000000
    109         -0.602666   1.000000
    110          0.123151   1.000000
    111          0.164900   1.000000
    112          0.181271   1.000000
    113          0.217438   1.000000
    114          0.291184   0.998729
    115          0.320821   0.985374
    116          0.379599   0.697625
    117          0.387930   0.611010
    118          5.736758   0.000000
    119          5.853906   0.000000
    120          5.879889   0.000000
    121          5.966233   0.000000
    122          6.126522   0.000000
    123          6.161835   0.000000
    124          6.273472   0.000000
    125          6.293089   0.000000
    126          6.722661   0.000000
    127          6.928591   0.000000
    128          6.994916   0.000000
    129          7.032861   0.000000
    130          7.101106   0.000000
    131          7.163649   0.000000
    132          7.199294   0.000000
    133          7.300563   0.000000
    134          7.435864   0.000000
    135          7.508567   0.000000
    136          7.579350   0.000000
    137          7.593579   0.000000
    138          7.613370   0.000000
    139          7.659192   0.000000
    140          7.686798   0.000000
    141          7.723515   0.000000
    142          7.744095   0.000000
    143          7.789517   0.000000
    144          7.845909   0.000000
 
  0.2500000E+00  0.1348387E-14  0.2500000E+00  0.1562500E-01
      1        -21.272651   1.000000
      2        -21.265454   1.000000
      3        -21.255497   1.000000
      4        -21.226282   1.000000
      5        -21.207301   1.000000
      6        -21.195605   1.000000
      7        -21.122002   1.000000
      8        -21.117243   1.000000
      9        -19.190271   1.000000
     10        -19.180887   1.000000
     11        -19.149041   1.000000
     12        -19.131045   1.000000
     13        -19.102181   1.000000
     14        -19.090777   1.000000
     15        -19.031707   1.000000
     16        -19.014753   1.000000
     17        -18.967653   1.000000
     18        -18.901553   1.000000
     19        -18.888497   1.000000
     20        -18.875684   1.000000
     21        -18.855506   1.000000
     22        -18.823580   1.000000
     23        -18.821203   1.000000
     24        -18.740759   1.000000
     25        -18.725029   1.000000
     26        -18.709910   1.000000
     27        -18.701147   1.000000
     28        -18.667730   1.000000
     29        -18.631978   1.000000
     30        -18.015584   1.000000
     31        -17.929853   1.000000
     32        -17.885828   1.000000
     33        -17.877380   1.000000
     34        -17.857494   1.000000
     35        -17.825698   1.000000
     36        -17.810847   1.000000
     37        -17.785428   1.000000
     38        -17.721698   1.000000
     39        -17.661171   1.000000
     40        -17.619061   1.000000
     41        -17.599132   1.000000
     42        -17.598217   1.000000
     43        -17.570651   1.000000
     44        -17.554899   1.000000
     45        -17.533989   1.000000
     46         -7.112579   1.000000
     47         -7.049487   1.000000
     48         -7.027789   1.000000
     49         -6.981637   1.000000
     50         -6.956904   1.000000
     51         -6.903972   1.000000
     52         -6.869735   1.000000
     53         -6.850975   1.000000
     54         -5.578744   1.000000
     55         -5.508375   1.000000
     56         -5.504265   1.000000
     57         -5.470192   1.000000
     58         -5.449919   1.000000
     59         -5.408140   1.000000
     60         -5.402456   1.000000
     61         -5.384937   1.000000
     62         -5.361061   1.000000
     63         -5.339815   1.000000
     64         -5.307568   1.000000
     65         -5.256987   1.000000
     66         -5.229954   1.000000
     67         -5.203347   1.000000
     68         -5.146970   1.000000
     69         -5.122429   1.000000
     70         -5.086587   1.000000
     71         -5.014162   1.000000
     72         -4.922051   1.000000
     73         -4.849640   1.000000
     74         -4.842250   1.000000
     75         -4.812136   1.000000
     76         -4.717989   1.000000
     77         -4.562686   1.000000
     78         -1.929944   1.000000
     79         -1.896106   1.000000
     80         -1.837426   1.000000
     81         -1.762684   1.000000
     82         -1.676769   1.000000
     83         -1.669018   1.000000
     84         -1.616080   1.000000
     85         -1.562486   1.000000
     86         -1.523658   1.000000
     87         -1.488841   1.000000
     88         -1.454411   1.000000
     89         -1.417561   1.000000
     90         -1.402890   1.000000
     91         -1.378865   1.000000
     92         -1.345300   1.000000
     93         -1.287732   1.000000
     94         -1.284503   1.000000
     95         -1.257209   1.000000
     96         -1.164415   1.000000
     97         -1.144089   1.000000
     98         -1.137191   1.000000
     99         -1.097139   1.000000
    100         -1.063478   1.000000
    101         -1.005804   1.000000
    102         -0.912480   1.000000
    103         -0.855601   1.000000
    104         -0.793679   1.000000
    105         -0.767738   1.000000
    106         -0.714125   1.000000
    107         -0.673924   1.000000
    108         -0.636575   1.000000
    109         -0.570929   1.000000
    110          0.106250   1.000000
    111          0.178485   1.000000
    112          0.205454   1.000000
    113          0.250891   0.999984
    114          0.271345   0.999828
    115          0.291582   0.998681
    116          0.369939   0.785472
    117          0.391725   0.569307
    118          5.753923   0.000000
    119          5.854164   0.000000
    120          5.914335   0.000000
    121          6.039037   0.000000
    122          6.107945   0.000000
    123          6.169084   0.000000
    124          6.236477   0.000000
    125          6.256019   0.000000
    126          6.645737   0.000000
    127          6.952165   0.000000
    128          7.000172   0.000000
    129          7.028103   0.000000
    130          7.080242   0.000000
    131          7.126115   0.000000
    132          7.231065   0.000000
    133          7.334390   0.000000
    134          7.432284   0.000000
    135          7.464597   0.000000
    136          7.500383   0.000000
    137          7.544646   0.000000
    138          7.597366   0.000000
    139          7.631542   0.000000
    140          7.663075   0.000000
    141          7.718126   0.000000
    142          7.760224   0.000000
    143          7.789723   0.000000
    144          7.822526   0.000000
 
  0.1378095E-14 -0.2500000E+00 -0.2500000E+00  0.1562500E-01
      1        -21.277893   1.000000
      2        -21.258079   1.000000
      3        -21.251186   1.000000
      4        -21.232005   1.000000
      5        -21.202920   1.000000
      6        -21.201427   1.000000
      7        -21.121158   1.000000
      8        -21.117601   1.000000
      9        -19.186822   1.000000
     10        -19.182246   1.000000
     11        -19.157897   1.000000
     12        -19.110017   1.000000
     13        -19.098460   1.000000
     14        -19.076054   1.000000
     15        -19.048299   1.000000
     16        -19.013201   1.000000
     17        -18.967121   1.000000
     18        -18.948377   1.000000
     19        -18.914203   1.000000
     20        -18.873329   1.000000
     21        -18.842114   1.000000
     22        -18.819941   1.000000
     23        -18.772821   1.000000
     24        -18.750076   1.000000
     25        -18.726251   1.000000
     26        -18.711865   1.000000
     27        -18.697288   1.000000
     28        -18.652650   1.000000
     29        -18.649567   1.000000
     30        -18.006875   1.000000
     31        -17.952484   1.000000
     32        -17.900020   1.000000
     33        -17.871888   1.000000
     34        -17.835653   1.000000
     35        -17.831542   1.000000
     36        -17.796783   1.000000
     37        -17.780473   1.000000
     38        -17.734162   1.000000
     39        -17.659482   1.000000
     40        -17.632969   1.000000
     41        -17.621610   1.000000
     42        -17.579008   1.000000
     43        -17.564576   1.000000
     44        -17.543472   1.000000
     45        -17.537909   1.000000
     46         -7.113141   1.000000
     47         -7.031184   1.000000
     48         -7.016636   1.000000
     49         -6.998410   1.000000
     50         -6.955044   1.000000
     51         -6.933637   1.000000
     52         -6.865215   1.000000
     53         -6.843753   1.000000
     54         -5.556187   1.000000
     55         -5.551492   1.000000
     56         -5.497725   1.000000
     57         -5.465095   1.000000
     58         -5.451712   1.000000
     59         -5.433103   1.000000
     60         -5.396872   1.000000
     61         -5.369210   1.000000
     62         -5.354759   1.000000
     63         -5.320547   1.000000
     64         -5.296450   1.000000
     65         -5.257867   1.000000
     66         -5.233211   1.000000
     67         -5.204927   1.000000
     68         -5.142347   1.000000
     69         -5.130544   1.000000
     70         -5.097606   1.000000
     71         -5.007645   1.000000
     72         -4.920125   1.000000
     73         -4.870912   1.000000
     74         -4.838020   1.000000
     75         -4.789528   1.000000
     76         -4.726443   1.000000
     77         -4.563605   1.000000
     78         -1.914431   1.000000
     79         -1.909186   1.000000
     80         -1.815301   1.000000
     81         -1.762543   1.000000
     82         -1.744176   1.000000
     83         -1.629789   1.000000
     84         -1.592927   1.000000
     85         -1.569101   1.000000
     86         -1.526997   1.000000
     87         -1.494283   1.000000
     88         -1.461393   1.000000
     89         -1.426197   1.000000
     90         -1.399048   1.000000
     91         -1.375548   1.000000
     92         -1.338248   1.000000
     93         -1.288445   1.000000
     94         -1.266777   1.000000
     95         -1.238104   1.000000
     96         -1.218820   1.000000
     97         -1.170482   1.000000
     98         -1.135390   1.000000
     99         -1.063585   1.000000
    100         -1.052453   1.000000
    101         -1.016199   1.000000
    102         -0.965568   1.000000
    103         -0.836330   1.000000
    104         -0.790151   1.000000
    105         -0.740755   1.000000
    106         -0.712124   1.000000
    107         -0.662839   1.000000
    108         -0.646284   1.000000
    109         -0.564998   1.000000
    110          0.088598   1.000000
    111          0.168212   1.000000
    112          0.203802   1.000000
    113          0.249568   0.999986
    114          0.274828   0.999750
    115          0.313304   0.991638
    116          0.366981   0.809069
    117          0.396754   0.512907
    118          5.821570   0.000000
    119          5.843360   0.000000
    120          5.910095   0.000000
    121          5.980567   0.000000
    122          6.131863   0.000000
    123          6.151486   0.000000
    124          6.218152   0.000000
    125          6.262834   0.000000
    126          6.656780   0.000000
    127          6.940917   0.000000
    128          6.979934   0.000000
    129          7.042284   0.000000
    130          7.085640   0.000000
    131          7.165998   0.000000
    132          7.187354   0.000000
    133          7.300964   0.000000
    134          7.416780   0.000000
    135          7.440091   0.000000
    136          7.518080   0.000000
    137          7.602383   0.000000
    138          7.633562   0.000000
    139          7.661667   0.000000
    140          7.689890   0.000000
    141          7.715057   0.000000
    142          7.745673   0.000000
    143          7.786686   0.000000
    144          7.858207   0.000000
 
  0.5000000E+00  0.1335930E-14  0.2500000E+00  0.1562500E-01
      1        -21.289826   1.000000
      2        -21.268355   1.000000
      3        -21.241266   1.000000
      4        -21.225265   1.000000
      5        -21.205556   1.000000
      6        -21.197448   1.000000
      7        -21.132998   1.000000
      8        -21.098811   1.000000
      9        -19.203576   1.000000
     10        -19.150215   1.000000
     11        -19.142582   1.000000
     12        -19.131434   1.000000
     13        -19.117314   1.000000
     14        -19.091124   1.000000
     15        -19.062634   1.000000
     16        -19.049704   1.000000
     17        -18.985635   1.000000
     18        -18.898107   1.000000
     19        -18.885441   1.000000
     20        -18.841273   1.000000
     21        -18.805695   1.000000
     22        -18.799501   1.000000
     23        -18.783438   1.000000
     24        -18.774033   1.000000
     25        -18.758893   1.000000
     26        -18.748247   1.000000
     27        -18.688496   1.000000
     28        -18.642826   1.000000
     29        -18.635573   1.000000
     30        -18.025002   1.000000
     31        -17.941414   1.000000
     32        -17.887099   1.000000
     33        -17.882246   1.000000
     34        -17.840211   1.000000
     35        -17.830483   1.000000
     36        -17.817471   1.000000
     37        -17.769815   1.000000
     38        -17.704925   1.000000
     39        -17.669476   1.000000
     40        -17.626498   1.000000
     41        -17.612197   1.000000
     42        -17.594256   1.000000
     43        -17.568577   1.000000
     44        -17.555497   1.000000
     45        -17.529151   1.000000
     46         -7.119747   1.000000
     47         -7.046916   1.000000
     48         -7.018305   1.000000
     49         -6.990775   1.000000
     50         -6.954843   1.000000
     51         -6.899297   1.000000
     52         -6.877053   1.000000
     53         -6.852745   1.000000
     54         -5.594678   1.000000
     55         -5.525169   1.000000
     56         -5.483475   1.000000
     57         -5.471238   1.000000
     58         -5.432191   1.000000
     59         -5.408276   1.000000
     60         -5.390904   1.000000
     61         -5.379364   1.000000
     62         -5.344561   1.000000
     63         -5.331804   1.000000
     64         -5.300909   1.000000
     65         -5.251206   1.000000
     66         -5.218242   1.000000
     67         -5.178871   1.000000
     68         -5.167024   1.000000
     69         -5.124841   1.000000
     70         -5.100765   1.000000
     71         -5.069842   1.000000
     72         -4.943129   1.000000
     73         -4.856330   1.000000
     74         -4.837097   1.000000
     75         -4.776731   1.000000
     76         -4.684616   1.000000
     77         -4.608332   1.000000
     78         -1.918443   1.000000
     79         -1.892637   1.000000
     80         -1.853421   1.000000
     81         -1.751890   1.000000
     82         -1.725669   1.000000
     83         -1.630905   1.000000
     84         -1.616333   1.000000
     85         -1.595779   1.000000
     86         -1.549583   1.000000
     87         -1.469265   1.000000
     88         -1.444566   1.000000
     89         -1.421098   1.000000
     90         -1.390702   1.000000
     91         -1.380758   1.000000
     92         -1.346675   1.000000
     93         -1.315891   1.000000
     94         -1.270502   1.000000
     95         -1.238518   1.000000
     96         -1.195491   1.000000
     97         -1.168542   1.000000
     98         -1.141518   1.000000
     99         -1.064632   1.000000
    100         -1.005807   1.000000
    101         -0.955076   1.000000
    102         -0.895711   1.000000
    103         -0.861622   1.000000
    104         -0.824799   1.000000
    105         -0.754853   1.000000
    106         -0.728306   1.000000
    107         -0.713557   1.000000
    108         -0.636112   1.000000
    109         -0.553297   1.000000
    110          0.109599   1.000000
    111          0.183047   1.000000
    112          0.187531   1.000000
    113          0.218700   1.000000
    114          0.268757   0.999870
    115          0.335420   0.961399
    116          0.356973   0.876476
    117          0.396298   0.518047
    118          5.730070   0.000000
    119          5.832800   0.000000
    120          5.917051   0.000000
    121          5.999846   0.000000
    122          6.106935   0.000000
    123          6.158955   0.000000
    124          6.234180   0.000000
    125          6.306167   0.000000
    126          6.838458   0.000000
    127          6.928812   0.000000
    128          6.999099   0.000000
    129          7.041843   0.000000
    130          7.075758   0.000000
    131          7.166057   0.000000
    132          7.255885   0.000000
    133          7.334405   0.000000
    134          7.367077   0.000000
    135          7.413285   0.000000
    136          7.496713   0.000000
    137          7.512162   0.000000
    138          7.537502   0.000000
    139          7.622534   0.000000
    140          7.657113   0.000000
    141          7.696305   0.000000
    142          7.774906   0.000000
    143          7.797732   0.000000
    144          7.831716   0.000000
 
  0.1264105E-14  0.5000000E+00 -0.2500000E+00  0.1562500E-01
      1        -21.281926   1.000000
      2        -21.266985   1.000000
      3        -21.242477   1.000000
      4        -21.231985   1.000000
      5        -21.223613   1.000000
      6        -21.185557   1.000000
      7        -21.127049   1.000000
      8        -21.099752   1.000000
      9        -19.214063   1.000000
     10        -19.150527   1.000000
     11        -19.131416   1.000000
     12        -19.128135   1.000000
     13        -19.123918   1.000000
     14        -19.095551   1.000000
     15        -19.039985   1.000000
     16        -19.014114   1.000000
     17        -19.006168   1.000000
     18        -18.946448   1.000000
     19        -18.899878   1.000000
     20        -18.847468   1.000000
     21        -18.838351   1.000000
     22        -18.783087   1.000000
     23        -18.777922   1.000000
     24        -18.764621   1.000000
     25        -18.728950   1.000000
     26        -18.720645   1.000000
     27        -18.689117   1.000000
     28        -18.652397   1.000000
     29        -18.639988   1.000000
     30        -18.005469   1.000000
     31        -17.939930   1.000000
     32        -17.910345   1.000000
     33        -17.885223   1.000000
     34        -17.843271   1.000000
     35        -17.828487   1.000000
     36        -17.809087   1.000000
     37        -17.746616   1.000000
     38        -17.729981   1.000000
     39        -17.688595   1.000000
     40        -17.651063   1.000000
     41        -17.605876   1.000000
     42        -17.585067   1.000000
     43        -17.563589   1.000000
     44        -17.556895   1.000000
     45        -17.507979   1.000000
     46         -7.111596   1.000000
     47         -7.048221   1.000000
     48         -7.030113   1.000000
     49         -6.992675   1.000000
     50         -6.962151   1.000000
     51         -6.893986   1.000000
     52         -6.887376   1.000000
     53         -6.834025   1.000000
     54         -5.580566   1.000000
     55         -5.536429   1.000000
     56         -5.484699   1.000000
     57         -5.462771   1.000000
     58         -5.440038   1.000000
     59         -5.417337   1.000000
     60         -5.395397   1.000000
     61         -5.373370   1.000000
     62         -5.332750   1.000000
     63         -5.326731   1.000000
     64         -5.279588   1.000000
     65         -5.268159   1.000000
     66         -5.233921   1.000000
     67         -5.202833   1.000000
     68         -5.136148   1.000000
     69         -5.129023   1.000000
     70         -5.096242   1.000000
     71         -5.077552   1.000000
     72         -4.954167   1.000000
     73         -4.851126   1.000000
     74         -4.819852   1.000000
     75         -4.766775   1.000000
     76         -4.698629   1.000000
     77         -4.615250   1.000000
     78         -1.932785   1.000000
     79         -1.902144   1.000000
     80         -1.843211   1.000000
     81         -1.784066   1.000000
     82         -1.681544   1.000000
     83         -1.646401   1.000000
     84         -1.615617   1.000000
     85         -1.553116   1.000000
     86         -1.522271   1.000000
     87         -1.476755   1.000000
     88         -1.464483   1.000000
     89         -1.418646   1.000000
     90         -1.398389   1.000000
     91         -1.375316   1.000000
     92         -1.356198   1.000000
     93         -1.319245   1.000000
     94         -1.262288   1.000000
     95         -1.241405   1.000000
     96         -1.206581   1.000000
     97         -1.163935   1.000000
     98         -1.148017   1.000000
     99         -1.078567   1.000000
    100         -0.999280   1.000000
    101         -0.972901   1.000000
    102         -0.929132   1.000000
    103         -0.853202   1.000000
    104         -0.800704   1.000000
    105         -0.772207   1.000000
    106         -0.697563   1.000000
    107         -0.680041   1.000000
    108         -0.644377   1.000000
    109         -0.571752   1.000000
    110          0.107234   1.000000
    111          0.174170   1.000000
    112          0.177802   1.000000
    113          0.218090   1.000000
    114          0.279460   0.999596
    115          0.342347   0.941935
    116          0.357753   0.871914
    117          0.401128   0.463605
    118          5.776889   0.000000
    119          5.797957   0.000000
    120          5.888016   0.000000
    121          5.985809   0.000000
    122          6.132705   0.000000
    123          6.161200   0.000000
    124          6.216435   0.000000
    125          6.333310   0.000000
    126          6.881775   0.000000
    127          6.925573   0.000000
    128          6.964454   0.000000
    129          7.023702   0.000000
    130          7.118193   0.000000
    131          7.151848   0.000000
    132          7.255684   0.000000
    133          7.323686   0.000000
    134          7.374659   0.000000
    135          7.396421   0.000000
    136          7.443761   0.000000
    137          7.543107   0.000000
    138          7.557996   0.000000
    139          7.634409   0.000000
    140          7.682114   0.000000
    141          7.711357   0.000000
    142          7.757248   0.000000
    143          7.780637   0.000000
    144          7.840545   0.000000
 
 -0.2500000E+00  0.1178592E-14  0.2500000E+00  0.1562500E-01
      1        -21.292360   1.000000
      2        -21.268257   1.000000
      3        -21.256639   1.000000
      4        -21.225671   1.000000
      5        -21.200427   1.000000
      6        -21.188000   1.000000
      7        -21.135926   1.000000
      8        -21.089308   1.000000
      9        -19.197032   1.000000
     10        -19.192194   1.000000
     11        -19.170941   1.000000
     12        -19.130157   1.000000
     13        -19.117547   1.000000
     14        -19.070133   1.000000
     15        -19.046841   1.000000
     16        -19.025442   1.000000
     17        -18.961632   1.000000
     18        -18.926747   1.000000
     19        -18.895969   1.000000
     20        -18.854887   1.000000
     21        -18.846528   1.000000
     22        -18.807196   1.000000
     23        -18.797580   1.000000
     24        -18.729367   1.000000
     25        -18.716452   1.000000
     26        -18.702178   1.000000
     27        -18.681317   1.000000
     28        -18.668629   1.000000
     29        -18.644801   1.000000
     30        -18.050555   1.000000
     31        -17.951838   1.000000
     32        -17.887827   1.000000
     33        -17.880970   1.000000
     34        -17.845331   1.000000
     35        -17.824152   1.000000
     36        -17.787177   1.000000
     37        -17.774893   1.000000
     38        -17.716565   1.000000
     39        -17.668371   1.000000
     40        -17.619249   1.000000
     41        -17.612544   1.000000
     42        -17.601227   1.000000
     43        -17.570957   1.000000
     44        -17.550192   1.000000
     45        -17.527143   1.000000
     46         -7.104615   1.000000
     47         -7.064338   1.000000
     48         -7.017182   1.000000
     49         -6.972639   1.000000
     50         -6.961170   1.000000
     51         -6.932864   1.000000
     52         -6.892124   1.000000
     53         -6.821603   1.000000
     54         -5.585028   1.000000
     55         -5.545010   1.000000
     56         -5.493467   1.000000
     57         -5.450271   1.000000
     58         -5.426942   1.000000
     59         -5.417598   1.000000
     60         -5.378823   1.000000
     61         -5.376944   1.000000
     62         -5.343103   1.000000
     63         -5.289523   1.000000
     64         -5.286694   1.000000
     65         -5.258166   1.000000
     66         -5.204713   1.000000
     67         -5.186490   1.000000
     68         -5.173892   1.000000
     69         -5.128790   1.000000
     70         -5.112671   1.000000
     71         -5.072470   1.000000
     72         -4.972863   1.000000
     73         -4.865469   1.000000
     74         -4.798161   1.000000
     75         -4.790104   1.000000
     76         -4.691185   1.000000
     77         -4.631751   1.000000
     78         -1.984165   1.000000
     79         -1.892411   1.000000
     80         -1.797336   1.000000
     81         -1.747599   1.000000
     82         -1.677153   1.000000
     83         -1.639483   1.000000
     84         -1.607659   1.000000
     85         -1.592680   1.000000
     86         -1.581910   1.000000
     87         -1.475937   1.000000
     88         -1.440801   1.000000
     89         -1.414418   1.000000
     90         -1.393763   1.000000
     91         -1.379672   1.000000
     92         -1.350890   1.000000
     93         -1.309001   1.000000
     94         -1.256033   1.000000
     95         -1.241019   1.000000
     96         -1.226615   1.000000
     97         -1.152348   1.000000
     98         -1.123201   1.000000
     99         -1.075264   1.000000
    100         -1.008471   1.000000
    101         -0.962181   1.000000
    102         -0.925333   1.000000
    103         -0.853826   1.000000
    104         -0.830029   1.000000
    105         -0.751724   1.000000
    106         -0.717194   1.000000
    107         -0.704692   1.000000
    108         -0.610836   1.000000
    109         -0.576061   1.000000
    110          0.094992   1.000000
    111          0.164218   1.000000
    112          0.205966   1.000000
    113          0.235218   0.999998
    114          0.263403   0.999929
    115          0.335797   0.960497
    116          0.340402   0.948050
    117          0.417499   0.289660
    118          5.734582   0.000000
    119          5.823610   0.000000
    120          5.881247   0.000000
    121          5.912424   0.000000
    122          6.088001   0.000000
    123          6.212464   0.000000
    124          6.274325   0.000000
    125          6.321525   0.000000
    126          6.886050   0.000000
    127          6.970850   0.000000
    128          7.000867   0.000000
    129          7.044147   0.000000
    130          7.145464   0.000000
    131          7.216736   0.000000
    132          7.240163   0.000000
    133          7.305530   0.000000
    134          7.348874   0.000000
    135          7.451807   0.000000
    136          7.462260   0.000000
    137          7.529123   0.000000
    138          7.566068   0.000000
    139          7.592379   0.000000
    140          7.662512   0.000000
    141          7.705033   0.000000
    142          7.736900   0.000000
    143          7.776959   0.000000
    144          7.798755   0.000000
 
  0.1283598E-14  0.2500000E+00 -0.2500000E+00  0.1562500E-01
      1        -21.283326   1.000000
      2        -21.269668   1.000000
      3        -21.255605   1.000000
      4        -21.242708   1.000000
      5        -21.204940   1.000000
      6        -21.179430   1.000000
      7        -21.130667   1.000000
      8        -21.089772   1.000000
      9        -19.208769   1.000000
     10        -19.196015   1.000000
     11        -19.172191   1.000000
     12        -19.119156   1.000000
     13        -19.105675   1.000000
     14        -19.092196   1.000000
     15        -19.050989   1.000000
     16        -18.993034   1.000000
     17        -18.955386   1.000000
     18        -18.935822   1.000000
     19        -18.906755   1.000000
     20        -18.844864   1.000000
     21        -18.836995   1.000000
     22        -18.832581   1.000000
     23        -18.772678   1.000000
     24        -18.758081   1.000000
     25        -18.720337   1.000000
     26        -18.706304   1.000000
     27        -18.686329   1.000000
     28        -18.658991   1.000000
     29        -18.633203   1.000000
     30        -17.993977   1.000000
     31        -17.972999   1.000000
     32        -17.919290   1.000000
     33        -17.868167   1.000000
     34        -17.832505   1.000000
     35        -17.821476   1.000000
     36        -17.810603   1.000000
     37        -17.792221   1.000000
     38        -17.740146   1.000000
     39        -17.648719   1.000000
     40        -17.630632   1.000000
     41        -17.612486   1.000000
     42        -17.584614   1.000000
     43        -17.561251   1.000000
     44        -17.546894   1.000000
     45        -17.530757   1.000000
     46         -7.104032   1.000000
     47         -7.066622   1.000000
     48         -7.020847   1.000000
     49         -6.984391   1.000000
     50         -6.973867   1.000000
     51         -6.919581   1.000000
     52         -6.877048   1.000000
     53         -6.816620   1.000000
     54         -5.582046   1.000000
     55         -5.532709   1.000000
     56         -5.502831   1.000000
     57         -5.446234   1.000000
     58         -5.412848   1.000000
     59         -5.406790   1.000000
     60         -5.392572   1.000000
     61         -5.379457   1.000000
     62         -5.346810   1.000000
     63         -5.312116   1.000000
     64         -5.275517   1.000000
     65         -5.256093   1.000000
     66         -5.237715   1.000000
     67         -5.201093   1.000000
     68         -5.157034   1.000000
     69         -5.119957   1.000000
     70         -5.092042   1.000000
     71         -5.082778   1.000000
     72         -4.982144   1.000000
     73         -4.848108   1.000000
     74         -4.806059   1.000000
     75         -4.775596   1.000000
     76         -4.697181   1.000000
     77         -4.640920   1.000000
     78         -1.991224   1.000000
     79         -1.920913   1.000000
     80         -1.793676   1.000000
     81         -1.734352   1.000000
     82         -1.662882   1.000000
     83         -1.632774   1.000000
     84         -1.619264   1.000000
     85         -1.571614   1.000000
     86         -1.527995   1.000000
     87         -1.510323   1.000000
     88         -1.464922   1.000000
     89         -1.406645   1.000000
     90         -1.400794   1.000000
     91         -1.390244   1.000000
     92         -1.339712   1.000000
     93         -1.298613   1.000000
     94         -1.290577   1.000000
     95         -1.199567   1.000000
     96         -1.186815   1.000000
     97         -1.180357   1.000000
     98         -1.144479   1.000000
     99         -1.063916   1.000000
    100         -1.043557   1.000000
    101         -0.963389   1.000000
    102         -0.923380   1.000000
    103         -0.848762   1.000000
    104         -0.809088   1.000000
    105         -0.784609   1.000000
    106         -0.700324   1.000000
    107         -0.665443   1.000000
    108         -0.623581   1.000000
    109         -0.606753   1.000000
    110          0.109165   1.000000
    111          0.163151   1.000000
    112          0.194515   1.000000
    113          0.254579   0.999975
    114          0.271955   0.999816
    115          0.301213   0.996878
    116          0.344289   0.935278
    117          0.424321   0.227425
    118          5.737037   0.000000
    119          5.779209   0.000000
    120          5.843791   0.000000
    121          5.968815   0.000000
    122          6.104559   0.000000
    123          6.212847   0.000000
    124          6.269413   0.000000
    125          6.345126   0.000000
    126          6.901122   0.000000
    127          6.974536   0.000000
    128          6.999243   0.000000
    129          7.081523   0.000000
    130          7.165952   0.000000
    131          7.190655   0.000000
    132          7.207019   0.000000
    133          7.298098   0.000000
    134          7.358924   0.000000
    135          7.424085   0.000000
    136          7.428828   0.000000
    137          7.532068   0.000000
    138          7.584383   0.000000
    139          7.631998   0.000000
    140          7.672193   0.000000
    141          7.682186   0.000000
    142          7.736138   0.000000
    143          7.766813   0.000000
    144          7.792073   0.000000
 
  0.2500000E+00  0.2500000E+00  0.2500000E+00  0.1562500E-01
      1        -21.279539   1.000000
      2        -21.272040   1.000000
      3        -21.246944   1.000000
      4        -21.240276   1.000000
      5        -21.196897   1.000000
      6        -21.190303   1.000000
      7        -21.128980   1.000000
      8        -21.103510   1.000000
      9        -19.227494   1.000000
     10        -19.191304   1.000000
     11        -19.179677   1.000000
     12        -19.118865   1.000000
     13        -19.092460   1.000000
     14        -19.059547   1.000000
     15        -19.052943   1.000000
     16        -19.028068   1.000000
     17        -18.954080   1.000000
     18        -18.927881   1.000000
     19        -18.923542   1.000000
     20        -18.889374   1.000000
     21        -18.848490   1.000000
     22        -18.838745   1.000000
     23        -18.755976   1.000000
     24        -18.741903   1.000000
     25        -18.733183   1.000000
     26        -18.681769   1.000000
     27        -18.648284   1.000000
     28        -18.626958   1.000000
     29        -18.597904   1.000000
     30        -18.012608   1.000000
     31        -17.979034   1.000000
     32        -17.951804   1.000000
     33        -17.901412   1.000000
     34        -17.868698   1.000000
     35        -17.845408   1.000000
     36        -17.838672   1.000000
     37        -17.771863   1.000000
     38        -17.703008   1.000000
     39        -17.682945   1.000000
     40        -17.613745   1.000000
     41        -17.609823   1.000000
     42        -17.565764   1.000000
     43        -17.548821   1.000000
     44        -17.525069   1.000000
     45        -17.513934   1.000000
     46         -7.207006   1.000000
     47         -7.052353   1.000000
     48         -7.027915   1.000000
     49         -6.972399   1.000000
     50         -6.947161   1.000000
     51         -6.867968   1.000000
     52         -6.832611   1.000000
     53         -6.828561   1.000000
     54         -5.594014   1.000000
     55         -5.544956   1.000000
     56         -5.519926   1.000000
     57         -5.501516   1.000000
     58         -5.474003   1.000000
     59         -5.430338   1.000000
     60         -5.377778   1.000000
     61         -5.358805   1.000000
     62         -5.347617   1.000000
     63         -5.329193   1.000000
     64         -5.312220   1.000000
     65         -5.259177   1.000000
     66         -5.201064   1.000000
     67         -5.194996   1.000000
     68         -5.124982   1.000000
     69         -5.108670   1.000000
     70         -5.102431   1.000000
     71         -4.941856   1.000000
     72         -4.935551   1.000000
     73         -4.862229   1.000000
     74         -4.833573   1.000000
     75         -4.794677   1.000000
     76         -4.787290   1.000000
     77         -4.524659   1.000000
     78         -1.942943   1.000000
     79         -1.932907   1.000000
     80         -1.911915   1.000000
     81         -1.824121   1.000000
     82         -1.784774   1.000000
     83         -1.631565   1.000000
     84         -1.609693   1.000000
     85         -1.567671   1.000000
     86         -1.494300   1.000000
     87         -1.476552   1.000000
     88         -1.453981   1.000000
     89         -1.435618   1.000000
     90         -1.376900   1.000000
     91         -1.365899   1.000000
     92         -1.338745   1.000000
     93         -1.299714   1.000000
     94         -1.249628   1.000000
     95         -1.204374   1.000000
     96         -1.168479   1.000000
     97         -1.143309   1.000000
     98         -1.083934   1.000000
     99         -1.080407   1.000000
    100         -1.026981   1.000000
    101         -0.988509   1.000000
    102         -0.961610   1.000000
    103         -0.870853   1.000000
    104         -0.828659   1.000000
    105         -0.755676   1.000000
    106         -0.703497   1.000000
    107         -0.662256   1.000000
    108         -0.595553   1.000000
    109         -0.549715   1.000000
    110         -0.030753   1.000000
    111          0.152412   1.000000
    112          0.213373   1.000000
    113          0.268609   0.999872
    114          0.294160   0.998328
    115          0.341260   0.945421
    116          0.382325   0.670211
    117          0.406631   0.402461
    118          5.774634   0.000000
    119          5.794742   0.000000
    120          5.925696   0.000000
    121          6.014940   0.000000
    122          6.081108   0.000000
    123          6.160819   0.000000
    124          6.272171   0.000000
    125          6.323446   0.000000
    126          6.508348   0.000000
    127          6.920051   0.000000
    128          7.004089   0.000000
    129          7.016089   0.000000
    130          7.077104   0.000000
    131          7.157322   0.000000
    132          7.192108   0.000000
    133          7.332732   0.000000
    134          7.395020   0.000000
    135          7.521738   0.000000
    136          7.569042   0.000000
    137          7.584552   0.000000
    138          7.608944   0.000000
    139          7.650557   0.000000
    140          7.685664   0.000000
    141          7.741492   0.000000
    142          7.748832   0.000000
    143          7.762875   0.000000
    144          7.844190   0.000000
 
  0.5000000E+00  0.2500000E+00  0.2500000E+00  0.1562500E-01
      1        -21.295968   1.000000
      2        -21.264552   1.000000
      3        -21.247318   1.000000
      4        -21.234391   1.000000
      5        -21.208700   1.000000
      6        -21.180348   1.000000
      7        -21.131200   1.000000
      8        -21.093463   1.000000
      9        -19.211386   1.000000
     10        -19.197115   1.000000
     11        -19.180481   1.000000
     12        -19.131330   1.000000
     13        -19.119857   1.000000
     14        -19.074885   1.000000
     15        -19.062848   1.000000
     16        -19.013445   1.000000
     17        -18.960991   1.000000
     18        -18.942130   1.000000
     19        -18.925161   1.000000
     20        -18.845041   1.000000
     21        -18.818835   1.000000
     22        -18.809515   1.000000
     23        -18.771811   1.000000
     24        -18.757719   1.000000
     25        -18.720995   1.000000
     26        -18.688342   1.000000
     27        -18.647993   1.000000
     28        -18.620810   1.000000
     29        -18.619853   1.000000
     30        -18.012311   1.000000
     31        -17.957469   1.000000
     32        -17.945263   1.000000
     33        -17.904040   1.000000
     34        -17.894654   1.000000
     35        -17.852576   1.000000
     36        -17.836631   1.000000
     37        -17.785936   1.000000
     38        -17.699612   1.000000
     39        -17.660699   1.000000
     40        -17.622076   1.000000
     41        -17.592994   1.000000
     42        -17.574255   1.000000
     43        -17.553621   1.000000
     44        -17.532023   1.000000
     45        -17.508807   1.000000
     46         -7.197202   1.000000
     47         -7.062757   1.000000
     48         -7.022001   1.000000
     49         -6.990322   1.000000
     50         -6.953790   1.000000
     51         -6.870737   1.000000
     52         -6.831722   1.000000
     53         -6.814138   1.000000
     54         -5.610866   1.000000
     55         -5.552686   1.000000
     56         -5.515566   1.000000
     57         -5.469768   1.000000
     58         -5.457691   1.000000
     59         -5.432154   1.000000
     60         -5.381364   1.000000
     61         -5.351618   1.000000
     62         -5.345552   1.000000
     63         -5.321544   1.000000
     64         -5.303908   1.000000
     65         -5.247228   1.000000
     66         -5.212006   1.000000
     67         -5.157777   1.000000
     68         -5.156135   1.000000
     69         -5.113294   1.000000
     70         -5.105581   1.000000
     71         -5.010875   1.000000
     72         -4.907848   1.000000
     73         -4.867014   1.000000
     74         -4.848228   1.000000
     75         -4.808069   1.000000
     76         -4.729866   1.000000
     77         -4.552322   1.000000
     78         -1.959703   1.000000
     79         -1.941281   1.000000
     80         -1.909084   1.000000
     81         -1.825383   1.000000
     82         -1.733070   1.000000
     83         -1.669700   1.000000
     84         -1.607416   1.000000
     85         -1.591573   1.000000
     86         -1.510575   1.000000
     87         -1.473091   1.000000
     88         -1.443630   1.000000
     89         -1.431597   1.000000
     90         -1.378770   1.000000
     91         -1.367985   1.000000
     92         -1.323347   1.000000
     93         -1.288085   1.000000
     94         -1.248232   1.000000
     95         -1.214939   1.000000
     96         -1.170796   1.000000
     97         -1.134436   1.000000
     98         -1.101659   1.000000
     99         -1.072037   1.000000
    100         -1.001050   1.000000
    101         -0.963029   1.000000
    102         -0.933849   1.000000
    103         -0.915219   1.000000
    104         -0.809069   1.000000
    105         -0.743463   1.000000
    106         -0.729119   1.000000
    107         -0.654961   1.000000
    108         -0.634761   1.000000
    109         -0.524306   1.000000
    110         -0.021737   1.000000
    111          0.138087   1.000000
    112          0.228341   0.999999
    113          0.235861   0.999998
    114          0.277082   0.999684
    115          0.343067   0.939532
    116          0.399924   0.477160
    117          0.419659   0.269116
    118          5.719227   0.000000
    119          5.812327   0.000000
    120          5.945410   0.000000
    121          5.995095   0.000000
    122          6.033890   0.000000
    123          6.167239   0.000000
    124          6.303938   0.000000
    125          6.324081   0.000000
    126          6.625070   0.000000
    127          6.946799   0.000000
    128          6.984172   0.000000
    129          7.026395   0.000000
    130          7.080851   0.000000
    131          7.123293   0.000000
    132          7.221095   0.000000
    133          7.347786   0.000000
    134          7.403253   0.000000
    135          7.491634   0.000000
    136          7.548243   0.000000
    137          7.576505   0.000000
    138          7.603075   0.000000
    139          7.628837   0.000000
    140          7.668279   0.000000
    141          7.743338   0.000000
    142          7.753597   0.000000
    143          7.774843   0.000000
    144          7.832047   0.000000
 
 -0.2500000E+00  0.5000000E+00 -0.2500000E+00  0.1562500E-01
      1        -21.283502   1.000000
      2        -21.272079   1.000000
      3        -21.255911   1.000000
      4        -21.237705   1.000000
      5        -21.206325   1.000000
      6        -21.177813   1.000000
      7        -21.131807   1.000000
      8        -21.090364   1.000000
      9        -19.227063   1.000000
     10        -19.181409   1.000000
     11        -19.169210   1.000000
     12        -19.128040   1.000000
     13        -19.118915   1.000000
     14        -19.088946   1.000000
     15        -19.056271   1.000000
     16        -19.037677   1.000000
     17        -18.968413   1.000000
     18        -18.952803   1.000000
     19        -18.896757   1.000000
     20        -18.861517   1.000000
     21        -18.814671   1.000000
     22        -18.792930   1.000000
     23        -18.774202   1.000000
     24        -18.753770   1.000000
     25        -18.741754   1.000000
     26        -18.679072   1.000000
     27        -18.629644   1.000000
     28        -18.622441   1.000000
     29        -18.616273   1.000000
     30        -17.996049   1.000000
     31        -17.980158   1.000000
     32        -17.954567   1.000000
     33        -17.908183   1.000000
     34        -17.898374   1.000000
     35        -17.874981   1.000000
     36        -17.817781   1.000000
     37        -17.758302   1.000000
     38        -17.692831   1.000000
     39        -17.663372   1.000000
     40        -17.640757   1.000000
     41        -17.608526   1.000000
     42        -17.567202   1.000000
     43        -17.551084   1.000000
     44        -17.528040   1.000000
     45        -17.501985   1.000000
     46         -7.200141   1.000000
     47         -7.056224   1.000000
     48         -7.013155   1.000000
     49         -7.002381   1.000000
     50         -6.972994   1.000000
     51         -6.864800   1.000000
     52         -6.824608   1.000000
     53         -6.804705   1.000000
     54         -5.580821   1.000000
     55         -5.578223   1.000000
     56         -5.528885   1.000000
     57         -5.477941   1.000000
     58         -5.457626   1.000000
     59         -5.402555   1.000000
     60         -5.393086   1.000000
     61         -5.353088   1.000000
     62         -5.326650   1.000000
     63         -5.311473   1.000000
     64         -5.294459   1.000000
     65         -5.280785   1.000000
     66         -5.224481   1.000000
     67         -5.185547   1.000000
     68         -5.138185   1.000000
     69         -5.111596   1.000000
     70         -5.094922   1.000000
     71         -5.019276   1.000000
     72         -4.909914   1.000000
     73         -4.866781   1.000000
     74         -4.843917   1.000000
     75         -4.798942   1.000000
     76         -4.722263   1.000000
     77         -4.562859   1.000000
     78         -1.987660   1.000000
     79         -1.943772   1.000000
     80         -1.904866   1.000000
     81         -1.824222   1.000000
     82         -1.722999   1.000000
     83         -1.648792   1.000000
     84         -1.597348   1.000000
     85         -1.582451   1.000000
     86         -1.520945   1.000000
     87         -1.486845   1.000000
     88         -1.452059   1.000000
     89         -1.418102   1.000000
     90         -1.396035   1.000000
     91         -1.352403   1.000000
     92         -1.338626   1.000000
     93         -1.285628   1.000000
     94         -1.268192   1.000000
     95         -1.195262   1.000000
     96         -1.166057   1.000000
     97         -1.141578   1.000000
     98         -1.102629   1.000000
     99         -1.054548   1.000000
    100         -1.007540   1.000000
    101         -0.980705   1.000000
    102         -0.926831   1.000000
    103         -0.879967   1.000000
    104         -0.808395   1.000000
    105         -0.737445   1.000000
    106         -0.726843   1.000000
    107         -0.661401   1.000000
    108         -0.643226   1.000000
    109         -0.537287   1.000000
    110         -0.026136   1.000000
    111          0.143731   1.000000
    112          0.217108   1.000000
    113          0.237985   0.999997
    114          0.290714   0.998784
    115          0.346799   0.925814
    116          0.397364   0.506032
    117          0.411974   0.345277
    118          5.730529   0.000000
    119          5.800966   0.000000
    120          5.865773   0.000000
    121          6.006575   0.000000
    122          6.027245   0.000000
    123          6.187397   0.000000
    124          6.341854   0.000000
    125          6.381882   0.000000
    126          6.633759   0.000000
    127          6.925544   0.000000
    128          6.965679   0.000000
    129          7.039127   0.000000
    130          7.073173   0.000000
    131          7.160774   0.000000
    132          7.205385   0.000000
    133          7.309496   0.000000
    134          7.392728   0.000000
    135          7.446030   0.000000
    136          7.569374   0.000000
    137          7.585910   0.000000
    138          7.613166   0.000000
    139          7.636866   0.000000
    140          7.686667   0.000000
    141          7.754747   0.000000
    142          7.776282   0.000000
    143          7.810806   0.000000
    144          7.831732   0.000000
 
 -0.2500000E+00  0.2500000E+00  0.2500000E+00  0.1562500E-01
      1        -21.294183   1.000000
      2        -21.252475   1.000000
      3        -21.242335   1.000000
      4        -21.232070   1.000000
      5        -21.218285   1.000000
      6        -21.188907   1.000000
      7        -21.131511   1.000000
      8        -21.099900   1.000000
      9        -19.206098   1.000000
     10        -19.159781   1.000000
     11        -19.144582   1.000000
     12        -19.130673   1.000000
     13        -19.113273   1.000000
     14        -19.080103   1.000000
     15        -19.043910   1.000000
     16        -19.013888   1.000000
     17        -18.998148   1.000000
     18        -18.955035   1.000000
     19        -18.895197   1.000000
     20        -18.880138   1.000000
     21        -18.796431   1.000000
     22        -18.789046   1.000000
     23        -18.782227   1.000000
     24        -18.764275   1.000000
     25        -18.723677   1.000000
     26        -18.707412   1.000000
     27        -18.687868   1.000000
     28        -18.668764   1.000000
     29        -18.656647   1.000000
     30        -18.018394   1.000000
     31        -17.939550   1.000000
     32        -17.907856   1.000000
     33        -17.887009   1.000000
     34        -17.847112   1.000000
     35        -17.796183   1.000000
     36        -17.792696   1.000000
     37        -17.756318   1.000000
     38        -17.726311   1.000000
     39        -17.711646   1.000000
     40        -17.632508   1.000000
     41        -17.617350   1.000000
     42        -17.582786   1.000000
     43        -17.572398   1.000000
     44        -17.550247   1.000000
     45        -17.514299   1.000000
     46         -7.107395   1.000000
     47         -7.053294   1.000000
     48         -7.007978   1.000000
     49         -7.001344   1.000000
     50         -6.954737   1.000000
     51         -6.904592   1.000000
     52         -6.898222   1.000000
     53         -6.836019   1.000000
     54         -5.590525   1.000000
     55         -5.526572   1.000000
     56         -5.505909   1.000000
     57         -5.468546   1.000000
     58         -5.439947   1.000000
     59         -5.385922   1.000000
     60         -5.384078   1.000000
     61         -5.372426   1.000000
     62         -5.343131   1.000000
     63         -5.312449   1.000000
     64         -5.291257   1.000000
     65         -5.269824   1.000000
     66         -5.245100   1.000000
     67         -5.184668   1.000000
     68         -5.151727   1.000000
     69         -5.129994   1.000000
     70         -5.122719   1.000000
     71         -5.042183   1.000000
     72         -4.917210   1.000000
     73         -4.869568   1.000000
     74         -4.846605   1.000000
     75         -4.782485   1.000000
     76         -4.679381   1.000000
     77         -4.611414   1.000000
     78         -1.925874   1.000000
     79         -1.883403   1.000000
     80         -1.814781   1.000000
     81         -1.783425   1.000000
     82         -1.711702   1.000000
     83         -1.667765   1.000000
     84         -1.619428   1.000000
     85         -1.601105   1.000000
     86         -1.534215   1.000000
     87         -1.469621   1.000000
     88         -1.448446   1.000000
     89         -1.410855   1.000000
     90         -1.392855   1.000000
     91         -1.358776   1.000000
     92         -1.344821   1.000000
     93         -1.304056   1.000000
     94         -1.274791   1.000000
     95         -1.221637   1.000000
     96         -1.218262   1.000000
     97         -1.171202   1.000000
     98         -1.140661   1.000000
     99         -1.073817   1.000000
    100         -1.006772   1.000000
    101         -0.990209   1.000000
    102         -0.933940   1.000000
    103         -0.878259   1.000000
    104         -0.815437   1.000000
    105         -0.737688   1.000000
    106         -0.712344   1.000000
    107         -0.665305   1.000000
    108         -0.643871   1.000000
    109         -0.558859   1.000000
    110          0.094212   1.000000
    111          0.169404   1.000000
    112          0.201393   1.000000
    113          0.233322   0.999998
    114          0.255006   0.999973
    115          0.324588   0.980939
    116          0.376957   0.723178
    117          0.401021   0.464809
    118          5.767003   0.000000
    119          5.838487   0.000000
    120          5.915680   0.000000
    121          6.004264   0.000000
    122          6.095302   0.000000
    123          6.113859   0.000000
    124          6.258553   0.000000
    125          6.273882   0.000000
    126          6.880913   0.000000
    127          6.954577   0.000000
    128          7.011408   0.000000
    129          7.037319   0.000000
    130          7.066838   0.000000
    131          7.125995   0.000000
    132          7.220924   0.000000
    133          7.299119   0.000000
    134          7.336355   0.000000
    135          7.386073   0.000000
    136          7.468045   0.000000
    137          7.545996   0.000000
    138          7.579480   0.000000
    139          7.662850   0.000000
    140          7.703620   0.000000
    141          7.729927   0.000000
    142          7.768012   0.000000
    143          7.806706   0.000000
    144          7.832930   0.000000
 
 -0.2500000E+00  0.2500000E+00 -0.2500000E+00  0.1562500E-01
      1        -21.280255   1.000000
      2        -21.265296   1.000000
      3        -21.257148   1.000000
      4        -21.224204   1.000000
      5        -21.218381   1.000000
      6        -21.185462   1.000000
      7        -21.130645   1.000000
      8        -21.097612   1.000000
      9        -19.199989   1.000000
     10        -19.170248   1.000000
     11        -19.150402   1.000000
     12        -19.125478   1.000000
     13        -19.113531   1.000000
     14        -19.084438   1.000000
     15        -19.045895   1.000000
     16        -19.013902   1.000000
     17        -18.996340   1.000000
     18        -18.970813   1.000000
     19        -18.887551   1.000000
     20        -18.859214   1.000000
     21        -18.801392   1.000000
     22        -18.796033   1.000000
     23        -18.771470   1.000000
     24        -18.761598   1.000000
     25        -18.736520   1.000000
     26        -18.702895   1.000000
     27        -18.687826   1.000000
     28        -18.679407   1.000000
     29        -18.636763   1.000000
     30        -18.012807   1.000000
     31        -17.949827   1.000000
     32        -17.910716   1.000000
     33        -17.879222   1.000000
     34        -17.865996   1.000000
     35        -17.792551   1.000000
     36        -17.784947   1.000000
     37        -17.771805   1.000000
     38        -17.721726   1.000000
     39        -17.704217   1.000000
     40        -17.633311   1.000000
     41        -17.603423   1.000000
     42        -17.582609   1.000000
     43        -17.579312   1.000000
     44        -17.544550   1.000000
     45        -17.521862   1.000000
     46         -7.120113   1.000000
     47         -7.045751   1.000000
     48         -7.013211   1.000000
     49         -7.007443   1.000000
     50         -6.954826   1.000000
     51         -6.924243   1.000000
     52         -6.856446   1.000000
     53         -6.833743   1.000000
     54         -5.575590   1.000000
     55         -5.540872   1.000000
     56         -5.495127   1.000000
     57         -5.461589   1.000000
     58         -5.425886   1.000000
     59         -5.416460   1.000000
     60         -5.384292   1.000000
     61         -5.364420   1.000000
     62         -5.354783   1.000000
     63         -5.310556   1.000000
     64         -5.299850   1.000000
     65         -5.268409   1.000000
     66         -5.234117   1.000000
     67         -5.223474   1.000000
     68         -5.159822   1.000000
     69         -5.115188   1.000000
     70         -5.097713   1.000000
     71         -5.065649   1.000000
     72         -4.913467   1.000000
     73         -4.853066   1.000000
     74         -4.845903   1.000000
     75         -4.788548   1.000000
     76         -4.653785   1.000000
     77         -4.637279   1.000000
     78         -1.923670   1.000000
     79         -1.893418   1.000000
     80         -1.849800   1.000000
     81         -1.823506   1.000000
     82         -1.665495   1.000000
     83         -1.641121   1.000000
     84         -1.588099   1.000000
     85         -1.555548   1.000000
     86         -1.543521   1.000000
     87         -1.517469   1.000000
     88         -1.427887   1.000000
     89         -1.410378   1.000000
     90         -1.400400   1.000000
     91         -1.387051   1.000000
     92         -1.351646   1.000000
     93         -1.331303   1.000000
     94         -1.265437   1.000000
     95         -1.231668   1.000000
     96         -1.179068   1.000000
     97         -1.173084   1.000000
     98         -1.138156   1.000000
     99         -1.065306   1.000000
    100         -1.022616   1.000000
    101         -0.972128   1.000000
    102         -0.911515   1.000000
    103         -0.836304   1.000000
    104         -0.799627   1.000000
    105         -0.768865   1.000000
    106         -0.724121   1.000000
    107         -0.696051   1.000000
    108         -0.615407   1.000000
    109         -0.600478   1.000000
    110          0.102365   1.000000
    111          0.172439   1.000000
    112          0.214611   1.000000
    113          0.224814   1.000000
    114          0.272755   0.999800
    115          0.314570   0.990785
    116          0.364016   0.831054
    117          0.393546   0.548989
    118          5.736735   0.000000
    119          5.773735   0.000000
    120          5.913478   0.000000
    121          6.028081   0.000000
    122          6.077772   0.000000
    123          6.164787   0.000000
    124          6.288158   0.000000
    125          6.327562   0.000000
    126          6.927531   0.000000
    127          6.940889   0.000000
    128          6.969132   0.000000
    129          7.054353   0.000000
    130          7.073212   0.000000
    131          7.137435   0.000000
    132          7.193461   0.000000
    133          7.250758   0.000000
    134          7.350597   0.000000
    135          7.378918   0.000000
    136          7.447520   0.000000
    137          7.529573   0.000000
    138          7.623012   0.000000
    139          7.667565   0.000000
    140          7.691055   0.000000
    141          7.694478   0.000000
    142          7.750500   0.000000
    143          7.787672   0.000000
    144          7.819676   0.000000
 
  0.5000000E+00  0.5000000E+00  0.2500000E+00  0.1562500E-01
      1        -21.301480   1.000000
      2        -21.279024   1.000000
      3        -21.264934   1.000000
      4        -21.235019   1.000000
      5        -21.203545   1.000000
      6        -21.162337   1.000000
      7        -21.127997   1.000000
      8        -21.072159   1.000000
      9        -19.234751   1.000000
     10        -19.213386   1.000000
     11        -19.197504   1.000000
     12        -19.155451   1.000000
     13        -19.142939   1.000000
     14        -19.123673   1.000000
     15        -19.072850   1.000000
     16        -19.052028   1.000000
     17        -18.900217   1.000000
     18        -18.880982   1.000000
     19        -18.873661   1.000000
     20        -18.840321   1.000000
     21        -18.835855   1.000000
     22        -18.809868   1.000000
     23        -18.791331   1.000000
     24        -18.780861   1.000000
     25        -18.724495   1.000000
     26        -18.616000   1.000000
     27        -18.602426   1.000000
     28        -18.597096   1.000000
     29        -18.575883   1.000000
     30        -18.014755   1.000000
     31        -17.978886   1.000000
     32        -17.962503   1.000000
     33        -17.946838   1.000000
     34        -17.913421   1.000000
     35        -17.900864   1.000000
     36        -17.877243   1.000000
     37        -17.857168   1.000000
     38        -17.639153   1.000000
     39        -17.636427   1.000000
     40        -17.619242   1.000000
     41        -17.586117   1.000000
     42        -17.546382   1.000000
     43        -17.535929   1.000000
     44        -17.526163   1.000000
     45        -17.499702   1.000000
     46         -7.249825   1.000000
     47         -7.072518   1.000000
     48         -7.018425   1.000000
     49         -7.009053   1.000000
     50         -6.991974   1.000000
     51         -6.813360   1.000000
     52         -6.790592   1.000000
     53         -6.786343   1.000000
     54         -5.618078   1.000000
     55         -5.585728   1.000000
     56         -5.563131   1.000000
     57         -5.457225   1.000000
     58         -5.437798   1.000000
     59         -5.423179   1.000000
     60         -5.361088   1.000000
     61         -5.346962   1.000000
     62         -5.335732   1.000000
     63         -5.312022   1.000000
     64         -5.283374   1.000000
     65         -5.253021   1.000000
     66         -5.182289   1.000000
     67         -5.151684   1.000000
     68         -5.148786   1.000000
     69         -5.108237   1.000000
     70         -5.099700   1.000000
     71         -4.984048   1.000000
     72         -4.980225   1.000000
     73         -4.874945   1.000000
     74         -4.822586   1.000000
     75         -4.783309   1.000000
     76         -4.765846   1.000000
     77         -4.568842   1.000000
     78         -2.036535   1.000000
     79         -2.007785   1.000000
     80         -1.982588   1.000000
     81         -1.776466   1.000000
     82         -1.766104   1.000000
     83         -1.689314   1.000000
     84         -1.617935   1.000000
     85         -1.604555   1.000000
     86         -1.492739   1.000000
     87         -1.478173   1.000000
     88         -1.438149   1.000000
     89         -1.416854   1.000000
     90         -1.362653   1.000000
     91         -1.350231   1.000000
     92         -1.315592   1.000000
     93         -1.244602   1.000000
     94         -1.215273   1.000000
     95         -1.193841   1.000000
     96         -1.141846   1.000000
     97         -1.110630   1.000000
     98         -1.090868   1.000000
     99         -1.073404   1.000000
    100         -1.027632   1.000000
    101         -0.961571   1.000000
    102         -0.916332   1.000000
    103         -0.886000   1.000000
    104         -0.816931   1.000000
    105         -0.751036   1.000000
    106         -0.706202   1.000000
    107         -0.680916   1.000000
    108         -0.556761   1.000000
    109         -0.556031   1.000000
    110         -0.098755   1.000000
    111          0.113840   1.000000
    112          0.197464   1.000000
    113          0.250517   0.999985
    114          0.260230   0.999951
    115          0.390292   0.585170
    116          0.423135   0.237676
    117          0.443079   0.100641
    118          5.656263   0.000000
    119          5.760837   0.000000
    120          5.885752   0.000000
    121          5.905456   0.000000
    122          5.976433   0.000000
    123          6.311400   0.000000
    124          6.384850   0.000000
    125          6.407630   0.000000
    126          6.678203   0.000000
    127          6.945690   0.000000
    128          6.970332   0.000000
    129          6.984269   0.000000
    130          7.103925   0.000000
    131          7.125560   0.000000
    132          7.207991   0.000000
    133          7.314350   0.000000
    134          7.396099   0.000000
    135          7.538653   0.000000
    136          7.548893   0.000000
    137          7.608416   0.000000
    138          7.619557   0.000000
    139          7.642216   0.000000
    140          7.677082   0.000000
    141          7.728952   0.000000
    142          7.763607   0.000000
    143          7.823121   0.000000
    144          7.847063   0.000000
 
 -0.2500000E+00  0.5000000E+00  0.2500000E+00  0.1562500E-01
      1        -21.301083   1.000000
      2        -21.270665   1.000000
      3        -21.258592   1.000000
      4        -21.236302   1.000000
      5        -21.209063   1.000000
      6        -21.168145   1.000000
      7        -21.128859   1.000000
      8        -21.077407   1.000000
      9        -19.235824   1.000000
     10        -19.198835   1.000000
     11        -19.171540   1.000000
     12        -19.145220   1.000000
     13        -19.124992   1.000000
     14        -19.096104   1.000000
     15        -19.069385   1.000000
     16        -19.027575   1.000000
     17        -18.963477   1.000000
     18        -18.929348   1.000000
     19        -18.900684   1.000000
     20        -18.847637   1.000000
     21        -18.812352   1.000000
     22        -18.790880   1.000000
     23        -18.763785   1.000000
     24        -18.738748   1.000000
     25        -18.720341   1.000000
     26        -18.687891   1.000000
     27        -18.638491   1.000000
     28        -18.632669   1.000000
     29        -18.609408   1.000000
     30        -18.000490   1.000000
     31        -17.983510   1.000000
     32        -17.950382   1.000000
     33        -17.928031   1.000000
     34        -17.889098   1.000000
     35        -17.859853   1.000000
     36        -17.833728   1.000000
     37        -17.764343   1.000000
     38        -17.700004   1.000000
     39        -17.664338   1.000000
     40        -17.627815   1.000000
     41        -17.599160   1.000000
     42        -17.573823   1.000000
     43        -17.556099   1.000000
     44        -17.534321   1.000000
     45        -17.488601   1.000000
     46         -7.196937   1.000000
     47         -7.071971   1.000000
     48         -7.019743   1.000000
     49         -6.996129   1.000000
     50         -6.960466   1.000000
     51         -6.876093   1.000000
     52         -6.824711   1.000000
     53         -6.807134   1.000000
     54         -5.608692   1.000000
     55         -5.564472   1.000000
     56         -5.533309   1.000000
     57         -5.461873   1.000000
     58         -5.428379   1.000000
     59         -5.378603   1.000000
     60         -5.360574   1.000000
     61         -5.349719   1.000000
     62         -5.334842   1.000000
     63         -5.323605   1.000000
     64         -5.272783   1.000000
     65         -5.258208   1.000000
     66         -5.221991   1.000000
     67         -5.176776   1.000000
     68         -5.139470   1.000000
     69         -5.122161   1.000000
     70         -5.095341   1.000000
     71         -5.068704   1.000000
     72         -4.975709   1.000000
     73         -4.858071   1.000000
     74         -4.807593   1.000000
     75         -4.778647   1.000000
     76         -4.721373   1.000000
     77         -4.621981   1.000000
     78         -1.999364   1.000000
     79         -1.968592   1.000000
     80         -1.903711   1.000000
     81         -1.772524   1.000000
     82         -1.725395   1.000000
     83         -1.697730   1.000000
     84         -1.610746   1.000000
     85         -1.568910   1.000000
     86         -1.497675   1.000000
     87         -1.481101   1.000000
     88         -1.447648   1.000000
     89         -1.416154   1.000000
     90         -1.366882   1.000000
     91         -1.356336   1.000000
     92         -1.319693   1.000000
     93         -1.293597   1.000000
     94         -1.235401   1.000000
     95         -1.206053   1.000000
     96         -1.187442   1.000000
     97         -1.150573   1.000000
     98         -1.105854   1.000000
     99         -1.064526   1.000000
    100         -1.013234   1.000000
    101         -0.968008   1.000000
    102         -0.936624   1.000000
    103         -0.896948   1.000000
    104         -0.812263   1.000000
    105         -0.720365   1.000000
    106         -0.686279   1.000000
    107         -0.660103   1.000000
    108         -0.631117   1.000000
    109         -0.578929   1.000000
    110         -0.012600   1.000000
    111          0.127393   1.000000
    112          0.191153   1.000000
    113          0.253441   0.999978
    114          0.281091   0.999523
    115          0.346441   0.927225
    116          0.400273   0.473223
    117          0.433636   0.156050
    118          5.698806   0.000000
    119          5.784083   0.000000
    120          5.835578   0.000000
    121          5.946965   0.000000
    122          6.019368   0.000000
    123          6.291021   0.000000
    124          6.304107   0.000000
    125          6.363154   0.000000
    126          6.880825   0.000000
    127          6.917835   0.000000
    128          6.965980   0.000000
    129          7.066539   0.000000
    130          7.117438   0.000000
    131          7.161611   0.000000
    132          7.231579   0.000000
    133          7.294811   0.000000
    134          7.393873   0.000000
    135          7.470536   0.000000
    136          7.491602   0.000000
    137          7.533459   0.000000
    138          7.592224   0.000000
    139          7.658608   0.000000
    140          7.688738   0.000000
    141          7.699851   0.000000
    142          7.756050   0.000000
    143          7.796498   0.000000
    144          7.801500   0.000000
 
  0.5000000E+00  0.2500000E+00 -0.2500000E+00  0.1562500E-01
      1        -21.298024   1.000000
      2        -21.276226   1.000000
      3        -21.263340   1.000000
      4        -21.232118   1.000000
      5        -21.201978   1.000000
      6        -21.169340   1.000000
      7        -21.133989   1.000000
      8        -21.074883   1.000000
      9        -19.224414   1.000000
     10        -19.200297   1.000000
     11        -19.162439   1.000000
     12        -19.150470   1.000000
     13        -19.142828   1.000000
     14        -19.113688   1.000000
     15        -19.083578   1.000000
     16        -18.988995   1.000000
     17        -18.951158   1.000000
     18        -18.934743   1.000000
     19        -18.913580   1.000000
     20        -18.842868   1.000000
     21        -18.811727   1.000000
     22        -18.784358   1.000000
     23        -18.782345   1.000000
     24        -18.745856   1.000000
     25        -18.712415   1.000000
     26        -18.671124   1.000000
     27        -18.650878   1.000000
     28        -18.623524   1.000000
     29        -18.607256   1.000000
     30        -18.033830   1.000000
     31        -17.991826   1.000000
     32        -17.959804   1.000000
     33        -17.919430   1.000000
     34        -17.870558   1.000000
     35        -17.837250   1.000000
     36        -17.815862   1.000000
     37        -17.777522   1.000000
     38        -17.722349   1.000000
     39        -17.653820   1.000000
     40        -17.623676   1.000000
     41        -17.593272   1.000000
     42        -17.567135   1.000000
     43        -17.552731   1.000000
     44        -17.527771   1.000000
     45        -17.513647   1.000000
     46         -7.199587   1.000000
     47         -7.070267   1.000000
     48         -7.020828   1.000000
     49         -6.995739   1.000000
     50         -6.968255   1.000000
     51         -6.858295   1.000000
     52         -6.828492   1.000000
     53         -6.807600   1.000000
     54         -5.599692   1.000000
     55         -5.573813   1.000000
     56         -5.546114   1.000000
     57         -5.452257   1.000000
     58         -5.419304   1.000000
     59         -5.382263   1.000000
     60         -5.363030   1.000000
     61         -5.347871   1.000000
     62         -5.323951   1.000000
     63         -5.321203   1.000000
     64         -5.283238   1.000000
     65         -5.273632   1.000000
     66         -5.216130   1.000000
     67         -5.177745   1.000000
     68         -5.139462   1.000000
     69         -5.118977   1.000000
     70         -5.106740   1.000000
     71         -5.074268   1.000000
     72         -4.956417   1.000000
     73         -4.870323   1.000000
     74         -4.820974   1.000000
     75         -4.768600   1.000000
     76         -4.700138   1.000000
     77         -4.632291   1.000000
     78         -1.987604   1.000000
     79         -1.968379   1.000000
     80         -1.935490   1.000000
     81         -1.764351   1.000000
     82         -1.714374   1.000000
     83         -1.681718   1.000000
     84         -1.612841   1.000000
     85         -1.591773   1.000000
     86         -1.512341   1.000000
     87         -1.483307   1.000000
     88         -1.448875   1.000000
     89         -1.416204   1.000000
     90         -1.370536   1.000000
     91         -1.342904   1.000000
     92         -1.329408   1.000000
     93         -1.277030   1.000000
     94         -1.252071   1.000000
     95         -1.217194   1.000000
     96         -1.169891   1.000000
     97         -1.156651   1.000000
     98         -1.093841   1.000000
     99         -1.040306   1.000000
    100         -1.025178   1.000000
    101         -0.949932   1.000000
    102         -0.915801   1.000000
    103         -0.858665   1.000000
    104         -0.806616   1.000000
    105         -0.770511   1.000000
    106         -0.715706   1.000000
    107         -0.663832   1.000000
    108         -0.616110   1.000000
    109         -0.585041   1.000000
    110         -0.012411   1.000000
    111          0.129544   1.000000
    112          0.202483   1.000000
    113          0.241843   0.999995
    114          0.280125   0.999568
    115          0.372245   0.765957
    116          0.394081   0.542987
    117          0.409998   0.366093
    118          5.686710   0.000000
    119          5.745954   0.000000
    120          5.871895   0.000000
    121          5.928396   0.000000
    122          6.004243   0.000000
    123          6.289015   0.000000
    124          6.357446   0.000000
    125          6.394832   0.000000
    126          6.889401   0.000000
    127          6.907117   0.000000
    128          6.981520   0.000000
    129          7.022608   0.000000
    130          7.077731   0.000000
    131          7.170440   0.000000
    132          7.253709   0.000000
    133          7.304589   0.000000
    134          7.408674   0.000000
    135          7.438107   0.000000
    136          7.487309   0.000000
    137          7.545271   0.000000
    138          7.609514   0.000000
    139          7.651562   0.000000
    140          7.667102   0.000000
    141          7.706073   0.000000
    142          7.715417   0.000000
    143          7.785081   0.000000
    144          7.859622   0.000000
 
 -0.2500000E+00 -0.2500000E+00  0.2500000E+00  0.1562500E-01
      1        -21.299717   1.000000
      2        -21.275343   1.000000
      3        -21.272903   1.000000
      4        -21.235991   1.000000
      5        -21.196189   1.000000
      6        -21.165231   1.000000
      7        -21.133191   1.000000
      8        -21.068564   1.000000
      9        -19.236694   1.000000
     10        -19.209768   1.000000
     11        -19.200689   1.000000
     12        -19.145726   1.000000
     13        -19.129534   1.000000
     14        -19.111100   1.000000
     15        -19.039299   1.000000
     16        -19.010005   1.000000
     17        -18.941423   1.000000
     18        -18.924582   1.000000
     19        -18.894865   1.000000
     20        -18.870658   1.000000
     21        -18.843200   1.000000
     22        -18.818930   1.000000
     23        -18.744225   1.000000
     24        -18.720560   1.000000
     25        -18.707805   1.000000
     26        -18.681012   1.000000
     27        -18.635575   1.000000
     28        -18.615531   1.000000
     29        -18.600883   1.000000
     30        -18.052258   1.000000
     31        -18.047365   1.000000
     32        -17.947724   1.000000
     33        -17.886773   1.000000
     34        -17.860003   1.000000
     35        -17.831090   1.000000
     36        -17.815875   1.000000
     37        -17.777455   1.000000
     38        -17.699481   1.000000
     39        -17.688549   1.000000
     40        -17.612486   1.000000
     41        -17.603649   1.000000
     42        -17.584162   1.000000
     43        -17.548258   1.000000
     44        -17.514154   1.000000
     45        -17.510505   1.000000
     46         -7.181834   1.000000
     47         -7.091312   1.000000
     48         -7.020932   1.000000
     49         -6.990946   1.000000
     50         -6.971492   1.000000
     51         -6.897707   1.000000
     52         -6.808804   1.000000
     53         -6.793295   1.000000
     54         -5.605070   1.000000
     55         -5.567593   1.000000
     56         -5.546946   1.000000
     57         -5.445826   1.000000
     58         -5.411120   1.000000
     59         -5.381997   1.000000
     60         -5.369773   1.000000
     61         -5.356886   1.000000
     62         -5.331789   1.000000
     63         -5.269871   1.000000
     64         -5.260846   1.000000
     65         -5.246808   1.000000
     66         -5.208529   1.000000
     67         -5.197903   1.000000
     68         -5.166360   1.000000
     69         -5.117058   1.000000
     70         -5.099339   1.000000
     71         -5.086150   1.000000
     72         -4.995796   1.000000
     73         -4.872266   1.000000
     74         -4.780195   1.000000
     75         -4.764384   1.000000
     76         -4.735577   1.000000
     77         -4.651085   1.000000
     78         -2.029062   1.000000
     79         -2.018598   1.000000
     80         -1.856098   1.000000
     81         -1.731841   1.000000
     82         -1.713178   1.000000
     83         -1.662542   1.000000
     84         -1.629098   1.000000
     85         -1.586433   1.000000
     86         -1.534027   1.000000
     87         -1.462874   1.000000
     88         -1.431773   1.000000
     89         -1.402686   1.000000
     90         -1.372526   1.000000
     91         -1.362151   1.000000
     92         -1.341543   1.000000
     93         -1.282629   1.000000
     94         -1.228710   1.000000
     95         -1.213298   1.000000
     96         -1.186910   1.000000
     97         -1.160664   1.000000
     98         -1.119220   1.000000
     99         -1.050461   1.000000
    100         -1.014033   1.000000
    101         -0.964507   1.000000
    102         -0.882673   1.000000
    103         -0.855339   1.000000
    104         -0.823973   1.000000
    105         -0.769550   1.000000
    106         -0.708745   1.000000
    107         -0.673781   1.000000
    108         -0.621358   1.000000
    109         -0.573674   1.000000
    110          0.000633   1.000000
    111          0.114127   1.000000
    112          0.192014   1.000000
    113          0.257557   0.999964
    114          0.267036   0.999893
    115          0.332943   0.966911
    116          0.417736   0.287365
    117          0.438827   0.123509
    118          5.662319   0.000000
    119          5.774243   0.000000
    120          5.830633   0.000000
    121          5.902767   0.000000
    122          5.998214   0.000000
    123          6.258970   0.000000
    124          6.396797   0.000000
    125          6.410723   0.000000
    126          6.863545   0.000000
    127          6.988103   0.000000
    128          7.017563   0.000000
    129          7.060590   0.000000
    130          7.098626   0.000000
    131          7.205702   0.000000
    132          7.258767   0.000000
    133          7.293577   0.000000
    134          7.393965   0.000000
    135          7.447407   0.000000
    136          7.533528   0.000000
    137          7.558958   0.000000
    138          7.603492   0.000000
    139          7.627390   0.000000
    140          7.647120   0.000000
    141          7.700462   0.000000
    142          7.731633   0.000000
    143          7.797744   0.000000
    144          7.868369   0.000000
 
  0.1270884E-14  0.1270884E-14  0.3750000E+00  0.1562500E-01
      1        -21.304151   1.000000
      2        -21.275892   1.000000
      3        -21.259171   1.000000
      4        -21.234193   1.000000
      5        -21.205102   1.000000
      6        -21.159363   1.000000
      7        -21.144363   1.000000
      8        -21.070072   1.000000
      9        -19.236330   1.000000
     10        -19.216894   1.000000
     11        -19.179549   1.000000
     12        -19.138343   1.000000
     13        -19.129801   1.000000
     14        -19.094948   1.000000
     15        -19.068648   1.000000
     16        -18.997992   1.000000
     17        -18.952199   1.000000
     18        -18.919854   1.000000
     19        -18.894786   1.000000
     20        -18.879019   1.000000
     21        -18.839737   1.000000
     22        -18.801341   1.000000
     23        -18.761350   1.000000
     24        -18.715028   1.000000
     25        -18.708051   1.000000
     26        -18.682637   1.000000
     27        -18.640247   1.000000
     28        -18.617314   1.000000
     29        -18.606788   1.000000
     30        -18.055278   1.000000
     31        -18.041385   1.000000
     32        -17.904200   1.000000
     33        -17.897705   1.000000
     34        -17.885504   1.000000
     35        -17.833244   1.000000
     36        -17.819706   1.000000
     37        -17.736044   1.000000
     38        -17.717410   1.000000
     39        -17.678963   1.000000
     40        -17.643262   1.000000
     41        -17.611685   1.000000
     42        -17.576285   1.000000
     43        -17.558031   1.000000
     44        -17.514948   1.000000
     45        -17.502922   1.000000
     46         -7.160681   1.000000
     47         -7.131934   1.000000
     48         -7.024503   1.000000
     49         -7.009812   1.000000
     50         -6.943415   1.000000
     51         -6.931998   1.000000
     52         -6.789811   1.000000
     53         -6.785805   1.000000
     54         -5.606049   1.000000
     55         -5.548187   1.000000
     56         -5.529982   1.000000
     57         -5.432568   1.000000
     58         -5.408411   1.000000
     59         -5.395227   1.000000
     60         -5.378287   1.000000
     61         -5.369101   1.000000
     62         -5.338855   1.000000
     63         -5.276200   1.000000
     64         -5.255147   1.000000
     65         -5.229470   1.000000
     66         -5.198725   1.000000
     67         -5.154154   1.000000
     68         -5.119974   1.000000
     69         -5.104878   1.000000
     70         -5.063987   1.000000
     71         -5.043911   1.000000
     72         -4.966556   1.000000
     73         -4.898679   1.000000
     74         -4.853268   1.000000
     75         -4.788211   1.000000
     76         -4.777881   1.000000
     77         -4.692847   1.000000
     78         -2.042235   1.000000
     79         -2.034783   1.000000
     80         -1.817007   1.000000
     81         -1.764136   1.000000
     82         -1.719968   1.000000
     83         -1.628499   1.000000
     84         -1.608315   1.000000
     85         -1.558164   1.000000
     86         -1.535712   1.000000
     87         -1.472642   1.000000
     88         -1.445648   1.000000
     89         -1.400750   1.000000
     90         -1.380647   1.000000
     91         -1.353278   1.000000
     92         -1.324998   1.000000
     93         -1.295153   1.000000
     94         -1.279650   1.000000
     95         -1.224001   1.000000
     96         -1.191349   1.000000
     97         -1.153570   1.000000
     98         -1.134910   1.000000
     99         -1.071612   1.000000
    100         -0.981281   1.000000
    101         -0.943095   1.000000
    102         -0.872939   1.000000
    103         -0.866044   1.000000
    104         -0.819657   1.000000
    105         -0.747940   1.000000
    106         -0.728736   1.000000
    107         -0.694018   1.000000
    108         -0.622020   1.000000
    109         -0.617713   1.000000
    110          0.032295   1.000000
    111          0.073817   1.000000
    112          0.192561   1.000000
    113          0.245385   0.999992
    114          0.279473   0.999595
    115          0.314807   0.990618
    116          0.424764   0.223661
    117          0.448476   0.076278
    118          5.646911   0.000000
    119          5.745145   0.000000
    120          5.825446   0.000000
    121          5.935743   0.000000
    122          6.004568   0.000000
    123          6.170180   0.000000
    124          6.420167   0.000000
    125          6.437674   0.000000
    126          6.822263   0.000000
    127          6.906550   0.000000
    128          7.008951   0.000000
    129          7.149069   0.000000
    130          7.180851   0.000000
    131          7.253991   0.000000
    132          7.271667   0.000000
    133          7.392098   0.000000
    134          7.453747   0.000000
    135          7.494706   0.000000
    136          7.538381   0.000000
    137          7.589660   0.000000
    138          7.644495   0.000000
    139          7.657189   0.000000
    140          7.684641   0.000000
    141          7.728172   0.000000
    142          7.740755   0.000000
    143          7.787392   0.000000
    144          7.841628   0.000000
 
  0.2500000E+00  0.1325208E-14  0.3750000E+00  0.1562500E-01
      1        -21.278320   1.000000
      2        -21.265528   1.000000
      3        -21.254275   1.000000
      4        -21.240555   1.000000
      5        -21.212132   1.000000
      6        -21.178974   1.000000
      7        -21.136928   1.000000
      8        -21.095638   1.000000
      9        -19.196792   1.000000
     10        -19.186629   1.000000
     11        -19.172112   1.000000
     12        -19.122732   1.000000
     13        -19.100912   1.000000
     14        -19.088986   1.000000
     15        -19.036125   1.000000
     16        -19.000635   1.000000
     17        -18.939768   1.000000
     18        -18.932013   1.000000
     19        -18.925722   1.000000
     20        -18.877505   1.000000
     21        -18.849451   1.000000
     22        -18.792621   1.000000
     23        -18.778605   1.000000
     24        -18.758943   1.000000
     25        -18.755499   1.000000
     26        -18.689212   1.000000
     27        -18.678648   1.000000
     28        -18.672098   1.000000
     29        -18.627774   1.000000
     30        -17.992791   1.000000
     31        -17.964572   1.000000
     32        -17.899152   1.000000
     33        -17.873216   1.000000
     34        -17.860951   1.000000
     35        -17.819725   1.000000
     36        -17.810486   1.000000
     37        -17.793213   1.000000
     38        -17.694146   1.000000
     39        -17.657234   1.000000
     40        -17.641011   1.000000
     41        -17.613150   1.000000
     42        -17.583540   1.000000
     43        -17.572441   1.000000
     44        -17.565528   1.000000
     45        -17.523469   1.000000
     46         -7.093458   1.000000
     47         -7.087629   1.000000
     48         -7.025941   1.000000
     49         -6.991165   1.000000
     50         -6.982769   1.000000
     51         -6.923754   1.000000
     52         -6.867509   1.000000
     53         -6.812519   1.000000
     54         -5.578612   1.000000
     55         -5.519823   1.000000
     56         -5.484660   1.000000
     57         -5.446706   1.000000
     58         -5.422265   1.000000
     59         -5.397322   1.000000
     60         -5.392570   1.000000
     61         -5.369679   1.000000
     62         -5.353562   1.000000
     63         -5.318799   1.000000
     64         -5.280913   1.000000
     65         -5.262040   1.000000
     66         -5.231338   1.000000
     67         -5.169653   1.000000
     68         -5.120078   1.000000
     69         -5.095062   1.000000
     70         -5.064087   1.000000
     71         -5.024448   1.000000
     72         -4.940438   1.000000
     73         -4.904594   1.000000
     74         -4.852636   1.000000
     75         -4.799234   1.000000
     76         -4.745302   1.000000
     77         -4.671083   1.000000
     78         -1.993955   1.000000
     79         -1.934055   1.000000
     80         -1.810757   1.000000
     81         -1.708283   1.000000
     82         -1.650949   1.000000
     83         -1.650325   1.000000
     84         -1.607945   1.000000
     85         -1.561539   1.000000
     86         -1.535506   1.000000
     87         -1.503139   1.000000
     88         -1.472388   1.000000
     89         -1.416870   1.000000
     90         -1.403544   1.000000
     91         -1.393160   1.000000
     92         -1.344733   1.000000
     93         -1.299541   1.000000
     94         -1.265973   1.000000
     95         -1.211062   1.000000
     96         -1.187369   1.000000
     97         -1.154703   1.000000
     98         -1.104981   1.000000
     99         -1.093273   1.000000
    100         -1.042315   1.000000
    101         -0.998236   1.000000
    102         -0.928372   1.000000
    103         -0.873464   1.000000
    104         -0.803350   1.000000
    105         -0.749339   1.000000
    106         -0.726145   1.000000
    107         -0.692793   1.000000
    108         -0.629860   1.000000
    109         -0.621645   1.000000
    110          0.113381   1.000000
    111          0.147200   1.000000
    112          0.193365   1.000000
    113          0.256329   0.999969
    114          0.268786   0.999870
    115          0.299192   0.997380
    116          0.348683   0.918044
    117          0.424542   0.225543
    118          5.742240   0.000000
    119          5.762497   0.000000
    120          5.864126   0.000000
    121          5.965325   0.000000
    122          6.081061   0.000000
    123          6.162609   0.000000
    124          6.244534   0.000000
    125          6.369564   0.000000
    126          6.895512   0.000000
    127          6.925741   0.000000
    128          7.051932   0.000000
    129          7.083916   0.000000
    130          7.129488   0.000000
    131          7.198399   0.000000
    132          7.232156   0.000000
    133          7.343806   0.000000
    134          7.381166   0.000000
    135          7.510538   0.000000
    136          7.570964   0.000000
    137          7.579949   0.000000
    138          7.590699   0.000000
    139          7.658440   0.000000
    140          7.681407   0.000000
    141          7.710386   0.000000
    142          7.760100   0.000000
    143          7.767934   0.000000
    144          7.867242   0.000000
 
  0.1123718E-14 -0.2500000E+00 -0.3750000E+00  0.1562500E-01
      1        -21.291166   1.000000
      2        -21.264964   1.000000
      3        -21.249617   1.000000
      4        -21.219641   1.000000
      5        -21.207619   1.000000
      6        -21.192456   1.000000
      7        -21.141543   1.000000
      8        -21.095905   1.000000
      9        -19.197791   1.000000
     10        -19.182401   1.000000
     11        -19.160044   1.000000
     12        -19.112360   1.000000
     13        -19.104963   1.000000
     14        -19.087555   1.000000
     15        -19.072390   1.000000
     16        -19.008587   1.000000
     17        -18.931601   1.000000
     18        -18.915591   1.000000
     19        -18.888298   1.000000
     20        -18.885300   1.000000
     21        -18.854465   1.000000
     22        -18.813671   1.000000
     23        -18.797735   1.000000
     24        -18.774975   1.000000
     25        -18.713998   1.000000
     26        -18.710556   1.000000
     27        -18.665773   1.000000
     28        -18.656003   1.000000
     29        -18.649232   1.000000
     30        -18.045584   1.000000
     31        -17.923949   1.000000
     32        -17.907761   1.000000
     33        -17.873771   1.000000
     34        -17.831979   1.000000
     35        -17.815931   1.000000
     36        -17.813838   1.000000
     37        -17.779335   1.000000
     38        -17.690514   1.000000
     39        -17.665834   1.000000
     40        -17.632168   1.000000
     41        -17.616640   1.000000
     42        -17.610023   1.000000
     43        -17.574619   1.000000
     44        -17.556890   1.000000
     45        -17.524660   1.000000
     46         -7.094943   1.000000
     47         -7.087208   1.000000
     48         -7.025184   1.000000
     49         -6.975911   1.000000
     50         -6.958147   1.000000
     51         -6.937954   1.000000
     52         -6.888472   1.000000
     53         -6.822083   1.000000
     54         -5.581791   1.000000
     55         -5.529293   1.000000
     56         -5.486703   1.000000
     57         -5.449047   1.000000
     58         -5.417579   1.000000
     59         -5.406769   1.000000
     60         -5.396851   1.000000
     61         -5.375918   1.000000
     62         -5.343620   1.000000
     63         -5.316184   1.000000
     64         -5.262183   1.000000
     65         -5.250359   1.000000
     66         -5.175597   1.000000
     67         -5.163930   1.000000
     68         -5.153943   1.000000
     69         -5.127679   1.000000
     70         -5.078567   1.000000
     71         -5.009453   1.000000
     72         -4.961892   1.000000
     73         -4.886591   1.000000
     74         -4.830057   1.000000
     75         -4.809927   1.000000
     76         -4.763388   1.000000
     77         -4.658523   1.000000
     78         -1.994320   1.000000
     79         -1.890055   1.000000
     80         -1.800560   1.000000
     81         -1.757686   1.000000
     82         -1.661245   1.000000
     83         -1.633678   1.000000
     84         -1.620908   1.000000
     85         -1.597643   1.000000
     86         -1.571024   1.000000
     87         -1.470888   1.000000
     88         -1.429902   1.000000
     89         -1.412612   1.000000
     90         -1.391826   1.000000
     91         -1.378495   1.000000
     92         -1.351985   1.000000
     93         -1.295974   1.000000
     94         -1.266783   1.000000
     95         -1.246144   1.000000
     96         -1.199493   1.000000
     97         -1.172493   1.000000
     98         -1.120794   1.000000
     99         -1.097573   1.000000
    100         -1.020467   1.000000
    101         -0.974306   1.000000
    102         -0.914591   1.000000
    103         -0.875600   1.000000
    104         -0.830003   1.000000
    105         -0.758763   1.000000
    106         -0.705660   1.000000
    107         -0.693525   1.000000
    108         -0.646069   1.000000
    109         -0.589159   1.000000
    110          0.099163   1.000000
    111          0.149643   1.000000
    112          0.197163   1.000000
    113          0.237428   0.999997
    114          0.263892   0.999925
    115          0.330032   0.972543
    116          0.347808   0.921727
    117          0.420524   0.261102
    118          5.716697   0.000000
    119          5.858475   0.000000
    120          5.879275   0.000000
    121          5.922665   0.000000
    122          6.091932   0.000000
    123          6.146926   0.000000
    124          6.236335   0.000000
    125          6.309456   0.000000
    126          6.879497   0.000000
    127          6.969893   0.000000
    128          6.988057   0.000000
    129          7.080386   0.000000
    130          7.145878   0.000000
    131          7.198965   0.000000
    132          7.254025   0.000000
    133          7.354567   0.000000
    134          7.382905   0.000000
    135          7.494165   0.000000
    136          7.563969   0.000000
    137          7.581410   0.000000
    138          7.642192   0.000000
    139          7.651735   0.000000
    140          7.706085   0.000000
    141          7.748126   0.000000
    142          7.767407   0.000000
    143          7.799909   0.000000
    144          7.831985   0.000000
 
  0.5000000E+00  0.1318386E-14  0.3750000E+00  0.1562500E-01
      1        -21.286840   1.000000
      2        -21.263063   1.000000
      3        -21.247131   1.000000
      4        -21.230611   1.000000
      5        -21.222297   1.000000
      6        -21.178651   1.000000
      7        -21.138275   1.000000
      8        -21.095631   1.000000
      9        -19.206080   1.000000
     10        -19.155331   1.000000
     11        -19.140298   1.000000
     12        -19.120121   1.000000
     13        -19.111744   1.000000
     14        -19.093569   1.000000
     15        -19.075835   1.000000
     16        -19.038693   1.000000
     17        -18.985372   1.000000
     18        -18.924796   1.000000
     19        -18.866528   1.000000
     20        -18.864517   1.000000
     21        -18.813924   1.000000
     22        -18.803535   1.000000
     23        -18.770460   1.000000
     24        -18.768863   1.000000
     25        -18.737869   1.000000
     26        -18.705676   1.000000
     27        -18.695061   1.000000
     28        -18.674853   1.000000
     29        -18.633828   1.000000
     30        -17.978554   1.000000
     31        -17.950874   1.000000
     32        -17.919655   1.000000
     33        -17.901987   1.000000
     34        -17.856486   1.000000
     35        -17.809121   1.000000
     36        -17.796944   1.000000
     37        -17.768440   1.000000
     38        -17.715500   1.000000
     39        -17.675528   1.000000
     40        -17.625227   1.000000
     41        -17.618299   1.000000
     42        -17.588976   1.000000
     43        -17.572516   1.000000
     44        -17.556184   1.000000
     45        -17.525884   1.000000
     46         -7.114492   1.000000
     47         -7.069132   1.000000
     48         -7.028508   1.000000
     49         -7.011715   1.000000
     50         -6.949453   1.000000
     51         -6.913015   1.000000
     52         -6.852080   1.000000
     53         -6.847038   1.000000
     54         -5.567842   1.000000
     55         -5.540671   1.000000
     56         -5.495869   1.000000
     57         -5.459688   1.000000
     58         -5.403403   1.000000
     59         -5.394865   1.000000
     60         -5.375766   1.000000
     61         -5.370393   1.000000
     62         -5.344090   1.000000
     63         -5.336620   1.000000
     64         -5.292164   1.000000
     65         -5.253588   1.000000
     66         -5.215477   1.000000
     67         -5.156629   1.000000
     68         -5.119425   1.000000
     69         -5.101610   1.000000
     70         -5.081783   1.000000
     71         -5.043473   1.000000
     72         -4.908120   1.000000
     73         -4.886237   1.000000
     74         -4.858784   1.000000
     75         -4.819623   1.000000
     76         -4.730048   1.000000
     77         -4.686907   1.000000
     78         -1.916356   1.000000
     79         -1.883536   1.000000
     80         -1.864001   1.000000
     81         -1.844297   1.000000
     82         -1.680450   1.000000
     83         -1.635009   1.000000
     84         -1.614342   1.000000
     85         -1.563026   1.000000
     86         -1.545525   1.000000
     87         -1.483935   1.000000
     88         -1.422818   1.000000
     89         -1.406882   1.000000
     90         -1.401705   1.000000
     91         -1.381631   1.000000
     92         -1.336906   1.000000
     93         -1.309878   1.000000
     94         -1.235575   1.000000
     95         -1.221416   1.000000
     96         -1.191150   1.000000
     97         -1.186140   1.000000
     98         -1.133674   1.000000
     99         -1.071117   1.000000
    100         -1.034007   1.000000
    101         -0.950600   1.000000
    102         -0.932992   1.000000
    103         -0.892925   1.000000
    104         -0.793369   1.000000
    105         -0.760402   1.000000
    106         -0.740342   1.000000
    107         -0.689969   1.000000
    108         -0.640531   1.000000
    109         -0.598665   1.000000
    110          0.105355   1.000000
    111          0.155949   1.000000
    112          0.193322   1.000000
    113          0.222920   1.000000
    114          0.273040   0.999793
    115          0.336933   0.957679
    116          0.371921   0.768754
    117          0.384205   0.650741
    118          5.718851   0.000000
    119          5.743677   0.000000
    120          5.913471   0.000000
    121          6.013915   0.000000
    122          6.047314   0.000000
    123          6.169554   0.000000
    124          6.239735   0.000000
    125          6.334138   0.000000
    126          6.907761   0.000000
    127          6.969587   0.000000
    128          7.018859   0.000000
    129          7.073154   0.000000
    130          7.100985   0.000000
    131          7.209520   0.000000
    132          7.299256   0.000000
    133          7.338632   0.000000
    134          7.358823   0.000000
    135          7.419130   0.000000
    136          7.515102   0.000000
    137          7.578248   0.000000
    138          7.611268   0.000000
    139          7.652060   0.000000
    140          7.676855   0.000000
    141          7.721412   0.000000
    142          7.770535   0.000000
    143          7.813613   0.000000
    144          7.840528   0.000000
 
  0.1287284E-14  0.5000000E+00 -0.3750000E+00  0.1562500E-01
      1        -21.294585   1.000000
      2        -21.254598   1.000000
      3        -21.239373   1.000000
      4        -21.231652   1.000000
      5        -21.225064   1.000000
      6        -21.181830   1.000000
      7        -21.138729   1.000000
      8        -21.097134   1.000000
      9        -19.197927   1.000000
     10        -19.161882   1.000000
     11        -19.153028   1.000000
     12        -19.136126   1.000000
     13        -19.111162   1.000000
     14        -19.069341   1.000000
     15        -19.050639   1.000000
     16        -19.040492   1.000000
     17        -18.969907   1.000000
     18        -18.919891   1.000000
     19        -18.893018   1.000000
     20        -18.866630   1.000000
     21        -18.849118   1.000000
     22        -18.822346   1.000000
     23        -18.773063   1.000000
     24        -18.765245   1.000000
     25        -18.710096   1.000000
     26        -18.688967   1.000000
     27        -18.679686   1.000000
     28        -18.668746   1.000000
     29        -18.659183   1.000000
     30        -18.028315   1.000000
     31        -17.941457   1.000000
     32        -17.894234   1.000000
     33        -17.877110   1.000000
     34        -17.833788   1.000000
     35        -17.810521   1.000000
     36        -17.797286   1.000000
     37        -17.773368   1.000000
     38        -17.727476   1.000000
     39        -17.692933   1.000000
     40        -17.625379   1.000000
     41        -17.617497   1.000000
     42        -17.601469   1.000000
     43        -17.563757   1.000000
     44        -17.556444   1.000000
     45        -17.519065   1.000000
     46         -7.101290   1.000000
     47         -7.078456   1.000000
     48         -7.025590   1.000000
     49         -7.006900   1.000000
     50         -6.950166   1.000000
     51         -6.897957   1.000000
     52         -6.886746   1.000000
     53         -6.843888   1.000000
     54         -5.579777   1.000000
     55         -5.521460   1.000000
     56         -5.508504   1.000000
     57         -5.468965   1.000000
     58         -5.409529   1.000000
     59         -5.394332   1.000000
     60         -5.390305   1.000000
     61         -5.371239   1.000000
     62         -5.337849   1.000000
     63         -5.293693   1.000000
     64         -5.272856   1.000000
     65         -5.246408   1.000000
     66         -5.195930   1.000000
     67         -5.174425   1.000000
     68         -5.153702   1.000000
     69         -5.110007   1.000000
     70         -5.094820   1.000000
     71         -5.016952   1.000000
     72         -4.944760   1.000000
     73         -4.870064   1.000000
     74         -4.823877   1.000000
     75         -4.816482   1.000000
     76         -4.763994   1.000000
     77         -4.674377   1.000000
     78         -1.910327   1.000000
     79         -1.901281   1.000000
     80         -1.843312   1.000000
     81         -1.785807   1.000000
     82         -1.714287   1.000000
     83         -1.680980   1.000000
     84         -1.618300   1.000000
     85         -1.586243   1.000000
     86         -1.527303   1.000000
     87         -1.479433   1.000000
     88         -1.451884   1.000000
     89         -1.396637   1.000000
     90         -1.365228   1.000000
     91         -1.360558   1.000000
     92         -1.336048   1.000000
     93         -1.277555   1.000000
     94         -1.264038   1.000000
     95         -1.237108   1.000000
     96         -1.211703   1.000000
     97         -1.189857   1.000000
     98         -1.130641   1.000000
     99         -1.070102   1.000000
    100         -1.013585   1.000000
    101         -0.999239   1.000000
    102         -0.921945   1.000000
    103         -0.897136   1.000000
    104         -0.830203   1.000000
    105         -0.755515   1.000000
    106         -0.697232   1.000000
    107         -0.676869   1.000000
    108         -0.652903   1.000000
    109         -0.581918   1.000000
    110          0.098125   1.000000
    111          0.157550   1.000000
    112          0.184877   1.000000
    113          0.225824   0.999999
    114          0.264067   0.999923
    115          0.336490   0.958796
    116          0.378892   0.704571
    117          0.394432   0.539048
    118          5.722310   0.000000
    119          5.827262   0.000000
    120          5.869617   0.000000
    121          5.994900   0.000000
    122          6.099958   0.000000
    123          6.136897   0.000000
    124          6.201132   0.000000
    125          6.298711   0.000000
    126          6.927296   0.000000
    127          6.952088   0.000000
    128          7.031025   0.000000
    129          7.065963   0.000000
    130          7.093000   0.000000
    131          7.195883   0.000000
    132          7.273844   0.000000
    133          7.316654   0.000000
    134          7.389575   0.000000
    135          7.484706   0.000000
    136          7.513156   0.000000
    137          7.609585   0.000000
    138          7.643989   0.000000
    139          7.654990   0.000000
    140          7.701051   0.000000
    141          7.720108   0.000000
    142          7.760175   0.000000
    143          7.807045   0.000000
    144          7.836817   0.000000
 
 -0.2500000E+00  0.1216559E-14  0.3750000E+00  0.1562500E-01
      1        -21.307620   1.000000
      2        -21.272369   1.000000
      3        -21.259536   1.000000
      4        -21.229089   1.000000
      5        -21.209942   1.000000
      6        -21.158767   1.000000
      7        -21.143904   1.000000
      8        -21.071058   1.000000
      9        -19.226582   1.000000
     10        -19.202078   1.000000
     11        -19.192152   1.000000
     12        -19.145681   1.000000
     13        -19.115822   1.000000
     14        -19.095178   1.000000
     15        -19.069499   1.000000
     16        -19.025997   1.000000
     17        -18.990349   1.000000
     18        -18.919150   1.000000
     19        -18.866301   1.000000
     20        -18.856526   1.000000
     21        -18.834118   1.000000
     22        -18.789370   1.000000
     23        -18.750192   1.000000
     24        -18.723550   1.000000
     25        -18.706494   1.000000
     26        -18.682308   1.000000
     27        -18.655053   1.000000
     28        -18.634914   1.000000
     29        -18.609291   1.000000
     30        -18.053649   1.000000
     31        -17.998306   1.000000
     32        -17.924296   1.000000
     33        -17.902365   1.000000
     34        -17.880224   1.000000
     35        -17.842760   1.000000
     36        -17.810996   1.000000
     37        -17.779595   1.000000
     38        -17.697885   1.000000
     39        -17.677985   1.000000
     40        -17.650678   1.000000
     41        -17.595720   1.000000
     42        -17.570909   1.000000
     43        -17.544254   1.000000
     44        -17.522407   1.000000
     45        -17.513977   1.000000
     46         -7.180557   1.000000
     47         -7.114392   1.000000
     48         -7.042411   1.000000
     49         -7.006117   1.000000
     50         -6.938142   1.000000
     51         -6.874669   1.000000
     52         -6.832037   1.000000
     53         -6.790426   1.000000
     54         -5.601777   1.000000
     55         -5.552989   1.000000
     56         -5.543410   1.000000
     57         -5.441048   1.000000
     58         -5.398404   1.000000
     59         -5.394716   1.000000
     60         -5.377634   1.000000
     61         -5.356484   1.000000
     62         -5.318707   1.000000
     63         -5.305709   1.000000
     64         -5.270258   1.000000
     65         -5.228296   1.000000
     66         -5.157311   1.000000
     67         -5.144885   1.000000
     68         -5.128525   1.000000
     69         -5.103838   1.000000
     70         -5.084884   1.000000
     71         -5.061074   1.000000
     72         -4.941552   1.000000
     73         -4.893071   1.000000
     74         -4.843269   1.000000
     75         -4.821813   1.000000
     76         -4.742033   1.000000
     77         -4.716774   1.000000
     78         -2.014621   1.000000
     79         -1.985959   1.000000
     80         -1.897150   1.000000
     81         -1.785374   1.000000
     82         -1.726416   1.000000
     83         -1.650599   1.000000
     84         -1.586358   1.000000
     85         -1.576599   1.000000
     86         -1.537978   1.000000
     87         -1.468672   1.000000
     88         -1.458528   1.000000
     89         -1.413211   1.000000
     90         -1.382332   1.000000
     91         -1.336096   1.000000
     92         -1.292820   1.000000
     93         -1.267188   1.000000
     94         -1.254728   1.000000
     95         -1.238928   1.000000
     96         -1.179975   1.000000
     97         -1.165007   1.000000
     98         -1.145635   1.000000
     99         -1.062461   1.000000
    100         -1.004046   1.000000
    101         -0.915417   1.000000
    102         -0.897065   1.000000
    103         -0.858783   1.000000
    104         -0.812818   1.000000
    105         -0.772554   1.000000
    106         -0.718083   1.000000
    107         -0.681613   1.000000
    108         -0.630043   1.000000
    109         -0.607386   1.000000
    110          0.015140   1.000000
    111          0.088955   1.000000
    112          0.194674   1.000000
    113          0.217218   1.000000
    114          0.297195   0.997803
    115          0.362929   0.838689
    116          0.394161   0.542097
    117          0.434016   0.153493
    118          5.637501   0.000000
    119          5.735721   0.000000
    120          5.832027   0.000000
    121          5.970166   0.000000
    122          5.985397   0.000000
    123          6.211426   0.000000
    124          6.373502   0.000000
    125          6.427335   0.000000
    126          6.822495   0.000000
    127          6.936657   0.000000
    128          7.013082   0.000000
    129          7.098852   0.000000
    130          7.164927   0.000000
    131          7.262701   0.000000
    132          7.319480   0.000000
    133          7.390029   0.000000
    134          7.434020   0.000000
    135          7.514858   0.000000
    136          7.532794   0.000000
    137          7.554420   0.000000
    138          7.605572   0.000000
    139          7.619016   0.000000
    140          7.663486   0.000000
    141          7.700125   0.000000
    142          7.776847   0.000000
    143          7.841160   0.000000
    144          7.864334   0.000000
 
  0.1306777E-14  0.2500000E+00 -0.3750000E+00  0.1562500E-01
      1        -21.306372   1.000000
      2        -21.268829   1.000000
      3        -21.257156   1.000000
      4        -21.237489   1.000000
      5        -21.214794   1.000000
      6        -21.156703   1.000000
      7        -21.138730   1.000000
      8        -21.072083   1.000000
      9        -19.225047   1.000000
     10        -19.199636   1.000000
     11        -19.194347   1.000000
     12        -19.155801   1.000000
     13        -19.131952   1.000000
     14        -19.083656   1.000000
     15        -19.040310   1.000000
     16        -19.029101   1.000000
     17        -18.992023   1.000000
     18        -18.916542   1.000000
     19        -18.886359   1.000000
     20        -18.850944   1.000000
     21        -18.839372   1.000000
     22        -18.794929   1.000000
     23        -18.742369   1.000000
     24        -18.723668   1.000000
     25        -18.716923   1.000000
     26        -18.663662   1.000000
     27        -18.662937   1.000000
     28        -18.636810   1.000000
     29        -18.606510   1.000000
     30        -18.014442   1.000000
     31        -17.992562   1.000000
     32        -17.933382   1.000000
     33        -17.916208   1.000000
     34        -17.889437   1.000000
     35        -17.869404   1.000000
     36        -17.832111   1.000000
     37        -17.727200   1.000000
     38        -17.719289   1.000000
     39        -17.682748   1.000000
     40        -17.645303   1.000000
     41        -17.604598   1.000000
     42        -17.556408   1.000000
     43        -17.550350   1.000000
     44        -17.526155   1.000000
     45        -17.504234   1.000000
     46         -7.177470   1.000000
     47         -7.116506   1.000000
     48         -7.036743   1.000000
     49         -7.018740   1.000000
     50         -6.930651   1.000000
     51         -6.887904   1.000000
     52         -6.828220   1.000000
     53         -6.782745   1.000000
     54         -5.604992   1.000000
     55         -5.545810   1.000000
     56         -5.535308   1.000000
     57         -5.458627   1.000000
     58         -5.406588   1.000000
     59         -5.382825   1.000000
     60         -5.365996   1.000000
     61         -5.363170   1.000000
     62         -5.326245   1.000000
     63         -5.293750   1.000000
     64         -5.239375   1.000000
     65         -5.237992   1.000000
     66         -5.190955   1.000000
     67         -5.146114   1.000000
     68         -5.143480   1.000000
     69         -5.110188   1.000000
     70         -5.074541   1.000000
     71         -5.033566   1.000000
     72         -4.967213   1.000000
     73         -4.878685   1.000000
     74         -4.845767   1.000000
     75         -4.788272   1.000000
     76         -4.773718   1.000000
     77         -4.715688   1.000000
     78         -2.031212   1.000000
     79         -1.982055   1.000000
     80         -1.878338   1.000000
     81         -1.792305   1.000000
     82         -1.716034   1.000000
     83         -1.670755   1.000000
     84         -1.591818   1.000000
     85         -1.555387   1.000000
     86         -1.504778   1.000000
     87         -1.499256   1.000000
     88         -1.461465   1.000000
     89         -1.386851   1.000000
     90         -1.376535   1.000000
     91         -1.340343   1.000000
     92         -1.329106   1.000000
     93         -1.295972   1.000000
     94         -1.248060   1.000000
     95         -1.202476   1.000000
     96         -1.174976   1.000000
     97         -1.163468   1.000000
     98         -1.116329   1.000000
     99         -1.087419   1.000000
    100         -1.005439   1.000000
    101         -0.966440   1.000000
    102         -0.905372   1.000000
    103         -0.862860   1.000000
    104         -0.789902   1.000000
    105         -0.767662   1.000000
    106         -0.691442   1.000000
    107         -0.679997   1.000000
    108         -0.640812   1.000000
    109         -0.611367   1.000000
    110          0.018280   1.000000
    111          0.087938   1.000000
    112          0.176068   1.000000
    113          0.239314   0.999996
    114          0.296329   0.997966
    115          0.351195   0.906746
    116          0.392621   0.559329
    117          0.445314   0.089941
    118          5.654249   0.000000
    119          5.735119   0.000000
    120          5.823371   0.000000
    121          5.921991   0.000000
    122          6.033273   0.000000
    123          6.208967   0.000000
    124          6.359634   0.000000
    125          6.431472   0.000000
    126          6.850105   0.000000
    127          6.894860   0.000000
    128          7.064514   0.000000
    129          7.103499   0.000000
    130          7.169511   0.000000
    131          7.208215   0.000000
    132          7.308021   0.000000
    133          7.401602   0.000000
    134          7.448946   0.000000
    135          7.505082   0.000000
    136          7.519001   0.000000
    137          7.574704   0.000000
    138          7.601906   0.000000
    139          7.660328   0.000000
    140          7.670816   0.000000
    141          7.696267   0.000000
    142          7.768110   0.000000
    143          7.822486   0.000000
    144          7.841039   0.000000
 
  0.2500000E+00  0.2500000E+00  0.3750000E+00  0.1562500E-01
      1        -21.272937   1.000000
      2        -21.259741   1.000000
      3        -21.250341   1.000000
      4        -21.237452   1.000000
      5        -21.202896   1.000000
      6        -21.196449   1.000000
      7        -21.133795   1.000000
      8        -21.113178   1.000000
      9        -19.205079   1.000000
     10        -19.187525   1.000000
     11        -19.159987   1.000000
     12        -19.117352   1.000000
     13        -19.073089   1.000000
     14        -19.044026   1.000000
     15        -19.033136   1.000000
     16        -19.001553   1.000000
     17        -18.959608   1.000000
     18        -18.957271   1.000000
     19        -18.917525   1.000000
     20        -18.899524   1.000000
     21        -18.850089   1.000000
     22        -18.814796   1.000000
     23        -18.782393   1.000000
     24        -18.746144   1.000000
     25        -18.742701   1.000000
     26        -18.724118   1.000000
     27        -18.684854   1.000000
     28        -18.668750   1.000000
     29        -18.621899   1.000000
     30        -17.976444   1.000000
     31        -17.968366   1.000000
     32        -17.930079   1.000000
     33        -17.896529   1.000000
     34        -17.825081   1.000000
     35        -17.809513   1.000000
     36        -17.800554   1.000000
     37        -17.754700   1.000000
     38        -17.699330   1.000000
     39        -17.686413   1.000000
     40        -17.627341   1.000000
     41        -17.619652   1.000000
     42        -17.601417   1.000000
     43        -17.576901   1.000000
     44        -17.548080   1.000000
     45        -17.531926   1.000000
     46         -7.113502   1.000000
     47         -7.076390   1.000000
     48         -7.012541   1.000000
     49         -6.998893   1.000000
     50         -6.934664   1.000000
     51         -6.924313   1.000000
     52         -6.873725   1.000000
     53         -6.846365   1.000000
     54         -5.579610   1.000000
     55         -5.500630   1.000000
     56         -5.482084   1.000000
     57         -5.451846   1.000000
     58         -5.433365   1.000000
     59         -5.415915   1.000000
     60         -5.396849   1.000000
     61         -5.369164   1.000000
     62         -5.357923   1.000000
     63         -5.335487   1.000000
     64         -5.294241   1.000000
     65         -5.251995   1.000000
     66         -5.222706   1.000000
     67         -5.191509   1.000000
     68         -5.135119   1.000000
     69         -5.120778   1.000000
     70         -5.072478   1.000000
     71         -4.985982   1.000000
     72         -4.930122   1.000000
     73         -4.866841   1.000000
     74         -4.845735   1.000000
     75         -4.796030   1.000000
     76         -4.773294   1.000000
     77         -4.628891   1.000000
     78         -1.974087   1.000000
     79         -1.932623   1.000000
     80         -1.806526   1.000000
     81         -1.750805   1.000000
     82         -1.682372   1.000000
     83         -1.597871   1.000000
     84         -1.592742   1.000000
     85         -1.531592   1.000000
     86         -1.515688   1.000000
     87         -1.484330   1.000000
     88         -1.460139   1.000000
     89         -1.433208   1.000000
     90         -1.429187   1.000000
     91         -1.387189   1.000000
     92         -1.339670   1.000000
     93         -1.311877   1.000000
     94         -1.302411   1.000000
     95         -1.257472   1.000000
     96         -1.196343   1.000000
     97         -1.161260   1.000000
     98         -1.121616   1.000000
     99         -1.069106   1.000000
    100         -1.065231   1.000000
    101         -0.966305   1.000000
    102         -0.941883   1.000000
    103         -0.846820   1.000000
    104         -0.830828   1.000000
    105         -0.756285   1.000000
    106         -0.713692   1.000000
    107         -0.683967   1.000000
    108         -0.633473   1.000000
    109         -0.620717   1.000000
    110          0.107942   1.000000
    111          0.163666   1.000000
    112          0.181427   1.000000
    113          0.225878   0.999999
    114          0.307919   0.994536
    115          0.321100   0.985080
    116          0.366986   0.809030
    117          0.384221   0.650570
    118          5.781456   0.000000
    119          5.842306   0.000000
    120          5.868277   0.000000
    121          5.974958   0.000000
    122          6.099695   0.000000
    123          6.167515   0.000000
    124          6.225496   0.000000
    125          6.261589   0.000000
    126          6.897493   0.000000
    127          6.922612   0.000000
    128          6.940802   0.000000
    129          7.069130   0.000000
    130          7.101882   0.000000
    131          7.157004   0.000000
    132          7.192319   0.000000
    133          7.320014   0.000000
    134          7.443187   0.000000
    135          7.479695   0.000000
    136          7.537419   0.000000
    137          7.594688   0.000000
    138          7.604740   0.000000
    139          7.640111   0.000000
    140          7.667504   0.000000
    141          7.731174   0.000000
    142          7.782298   0.000000
    143          7.850693   0.000000
    144          7.871958   0.000000
 
  0.5000000E+00  0.2500000E+00  0.3750000E+00  0.1562500E-01
      1        -21.280237   1.000000
      2        -21.260937   1.000000
      3        -21.242675   1.000000
      4        -21.225204   1.000000
      5        -21.211790   1.000000
      6        -21.198791   1.000000
      7        -21.133783   1.000000
      8        -21.113261   1.000000
      9        -19.182995   1.000000
     10        -19.170284   1.000000
     11        -19.149723   1.000000
     12        -19.135274   1.000000
     13        -19.110045   1.000000
     14        -19.059346   1.000000
     15        -19.049191   1.000000
     16        -19.027245   1.000000
     17        -18.954085   1.000000
     18        -18.915004   1.000000
     19        -18.900660   1.000000
     20        -18.890663   1.000000
     21        -18.824128   1.000000
     22        -18.803533   1.000000
     23        -18.791958   1.000000
     24        -18.775392   1.000000
     25        -18.732647   1.000000
     26        -18.722136   1.000000
     27        -18.688390   1.000000
     28        -18.683397   1.000000
     29        -18.633117   1.000000
     30        -17.977870   1.000000
     31        -17.936754   1.000000
     32        -17.924587   1.000000
     33        -17.876807   1.000000
     34        -17.859233   1.000000
     35        -17.825870   1.000000
     36        -17.792058   1.000000
     37        -17.773833   1.000000
     38        -17.693241   1.000000
     39        -17.689968   1.000000
     40        -17.617662   1.000000
     41        -17.604930   1.000000
     42        -17.600462   1.000000
     43        -17.583060   1.000000
     44        -17.547408   1.000000
     45        -17.540152   1.000000
     46         -7.111757   1.000000
     47         -7.052812   1.000000
     48         -7.041936   1.000000
     49         -6.989831   1.000000
     50         -6.955302   1.000000
     51         -6.914969   1.000000
     52         -6.875042   1.000000
     53         -6.839139   1.000000
     54         -5.587201   1.000000
     55         -5.503881   1.000000
     56         -5.488580   1.000000
     57         -5.451159   1.000000
     58         -5.421664   1.000000
     59         -5.407727   1.000000
     60         -5.389401   1.000000
     61         -5.376458   1.000000
     62         -5.365886   1.000000
     63         -5.334407   1.000000
     64         -5.277465   1.000000
     65         -5.267413   1.000000
     66         -5.231976   1.000000
     67         -5.161688   1.000000
     68         -5.149734   1.000000
     69         -5.116951   1.000000
     70         -5.082717   1.000000
     71         -4.982016   1.000000
     72         -4.899165   1.000000
     73         -4.875405   1.000000
     74         -4.866258   1.000000
     75         -4.820178   1.000000
     76         -4.742893   1.000000
     77         -4.636894   1.000000
     78         -1.957028   1.000000
     79         -1.886030   1.000000
     80         -1.832375   1.000000
     81         -1.774115   1.000000
     82         -1.691532   1.000000
     83         -1.651042   1.000000
     84         -1.604398   1.000000
     85         -1.570438   1.000000
     86         -1.512162   1.000000
     87         -1.479231   1.000000
     88         -1.464032   1.000000
     89         -1.416162   1.000000
     90         -1.390631   1.000000
     91         -1.366818   1.000000
     92         -1.341468   1.000000
     93         -1.306296   1.000000
     94         -1.286068   1.000000
     95         -1.276527   1.000000
     96         -1.162720   1.000000
     97         -1.151871   1.000000
     98         -1.134742   1.000000
     99         -1.076684   1.000000
    100         -1.033432   1.000000
    101         -0.990883   1.000000
    102         -0.926726   1.000000
    103         -0.890286   1.000000
    104         -0.811546   1.000000
    105         -0.771902   1.000000
    106         -0.713465   1.000000
    107         -0.691670   1.000000
    108         -0.646756   1.000000
    109         -0.583044   1.000000
    110          0.108118   1.000000
    111          0.157067   1.000000
    112          0.198506   1.000000
    113          0.248773   0.999988
    114          0.266898   0.999894
    115          0.304646   0.995825
    116          0.362732   0.840046
    117          0.406052   0.408808
    118          5.729238   0.000000
    119          5.851606   0.000000
    120          5.942547   0.000000
    121          6.018410   0.000000
    122          6.064751   0.000000
    123          6.151385   0.000000
    124          6.186497   0.000000
    125          6.261422   0.000000
    126          6.910457   0.000000
    127          6.934875   0.000000
    128          6.978484   0.000000
    129          7.035498   0.000000
    130          7.097219   0.000000
    131          7.117896   0.000000
    132          7.211002   0.000000
    133          7.346153   0.000000
    134          7.384551   0.000000
    135          7.492508   0.000000
    136          7.545065   0.000000
    137          7.576901   0.000000
    138          7.599425   0.000000
    139          7.641649   0.000000
    140          7.688684   0.000000
    141          7.699948   0.000000
    142          7.799505   0.000000
    143          7.827820   0.000000
    144          7.880619   0.000000
 
 -0.2500000E+00  0.5000000E+00 -0.3750000E+00  0.1562500E-01
      1        -21.273755   1.000000
      2        -21.259145   1.000000
      3        -21.245367   1.000000
      4        -21.235895   1.000000
      5        -21.215725   1.000000
      6        -21.191930   1.000000
      7        -21.131430   1.000000
      8        -21.113299   1.000000
      9        -19.198938   1.000000
     10        -19.159459   1.000000
     11        -19.145177   1.000000
     12        -19.108865   1.000000
     13        -19.089338   1.000000
     14        -19.082167   1.000000
     15        -19.054723   1.000000
     16        -19.045742   1.000000
     17        -18.972264   1.000000
     18        -18.928560   1.000000
     19        -18.898361   1.000000
     20        -18.876764   1.000000
     21        -18.844371   1.000000
     22        -18.798598   1.000000
     23        -18.775122   1.000000
     24        -18.760157   1.000000
     25        -18.743050   1.000000
     26        -18.727113   1.000000
     27        -18.672136   1.000000
     28        -18.666079   1.000000
     29        -18.645389   1.000000
     30        -18.007203   1.000000
     31        -17.933762   1.000000
     32        -17.898804   1.000000
     33        -17.880262   1.000000
     34        -17.855086   1.000000
     35        -17.838274   1.000000
     36        -17.783627   1.000000
     37        -17.763605   1.000000
     38        -17.731091   1.000000
     39        -17.648262   1.000000
     40        -17.632767   1.000000
     41        -17.617114   1.000000
     42        -17.608544   1.000000
     43        -17.574492   1.000000
     44        -17.554335   1.000000
     45        -17.523582   1.000000
     46         -7.111741   1.000000
     47         -7.044740   1.000000
     48         -7.029709   1.000000
     49         -7.003125   1.000000
     50         -6.969417   1.000000
     51         -6.931268   1.000000
     52         -6.863121   1.000000
     53         -6.827871   1.000000
     54         -5.562429   1.000000
     55         -5.539288   1.000000
     56         -5.480036   1.000000
     57         -5.464205   1.000000
     58         -5.425799   1.000000
     59         -5.415888   1.000000
     60         -5.390801   1.000000
     61         -5.361237   1.000000
     62         -5.338241   1.000000
     63         -5.329198   1.000000
     64         -5.290954   1.000000
     65         -5.256140   1.000000
     66         -5.218189   1.000000
     67         -5.203148   1.000000
     68         -5.134042   1.000000
     69         -5.125061   1.000000
     70         -5.078184   1.000000
     71         -4.972073   1.000000
     72         -4.949764   1.000000
     73         -4.862793   1.000000
     74         -4.835755   1.000000
     75         -4.795407   1.000000
     76         -4.766744   1.000000
     77         -4.641293   1.000000
     78         -1.952311   1.000000
     79         -1.925039   1.000000
     80         -1.798153   1.000000
     81         -1.767741   1.000000
     82         -1.717513   1.000000
     83         -1.608452   1.000000
     84         -1.589064   1.000000
     85         -1.565201   1.000000
     86         -1.539928   1.000000
     87         -1.478969   1.000000
     88         -1.474798   1.000000
     89         -1.429203   1.000000
     90         -1.395782   1.000000
     91         -1.372886   1.000000
     92         -1.346243   1.000000
     93         -1.302160   1.000000
     94         -1.280823   1.000000
     95         -1.232919   1.000000
     96         -1.194444   1.000000
     97         -1.177875   1.000000
     98         -1.122883   1.000000
     99         -1.068988   1.000000
    100         -1.039561   1.000000
    101         -1.005318   1.000000
    102         -0.909297   1.000000
    103         -0.856657   1.000000
    104         -0.834833   1.000000
    105         -0.757002   1.000000
    106         -0.732853   1.000000
    107         -0.677025   1.000000
    108         -0.644458   1.000000
    109         -0.591854   1.000000
    110          0.094248   1.000000
    111          0.158720   1.000000
    112          0.198308   1.000000
    113          0.248079   0.999989
    114          0.275194   0.999740
    115          0.308874   0.994098
    116          0.359747   0.859726
    117          0.408061   0.386891
    118          5.783253   0.000000
    119          5.839903   0.000000
    120          5.871955   0.000000
    121          6.022145   0.000000
    122          6.069585   0.000000
    123          6.107632   0.000000
    124          6.207268   0.000000
    125          6.315065   0.000000
    126          6.919211   0.000000
    127          6.961458   0.000000
    128          6.968182   0.000000
    129          7.021466   0.000000
    130          7.061265   0.000000
    131          7.134854   0.000000
    132          7.221043   0.000000
    133          7.332649   0.000000
    134          7.365760   0.000000
    135          7.435857   0.000000
    136          7.559851   0.000000
    137          7.617430   0.000000
    138          7.636529   0.000000
    139          7.650791   0.000000
    140          7.705734   0.000000
    141          7.742908   0.000000
    142          7.801619   0.000000
    143          7.825114   0.000000
    144          7.849295   0.000000
 
 -0.2500000E+00  0.2500000E+00  0.3750000E+00  0.1562500E-01
      1        -21.294952   1.000000
      2        -21.265416   1.000000
      3        -21.236483   1.000000
      4        -21.229008   1.000000
      5        -21.201808   1.000000
      6        -21.197508   1.000000
      7        -21.141067   1.000000
      8        -21.096672   1.000000
      9        -19.217817   1.000000
     10        -19.162446   1.000000
     11        -19.133221   1.000000
     12        -19.124441   1.000000
     13        -19.113265   1.000000
     14        -19.078294   1.000000
     15        -19.061938   1.000000
     16        -19.012120   1.000000
     17        -18.972703   1.000000
     18        -18.918455   1.000000
     19        -18.891942   1.000000
     20        -18.868820   1.000000
     21        -18.845408   1.000000
     22        -18.824268   1.000000
     23        -18.809675   1.000000
     24        -18.738571   1.000000
     25        -18.728933   1.000000
     26        -18.710127   1.000000
     27        -18.685846   1.000000
     28        -18.648256   1.000000
     29        -18.638151   1.000000
     30        -18.046689   1.000000
     31        -17.923019   1.000000
     32        -17.909680   1.000000
     33        -17.878575   1.000000
     34        -17.840182   1.000000
     35        -17.808470   1.000000
     36        -17.791499   1.000000
     37        -17.762592   1.000000
     38        -17.696981   1.000000
     39        -17.682000   1.000000
     40        -17.637323   1.000000
     41        -17.625555   1.000000
     42        -17.605953   1.000000
     43        -17.586364   1.000000
     44        -17.557155   1.000000
     45        -17.509559   1.000000
     46         -7.122035   1.000000
     47         -7.062769   1.000000
     48         -7.025486   1.000000
     49         -6.988283   1.000000
     50         -6.948325   1.000000
     51         -6.902929   1.000000
     52         -6.878903   1.000000
     53         -6.862056   1.000000
     54         -5.593378   1.000000
     55         -5.520649   1.000000
     56         -5.483752   1.000000
     57         -5.462456   1.000000
     58         -5.427173   1.000000
     59         -5.399805   1.000000
     60         -5.391165   1.000000
     61         -5.365422   1.000000
     62         -5.334443   1.000000
     63         -5.324602   1.000000
     64         -5.257671   1.000000
     65         -5.243009   1.000000
     66         -5.201920   1.000000
     67         -5.168187   1.000000
     68         -5.124088   1.000000
     69         -5.117617   1.000000
     70         -5.105656   1.000000
     71         -5.013919   1.000000
     72         -4.924492   1.000000
     73         -4.896497   1.000000
     74         -4.848865   1.000000
     75         -4.825699   1.000000
     76         -4.726997   1.000000
     77         -4.676329   1.000000
     78         -1.921865   1.000000
     79         -1.905234   1.000000
     80         -1.823326   1.000000
     81         -1.776902   1.000000
     82         -1.738649   1.000000
     83         -1.654425   1.000000
     84         -1.607304   1.000000
     85         -1.601833   1.000000
     86         -1.551292   1.000000
     87         -1.462029   1.000000
     88         -1.441333   1.000000
     89         -1.402546   1.000000
     90         -1.393488   1.000000
     91         -1.359375   1.000000
     92         -1.349438   1.000000
     93         -1.283534   1.000000
     94         -1.255206   1.000000
     95         -1.229122   1.000000
     96         -1.208306   1.000000
     97         -1.160880   1.000000
     98         -1.145469   1.000000
     99         -1.080506   1.000000
    100         -1.002747   1.000000
    101         -0.959302   1.000000
    102         -0.946913   1.000000
    103         -0.879474   1.000000
    104         -0.846740   1.000000
    105         -0.751868   1.000000
    106         -0.713706   1.000000
    107         -0.696382   1.000000
    108         -0.650798   1.000000
    109         -0.565032   1.000000
    110          0.100168   1.000000
    111          0.171852   1.000000
    112          0.182126   1.000000
    113          0.223244   1.000000
    114          0.254808   0.999974
    115          0.340878   0.946603
    116          0.360304   0.856183
    117          0.405634   0.413410
    118          5.677318   0.000000
    119          5.845210   0.000000
    120          5.934394   0.000000
    121          5.994733   0.000000
    122          6.097858   0.000000
    123          6.119830   0.000000
    124          6.174263   0.000000
    125          6.304525   0.000000
    126          6.896946   0.000000
    127          6.981406   0.000000
    128          6.995974   0.000000
    129          7.072400   0.000000
    130          7.103689   0.000000
    131          7.220815   0.000000
    132          7.264329   0.000000
    133          7.306706   0.000000
    134          7.389372   0.000000
    135          7.509194   0.000000
    136          7.540913   0.000000
    137          7.604989   0.000000
    138          7.610523   0.000000
    139          7.640207   0.000000
    140          7.702872   0.000000
    141          7.743580   0.000000
    142          7.780590   0.000000
    143          7.812132   0.000000
    144          7.842602   0.000000
 
 -0.2500000E+00  0.2500000E+00 -0.3750000E+00  0.1562500E-01
      1        -21.277258   1.000000
      2        -21.270541   1.000000
      3        -21.240018   1.000000
      4        -21.238363   1.000000
      5        -21.229206   1.000000
      6        -21.176666   1.000000
      7        -21.133195   1.000000
      8        -21.096985   1.000000
      9        -19.215021   1.000000
     10        -19.157350   1.000000
     11        -19.148327   1.000000
     12        -19.139535   1.000000
     13        -19.091796   1.000000
     14        -19.071774   1.000000
     15        -19.037129   1.000000
     16        -19.027017   1.000000
     17        -18.990812   1.000000
     18        -18.954080   1.000000
     19        -18.915162   1.000000
     20        -18.872486   1.000000
     21        -18.824329   1.000000
     22        -18.801541   1.000000
     23        -18.776934   1.000000
     24        -18.745799   1.000000
     25        -18.734180   1.000000
     26        -18.718852   1.000000
     27        -18.677239   1.000000
     28        -18.647236   1.000000
     29        -18.631446   1.000000
     30        -17.997110   1.000000
     31        -17.945017   1.000000
     32        -17.935594   1.000000
     33        -17.901815   1.000000
     34        -17.857935   1.000000
     35        -17.798572   1.000000
     36        -17.786145   1.000000
     37        -17.734914   1.000000
     38        -17.719140   1.000000
     39        -17.692622   1.000000
     40        -17.648050   1.000000
     41        -17.610600   1.000000
     42        -17.601886   1.000000
     43        -17.588898   1.000000
     44        -17.542802   1.000000
     45        -17.507832   1.000000
     46         -7.114885   1.000000
     47         -7.053803   1.000000
     48         -7.050182   1.000000
     49         -6.989227   1.000000
     50         -6.978035   1.000000
     51         -6.890560   1.000000
     52         -6.886581   1.000000
     53         -6.822427   1.000000
     54         -5.567959   1.000000
     55         -5.530059   1.000000
     56         -5.489116   1.000000
     57         -5.465131   1.000000
     58         -5.446720   1.000000
     59         -5.388935   1.000000
     60         -5.363709   1.000000
     61         -5.360547   1.000000
     62         -5.338342   1.000000
     63         -5.318644   1.000000
     64         -5.301089   1.000000
     65         -5.238057   1.000000
     66         -5.225827   1.000000
     67         -5.174874   1.000000
     68         -5.130462   1.000000
     69         -5.094546   1.000000
     70         -5.076594   1.000000
     71         -5.037635   1.000000
     72         -4.928930   1.000000
     73         -4.884866   1.000000
     74         -4.861347   1.000000
     75         -4.793861   1.000000
     76         -4.727836   1.000000
     77         -4.697421   1.000000
     78         -1.949398   1.000000
     79         -1.914499   1.000000
     80         -1.850939   1.000000
     81         -1.776338   1.000000
     82         -1.689093   1.000000
     83         -1.629006   1.000000
     84         -1.616695   1.000000
     85         -1.557550   1.000000
     86         -1.520140   1.000000
     87         -1.477887   1.000000
     88         -1.462185   1.000000
     89         -1.420939   1.000000
     90         -1.417193   1.000000
     91         -1.362307   1.000000
     92         -1.342374   1.000000
     93         -1.318315   1.000000
     94         -1.252585   1.000000
     95         -1.213808   1.000000
     96         -1.186004   1.000000
     97         -1.167052   1.000000
     98         -1.139446   1.000000
     99         -1.072237   1.000000
    100         -1.019083   1.000000
    101         -0.964610   1.000000
    102         -0.916041   1.000000
    103         -0.877194   1.000000
    104         -0.839544   1.000000
    105         -0.767324   1.000000
    106         -0.725510   1.000000
    107         -0.687692   1.000000
    108         -0.632501   1.000000
    109         -0.596817   1.000000
    110          0.110013   1.000000
    111          0.155226   1.000000
    112          0.176174   1.000000
    113          0.221183   1.000000
    114          0.278601   0.999630
    115          0.340214   0.948614
    116          0.363718   0.833169
    117          0.397915   0.499812
    118          5.712124   0.000000
    119          5.779184   0.000000
    120          5.887648   0.000000
    121          5.968476   0.000000
    122          6.103026   0.000000
    123          6.163108   0.000000
    124          6.199066   0.000000
    125          6.372762   0.000000
    126          6.933389   0.000000
    127          6.950950   0.000000
    128          7.028011   0.000000
    129          7.059462   0.000000
    130          7.124888   0.000000
    131          7.153331   0.000000
    132          7.257625   0.000000
    133          7.330192   0.000000
    134          7.374504   0.000000
    135          7.472114   0.000000
    136          7.561105   0.000000
    137          7.571522   0.000000
    138          7.640845   0.000000
    139          7.656677   0.000000
    140          7.721893   0.000000
    141          7.750091   0.000000
    142          7.776101   0.000000
    143          7.805544   0.000000
    144          7.837261   0.000000
 
  0.5000000E+00  0.5000000E+00  0.3750000E+00  0.1562500E-01
      1        -21.290506   1.000000
      2        -21.265120   1.000000
      3        -21.250071   1.000000
      4        -21.237842   1.000000
      5        -21.209125   1.000000
      6        -21.174420   1.000000
      7        -21.139264   1.000000
      8        -21.093840   1.000000
      9        -19.225809   1.000000
     10        -19.192499   1.000000
     11        -19.167595   1.000000
     12        -19.126358   1.000000
     13        -19.118901   1.000000
     14        -19.090165   1.000000
     15        -19.033236   1.000000
     16        -19.017985   1.000000
     17        -18.988215   1.000000
     18        -18.924922   1.000000
     19        -18.883863   1.000000
     20        -18.868266   1.000000
     21        -18.822733   1.000000
     22        -18.803422   1.000000
     23        -18.787468   1.000000
     24        -18.774511   1.000000
     25        -18.723921   1.000000
     26        -18.677872   1.000000
     27        -18.651039   1.000000
     28        -18.638119   1.000000
     29        -18.595127   1.000000
     30        -17.992277   1.000000
     31        -17.968752   1.000000
     32        -17.939368   1.000000
     33        -17.934043   1.000000
     34        -17.884368   1.000000
     35        -17.854933   1.000000
     36        -17.822156   1.000000
     37        -17.773550   1.000000
     38        -17.723266   1.000000
     39        -17.647443   1.000000
     40        -17.617414   1.000000
     41        -17.598770   1.000000
     42        -17.586389   1.000000
     43        -17.552959   1.000000
     44        -17.529893   1.000000
     45        -17.511690   1.000000
     46         -7.196956   1.000000
     47         -7.072546   1.000000
     48         -7.028203   1.000000
     49         -7.000332   1.000000
     50         -6.979533   1.000000
     51         -6.868218   1.000000
     52         -6.818009   1.000000
     53         -6.800991   1.000000
     54         -5.603446   1.000000
     55         -5.538079   1.000000
     56         -5.526465   1.000000
     57         -5.448239   1.000000
     58         -5.426669   1.000000
     59         -5.398511   1.000000
     60         -5.385248   1.000000
     61         -5.340097   1.000000
     62         -5.332983   1.000000
     63         -5.319847   1.000000
     64         -5.308678   1.000000
     65         -5.251556   1.000000
     66         -5.221039   1.000000
     67         -5.182000   1.000000
     68         -5.125172   1.000000
     69         -5.119323   1.000000
     70         -5.094734   1.000000
     71         -4.951702   1.000000
     72         -4.919701   1.000000
     73         -4.871592   1.000000
     74         -4.859415   1.000000
     75         -4.797415   1.000000
     76         -4.763049   1.000000
     77         -4.638796   1.000000
     78         -1.995051   1.000000
     79         -1.986562   1.000000
     80         -1.871046   1.000000
     81         -1.795350   1.000000
     82         -1.749365   1.000000
     83         -1.611124   1.000000
     84         -1.597386   1.000000
     85         -1.564945   1.000000
     86         -1.504405   1.000000
     87         -1.486168   1.000000
     88         -1.465338   1.000000
     89         -1.421628   1.000000
     90         -1.379788   1.000000
     91         -1.366725   1.000000
     92         -1.330241   1.000000
     93         -1.295380   1.000000
     94         -1.272896   1.000000
     95         -1.229999   1.000000
     96         -1.163007   1.000000
     97         -1.145528   1.000000
     98         -1.129164   1.000000
     99         -1.029954   1.000000
    100         -1.001296   1.000000
    101         -0.957463   1.000000
    102         -0.941808   1.000000
    103         -0.907769   1.000000
    104         -0.817197   1.000000
    105         -0.754631   1.000000
    106         -0.701761   1.000000
    107         -0.659117   1.000000
    108         -0.650326   1.000000
    109         -0.590728   1.000000
    110         -0.007635   1.000000
    111          0.117772   1.000000
    112          0.233175   0.999998
    113          0.237709   0.999997
    114          0.270906   0.999836
    115          0.339888   0.949577
    116          0.396648   0.514110
    117          0.429956   0.182274
    118          5.692225   0.000000
    119          5.793202   0.000000
    120          5.925954   0.000000
    121          5.940052   0.000000
    122          6.030571   0.000000
    123          6.177829   0.000000
    124          6.305127   0.000000
    125          6.375321   0.000000
    126          6.883916   0.000000
    127          6.910571   0.000000
    128          6.929636   0.000000
    129          7.022539   0.000000
    130          7.082299   0.000000
    131          7.153879   0.000000
    132          7.185528   0.000000
    133          7.348073   0.000000
    134          7.402686   0.000000
    135          7.496089   0.000000
    136          7.510406   0.000000
    137          7.592643   0.000000
    138          7.602314   0.000000
    139          7.646859   0.000000
    140          7.708300   0.000000
    141          7.744764   0.000000
    142          7.806342   0.000000
    143          7.834302   0.000000
    144          7.860292   0.000000
 
 -0.2500000E+00  0.5000000E+00  0.3750000E+00  0.1562500E-01
      1        -21.305715   1.000000
      2        -21.261959   1.000000
      3        -21.243195   1.000000
      4        -21.240741   1.000000
      5        -21.214927   1.000000
      6        -21.165237   1.000000
      7        -21.142042   1.000000
      8        -21.082707   1.000000
      9        -19.222709   1.000000
     10        -19.213958   1.000000
     11        -19.187501   1.000000
     12        -19.121919   1.000000
     13        -19.109093   1.000000
     14        -19.071188   1.000000
     15        -19.046461   1.000000
     16        -19.017980   1.000000
     17        -18.982565   1.000000
     18        -18.926849   1.000000
     19        -18.900034   1.000000
     20        -18.885518   1.000000
     21        -18.848198   1.000000
     22        -18.795376   1.000000
     23        -18.780873   1.000000
     24        -18.735100   1.000000
     25        -18.704989   1.000000
     26        -18.669614   1.000000
     27        -18.642773   1.000000
     28        -18.622566   1.000000
     29        -18.613752   1.000000
     30        -18.059304   1.000000
     31        -17.946277   1.000000
     32        -17.936232   1.000000
     33        -17.925805   1.000000
     34        -17.889883   1.000000
     35        -17.834333   1.000000
     36        -17.816278   1.000000
     37        -17.761269   1.000000
     38        -17.685337   1.000000
     39        -17.663588   1.000000
     40        -17.653353   1.000000
     41        -17.626718   1.000000
     42        -17.589825   1.000000
     43        -17.540143   1.000000
     44        -17.527447   1.000000
     45        -17.497774   1.000000
     46         -7.180903   1.000000
     47         -7.106905   1.000000
     48         -7.036239   1.000000
     49         -6.998087   1.000000
     50         -6.955724   1.000000
     51         -6.858615   1.000000
     52         -6.835721   1.000000
     53         -6.802614   1.000000
     54         -5.614568   1.000000
     55         -5.536683   1.000000
     56         -5.523744   1.000000
     57         -5.466824   1.000000
     58         -5.428018   1.000000
     59         -5.383254   1.000000
     60         -5.366213   1.000000
     61         -5.361016   1.000000
     62         -5.316900   1.000000
     63         -5.305521   1.000000
     64         -5.257638   1.000000
     65         -5.244523   1.000000
     66         -5.214003   1.000000
     67         -5.157200   1.000000
     68         -5.144462   1.000000
     69         -5.120826   1.000000
     70         -5.096383   1.000000
     71         -4.985289   1.000000
     72         -4.914589   1.000000
     73         -4.875522   1.000000
     74         -4.864603   1.000000
     75         -4.824546   1.000000
     76         -4.744096   1.000000
     77         -4.674618   1.000000
     78         -2.000434   1.000000
     79         -1.954077   1.000000
     80         -1.889721   1.000000
     81         -1.818113   1.000000
     82         -1.730183   1.000000
     83         -1.683787   1.000000
     84         -1.585343   1.000000
     85         -1.560818   1.000000
     86         -1.522334   1.000000
     87         -1.479598   1.000000
     88         -1.441807   1.000000
     89         -1.438575   1.000000
     90         -1.360199   1.000000
     91         -1.346887   1.000000
     92         -1.308418   1.000000
     93         -1.290046   1.000000
     94         -1.240774   1.000000
     95         -1.231961   1.000000
     96         -1.176489   1.000000
     97         -1.154537   1.000000
     98         -1.132080   1.000000
     99         -1.068889   1.000000
    100         -0.994185   1.000000
    101         -0.969833   1.000000
    102         -0.910492   1.000000
    103         -0.887076   1.000000
    104         -0.829712   1.000000
    105         -0.732298   1.000000
    106         -0.707826   1.000000
    107         -0.674707   1.000000
    108         -0.656273   1.000000
    109         -0.569719   1.000000
    110          0.004698   1.000000
    111          0.097995   1.000000
    112          0.212093   1.000000
    113          0.218851   1.000000
    114          0.286780   0.999164
    115          0.354740   0.888902
    116          0.393563   0.548796
    117          0.437683   0.130237
    118          5.645329   0.000000
    119          5.804485   0.000000
    120          5.865897   0.000000
    121          5.969623   0.000000
    122          6.033629   0.000000
    123          6.192989   0.000000
    124          6.283485   0.000000
    125          6.380924   0.000000
    126          6.895756   0.000000
    127          6.920358   0.000000
    128          7.004098   0.000000
    129          7.046386   0.000000
    130          7.121714   0.000000
    131          7.169328   0.000000
    132          7.201722   0.000000
    133          7.341748   0.000000
    134          7.390383   0.000000
    135          7.473290   0.000000
    136          7.548346   0.000000
    137          7.626210   0.000000
    138          7.642382   0.000000
    139          7.665328   0.000000
    140          7.698025   0.000000
    141          7.726999   0.000000
    142          7.786916   0.000000
    143          7.808932   0.000000
    144          7.856302   0.000000
 
  0.5000000E+00  0.2500000E+00 -0.3750000E+00  0.1562500E-01
      1        -21.297411   1.000000
      2        -21.264728   1.000000
      3        -21.256038   1.000000
      4        -21.239572   1.000000
      5        -21.214555   1.000000
      6        -21.162013   1.000000
      7        -21.141592   1.000000
      8        -21.080068   1.000000
      9        -19.245939   1.000000
     10        -19.188121   1.000000
     11        -19.155413   1.000000
     12        -19.131293   1.000000
     13        -19.111685   1.000000
     14        -19.101659   1.000000
     15        -19.049252   1.000000
     16        -19.032405   1.000000
     17        -19.004996   1.000000
     18        -18.918176   1.000000
     19        -18.882938   1.000000
     20        -18.866200   1.000000
     21        -18.829285   1.000000
     22        -18.799798   1.000000
     23        -18.783303   1.000000
     24        -18.741594   1.000000
     25        -18.728723   1.000000
     26        -18.666180   1.000000
     27        -18.632903   1.000000
     28        -18.614447   1.000000
     29        -18.606773   1.000000
     30        -18.042940   1.000000
     31        -17.976191   1.000000
     32        -17.941505   1.000000
     33        -17.927335   1.000000
     34        -17.892673   1.000000
     35        -17.822981   1.000000
     36        -17.816755   1.000000
     37        -17.761395   1.000000
     38        -17.689104   1.000000
     39        -17.685868   1.000000
     40        -17.635021   1.000000
     41        -17.607411   1.000000
     42        -17.581305   1.000000
     43        -17.560501   1.000000
     44        -17.535465   1.000000
     45        -17.485628   1.000000
     46         -7.184632   1.000000
     47         -7.101284   1.000000
     48         -7.036757   1.000000
     49         -7.004758   1.000000
     50         -6.970032   1.000000
     51         -6.854041   1.000000
     52         -6.830767   1.000000
     53         -6.787321   1.000000
     54         -5.587742   1.000000
     55         -5.566230   1.000000
     56         -5.533194   1.000000
     57         -5.439859   1.000000
     58         -5.425055   1.000000
     59         -5.398872   1.000000
     60         -5.374576   1.000000
     61         -5.332592   1.000000
     62         -5.329459   1.000000
     63         -5.299909   1.000000
     64         -5.274745   1.000000
     65         -5.244923   1.000000
     66         -5.212513   1.000000
     67         -5.201848   1.000000
     68         -5.135042   1.000000
     69         -5.092835   1.000000
     70         -5.089023   1.000000
     71         -4.998645   1.000000
     72         -4.912620   1.000000
     73         -4.883334   1.000000
     74         -4.855240   1.000000
     75         -4.812088   1.000000
     76         -4.738783   1.000000
     77         -4.690072   1.000000
     78         -2.029481   1.000000
     79         -1.948945   1.000000
     80         -1.898236   1.000000
     81         -1.818107   1.000000
     82         -1.705661   1.000000
     83         -1.647548   1.000000
     84         -1.582023   1.000000
     85         -1.565402   1.000000
     86         -1.541928   1.000000
     87         -1.496774   1.000000
     88         -1.455466   1.000000
     89         -1.398427   1.000000
     90         -1.374220   1.000000
     91         -1.355127   1.000000
     92         -1.332415   1.000000
     93         -1.288767   1.000000
     94         -1.253459   1.000000
     95         -1.181902   1.000000
     96         -1.174991   1.000000
     97         -1.149501   1.000000
     98         -1.115615   1.000000
     99         -1.110107   1.000000
    100         -0.983421   1.000000
    101         -0.955579   1.000000
    102         -0.916289   1.000000
    103         -0.848126   1.000000
    104         -0.815410   1.000000
    105         -0.771996   1.000000
    106         -0.714896   1.000000
    107         -0.680070   1.000000
    108         -0.641591   1.000000
    109         -0.591680   1.000000
    110          0.002228   1.000000
    111          0.105018   1.000000
    112          0.191843   1.000000
    113          0.240489   0.999996
    114          0.291101   0.998739
    115          0.361010   0.851607
    116          0.382508   0.668334
    117          0.433825   0.154775
    118          5.660557   0.000000
    119          5.739799   0.000000
    120          5.882878   0.000000
    121          5.946137   0.000000
    122          6.017929   0.000000
    123          6.196685   0.000000
    124          6.330701   0.000000
    125          6.449341   0.000000
    126          6.876493   0.000000
    127          6.932985   0.000000
    128          7.029341   0.000000
    129          7.059798   0.000000
    130          7.109327   0.000000
    131          7.133205   0.000000
    132          7.196058   0.000000
    133          7.321951   0.000000
    134          7.390584   0.000000
    135          7.435723   0.000000
    136          7.601001   0.000000
    137          7.626855   0.000000
    138          7.634534   0.000000
    139          7.642676   0.000000
    140          7.698964   0.000000
    141          7.747901   0.000000
    142          7.784031   0.000000
    143          7.843959   0.000000
    144          7.852908   0.000000
 
 -0.2500000E+00 -0.2500000E+00  0.3750000E+00  0.1562500E-01
      1        -21.315741   1.000000
      2        -21.277476   1.000000
      3        -21.260007   1.000000
      4        -21.235301   1.000000
      5        -21.211221   1.000000
      6        -21.145557   1.000000
      7        -21.140524   1.000000
      8        -21.060244   1.000000
      9        -19.254019   1.000000
     10        -19.226684   1.000000
     11        -19.202781   1.000000
     12        -19.164374   1.000000
     13        -19.136118   1.000000
     14        -19.105918   1.000000
     15        -19.054066   1.000000
     16        -19.020682   1.000000
     17        -18.959627   1.000000
     18        -18.925322   1.000000
     19        -18.883790   1.000000
     20        -18.868920   1.000000
     21        -18.816444   1.000000
     22        -18.797493   1.000000
     23        -18.748646   1.000000
     24        -18.732099   1.000000
     25        -18.708004   1.000000
     26        -18.626996   1.000000
     27        -18.592186   1.000000
     28        -18.585698   1.000000
     29        -18.579847   1.000000
     30        -18.067416   1.000000
     31        -18.056224   1.000000
     32        -17.965205   1.000000
     33        -17.920621   1.000000
     34        -17.902370   1.000000
     35        -17.866767   1.000000
     36        -17.831113   1.000000
     37        -17.799094   1.000000
     38        -17.671900   1.000000
     39        -17.663709   1.000000
     40        -17.636596   1.000000
     41        -17.621492   1.000000
     42        -17.546265   1.000000
     43        -17.530967   1.000000
     44        -17.505674   1.000000
     45        -17.488225   1.000000
     46         -7.225398   1.000000
     47         -7.129146   1.000000
     48         -7.046591   1.000000
     49         -7.025692   1.000000
     50         -6.964185   1.000000
     51         -6.848763   1.000000
     52         -6.770565   1.000000
     53         -6.752338   1.000000
     54         -5.625146   1.000000
     55         -5.572456   1.000000
     56         -5.554817   1.000000
     57         -5.446811   1.000000
     58         -5.409980   1.000000
     59         -5.398536   1.000000
     60         -5.358821   1.000000
     61         -5.342907   1.000000
     62         -5.301112   1.000000
     63         -5.274113   1.000000
     64         -5.249665   1.000000
     65         -5.227099   1.000000
     66         -5.189230   1.000000
     67         -5.173173   1.000000
     68         -5.136818   1.000000
     69         -5.110006   1.000000
     70         -5.083565   1.000000
     71         -4.984902   1.000000
     72         -4.955780   1.000000
     73         -4.872534   1.000000
     74         -4.855294   1.000000
     75         -4.815796   1.000000
     76         -4.763713   1.000000
     77         -4.713362   1.000000
     78         -2.082187   1.000000
     79         -2.047962   1.000000
     80         -1.923788   1.000000
     81         -1.800799   1.000000
     82         -1.752285   1.000000
     83         -1.661878   1.000000
     84         -1.584367   1.000000
     85         -1.565698   1.000000
     86         -1.515581   1.000000
     87         -1.472280   1.000000
     88         -1.464170   1.000000
     89         -1.410947   1.000000
     90         -1.346111   1.000000
     91         -1.332295   1.000000
     92         -1.317094   1.000000
     93         -1.263502   1.000000
     94         -1.225889   1.000000
     95         -1.212850   1.000000
     96         -1.168752   1.000000
     97         -1.146548   1.000000
     98         -1.115892   1.000000
     99         -1.043005   1.000000
    100         -1.007608   1.000000
    101         -0.939043   1.000000
    102         -0.922719   1.000000
    103         -0.830955   1.000000
    104         -0.798296   1.000000
    105         -0.759612   1.000000
    106         -0.685061   1.000000
    107         -0.673560   1.000000
    108         -0.622836   1.000000
    109         -0.612041   1.000000
    110         -0.053359   1.000000
    111          0.060316   1.000000
    112          0.176741   1.000000
    113          0.227293   0.999999
    114          0.280670   0.999543
    115          0.371644   0.771134
    116          0.436671   0.136394
    117          0.470467   0.020058
    118          5.592812   0.000000
    119          5.715490   0.000000
    120          5.818693   0.000000
    121          5.928738   0.000000
    122          5.975215   0.000000
    123          6.227394   0.000000
    124          6.458438   0.000000
    125          6.500094   0.000000
    126          6.827833   0.000000
    127          6.874368   0.000000
    128          7.004594   0.000000
    129          7.118241   0.000000
    130          7.156836   0.000000
    131          7.211867   0.000000
    132          7.243131   0.000000
    133          7.342066   0.000000
    134          7.426129   0.000000
    135          7.498839   0.000000
    136          7.537513   0.000000
    137          7.599298   0.000000
    138          7.619339   0.000000
    139          7.640557   0.000000
    140          7.662723   0.000000
    141          7.701987   0.000000
    142          7.780351   0.000000
    143          7.807173   0.000000
    144          7.934638   0.000000
 
  0.1297581E-14  0.1408603E-14  0.5000000E+00  0.7812500E-02
      1        -21.321166   1.000000
      2        -21.281711   1.000000
      3        -21.247042   1.000000
      4        -21.238610   1.000000
      5        -21.214706   1.000000
      6        -21.149663   1.000000
      7        -21.137820   1.000000
      8        -21.055047   1.000000
      9        -19.263693   1.000000
     10        -19.237195   1.000000
     11        -19.208740   1.000000
     12        -19.174607   1.000000
     13        -19.096310   1.000000
     14        -19.075716   1.000000
     15        -19.048355   1.000000
     16        -19.012257   1.000000
     17        -18.991474   1.000000
     18        -18.944613   1.000000
     19        -18.929949   1.000000
     20        -18.898384   1.000000
     21        -18.801739   1.000000
     22        -18.774632   1.000000
     23        -18.733211   1.000000
     24        -18.701850   1.000000
     25        -18.690804   1.000000
     26        -18.634541   1.000000
     27        -18.586975   1.000000
     28        -18.582105   1.000000
     29        -18.579130   1.000000
     30        -18.102350   1.000000
     31        -18.085264   1.000000
     32        -17.989384   1.000000
     33        -17.935256   1.000000
     34        -17.870357   1.000000
     35        -17.827208   1.000000
     36        -17.772458   1.000000
     37        -17.726891   1.000000
     38        -17.712634   1.000000
     39        -17.695009   1.000000
     40        -17.677849   1.000000
     41        -17.662256   1.000000
     42        -17.543272   1.000000
     43        -17.525595   1.000000
     44        -17.492858   1.000000
     45        -17.478930   1.000000
     46         -7.198228   1.000000
     47         -7.168944   1.000000
     48         -7.058147   1.000000
     49         -7.035978   1.000000
     50         -6.920534   1.000000
     51         -6.893420   1.000000
     52         -6.759603   1.000000
     53         -6.739795   1.000000
     54         -5.626228   1.000000
     55         -5.574064   1.000000
     56         -5.506027   1.000000
     57         -5.498905   1.000000
     58         -5.398371   1.000000
     59         -5.381079   1.000000
     60         -5.377102   1.000000
     61         -5.355579   1.000000
     62         -5.294944   1.000000
     63         -5.258599   1.000000
     64         -5.243930   1.000000
     65         -5.215553   1.000000
     66         -5.184776   1.000000
     67         -5.120542   1.000000
     68         -5.100362   1.000000
     69         -5.095590   1.000000
     70         -5.061493   1.000000
     71         -4.976074   1.000000
     72         -4.948807   1.000000
     73         -4.908101   1.000000
     74         -4.897080   1.000000
     75         -4.823914   1.000000
     76         -4.805769   1.000000
     77         -4.750133   1.000000
     78         -2.098634   1.000000
     79         -2.062519   1.000000
     80         -1.862824   1.000000
     81         -1.854531   1.000000
     82         -1.753656   1.000000
     83         -1.619635   1.000000
     84         -1.588755   1.000000
     85         -1.552402   1.000000
     86         -1.499670   1.000000
     87         -1.479702   1.000000
     88         -1.461117   1.000000
     89         -1.420413   1.000000
     90         -1.354392   1.000000
     91         -1.329459   1.000000
     92         -1.312202   1.000000
     93         -1.269263   1.000000
     94         -1.251163   1.000000
     95         -1.206042   1.000000
     96         -1.203339   1.000000
     97         -1.146882   1.000000
     98         -1.125517   1.000000
     99         -1.035643   1.000000
    100         -0.982374   1.000000
    101         -0.928055   1.000000
    102         -0.922532   1.000000
    103         -0.798898   1.000000
    104         -0.789895   1.000000
    105         -0.757170   1.000000
    106         -0.714515   1.000000
    107         -0.654360   1.000000
    108         -0.649834   1.000000
    109         -0.635547   1.000000
    110         -0.007377   1.000000
    111          0.011186   1.000000
    112          0.166377   1.000000
    113          0.217967   1.000000
    114          0.299475   0.997314
    115          0.351407   0.905741
    116          0.445817   0.087654
    117          0.480619   0.009650
    118          5.573835   0.000000
    119          5.694023   0.000000
    120          5.788878   0.000000
    121          5.914301   0.000000
    122          6.054225   0.000000
    123          6.136356   0.000000
    124          6.503959   0.000000
    125          6.540127   0.000000
    126          6.778110   0.000000
    127          6.829634   0.000000
    128          6.992373   0.000000
    129          7.133993   0.000000
    130          7.255929   0.000000
    131          7.305325   0.000000
    132          7.345104   0.000000
    133          7.385786   0.000000
    134          7.448448   0.000000
    135          7.501944   0.000000
    136          7.523849   0.000000
    137          7.607290   0.000000
    138          7.625715   0.000000
    139          7.679163   0.000000
    140          7.680785   0.000000
    141          7.755546   0.000000
    142          7.799886   0.000000
    143          7.862478   0.000000
    144          7.880297   0.000000
 
  0.2500000E+00  0.1290759E-14  0.5000000E+00  0.1562500E-01
      1        -21.305486   1.000000
      2        -21.270684   1.000000
      3        -21.244654   1.000000
      4        -21.243239   1.000000
      5        -21.218528   1.000000
      6        -21.153203   1.000000
      7        -21.146075   1.000000
      8        -21.072953   1.000000
      9        -19.244480   1.000000
     10        -19.194209   1.000000
     11        -19.171426   1.000000
     12        -19.154461   1.000000
     13        -19.105332   1.000000
     14        -19.092696   1.000000
     15        -19.066965   1.000000
     16        -18.990938   1.000000
     17        -18.979496   1.000000
     18        -18.970042   1.000000
     19        -18.889144   1.000000
     20        -18.857312   1.000000
     21        -18.826060   1.000000
     22        -18.795076   1.000000
     23        -18.772138   1.000000
     24        -18.725816   1.000000
     25        -18.711272   1.000000
     26        -18.662045   1.000000
     27        -18.648699   1.000000
     28        -18.620044   1.000000
     29        -18.605295   1.000000
     30        -18.041688   1.000000
     31        -17.995019   1.000000
     32        -17.959200   1.000000
     33        -17.913811   1.000000
     34        -17.866032   1.000000
     35        -17.831598   1.000000
     36        -17.803583   1.000000
     37        -17.768290   1.000000
     38        -17.703718   1.000000
     39        -17.674263   1.000000
     40        -17.651235   1.000000
     41        -17.620225   1.000000
     42        -17.570571   1.000000
     43        -17.555670   1.000000
     44        -17.526689   1.000000
     45        -17.490340   1.000000
     46         -7.161522   1.000000
     47         -7.138943   1.000000
     48         -7.045221   1.000000
     49         -7.020582   1.000000
     50         -6.932401   1.000000
     51         -6.885463   1.000000
     52         -6.825866   1.000000
     53         -6.775645   1.000000
     54         -5.596816   1.000000
     55         -5.552993   1.000000
     56         -5.501910   1.000000
     57         -5.488176   1.000000
     58         -5.403333   1.000000
     59         -5.385857   1.000000
     60         -5.376850   1.000000
     61         -5.347682   1.000000
     62         -5.326042   1.000000
     63         -5.288158   1.000000
     64         -5.260466   1.000000
     65         -5.240843   1.000000
     66         -5.200136   1.000000
     67         -5.132715   1.000000
     68         -5.106863   1.000000
     69         -5.076008   1.000000
     70         -5.066640   1.000000
     71         -4.977078   1.000000
     72         -4.958770   1.000000
     73         -4.926912   1.000000
     74         -4.875417   1.000000
     75         -4.805928   1.000000
     76         -4.771367   1.000000
     77         -4.748278   1.000000
     78         -2.044926   1.000000
     79         -1.975213   1.000000
     80         -1.862379   1.000000
     81         -1.818907   1.000000
     82         -1.714408   1.000000
     83         -1.630024   1.000000
     84         -1.591307   1.000000
     85         -1.577105   1.000000
     86         -1.525774   1.000000
     87         -1.477611   1.000000
     88         -1.464582   1.000000
     89         -1.397505   1.000000
     90         -1.356908   1.000000
     91         -1.347874   1.000000
     92         -1.321344   1.000000
     93         -1.309601   1.000000
     94         -1.233736   1.000000
     95         -1.209520   1.000000
     96         -1.186904   1.000000
     97         -1.166474   1.000000
     98         -1.118123   1.000000
     99         -1.097223   1.000000
    100         -0.996858   1.000000
    101         -0.946527   1.000000
    102         -0.886535   1.000000
    103         -0.845075   1.000000
    104         -0.830856   1.000000
    105         -0.769167   1.000000
    106         -0.713930   1.000000
    107         -0.661776   1.000000
    108         -0.646834   1.000000
    109         -0.627525   1.000000
    110          0.035848   1.000000
    111          0.067001   1.000000
    112          0.176229   1.000000
    113          0.234589   0.999998
    114          0.305069   0.995675
    115          0.348349   0.919464
    116          0.388305   0.606937
    117          0.446452   0.084829
    118          5.640737   0.000000
    119          5.711760   0.000000
    120          5.847820   0.000000
    121          5.916708   0.000000
    122          6.065976   0.000000
    123          6.149319   0.000000
    124          6.360288   0.000000
    125          6.472381   0.000000
    126          6.831905   0.000000
    127          6.880333   0.000000
    128          7.059080   0.000000
    129          7.121310   0.000000
    130          7.155454   0.000000
    131          7.185175   0.000000
    132          7.335402   0.000000
    133          7.372172   0.000000
    134          7.491277   0.000000
    135          7.547899   0.000000
    136          7.566191   0.000000
    137          7.587154   0.000000
    138          7.614780   0.000000
    139          7.663648   0.000000
    140          7.706943   0.000000
    141          7.742899   0.000000
    142          7.809383   0.000000
    143          7.830051   0.000000
    144          7.842078   0.000000
 
  0.1328344E-14 -0.2500000E+00  0.5000000E+00  0.1562500E-01
      1        -21.310422   1.000000
      2        -21.269726   1.000000
      3        -21.248038   1.000000
      4        -21.230174   1.000000
      5        -21.217684   1.000000
      6        -21.157028   1.000000
      7        -21.148150   1.000000
      8        -21.074011   1.000000
      9        -19.227453   1.000000
     10        -19.219268   1.000000
     11        -19.194101   1.000000
     12        -19.126881   1.000000
     13        -19.090887   1.000000
     14        -19.073236   1.000000
     15        -19.056128   1.000000
     16        -19.031878   1.000000
     17        -18.991161   1.000000
     18        -18.954967   1.000000
     19        -18.898711   1.000000
     20        -18.836761   1.000000
     21        -18.828694   1.000000
     22        -18.803666   1.000000
     23        -18.784413   1.000000
     24        -18.715402   1.000000
     25        -18.695845   1.000000
     26        -18.660992   1.000000
     27        -18.651163   1.000000
     28        -18.632101   1.000000
     29        -18.611975   1.000000
     30        -18.077287   1.000000
     31        -17.980536   1.000000
     32        -17.932591   1.000000
     33        -17.899463   1.000000
     34        -17.883747   1.000000
     35        -17.853473   1.000000
     36        -17.759362   1.000000
     37        -17.750769   1.000000
     38        -17.710164   1.000000
     39        -17.683721   1.000000
     40        -17.659098   1.000000
     41        -17.640130   1.000000
     42        -17.583265   1.000000
     43        -17.533402   1.000000
     44        -17.522800   1.000000
     45        -17.498950   1.000000
     46         -7.158237   1.000000
     47         -7.143324   1.000000
     48         -7.048526   1.000000
     49         -7.007361   1.000000
     50         -6.921067   1.000000
     51         -6.893383   1.000000
     52         -6.828893   1.000000
     53         -6.788508   1.000000
     54         -5.608523   1.000000
     55         -5.537293   1.000000
     56         -5.510144   1.000000
     57         -5.490256   1.000000
     58         -5.406503   1.000000
     59         -5.378548   1.000000
     60         -5.373186   1.000000
     61         -5.368594   1.000000
     62         -5.310815   1.000000
     63         -5.301037   1.000000
     64         -5.247965   1.000000
     65         -5.232484   1.000000
     66         -5.152495   1.000000
     67         -5.142495   1.000000
     68         -5.120015   1.000000
     69         -5.098779   1.000000
     70         -5.078049   1.000000
     71         -5.004661   1.000000
     72         -4.923315   1.000000
     73         -4.915023   1.000000
     74         -4.861200   1.000000
     75         -4.827826   1.000000
     76         -4.795970   1.000000
     77         -4.723900   1.000000
     78         -2.020268   1.000000
     79         -1.981686   1.000000
     80         -1.859196   1.000000
     81         -1.820903   1.000000
     82         -1.734949   1.000000
     83         -1.657747   1.000000
     84         -1.575502   1.000000
     85         -1.564870   1.000000
     86         -1.531610   1.000000
     87         -1.475767   1.000000
     88         -1.443592   1.000000
     89         -1.437318   1.000000
     90         -1.355818   1.000000
     91         -1.335039   1.000000
     92         -1.292436   1.000000
     93         -1.270018   1.000000
     94         -1.254464   1.000000
     95         -1.235618   1.000000
     96         -1.211011   1.000000
     97         -1.178763   1.000000
     98         -1.148605   1.000000
     99         -1.054456   1.000000
    100         -0.979990   1.000000
    101         -0.953955   1.000000
    102         -0.902676   1.000000
    103         -0.848081   1.000000
    104         -0.837774   1.000000
    105         -0.746695   1.000000
    106         -0.720066   1.000000
    107         -0.663180   1.000000
    108         -0.655696   1.000000
    109         -0.606296   1.000000
    110          0.033398   1.000000
    111          0.065073   1.000000
    112          0.197236   1.000000
    113          0.209138   1.000000
    114          0.303060   0.996346
    115          0.351798   0.903869
    116          0.395007   0.532587
    117          0.444124   0.095529
    118          5.620532   0.000000
    119          5.771779   0.000000
    120          5.811045   0.000000
    121          5.959357   0.000000
    122          6.075463   0.000000
    123          6.124176   0.000000
    124          6.347231   0.000000
    125          6.424154   0.000000
    126          6.834882   0.000000
    127          6.894663   0.000000
    128          7.013494   0.000000
    129          7.113683   0.000000
    130          7.173717   0.000000
    131          7.219229   0.000000
    132          7.316775   0.000000
    133          7.386816   0.000000
    134          7.498856   0.000000
    135          7.535692   0.000000
    136          7.577750   0.000000
    137          7.591369   0.000000
    138          7.655904   0.000000
    139          7.680123   0.000000
    140          7.703392   0.000000
    141          7.709555   0.000000
    142          7.788282   0.000000
    143          7.810926   0.000000
    144          7.871362   0.000000
 
  0.5000000E+00  0.1295208E-14  0.5000000E+00  0.7812500E-02
      1        -21.274586   1.000000
      2        -21.271692   1.000000
      3        -21.242579   1.000000
      4        -21.239133   1.000000
      5        -21.231479   1.000000
      6        -21.171330   1.000000
      7        -21.136700   1.000000
      8        -21.096232   1.000000
      9        -19.218758   1.000000
     10        -19.161459   1.000000
     11        -19.157369   1.000000
     12        -19.137567   1.000000
     13        -19.066813   1.000000
     14        -19.061156   1.000000
     15        -19.036895   1.000000
     16        -19.016263   1.000000
     17        -19.010809   1.000000
     18        -18.939986   1.000000
     19        -18.920892   1.000000
     20        -18.891838   1.000000
     21        -18.854953   1.000000
     22        -18.805836   1.000000
     23        -18.761300   1.000000
     24        -18.738909   1.000000
     25        -18.728950   1.000000
     26        -18.720455   1.000000
     27        -18.669103   1.000000
     28        -18.645387   1.000000
     29        -18.625435   1.000000
     30        -17.990095   1.000000
     31        -17.948592   1.000000
     32        -17.947062   1.000000
     33        -17.913657   1.000000
     34        -17.879927   1.000000
     35        -17.767601   1.000000
     36        -17.755217   1.000000
     37        -17.747974   1.000000
     38        -17.703757   1.000000
     39        -17.681238   1.000000
     40        -17.663302   1.000000
     41        -17.620263   1.000000
     42        -17.618332   1.000000
     43        -17.597894   1.000000
     44        -17.537379   1.000000
     45        -17.503708   1.000000
     46         -7.114669   1.000000
     47         -7.062004   1.000000
     48         -7.054177   1.000000
     49         -6.987187   1.000000
     50         -6.984242   1.000000
     51         -6.889567   1.000000
     52         -6.886342   1.000000
     53         -6.817999   1.000000
     54         -5.554898   1.000000
     55         -5.530557   1.000000
     56         -5.490497   1.000000
     57         -5.465001   1.000000
     58         -5.453248   1.000000
     59         -5.387597   1.000000
     60         -5.359972   1.000000
     61         -5.354115   1.000000
     62         -5.336682   1.000000
     63         -5.320817   1.000000
     64         -5.276595   1.000000
     65         -5.266718   1.000000
     66         -5.228891   1.000000
     67         -5.135208   1.000000
     68         -5.112575   1.000000
     69         -5.069499   1.000000
     70         -5.054978   1.000000
     71         -4.996948   1.000000
     72         -4.952639   1.000000
     73         -4.942002   1.000000
     74         -4.858193   1.000000
     75         -4.778751   1.000000
     76         -4.763393   1.000000
     77         -4.737784   1.000000
     78         -1.960980   1.000000
     79         -1.913623   1.000000
     80         -1.857714   1.000000
     81         -1.759023   1.000000
     82         -1.699547   1.000000
     83         -1.633496   1.000000
     84         -1.594019   1.000000
     85         -1.584503   1.000000
     86         -1.517075   1.000000
     87         -1.474413   1.000000
     88         -1.457697   1.000000
     89         -1.426187   1.000000
     90         -1.424221   1.000000
     91         -1.355558   1.000000
     92         -1.341651   1.000000
     93         -1.317793   1.000000
     94         -1.219860   1.000000
     95         -1.207097   1.000000
     96         -1.170962   1.000000
     97         -1.158013   1.000000
     98         -1.148786   1.000000
     99         -1.093066   1.000000
    100         -1.004059   1.000000
    101         -0.972220   1.000000
    102         -0.938654   1.000000
    103         -0.914475   1.000000
    104         -0.813784   1.000000
    105         -0.756533   1.000000
    106         -0.746765   1.000000
    107         -0.659141   1.000000
    108         -0.644483   1.000000
    109         -0.617555   1.000000
    110          0.113477   1.000000
    111          0.144118   1.000000
    112          0.176483   1.000000
    113          0.222671   1.000000
    114          0.277460   0.999671
    115          0.339149   0.951712
    116          0.367436   0.805545
    117          0.395987   0.521555
    118          5.687358   0.000000
    119          5.773427   0.000000
    120          5.883994   0.000000
    121          5.975106   0.000000
    122          6.073443   0.000000
    123          6.178598   0.000000
    124          6.182987   0.000000
    125          6.391774   0.000000
    126          6.920738   0.000000
    127          6.978890   0.000000
    128          7.009487   0.000000
    129          7.040352   0.000000
    130          7.114323   0.000000
    131          7.161431   0.000000
    132          7.306968   0.000000
    133          7.346229   0.000000
    134          7.521735   0.000000
    135          7.529879   0.000000
    136          7.566252   0.000000
    137          7.614268   0.000000
    138          7.639744   0.000000
    139          7.669129   0.000000
    140          7.700094   0.000000
    141          7.755219   0.000000
    142          7.760605   0.000000
    143          7.811059   0.000000
    144          7.871952   0.000000
 
  0.1258595E-14  0.5000000E+00  0.5000000E+00  0.7812500E-02
      1        -21.296698   1.000000
      2        -21.263753   1.000000
      3        -21.236667   1.000000
      4        -21.230644   1.000000
      5        -21.199971   1.000000
      6        -21.195794   1.000000
      7        -21.144693   1.000000
      8        -21.096292   1.000000
      9        -19.226403   1.000000
     10        -19.169322   1.000000
     11        -19.132687   1.000000
     12        -19.125454   1.000000
     13        -19.108278   1.000000
     14        -19.063771   1.000000
     15        -19.038340   1.000000
     16        -18.981180   1.000000
     17        -18.970092   1.000000
     18        -18.935804   1.000000
     19        -18.926173   1.000000
     20        -18.876345   1.000000
     21        -18.872820   1.000000
     22        -18.842515   1.000000
     23        -18.816802   1.000000
     24        -18.715260   1.000000
     25        -18.693773   1.000000
     26        -18.693112   1.000000
     27        -18.688770   1.000000
     28        -18.658453   1.000000
     29        -18.641156   1.000000
     30        -18.063504   1.000000
     31        -17.918488   1.000000
     32        -17.914849   1.000000
     33        -17.893951   1.000000
     34        -17.842144   1.000000
     35        -17.775815   1.000000
     36        -17.765719   1.000000
     37        -17.731675   1.000000
     38        -17.720431   1.000000
     39        -17.678191   1.000000
     40        -17.660128   1.000000
     41        -17.646375   1.000000
     42        -17.622274   1.000000
     43        -17.569128   1.000000
     44        -17.567821   1.000000
     45        -17.498239   1.000000
     46         -7.121531   1.000000
     47         -7.072044   1.000000
     48         -7.027249   1.000000
     49         -6.987753   1.000000
     50         -6.943221   1.000000
     51         -6.905519   1.000000
     52         -6.879815   1.000000
     53         -6.866487   1.000000
     54         -5.589994   1.000000
     55         -5.512548   1.000000
     56         -5.486937   1.000000
     57         -5.458247   1.000000
     58         -5.444740   1.000000
     59         -5.395575   1.000000
     60         -5.393954   1.000000
     61         -5.351266   1.000000
     62         -5.341251   1.000000
     63         -5.306067   1.000000
     64         -5.245483   1.000000
     65         -5.243073   1.000000
     66         -5.179629   1.000000
     67         -5.152443   1.000000
     68         -5.125930   1.000000
     69         -5.112004   1.000000
     70         -5.051113   1.000000
     71         -5.047685   1.000000
     72         -4.920279   1.000000
     73         -4.905676   1.000000
     74         -4.832249   1.000000
     75         -4.828970   1.000000
     76         -4.787907   1.000000
     77         -4.702002   1.000000
     78         -1.924190   1.000000
     79         -1.911433   1.000000
     80         -1.796780   1.000000
     81         -1.778431   1.000000
     82         -1.760404   1.000000
     83         -1.671490   1.000000
     84         -1.604210   1.000000
     85         -1.600433   1.000000
     86         -1.549299   1.000000
     87         -1.470635   1.000000
     88         -1.437357   1.000000
     89         -1.398253   1.000000
     90         -1.387576   1.000000
     91         -1.359824   1.000000
     92         -1.339198   1.000000
     93         -1.268232   1.000000
     94         -1.244322   1.000000
     95         -1.229991   1.000000
     96         -1.189933   1.000000
     97         -1.166731   1.000000
     98         -1.138355   1.000000
     99         -1.096712   1.000000
    100         -1.025594   1.000000
    101         -1.007864   1.000000
    102         -0.921991   1.000000
    103         -0.888166   1.000000
    104         -0.850476   1.000000
    105         -0.744900   1.000000
    106         -0.715761   1.000000
    107         -0.662787   1.000000
    108         -0.662390   1.000000
    109         -0.582658   1.000000
    110          0.096269   1.000000
    111          0.166195   1.000000
    112          0.180833   1.000000
    113          0.226148   0.999999
    114          0.248248   0.999988
    115          0.342283   0.942146
    116          0.362018   0.844910
    117          0.409098   0.375706
    118          5.657349   0.000000
    119          5.839585   0.000000
    120          5.949574   0.000000
    121          6.043662   0.000000
    122          6.052529   0.000000
    123          6.102949   0.000000
    124          6.143621   0.000000
    125          6.306252   0.000000
    126          6.905146   0.000000
    127          6.981006   0.000000
    128          6.999563   0.000000
    129          7.078983   0.000000
    130          7.085585   0.000000
    131          7.219967   0.000000
    132          7.230676   0.000000
    133          7.370485   0.000000
    134          7.536764   0.000000
    135          7.556537   0.000000
    136          7.592697   0.000000
    137          7.612091   0.000000
    138          7.659883   0.000000
    139          7.672175   0.000000
    140          7.715869   0.000000
    141          7.740440   0.000000
    142          7.757318   0.000000
    143          7.812458   0.000000
    144          7.883419   0.000000
 
  0.2500000E+00  0.2500000E+00  0.5000000E+00  0.1562500E-01
      1        -21.301074   1.000000
      2        -21.270886   1.000000
      3        -21.246550   1.000000
      4        -21.235851   1.000000
      5        -21.213315   1.000000
      6        -21.162665   1.000000
      7        -21.147695   1.000000
      8        -21.079573   1.000000
      9        -19.231196   1.000000
     10        -19.208674   1.000000
     11        -19.158221   1.000000
     12        -19.128681   1.000000
     13        -19.122647   1.000000
     14        -19.098781   1.000000
     15        -19.080440   1.000000
     16        -18.991354   1.000000
     17        -18.973246   1.000000
     18        -18.942277   1.000000
     19        -18.882748   1.000000
     20        -18.842139   1.000000
     21        -18.825318   1.000000
     22        -18.797590   1.000000
     23        -18.779366   1.000000
     24        -18.749302   1.000000
     25        -18.718309   1.000000
     26        -18.674537   1.000000
     27        -18.655451   1.000000
     28        -18.637370   1.000000
     29        -18.599680   1.000000
     30        -18.017256   1.000000
     31        -17.995271   1.000000
     32        -17.937934   1.000000
     33        -17.920050   1.000000
     34        -17.873070   1.000000
     35        -17.864200   1.000000
     36        -17.805726   1.000000
     37        -17.760170   1.000000
     38        -17.685666   1.000000
     39        -17.682049   1.000000
     40        -17.636247   1.000000
     41        -17.616339   1.000000
     42        -17.570075   1.000000
     43        -17.561994   1.000000
     44        -17.524454   1.000000
     45        -17.503945   1.000000
     46         -7.176116   1.000000
     47         -7.115003   1.000000
     48         -7.020804   1.000000
     49         -7.010109   1.000000
     50         -6.979183   1.000000
     51         -6.898135   1.000000
     52         -6.795796   1.000000
     53         -6.786414   1.000000
     54         -5.606769   1.000000
     55         -5.543843   1.000000
     56         -5.490203   1.000000
     57         -5.477340   1.000000
     58         -5.410885   1.000000
     59         -5.390089   1.000000
     60         -5.383161   1.000000
     61         -5.351265   1.000000
     62         -5.337717   1.000000
     63         -5.287006   1.000000
     64         -5.265062   1.000000
     65         -5.247751   1.000000
     66         -5.190921   1.000000
     67         -5.140085   1.000000
     68         -5.125066   1.000000
     69         -5.105184   1.000000
     70         -5.093260   1.000000
     71         -4.994035   1.000000
     72         -4.942117   1.000000
     73         -4.887042   1.000000
     74         -4.843248   1.000000
     75         -4.810398   1.000000
     76         -4.768511   1.000000
     77         -4.720590   1.000000
     78         -2.030660   1.000000
     79         -2.023581   1.000000
     80         -1.824218   1.000000
     81         -1.781548   1.000000
     82         -1.729820   1.000000
     83         -1.631889   1.000000
     84         -1.568247   1.000000
     85         -1.556940   1.000000
     86         -1.515809   1.000000
     87         -1.491708   1.000000
     88         -1.456524   1.000000
     89         -1.408309   1.000000
     90         -1.378861   1.000000
     91         -1.356903   1.000000
     92         -1.338826   1.000000
     93         -1.310008   1.000000
     94         -1.287835   1.000000
     95         -1.228584   1.000000
     96         -1.176186   1.000000
     97         -1.153438   1.000000
     98         -1.127688   1.000000
     99         -1.057564   1.000000
    100         -0.971397   1.000000
    101         -0.947564   1.000000
    102         -0.893786   1.000000
    103         -0.884907   1.000000
    104         -0.832844   1.000000
    105         -0.759109   1.000000
    106         -0.700906   1.000000
    107         -0.680623   1.000000
    108         -0.644664   1.000000
    109         -0.624921   1.000000
    110          0.025115   1.000000
    111          0.078768   1.000000
    112          0.207290   1.000000
    113          0.245772   0.999992
    114          0.270116   0.999849
    115          0.321922   0.984180
    116          0.416315   0.301223
    117          0.445506   0.089065
    118          5.655437   0.000000
    119          5.750788   0.000000
    120          5.866280   0.000000
    121          5.951227   0.000000
    122          6.035844   0.000000
    123          6.119249   0.000000
    124          6.378057   0.000000
    125          6.428939   0.000000
    126          6.841887   0.000000
    127          6.871010   0.000000
    128          7.008603   0.000000
    129          7.128062   0.000000
    130          7.160424   0.000000
    131          7.245693   0.000000
    132          7.333139   0.000000
    133          7.377316   0.000000
    134          7.392815   0.000000
    135          7.495183   0.000000
    136          7.509125   0.000000
    137          7.584034   0.000000
    138          7.633199   0.000000
    139          7.659090   0.000000
    140          7.688224   0.000000
    141          7.707531   0.000000
    142          7.790982   0.000000
    143          7.806220   0.000000
    144          7.878185   0.000000
 
  0.5000000E+00  0.2500000E+00  0.5000000E+00  0.1562500E-01
      1        -21.273707   1.000000
      2        -21.263589   1.000000
      3        -21.244944   1.000000
      4        -21.239074   1.000000
      5        -21.219762   1.000000
      6        -21.182590   1.000000
      7        -21.138367   1.000000
      8        -21.104560   1.000000
      9        -19.202609   1.000000
     10        -19.169149   1.000000
     11        -19.132940   1.000000
     12        -19.124096   1.000000
     13        -19.107284   1.000000
     14        -19.088014   1.000000
     15        -19.036515   1.000000
     16        -19.027530   1.000000
     17        -18.971741   1.000000
     18        -18.926453   1.000000
     19        -18.898899   1.000000
     20        -18.864237   1.000000
     21        -18.846404   1.000000
     22        -18.816485   1.000000
     23        -18.788263   1.000000
     24        -18.742678   1.000000
     25        -18.738988   1.000000
     26        -18.726016   1.000000
     27        -18.680323   1.000000
     28        -18.659416   1.000000
     29        -18.637874   1.000000
     30        -17.992190   1.000000
     31        -17.941160   1.000000
     32        -17.913281   1.000000
     33        -17.880396   1.000000
     34        -17.854762   1.000000
     35        -17.835964   1.000000
     36        -17.802923   1.000000
     37        -17.776631   1.000000
     38        -17.663970   1.000000
     39        -17.656490   1.000000
     40        -17.642440   1.000000
     41        -17.631886   1.000000
     42        -17.599010   1.000000
     43        -17.592075   1.000000
     44        -17.556695   1.000000
     45        -17.517335   1.000000
     46         -7.104932   1.000000
     47         -7.070634   1.000000
     48         -7.027867   1.000000
     49         -7.001923   1.000000
     50         -6.980086   1.000000
     51         -6.927341   1.000000
     52         -6.862950   1.000000
     53         -6.816570   1.000000
     54         -5.569137   1.000000
     55         -5.528249   1.000000
     56         -5.465285   1.000000
     57         -5.450489   1.000000
     58         -5.441327   1.000000
     59         -5.401249   1.000000
     60         -5.386483   1.000000
     61         -5.374098   1.000000
     62         -5.342007   1.000000
     63         -5.306656   1.000000
     64         -5.284595   1.000000
     65         -5.269231   1.000000
     66         -5.217906   1.000000
     67         -5.162708   1.000000
     68         -5.124161   1.000000
     69         -5.093794   1.000000
     70         -5.069581   1.000000
     71         -5.008564   1.000000
     72         -4.933445   1.000000
     73         -4.897019   1.000000
     74         -4.850509   1.000000
     75         -4.785710   1.000000
     76         -4.742510   1.000000
     77         -4.719353   1.000000
     78         -1.981149   1.000000
     79         -1.934317   1.000000
     80         -1.813801   1.000000
     81         -1.713939   1.000000
     82         -1.696542   1.000000
     83         -1.629801   1.000000
     84         -1.586904   1.000000
     85         -1.571397   1.000000
     86         -1.529064   1.000000
     87         -1.488281   1.000000
     88         -1.478785   1.000000
     89         -1.416977   1.000000
     90         -1.405922   1.000000
     91         -1.371283   1.000000
     92         -1.350950   1.000000
     93         -1.317821   1.000000
     94         -1.259109   1.000000
     95         -1.231245   1.000000
     96         -1.203210   1.000000
     97         -1.158440   1.000000
     98         -1.114929   1.000000
     99         -1.055675   1.000000
    100         -1.029414   1.000000
    101         -0.991731   1.000000
    102         -0.940307   1.000000
    103         -0.880707   1.000000
    104         -0.814928   1.000000
    105         -0.763286   1.000000
    106         -0.745761   1.000000
    107         -0.658917   1.000000
    108         -0.650262   1.000000
    109         -0.622107   1.000000
    110          0.105502   1.000000
    111          0.147342   1.000000
    112          0.195466   1.000000
    113          0.251482   0.999983
    114          0.271399   0.999827
    115          0.303278   0.996278
    116          0.353241   0.896725
    117          0.419043   0.274901
    118          5.746017   0.000000
    119          5.796351   0.000000
    120          5.882078   0.000000
    121          5.993724   0.000000
    122          6.063277   0.000000
    123          6.115236   0.000000
    124          6.216978   0.000000
    125          6.358153   0.000000
    126          6.910036   0.000000
    127          6.917444   0.000000
    128          7.037572   0.000000
    129          7.062884   0.000000
    130          7.143263   0.000000
    131          7.177879   0.000000
    132          7.281966   0.000000
    133          7.357251   0.000000
    134          7.420873   0.000000
    135          7.478583   0.000000
    136          7.512419   0.000000
    137          7.562106   0.000000
    138          7.611724   0.000000
    139          7.656201   0.000000
    140          7.689269   0.000000
    141          7.735423   0.000000
    142          7.791760   0.000000
    143          7.828777   0.000000
    144          7.858449   0.000000
 
 -0.2500000E+00  0.5000000E+00  0.5000000E+00  0.1562500E-01
      1        -21.286991   1.000000
      2        -21.261383   1.000000
      3        -21.239887   1.000000
      4        -21.221243   1.000000
      5        -21.215808   1.000000
      6        -21.194909   1.000000
      7        -21.141593   1.000000
      8        -21.105157   1.000000
      9        -19.192137   1.000000
     10        -19.169512   1.000000
     11        -19.148699   1.000000
     12        -19.122097   1.000000
     13        -19.108814   1.000000
     14        -19.082928   1.000000
     15        -19.068811   1.000000
     16        -18.982222   1.000000
     17        -18.969808   1.000000
     18        -18.907010   1.000000
     19        -18.905471   1.000000
     20        -18.873965   1.000000
     21        -18.828843   1.000000
     22        -18.821165   1.000000
     23        -18.797977   1.000000
     24        -18.779497   1.000000
     25        -18.726404   1.000000
     26        -18.720271   1.000000
     27        -18.680068   1.000000
     28        -18.663741   1.000000
     29        -18.642208   1.000000
     30        -17.996609   1.000000
     31        -17.937328   1.000000
     32        -17.915108   1.000000
     33        -17.884318   1.000000
     34        -17.855354   1.000000
     35        -17.821968   1.000000
     36        -17.800764   1.000000
     37        -17.749322   1.000000
     38        -17.700481   1.000000
     39        -17.674773   1.000000
     40        -17.625204   1.000000
     41        -17.619792   1.000000
     42        -17.599217   1.000000
     43        -17.584262   1.000000
     44        -17.557057   1.000000
     45        -17.529488   1.000000
     46         -7.104881   1.000000
     47         -7.074645   1.000000
     48         -7.034191   1.000000
     49         -6.988538   1.000000
     50         -6.953890   1.000000
     51         -6.930071   1.000000
     52         -6.881091   1.000000
     53         -6.828597   1.000000
     54         -5.585851   1.000000
     55         -5.497866   1.000000
     56         -5.491293   1.000000
     57         -5.457969   1.000000
     58         -5.423172   1.000000
     59         -5.399324   1.000000
     60         -5.393923   1.000000
     61         -5.377801   1.000000
     62         -5.339447   1.000000
     63         -5.324800   1.000000
     64         -5.267188   1.000000
     65         -5.255011   1.000000
     66         -5.187047   1.000000
     67         -5.158950   1.000000
     68         -5.139855   1.000000
     69         -5.108789   1.000000
     70         -5.075363   1.000000
     71         -5.022435   1.000000
     72         -4.937236   1.000000
     73         -4.867840   1.000000
     74         -4.834630   1.000000
     75         -4.818036   1.000000
     76         -4.754157   1.000000
     77         -4.699905   1.000000
     78         -1.984065   1.000000
     79         -1.886537   1.000000
     80         -1.804920   1.000000
     81         -1.780974   1.000000
     82         -1.674510   1.000000
     83         -1.650745   1.000000
     84         -1.599931   1.000000
     85         -1.587521   1.000000
     86         -1.538552   1.000000
     87         -1.469494   1.000000
     88         -1.449742   1.000000
     89         -1.419469   1.000000
     90         -1.381797   1.000000
     91         -1.360954   1.000000
     92         -1.334200   1.000000
     93         -1.316914   1.000000
     94         -1.295231   1.000000
     95         -1.254495   1.000000
     96         -1.190776   1.000000
     97         -1.169633   1.000000
     98         -1.130917   1.000000
     99         -1.050014   1.000000
    100         -1.033500   1.000000
    101         -0.965378   1.000000
    102         -0.933245   1.000000
    103         -0.902117   1.000000
    104         -0.836332   1.000000
    105         -0.765566   1.000000
    106         -0.707751   1.000000
    107         -0.677997   1.000000
    108         -0.654634   1.000000
    109         -0.600759   1.000000
    110          0.106673   1.000000
    111          0.143720   1.000000
    112          0.194628   1.000000
    113          0.244464   0.999993
    114          0.263694   0.999926
    115          0.318981   0.987197
    116          0.355392   0.885371
    117          0.416325   0.301117
    118          5.712540   0.000000
    119          5.846876   0.000000
    120          5.933290   0.000000
    121          5.973749   0.000000
    122          6.073419   0.000000
    123          6.131164   0.000000
    124          6.184309   0.000000
    125          6.286794   0.000000
    126          6.899456   0.000000
    127          6.947154   0.000000
    128          7.008972   0.000000
    129          7.050254   0.000000
    130          7.163274   0.000000
    131          7.190549   0.000000
    132          7.278357   0.000000
    133          7.336266   0.000000
    134          7.457863   0.000000
    135          7.497674   0.000000
    136          7.513981   0.000000
    137          7.583375   0.000000
    138          7.609256   0.000000
    139          7.644870   0.000000
    140          7.680194   0.000000
    141          7.763119   0.000000
    142          7.777738   0.000000
    143          7.797319   0.000000
    144          7.857565   0.000000
 
 -0.2500000E+00  0.2500000E+00  0.5000000E+00  0.1562500E-01
      1        -21.291780   1.000000
      2        -21.258745   1.000000
      3        -21.242617   1.000000
      4        -21.229610   1.000000
      5        -21.226907   1.000000
      6        -21.176899   1.000000
      7        -21.141570   1.000000
      8        -21.095935   1.000000
      9        -19.200540   1.000000
     10        -19.160509   1.000000
     11        -19.141225   1.000000
     12        -19.129749   1.000000
     13        -19.105170   1.000000
     14        -19.095296   1.000000
     15        -19.067470   1.000000
     16        -19.051940   1.000000
     17        -18.931837   1.000000
     18        -18.913355   1.000000
     19        -18.886971   1.000000
     20        -18.867189   1.000000
     21        -18.848249   1.000000
     22        -18.825996   1.000000
     23        -18.780276   1.000000
     24        -18.770944   1.000000
     25        -18.714233   1.000000
     26        -18.701367   1.000000
     27        -18.681666   1.000000
     28        -18.663076   1.000000
     29        -18.646379   1.000000
     30        -18.001172   1.000000
     31        -17.940197   1.000000
     32        -17.921471   1.000000
     33        -17.873599   1.000000
     34        -17.839429   1.000000
     35        -17.818893   1.000000
     36        -17.805849   1.000000
     37        -17.787846   1.000000
     38        -17.706825   1.000000
     39        -17.657018   1.000000
     40        -17.639658   1.000000
     41        -17.620165   1.000000
     42        -17.601603   1.000000
     43        -17.572300   1.000000
     44        -17.541009   1.000000
     45        -17.534834   1.000000
     46         -7.100780   1.000000
     47         -7.088047   1.000000
     48         -7.034003   1.000000
     49         -7.010801   1.000000
     50         -6.947633   1.000000
     51         -6.902064   1.000000
     52         -6.871348   1.000000
     53         -6.845207   1.000000
     54         -5.565173   1.000000
     55         -5.531395   1.000000
     56         -5.490285   1.000000
     57         -5.485286   1.000000
     58         -5.397559   1.000000
     59         -5.393276   1.000000
     60         -5.382069   1.000000
     61         -5.364247   1.000000
     62         -5.345626   1.000000
     63         -5.324992   1.000000
     64         -5.266307   1.000000
     65         -5.249141   1.000000
     66         -5.190617   1.000000
     67         -5.155899   1.000000
     68         -5.125083   1.000000
     69         -5.080579   1.000000
     70         -5.040824   1.000000
     71         -5.017870   1.000000
     72         -4.947248   1.000000
     73         -4.910736   1.000000
     74         -4.864136   1.000000
     75         -4.813591   1.000000
     76         -4.757176   1.000000
     77         -4.722680   1.000000
     78         -1.914148   1.000000
     79         -1.888576   1.000000
     80         -1.868764   1.000000
     81         -1.813552   1.000000
     82         -1.694236   1.000000
     83         -1.665978   1.000000
     84         -1.621006   1.000000
     85         -1.573064   1.000000
     86         -1.535942   1.000000
     87         -1.466026   1.000000
     88         -1.451754   1.000000
     89         -1.395961   1.000000
     90         -1.380993   1.000000
     91         -1.376690   1.000000
     92         -1.318617   1.000000
     93         -1.305832   1.000000
     94         -1.235291   1.000000
     95         -1.214815   1.000000
     96         -1.186253   1.000000
     97         -1.181254   1.000000
     98         -1.143803   1.000000
     99         -1.079981   1.000000
    100         -1.053540   1.000000
    101         -0.976091   1.000000
    102         -0.917934   1.000000
    103         -0.896416   1.000000
    104         -0.823423   1.000000
    105         -0.765640   1.000000
    106         -0.710170   1.000000
    107         -0.678264   1.000000
    108         -0.650423   1.000000
    109         -0.600784   1.000000
    110          0.104165   1.000000
    111          0.150520   1.000000
    112          0.181157   1.000000
    113          0.222289   1.000000
    114          0.270759   0.999838
    115          0.344095   0.935969
    116          0.376289   0.729470
    117          0.385915   0.632677
    118          5.708187   0.000000
    119          5.768323   0.000000
    120          5.890219   0.000000
    121          5.986409   0.000000
    122          6.093400   0.000000
    123          6.159488   0.000000
    124          6.192676   0.000000
    125          6.320175   0.000000
    126          6.902302   0.000000
    127          6.955016   0.000000
    128          7.045050   0.000000
    129          7.058330   0.000000
    130          7.104638   0.000000
    131          7.179104   0.000000
    132          7.276024   0.000000
    133          7.376713   0.000000
    134          7.526635   0.000000
    135          7.539388   0.000000
    136          7.576574   0.000000
    137          7.590682   0.000000
    138          7.656366   0.000000
    139          7.674847   0.000000
    140          7.689590   0.000000
    141          7.695090   0.000000
    142          7.752302   0.000000
    143          7.809978   0.000000
    144          7.874219   0.000000
 
  0.5000000E+00  0.5000000E+00  0.5000000E+00  0.7812500E-02
      1        -21.270586   1.000000
      2        -21.257929   1.000000
      3        -21.245094   1.000000
      4        -21.235142   1.000000
      5        -21.211032   1.000000
      6        -21.197187   1.000000
      7        -21.129582   1.000000
      8        -21.123266   1.000000
      9        -19.199422   1.000000
     10        -19.166890   1.000000
     11        -19.154721   1.000000
     12        -19.117257   1.000000
     13        -19.102210   1.000000
     14        -19.051018   1.000000
     15        -19.036019   1.000000
     16        -18.994868   1.000000
     17        -18.964709   1.000000
     18        -18.940922   1.000000
     19        -18.919652   1.000000
     20        -18.899813   1.000000
     21        -18.810462   1.000000
     22        -18.799135   1.000000
     23        -18.785518   1.000000
     24        -18.783572   1.000000
     25        -18.742695   1.000000
     26        -18.732298   1.000000
     27        -18.702416   1.000000
     28        -18.675706   1.000000
     29        -18.616703   1.000000
     30        -17.976003   1.000000
     31        -17.943892   1.000000
     32        -17.912143   1.000000
     33        -17.861662   1.000000
     34        -17.853199   1.000000
     35        -17.842126   1.000000
     36        -17.820783   1.000000
     37        -17.763225   1.000000
     38        -17.696486   1.000000
     39        -17.673623   1.000000
     40        -17.619658   1.000000
     41        -17.609241   1.000000
     42        -17.598633   1.000000
     43        -17.566955   1.000000
     44        -17.560003   1.000000
     45        -17.546873   1.000000
     46         -7.119338   1.000000
     47         -7.078941   1.000000
     48         -7.008100   1.000000
     49         -7.003092   1.000000
     50         -6.933415   1.000000
     51         -6.923101   1.000000
     52         -6.873565   1.000000
     53         -6.849207   1.000000
     54         -5.581643   1.000000
     55         -5.490681   1.000000
     56         -5.470193   1.000000
     57         -5.448817   1.000000
     58         -5.442161   1.000000
     59         -5.407035   1.000000
     60         -5.404299   1.000000
     61         -5.370092   1.000000
     62         -5.338353   1.000000
     63         -5.337989   1.000000
     64         -5.284430   1.000000
     65         -5.274602   1.000000
     66         -5.204302   1.000000
     67         -5.159381   1.000000
     68         -5.147446   1.000000
     69         -5.115018   1.000000
     70         -5.086249   1.000000
     71         -5.027271   1.000000
     72         -4.904064   1.000000
     73         -4.858334   1.000000
     74         -4.841757   1.000000
     75         -4.795598   1.000000
     76         -4.729406   1.000000
     77         -4.701082   1.000000
     78         -1.974354   1.000000
     79         -1.929886   1.000000
     80         -1.823279   1.000000
     81         -1.758821   1.000000
     82         -1.680053   1.000000
     83         -1.591272   1.000000
     84         -1.557779   1.000000
     85         -1.547208   1.000000
     86         -1.491699   1.000000
     87         -1.470651   1.000000
     88         -1.457688   1.000000
     89         -1.437126   1.000000
     90         -1.419493   1.000000
     91         -1.411000   1.000000
     92         -1.351029   1.000000
     93         -1.327919   1.000000
     94         -1.310326   1.000000
     95         -1.285527   1.000000
     96         -1.211683   1.000000
     97         -1.146839   1.000000
     98         -1.126872   1.000000
     99         -1.067846   1.000000
    100         -0.982279   1.000000
    101         -0.975937   1.000000
    102         -0.925394   1.000000
    103         -0.864390   1.000000
    104         -0.862024   1.000000
    105         -0.765788   1.000000
    106         -0.734229   1.000000
    107         -0.669431   1.000000
    108         -0.642799   1.000000
    109         -0.630399   1.000000
    110          0.102191   1.000000
    111          0.162686   1.000000
    112          0.181790   1.000000
    113          0.229428   0.999999
    114          0.316708   0.989174
    115          0.321374   0.984785
    116          0.359234   0.862933
    117          0.382907   0.664224
    118          5.814798   0.000000
    119          5.837713   0.000000
    120          5.851416   0.000000
    121          5.974022   0.000000
    122          6.097505   0.000000
    123          6.185877   0.000000
    124          6.186261   0.000000
    125          6.243354   0.000000
    126          6.892859   0.000000
    127          6.916189   0.000000
    128          7.002388   0.000000
    129          7.080894   0.000000
    130          7.143199   0.000000
    131          7.214788   0.000000
    132          7.304130   0.000000
    133          7.342822   0.000000
    134          7.372565   0.000000
    135          7.436985   0.000000
    136          7.466799   0.000000
    137          7.509918   0.000000
    138          7.616001   0.000000
    139          7.624413   0.000000
    140          7.664680   0.000000
    141          7.699485   0.000000
    142          7.795443   0.000000
    143          7.807307   0.000000
    144          7.903546   0.000000
