  41  41   0   0
  0.1062273E+02  0.5896051E-09  0.5896048E-09  0.1316868E-08  0.5000000E-15
   1.0000000000000000E-004
  CAR 
 Li4Ti5O12 Spinel - Full Structural Relax
      5.20448555    -17.99509211  301      0.22052360      1.00000000
    -17.995  0.0000E+00  0.0000E+00
    -17.918  0.0000E+00  0.0000E+00
    -17.840  0.0000E+00  0.0000E+00
    -17.763  0.0000E+00  0.0000E+00
    -17.686  0.0000E+00  0.0000E+00
    -17.608  0.0000E+00  0.0000E+00
    -17.531  0.0000E+00  0.0000E+00
    -17.454  0.0000E+00  0.0000E+00
    -17.376  0.0000E+00  0.0000E+00
    -17.299  0.0000E+00  0.0000E+00
    -17.222  0.1063E-17  0.8224E-19
    -17.144  0.4964E-11  0.3839E-12
    -17.067  0.2361E-06  0.1826E-07
    -16.990  0.1915E-03  0.1483E-04
    -16.912  0.6771E-02  0.5385E-03
    -16.835  0.2793E-01  0.2698E-02
    -16.758  0.5654E-01  0.7071E-02
    -16.680  0.6972E-01  0.1246E-01
    -16.603  0.5683E-01  0.1686E-01
    -16.526  0.3706E-01  0.1972E-01
    -16.448  0.6285E-01  0.2458E-01
    -16.371  0.6387E-01  0.2952E-01
    -16.294  0.3859E-01  0.3251E-01
    -16.216  0.6663E-01  0.3766E-01
    -16.139  0.8943E-01  0.4458E-01
    -16.062  0.1162E+00  0.5356E-01
    -15.984  0.1883E+00  0.6813E-01
    -15.907  0.2792E+00  0.8972E-01
    -15.830  0.3129E+00  0.1139E+00
    -15.752  0.3340E+00  0.1397E+00
    -15.675  0.2960E+00  0.1626E+00
    -15.598  0.3157E+00  0.1870E+00
    -15.520  0.2846E+00  0.2091E+00
    -15.443  0.2153E+00  0.2257E+00
    -15.366  0.1427E+00  0.2367E+00
    -15.288  0.4129E-01  0.2399E+00
    -15.211  0.8156E-03  0.2400E+00
    -15.134  0.3733E-06  0.2400E+00
    -15.056  0.2386E-11  0.2400E+00
    -14.979  0.0000E+00  0.2400E+00
    -14.902  0.0000E+00  0.2400E+00
    -14.824  0.0000E+00  0.2400E+00
    -14.747  0.0000E+00  0.2400E+00
    -14.670  0.0000E+00  0.2400E+00
    -14.592  0.0000E+00  0.2400E+00
    -14.515  0.0000E+00  0.2400E+00
    -14.438  0.0000E+00  0.2400E+00
    -14.360  0.0000E+00  0.2400E+00
    -14.283  0.0000E+00  0.2400E+00
    -14.206  0.0000E+00  0.2400E+00
    -14.128  0.0000E+00  0.2400E+00
    -14.051  0.0000E+00  0.2400E+00
    -13.974  0.0000E+00  0.2400E+00
    -13.897  0.0000E+00  0.2400E+00
    -13.819  0.0000E+00  0.2400E+00
    -13.742  0.0000E+00  0.2400E+00
    -13.665  0.0000E+00  0.2400E+00
    -13.587  0.0000E+00  0.2400E+00
    -13.510  0.0000E+00  0.2400E+00
    -13.433  0.0000E+00  0.2400E+00
    -13.355  0.0000E+00  0.2400E+00
    -13.278  0.0000E+00  0.2400E+00
    -13.201  0.0000E+00  0.2400E+00
    -13.123  0.0000E+00  0.2400E+00
    -13.046  0.0000E+00  0.2400E+00
    -12.969  0.0000E+00  0.2400E+00
    -12.891  0.0000E+00  0.2400E+00
    -12.814  0.0000E+00  0.2400E+00
    -12.737  0.0000E+00  0.2400E+00
    -12.659  0.0000E+00  0.2400E+00
    -12.582  0.0000E+00  0.2400E+00
    -12.505  0.0000E+00  0.2400E+00
    -12.427  0.0000E+00  0.2400E+00
    -12.350  0.0000E+00  0.2400E+00
    -12.273  0.0000E+00  0.2400E+00
    -12.195  0.0000E+00  0.2400E+00
    -12.118  0.0000E+00  0.2400E+00
    -12.041  0.0000E+00  0.2400E+00
    -11.963  0.0000E+00  0.2400E+00
    -11.886  0.0000E+00  0.2400E+00
    -11.809  0.0000E+00  0.2400E+00
    -11.731  0.0000E+00  0.2400E+00
    -11.654  0.0000E+00  0.2400E+00
    -11.577  0.0000E+00  0.2400E+00
    -11.499  0.0000E+00  0.2400E+00
    -11.422  0.0000E+00  0.2400E+00
    -11.345  0.0000E+00  0.2400E+00
    -11.267  0.0000E+00  0.2400E+00
    -11.190  0.0000E+00  0.2400E+00
    -11.113  0.0000E+00  0.2400E+00
    -11.035  0.0000E+00  0.2400E+00
    -10.958  0.0000E+00  0.2400E+00
    -10.881  0.0000E+00  0.2400E+00
    -10.803  0.0000E+00  0.2400E+00
    -10.726  0.0000E+00  0.2400E+00
    -10.649  0.0000E+00  0.2400E+00
    -10.571  0.0000E+00  0.2400E+00
    -10.494  0.0000E+00  0.2400E+00
    -10.417  0.0000E+00  0.2400E+00
    -10.339  0.0000E+00  0.2400E+00
    -10.262  0.0000E+00  0.2400E+00
    -10.185  0.0000E+00  0.2400E+00
    -10.107  0.0000E+00  0.2400E+00
    -10.030  0.0000E+00  0.2400E+00
     -9.953  0.0000E+00  0.2400E+00
     -9.875  0.0000E+00  0.2400E+00
     -9.798  0.0000E+00  0.2400E+00
     -9.721  0.0000E+00  0.2400E+00
     -9.643  0.0000E+00  0.2400E+00
     -9.566  0.0000E+00  0.2400E+00
     -9.489  0.0000E+00  0.2400E+00
     -9.411  0.0000E+00  0.2400E+00
     -9.334  0.0000E+00  0.2400E+00
     -9.257  0.0000E+00  0.2400E+00
     -9.179  0.0000E+00  0.2400E+00
     -9.102  0.0000E+00  0.2400E+00
     -9.025  0.0000E+00  0.2400E+00
     -8.947  0.0000E+00  0.2400E+00
     -8.870  0.0000E+00  0.2400E+00
     -8.793  0.0000E+00  0.2400E+00
     -8.715  0.0000E+00  0.2400E+00
     -8.638  0.0000E+00  0.2400E+00
     -8.561  0.0000E+00  0.2400E+00
     -8.483  0.0000E+00  0.2400E+00
     -8.406  0.0000E+00  0.2400E+00
     -8.329  0.0000E+00  0.2400E+00
     -8.251  0.0000E+00  0.2400E+00
     -8.174  0.0000E+00  0.2400E+00
     -8.097  0.0000E+00  0.2400E+00
     -8.019  0.0000E+00  0.2400E+00
     -7.942  0.0000E+00  0.2400E+00
     -7.865  0.0000E+00  0.2400E+00
     -7.787  0.0000E+00  0.2400E+00
     -7.710  0.0000E+00  0.2400E+00
     -7.633  0.0000E+00  0.2400E+00
     -7.555  0.0000E+00  0.2400E+00
     -7.478  0.0000E+00  0.2400E+00
     -7.401  0.0000E+00  0.2400E+00
     -7.323  0.0000E+00  0.2400E+00
     -7.246  0.0000E+00  0.2400E+00
     -7.169  0.0000E+00  0.2400E+00
     -7.091  0.0000E+00  0.2400E+00
     -7.014  0.0000E+00  0.2400E+00
     -6.937  0.0000E+00  0.2400E+00
     -6.859  0.0000E+00  0.2400E+00
     -6.782  0.0000E+00  0.2400E+00
     -6.705  0.0000E+00  0.2400E+00
     -6.627  0.0000E+00  0.2400E+00
     -6.550  0.0000E+00  0.2400E+00
     -6.473  0.0000E+00  0.2400E+00
     -6.395  0.0000E+00  0.2400E+00
     -6.318  0.0000E+00  0.2400E+00
     -6.241  0.0000E+00  0.2400E+00
     -6.163  0.0000E+00  0.2400E+00
     -6.086  0.0000E+00  0.2400E+00
     -6.009  0.0000E+00  0.2400E+00
     -5.931  0.0000E+00  0.2400E+00
     -5.854  0.0000E+00  0.2400E+00
     -5.777  0.0000E+00  0.2400E+00
     -5.699  0.0000E+00  0.2400E+00
     -5.622  0.0000E+00  0.2400E+00
     -5.545  0.0000E+00  0.2400E+00
     -5.467  0.0000E+00  0.2400E+00
     -5.390  0.0000E+00  0.2400E+00
     -5.313  0.0000E+00  0.2400E+00
     -5.235  0.0000E+00  0.2400E+00
     -5.158  0.0000E+00  0.2400E+00
     -5.081  0.0000E+00  0.2400E+00
     -5.003  0.0000E+00  0.2400E+00
     -4.926  0.0000E+00  0.2400E+00
     -4.849  0.0000E+00  0.2400E+00
     -4.771  0.0000E+00  0.2400E+00
     -4.694  0.0000E+00  0.2400E+00
     -4.617  0.0000E+00  0.2400E+00
     -4.539  0.1747E-12  0.2400E+00
     -4.462  0.2312E-07  0.2400E+00
     -4.385  0.3305E-04  0.2400E+00
     -4.307  0.1178E-02  0.2401E+00
     -4.230  0.8049E-02  0.2407E+00
     -4.153  0.1512E-01  0.2419E+00
     -4.075  0.2321E-01  0.2437E+00
     -3.998  0.3542E-01  0.2464E+00
     -3.921  0.3598E-01  0.2492E+00
     -3.843  0.3732E-01  0.2521E+00
     -3.766  0.4179E-01  0.2553E+00
     -3.689  0.5333E-01  0.2594E+00
     -3.611  0.7043E-01  0.2649E+00
     -3.534  0.9255E-01  0.2720E+00
     -3.457  0.1233E+00  0.2816E+00
     -3.379  0.1468E+00  0.2929E+00
     -3.302  0.1722E+00  0.3063E+00
     -3.225  0.2007E+00  0.3218E+00
     -3.147  0.1979E+00  0.3371E+00
     -3.070  0.1804E+00  0.3510E+00
     -2.993  0.2044E+00  0.3668E+00
     -2.915  0.2030E+00  0.3825E+00
     -2.838  0.2121E+00  0.3989E+00
     -2.761  0.2422E+00  0.4177E+00
     -2.683  0.2466E+00  0.4367E+00
     -2.606  0.2647E+00  0.4572E+00
     -2.529  0.2965E+00  0.4801E+00
     -2.451  0.2959E+00  0.5030E+00
     -2.374  0.2271E+00  0.5206E+00
     -2.297  0.1678E+00  0.5335E+00
     -2.219  0.1499E+00  0.5451E+00
     -2.142  0.1534E+00  0.5570E+00
     -2.065  0.1210E+00  0.5663E+00
     -1.987  0.1130E+00  0.5751E+00
     -1.910  0.1229E+00  0.5846E+00
     -1.833  0.1238E+00  0.5942E+00
     -1.755  0.1383E+00  0.6049E+00
     -1.678  0.1299E+00  0.6149E+00
     -1.601  0.1430E+00  0.6260E+00
     -1.523  0.1331E+00  0.6362E+00
     -1.446  0.1507E+00  0.6479E+00
     -1.369  0.1748E+00  0.6614E+00
     -1.291  0.1788E+00  0.6752E+00
     -1.214  0.1815E+00  0.6893E+00
     -1.137  0.1915E+00  0.7041E+00
     -1.059  0.1908E+00  0.7188E+00
     -0.982  0.1910E+00  0.7336E+00
     -0.905  0.1894E+00  0.7483E+00
     -0.827  0.1938E+00  0.7632E+00
     -0.750  0.1711E+00  0.7765E+00
     -0.673  0.1735E+00  0.7899E+00
     -0.595  0.1755E+00  0.8035E+00
     -0.518  0.2019E+00  0.8191E+00
     -0.441  0.2236E+00  0.8364E+00
     -0.363  0.2404E+00  0.8550E+00
     -0.286  0.2136E+00  0.8715E+00
     -0.209  0.1828E+00  0.8856E+00
     -0.131  0.1483E+00  0.8971E+00
     -0.054  0.1540E+00  0.9090E+00
      0.023  0.1653E+00  0.9218E+00
      0.101  0.1683E+00  0.9348E+00
      0.178  0.1801E+00  0.9487E+00
      0.255  0.1209E+00  0.9581E+00
      0.333  0.2422E-01  0.9599E+00
      0.410  0.7735E-03  0.9600E+00
      0.487  0.9024E-06  0.9600E+00
      0.565  0.1443E-10  0.9600E+00
      0.642  0.2127E-17  0.9600E+00
      0.719  0.0000E+00  0.9600E+00
      0.797  0.0000E+00  0.9600E+00
      0.874  0.0000E+00  0.9600E+00
      0.951  0.0000E+00  0.9600E+00
      1.029  0.0000E+00  0.9600E+00
      1.106  0.0000E+00  0.9600E+00
      1.183  0.0000E+00  0.9600E+00
      1.261  0.0000E+00  0.9600E+00
      1.338  0.0000E+00  0.9600E+00
      1.415  0.0000E+00  0.9600E+00
      1.493  0.0000E+00  0.9600E+00
      1.570  0.0000E+00  0.9600E+00
      1.647  0.0000E+00  0.9600E+00
      1.725  0.0000E+00  0.9600E+00
      1.802  0.0000E+00  0.9600E+00
      1.879  0.0000E+00  0.9600E+00
      1.957  0.0000E+00  0.9600E+00
      2.034  0.0000E+00  0.9600E+00
      2.111  0.0000E+00  0.9600E+00
      2.189  0.0000E+00  0.9600E+00
      2.266  0.0000E+00  0.9600E+00
      2.343  0.0000E+00  0.9600E+00
      2.421  0.0000E+00  0.9600E+00
      2.498  0.1063E-17  0.9600E+00
      2.575  0.4676E-11  0.9600E+00
      2.653  0.2022E-06  0.9600E+00
      2.730  0.1035E-03  0.9600E+00
      2.807  0.2231E-02  0.9602E+00
      2.885  0.1194E-01  0.9611E+00
      2.962  0.3038E-01  0.9635E+00
      3.039  0.5781E-01  0.9679E+00
      3.117  0.9282E-01  0.9751E+00
      3.194  0.1116E+00  0.9837E+00
      3.271  0.1111E+00  0.9923E+00
      3.349  0.1029E+00  0.1000E+01
      3.426  0.1135E+00  0.1009E+01
      3.503  0.1228E+00  0.1019E+01
      3.581  0.1486E+00  0.1030E+01
      3.658  0.2371E+00  0.1048E+01
      3.735  0.2852E+00  0.1070E+01
      3.813  0.2707E+00  0.1091E+01
      3.890  0.2955E+00  0.1114E+01
      3.967  0.3010E+00  0.1137E+01
      4.045  0.3316E+00  0.1163E+01
      4.122  0.3528E+00  0.1190E+01
      4.199  0.1206E+00  0.1200E+01
      4.277  0.3457E-02  0.1200E+01
      4.354  0.2640E-05  0.1200E+01
      4.431  0.2875E-10  0.1200E+01
      4.508  0.2393E-17  0.1200E+01
      4.586  0.0000E+00  0.1200E+01
      4.663  0.0000E+00  0.1200E+01
      4.740  0.0000E+00  0.1200E+01
      4.818  0.0000E+00  0.1200E+01
      4.895  0.0000E+00  0.1200E+01
      4.972  0.0000E+00  0.1200E+01
      5.050  0.0000E+00  0.1200E+01
      5.127  0.0000E+00  0.1200E+01
      5.204  0.0000E+00  0.1200E+01
