  49  49   0   0
  0.1994796E+02  0.8787646E-09  0.8787646E-09  0.1265755E-08  0.5000000E-15
   1.0000000000000000E-004
  CAR 
 Li10Ge(PS6)2 Full Structural Relaxation 
      8.13163709    -14.40917460  301      1.47914818      1.00000000
    -14.409  0.0000E+00  0.0000E+00
    -14.334  0.0000E+00  0.0000E+00
    -14.259  0.0000E+00  0.0000E+00
    -14.184  0.0000E+00  0.0000E+00
    -14.109  0.0000E+00  0.0000E+00
    -14.033  0.0000E+00  0.0000E+00
    -13.958  0.0000E+00  0.0000E+00
    -13.883  0.0000E+00  0.0000E+00
    -13.808  0.0000E+00  0.0000E+00
    -13.733  0.0000E+00  0.0000E+00
    -13.658  0.6557E-16  0.4927E-17
    -13.583  0.2054E-09  0.1543E-10
    -13.508  0.8922E-05  0.6704E-06
    -13.432  0.6571E-02  0.4944E-03
    -13.357  0.1294E+00  0.1022E-01
    -13.282  0.1290E+00  0.1991E-01
    -13.207  0.1206E+00  0.2897E-01
    -13.132  0.1384E+00  0.3938E-01
    -13.057  0.8279E-02  0.4000E-01
    -12.982  0.1341E-04  0.4000E-01
    -12.906  0.3650E-09  0.4000E-01
    -12.831  0.1311E-15  0.4000E-01
    -12.756  0.0000E+00  0.4000E-01
    -12.681  0.0000E+00  0.4000E-01
    -12.606  0.0000E+00  0.4000E-01
    -12.531  0.0000E+00  0.4000E-01
    -12.456  0.0000E+00  0.4000E-01
    -12.381  0.0000E+00  0.4000E-01
    -12.305  0.0000E+00  0.4000E-01
    -12.230  0.0000E+00  0.4000E-01
    -12.155  0.0000E+00  0.4000E-01
    -12.080  0.0000E+00  0.4000E-01
    -12.005  0.0000E+00  0.4000E-01
    -11.930  0.0000E+00  0.4000E-01
    -11.855  0.0000E+00  0.4000E-01
    -11.779  0.0000E+00  0.4000E-01
    -11.704  0.0000E+00  0.4000E-01
    -11.629  0.0000E+00  0.4000E-01
    -11.554  0.0000E+00  0.4000E-01
    -11.479  0.5031E-14  0.4000E-01
    -11.404  0.4279E-08  0.4000E-01
    -11.329  0.5533E-04  0.4000E-01
    -11.253  0.1391E-01  0.4105E-01
    -11.178  0.1312E+00  0.5091E-01
    -11.103  0.1129E+00  0.5939E-01
    -11.028  0.8076E-02  0.6000E-01
    -10.953  0.1861E-04  0.6000E-01
    -10.878  0.7485E-09  0.6000E-01
    -10.803  0.1346E-14  0.6000E-01
    -10.728  0.9760E-09  0.6000E-01
    -10.652  0.1584E-04  0.6000E-01
    -10.577  0.5590E-02  0.6042E-01
    -10.502  0.8565E-01  0.6686E-01
    -10.427  0.2586E+00  0.8628E-01
    -10.352  0.3350E+00  0.1115E+00
    -10.277  0.3256E+00  0.1359E+00
    -10.202  0.3599E+00  0.1630E+00
    -10.126  0.2070E+00  0.1785E+00
    -10.051  0.1987E-01  0.1800E+00
     -9.976  0.6776E-04  0.1800E+00
     -9.901  0.1110E-04  0.1800E+00
     -9.826  0.6439E-02  0.1805E+00
     -9.751  0.1001E+00  0.1880E+00
     -9.676  0.1902E+00  0.2023E+00
     -9.600  0.2255E+00  0.2192E+00
     -9.525  0.2193E+00  0.2357E+00
     -9.450  0.5620E-01  0.2399E+00
     -9.375  0.7548E-03  0.2400E+00
     -9.300  0.2001E-06  0.2400E+00
     -9.225  0.7278E-12  0.2400E+00
     -9.150  0.0000E+00  0.2400E+00
     -9.075  0.0000E+00  0.2400E+00
     -8.999  0.0000E+00  0.2400E+00
     -8.924  0.0000E+00  0.2400E+00
     -8.849  0.0000E+00  0.2400E+00
     -8.774  0.0000E+00  0.2400E+00
     -8.699  0.0000E+00  0.2400E+00
     -8.624  0.0000E+00  0.2400E+00
     -8.549  0.0000E+00  0.2400E+00
     -8.473  0.0000E+00  0.2400E+00
     -8.398  0.0000E+00  0.2400E+00
     -8.323  0.0000E+00  0.2400E+00
     -8.248  0.0000E+00  0.2400E+00
     -8.173  0.0000E+00  0.2400E+00
     -8.098  0.0000E+00  0.2400E+00
     -8.023  0.0000E+00  0.2400E+00
     -7.947  0.0000E+00  0.2400E+00
     -7.872  0.0000E+00  0.2400E+00
     -7.797  0.0000E+00  0.2400E+00
     -7.722  0.0000E+00  0.2400E+00
     -7.647  0.0000E+00  0.2400E+00
     -7.572  0.0000E+00  0.2400E+00
     -7.497  0.0000E+00  0.2400E+00
     -7.422  0.0000E+00  0.2400E+00
     -7.346  0.0000E+00  0.2400E+00
     -7.271  0.0000E+00  0.2400E+00
     -7.196  0.0000E+00  0.2400E+00
     -7.121  0.0000E+00  0.2400E+00
     -7.046  0.0000E+00  0.2400E+00
     -6.971  0.0000E+00  0.2400E+00
     -6.896  0.0000E+00  0.2400E+00
     -6.820  0.0000E+00  0.2400E+00
     -6.745  0.0000E+00  0.2400E+00
     -6.670  0.0000E+00  0.2400E+00
     -6.595  0.0000E+00  0.2400E+00
     -6.520  0.3927E-13  0.2400E+00
     -6.445  0.8963E-08  0.2400E+00
     -6.370  0.3376E-04  0.2400E+00
     -6.294  0.4088E-02  0.2403E+00
     -6.219  0.4449E-01  0.2437E+00
     -6.144  0.7229E-01  0.2491E+00
     -6.069  0.6706E-01  0.2541E+00
     -5.994  0.1279E+00  0.2637E+00
     -5.919  0.1415E+00  0.2744E+00
     -5.844  0.6875E-01  0.2795E+00
     -5.769  0.6154E-02  0.2800E+00
     -5.693  0.3945E-04  0.2800E+00
     -5.618  0.8228E-08  0.2800E+00
     -5.543  0.3080E-13  0.2800E+00
     -5.468  0.0000E+00  0.2800E+00
     -5.393  0.0000E+00  0.2800E+00
     -5.318  0.7466E-13  0.2800E+00
     -5.243  0.2847E-07  0.2800E+00
     -5.167  0.1437E-03  0.2800E+00
     -5.092  0.1288E-01  0.2810E+00
     -5.017  0.6627E-01  0.2860E+00
     -4.942  0.5464E-01  0.2901E+00
     -4.867  0.5791E-01  0.2944E+00
     -4.792  0.6229E-01  0.2991E+00
     -4.717  0.1192E-01  0.3000E+00
     -4.641  0.1242E-03  0.3000E+00
     -4.566  0.2246E-07  0.3000E+00
     -4.491  0.5402E-13  0.3000E+00
     -4.416  0.0000E+00  0.3000E+00
     -4.341  0.0000E+00  0.3000E+00
     -4.266  0.0000E+00  0.3000E+00
     -4.191  0.0000E+00  0.3000E+00
     -4.116  0.0000E+00  0.3000E+00
     -4.040  0.0000E+00  0.3000E+00
     -3.965  0.0000E+00  0.3000E+00
     -3.890  0.0000E+00  0.3000E+00
     -3.815  0.0000E+00  0.3000E+00
     -3.740  0.0000E+00  0.3000E+00
     -3.665  0.3078E-18  0.3000E+00
     -3.590  0.1995E-11  0.3000E+00
     -3.514  0.2344E-06  0.3000E+00
     -3.439  0.4966E-03  0.3000E+00
     -3.364  0.3203E-01  0.3024E+00
     -3.289  0.1401E+00  0.3130E+00
     -3.214  0.8909E-01  0.3197E+00
     -3.139  0.6999E-01  0.3249E+00
     -3.064  0.1761E+00  0.3381E+00
     -2.988  0.2578E+00  0.3575E+00
     -2.913  0.2578E+00  0.3769E+00
     -2.838  0.2258E+00  0.3939E+00
     -2.763  0.1782E+00  0.4072E+00
     -2.688  0.1408E+00  0.4178E+00
     -2.613  0.2875E-01  0.4200E+00
     -2.538  0.2787E-03  0.4200E+00
     -2.463  0.5412E-07  0.4200E+00
     -2.387  0.1597E-12  0.4200E+00
     -2.312  0.0000E+00  0.4200E+00
     -2.237  0.5392E-14  0.4200E+00
     -2.162  0.2808E-08  0.4200E+00
     -2.087  0.2544E-04  0.4200E+00
     -2.012  0.6352E-02  0.4205E+00
     -1.937  0.8031E-01  0.4265E+00
     -1.861  0.1310E+00  0.4364E+00
     -1.786  0.4709E-01  0.4399E+00
     -1.711  0.1423E-02  0.4400E+00
     -1.636  0.8124E-02  0.4406E+00
     -1.561  0.1130E+00  0.4491E+00
     -1.486  0.1962E+00  0.4638E+00
     -1.411  0.1383E+00  0.4742E+00
     -1.336  0.9164E-01  0.4811E+00
     -1.260  0.3841E-01  0.4840E+00
     -1.185  0.3664E-01  0.4868E+00
     -1.110  0.4798E-01  0.4904E+00
     -1.035  0.5433E-01  0.4945E+00
     -0.960  0.8365E-01  0.5007E+00
     -0.885  0.1324E+00  0.5107E+00
     -0.810  0.1404E+00  0.5212E+00
     -0.734  0.1524E+00  0.5327E+00
     -0.659  0.1771E+00  0.5460E+00
     -0.584  0.1728E+00  0.5590E+00
     -0.509  0.1917E+00  0.5734E+00
     -0.434  0.1536E+00  0.5849E+00
     -0.359  0.1614E+00  0.5970E+00
     -0.284  0.1585E+00  0.6089E+00
     -0.208  0.1470E+00  0.6200E+00
     -0.133  0.1389E+00  0.6304E+00
     -0.058  0.1870E+00  0.6445E+00
      0.017  0.1986E+00  0.6594E+00
      0.092  0.1972E+00  0.6742E+00
      0.167  0.1667E+00  0.6867E+00
      0.242  0.1650E+00  0.6991E+00
      0.317  0.2374E+00  0.7170E+00
      0.393  0.2464E+00  0.7355E+00
      0.468  0.2371E+00  0.7533E+00
      0.543  0.2188E+00  0.7697E+00
      0.618  0.2034E+00  0.7850E+00
      0.693  0.1898E+00  0.7993E+00
      0.768  0.2069E+00  0.8148E+00
      0.843  0.2107E+00  0.8307E+00
      0.919  0.2336E+00  0.8482E+00
      0.994  0.2531E+00  0.8672E+00
      1.069  0.1544E+00  0.8788E+00
      1.144  0.1569E+00  0.8906E+00
      1.219  0.2192E+00  0.9071E+00
      1.294  0.2121E+00  0.9230E+00
      1.369  0.1795E+00  0.9365E+00
      1.445  0.1689E+00  0.9492E+00
      1.520  0.1290E+00  0.9589E+00
      1.595  0.1457E-01  0.9600E+00
      1.670  0.8389E-04  0.9600E+00
      1.745  0.1166E-07  0.9600E+00
      1.820  0.2573E-13  0.9600E+00
      1.895  0.0000E+00  0.9600E+00
      1.970  0.0000E+00  0.9600E+00
      2.046  0.0000E+00  0.9600E+00
      2.121  0.0000E+00  0.9600E+00
      2.196  0.0000E+00  0.9600E+00
      2.271  0.0000E+00  0.9600E+00
      2.346  0.0000E+00  0.9600E+00
      2.421  0.0000E+00  0.9600E+00
      2.496  0.0000E+00  0.9600E+00
      2.572  0.0000E+00  0.9600E+00
      2.647  0.0000E+00  0.9600E+00
      2.722  0.0000E+00  0.9600E+00
      2.797  0.0000E+00  0.9600E+00
      2.872  0.0000E+00  0.9600E+00
      2.947  0.0000E+00  0.9600E+00
      3.022  0.0000E+00  0.9600E+00
      3.098  0.0000E+00  0.9600E+00
      3.173  0.0000E+00  0.9600E+00
      3.248  0.0000E+00  0.9600E+00
      3.323  0.0000E+00  0.9600E+00
      3.398  0.0000E+00  0.9600E+00
      3.473  0.3566E-14  0.9600E+00
      3.548  0.1515E-08  0.9600E+00
      3.623  0.8286E-05  0.9600E+00
      3.699  0.7303E-03  0.9601E+00
      3.774  0.1850E-02  0.9602E+00
      3.849  0.4188E-03  0.9602E+00
      3.924  0.7463E-02  0.9608E+00
      3.999  0.8761E-02  0.9614E+00
      4.074  0.8761E-02  0.9621E+00
      4.149  0.2150E-01  0.9637E+00
      4.225  0.9607E-02  0.9644E+00
      4.300  0.2082E-01  0.9660E+00
      4.375  0.1603E-01  0.9672E+00
      4.450  0.2180E-01  0.9688E+00
      4.525  0.4591E-01  0.9723E+00
      4.600  0.6786E-01  0.9774E+00
      4.675  0.1012E+00  0.9850E+00
      4.751  0.9656E-01  0.9923E+00
      4.826  0.5312E-01  0.9962E+00
      4.901  0.4496E-01  0.9996E+00
      4.976  0.7207E-01  0.1005E+01
      5.051  0.1081E+00  0.1013E+01
      5.126  0.6689E-01  0.1018E+01
      5.201  0.2600E-01  0.1020E+01
      5.276  0.2748E-01  0.1022E+01
      5.352  0.6339E-01  0.1027E+01
      5.427  0.8537E-01  0.1033E+01
      5.502  0.6352E-01  0.1038E+01
      5.577  0.4917E-01  0.1042E+01
      5.652  0.6248E-01  0.1047E+01
      5.727  0.5947E-01  0.1051E+01
      5.802  0.1122E+00  0.1059E+01
      5.878  0.1104E+00  0.1068E+01
      5.953  0.1379E+00  0.1078E+01
      6.028  0.1630E+00  0.1090E+01
      6.103  0.1874E+00  0.1104E+01
      6.178  0.1649E+00  0.1117E+01
      6.253  0.1368E+00  0.1127E+01
      6.328  0.1344E+00  0.1137E+01
      6.404  0.7333E-01  0.1143E+01
      6.479  0.6138E-01  0.1147E+01
      6.554  0.9234E-01  0.1154E+01
      6.629  0.9716E-01  0.1162E+01
      6.704  0.1026E+00  0.1169E+01
      6.779  0.9425E-01  0.1176E+01
      6.854  0.7019E-01  0.1182E+01
      6.929  0.8484E-01  0.1188E+01
      7.005  0.9009E-01  0.1195E+01
      7.080  0.5428E-01  0.1199E+01
      7.155  0.1452E-01  0.1200E+01
      7.230  0.8749E-03  0.1200E+01
      7.305  0.2005E-05  0.1200E+01
      7.380  0.7366E-10  0.1200E+01
      7.455  0.3509E-16  0.1200E+01
      7.531  0.0000E+00  0.1200E+01
      7.606  0.0000E+00  0.1200E+01
      7.681  0.0000E+00  0.1200E+01
      7.756  0.0000E+00  0.1200E+01
      7.831  0.0000E+00  0.1200E+01
      7.906  0.0000E+00  0.1200E+01
      7.981  0.0000E+00  0.1200E+01
      8.057  0.0000E+00  0.1200E+01
      8.132  0.0000E+00  0.1200E+01
