       N       E                     dE             d eps       ncg     rms          rms(c)
DAV:   1     0.103163526078E+04    0.10316E+04   -0.75338E+04  6240   0.132E+03
DAV:   2    -0.958370505914E+02   -0.11275E+04   -0.10908E+04  8160   0.219E+02
DAV:   3    -0.212968275452E+03   -0.11713E+03   -0.11609E+03  7432   0.773E+01
DAV:   4    -0.216496162568E+03   -0.35279E+01   -0.35079E+01  8024   0.151E+01
DAV:   5    -0.216594884479E+03   -0.98722E-01   -0.98519E-01  7472   0.252E+00    0.352E+01
DAV:   6    -0.210679102062E+03    0.59158E+01   -0.12695E+01  7240   0.729E+00    0.251E+01
DAV:   7    -0.210346457509E+03    0.33264E+00   -0.10091E+01  7312   0.647E+00    0.574E+00
DAV:   8    -0.210097979270E+03    0.24848E+00   -0.27332E+00  7344   0.338E+00    0.363E+00
DAV:   9    -0.210078805406E+03    0.19174E-01   -0.79579E-01  7360   0.158E+00    0.234E+00
DAV:  10    -0.210084504646E+03   -0.56992E-02   -0.67383E-01  7872   0.114E+00    0.136E+00
DAV:  11    -0.210077164231E+03    0.73404E-02   -0.97602E-02  7304   0.587E-01    0.626E-01
DAV:  12    -0.210078541520E+03   -0.13773E-02   -0.43231E-02  8128   0.345E-01    0.396E-01
DAV:  13    -0.210079181433E+03   -0.63991E-03   -0.14621E-02  7632   0.202E-01    0.233E-01
DAV:  14    -0.210080046504E+03   -0.86507E-03   -0.36380E-03  6800   0.123E-01    0.946E-02
DAV:  15    -0.210080538494E+03   -0.49199E-03   -0.79937E-04  7320   0.728E-02    0.645E-02
DAV:  16    -0.210080621527E+03   -0.83033E-04   -0.87397E-05  7224   0.245E-02    0.342E-02
DAV:  17    -0.210080652313E+03   -0.30786E-04   -0.30134E-05  6856   0.147E-02    0.194E-02
DAV:  18    -0.210080658691E+03   -0.63785E-05   -0.12508E-05  7352   0.804E-03    0.881E-03
DAV:  19    -0.210080662846E+03   -0.41546E-05   -0.11565E-05  6568   0.733E-03    0.585E-03
DAV:  20    -0.210080663334E+03   -0.48805E-06   -0.90425E-07  4752   0.258E-03
   1 F= -.21008066E+03 E0= -.21006583E+03  d E =-.210081E+03
       N       E                     dE             d eps       ncg     rms          rms(c)
DAV:   1    -0.210109633994E+03   -0.28971E-01   -0.35909E+00  6320   0.433E+00    0.263E+00
DAV:   2    -0.210135131347E+03   -0.25497E-01   -0.31728E-01  7352   0.135E+00    0.644E-01
DAV:   3    -0.210132126285E+03    0.30051E-02   -0.10335E-02  7504   0.276E-01    0.352E-01
DAV:   4    -0.210131086636E+03    0.10396E-02   -0.42648E-03  7248   0.146E-01    0.156E-01
DAV:   5    -0.210131045624E+03    0.41012E-04   -0.71802E-04  7744   0.644E-02    0.176E-01
DAV:   6    -0.210131064429E+03   -0.18805E-04   -0.21419E-04  7832   0.294E-02    0.110E-01
DAV:   7    -0.210131040134E+03    0.24296E-04   -0.16312E-04  7496   0.229E-02    0.801E-02
DAV:   8    -0.210131027167E+03    0.12966E-04   -0.11435E-04  7120   0.208E-02    0.316E-02
DAV:   9    -0.210131027961E+03   -0.79378E-06   -0.18644E-05  7256   0.102E-02    0.175E-02
DAV:  10    -0.210131028062E+03   -0.10087E-06   -0.14011E-06  3752   0.276E-03
   2 F= -.21013103E+03 E0= -.21011617E+03  d E =-.503647E-01
       N       E                     dE             d eps       ncg     rms          rms(c)
DAV:   1    -0.210131132438E+03   -0.10448E-03   -0.10893E-02  6576   0.240E-01    0.142E-01
DAV:   2    -0.210131211737E+03   -0.79299E-04   -0.98976E-04  7336   0.751E-02    0.349E-02
DAV:   3    -0.210131202271E+03    0.94656E-05   -0.32851E-05  7472   0.155E-02    0.199E-02
DAV:   4    -0.210131199727E+03    0.25444E-05   -0.13614E-05  7200   0.811E-03    0.102E-02
DAV:   5    -0.210131199997E+03   -0.27049E-06   -0.29051E-06  4704   0.383E-03
   3 F= -.21013120E+03 E0= -.21011634E+03  d E =-.505367E-01
       N       E                     dE             d eps       ncg     rms          rms(c)
DAV:   1    -0.210155153682E+03   -0.23954E-01   -0.15452E+00  6320   0.261E+00    0.106E+00
DAV:   2    -0.210163179212E+03   -0.80255E-02   -0.11090E-01  7536   0.773E-01    0.419E-01
DAV:   3    -0.210162198467E+03    0.98074E-03   -0.45726E-03  7424   0.164E-01    0.289E-01
DAV:   4    -0.210161847449E+03    0.35102E-03   -0.14788E-03  7296   0.761E-02    0.196E-01
DAV:   5    -0.210161616826E+03    0.23062E-03   -0.13153E-03  7352   0.751E-02    0.751E-02
DAV:   6    -0.210161625982E+03   -0.91566E-05   -0.26026E-04  7296   0.365E-02    0.442E-02
DAV:   7    -0.210161628407E+03   -0.24241E-05   -0.20184E-05  7832   0.103E-02    0.335E-02
DAV:   8    -0.210161624635E+03    0.37711E-05   -0.21669E-05  7112   0.907E-03    0.200E-02
DAV:   9    -0.210161624329E+03    0.30656E-06   -0.10393E-05  6792   0.648E-03    0.919E-03
DAV:  10    -0.210161624319E+03    0.10136E-07   -0.13434E-06  4160   0.293E-03
   4 F= -.21016162E+03 E0= -.21014665E+03  d E =-.304243E-01
       N       E                     dE             d eps       ncg     rms          rms(c)
DAV:   1    -0.210161691600E+03   -0.67271E-04   -0.47441E+00  6280   0.459E+00    0.194E+00
DAV:   2    -0.210186450513E+03   -0.24759E-01   -0.33690E-01  7520   0.137E+00    0.743E-01
DAV:   3    -0.210183582174E+03    0.28683E-02   -0.10384E-02  7456   0.275E-01    0.529E-01
DAV:   4    -0.210182323525E+03    0.12586E-02   -0.33977E-03  7312   0.130E-01    0.334E-01
DAV:   5    -0.210181859228E+03    0.46430E-03   -0.22262E-03  7376   0.103E-01    0.120E-01
DAV:   6    -0.210181875287E+03   -0.16059E-04   -0.48455E-04  7416   0.503E-02    0.773E-02
DAV:   7    -0.210181878670E+03   -0.33830E-05   -0.43963E-05  7376   0.159E-02    0.562E-02
DAV:   8    -0.210181867605E+03    0.11065E-04   -0.61321E-05  7096   0.170E-02    0.287E-02
DAV:   9    -0.210181868249E+03   -0.64441E-06   -0.26026E-05  7464   0.105E-02    0.138E-02
DAV:  10    -0.210181867910E+03    0.33896E-06   -0.32663E-06  5416   0.447E-03
   5 F= -.21018187E+03 E0= -.21016674E+03  d E =-.506679E-01
       N       E                     dE             d eps       ncg     rms          rms(c)
DAV:   1    -0.210196219699E+03   -0.14351E-01   -0.12945E+00  6240   0.238E+00    0.900E-01
DAV:   2    -0.210203590370E+03   -0.73707E-02   -0.90101E-02  7440   0.704E-01    0.358E-01
DAV:   3    -0.210202984710E+03    0.60566E-03   -0.23956E-03  7320   0.134E-01    0.237E-01
DAV:   4    -0.210202646501E+03    0.33821E-03   -0.10553E-03  7312   0.729E-02    0.133E-01
DAV:   5    -0.210202632963E+03    0.13538E-04   -0.40429E-04  7648   0.421E-02    0.564E-02
DAV:   6    -0.210202638481E+03   -0.55178E-05   -0.41143E-05  7536   0.149E-02    0.451E-02
DAV:   7    -0.210202638513E+03   -0.32279E-07   -0.93755E-06  7416   0.682E-03
   6 F= -.21020264E+03 E0= -.21018745E+03  d E =-.207706E-01
       N       E                     dE             d eps       ncg     rms          rms(c)
DAV:   1    -0.210202491818E+03    0.14666E-03   -0.20565E+00  6240   0.300E+00    0.115E+00
DAV:   2    -0.210214288717E+03   -0.11797E-01   -0.14389E-01  7432   0.891E-01    0.454E-01
DAV:   3    -0.210213334278E+03    0.95444E-03   -0.37219E-03  7312   0.169E-01    0.303E-01
DAV:   4    -0.210212791438E+03    0.54284E-03   -0.16478E-03  7304   0.921E-02    0.167E-01
DAV:   5    -0.210212779426E+03    0.12012E-04   -0.55203E-04  7672   0.504E-02    0.720E-02
DAV:   6    -0.210212786977E+03   -0.75506E-05   -0.50181E-05  7744   0.168E-02    0.549E-02
DAV:   7    -0.210212783817E+03    0.31593E-05   -0.15426E-05  7280   0.951E-03    0.301E-02
DAV:   8    -0.210212781793E+03    0.20241E-05   -0.22038E-05  7360   0.957E-03    0.109E-02
DAV:   9    -0.210212782016E+03   -0.22322E-06   -0.60822E-06  5808   0.533E-03
   7 F= -.21021278E+03 E0= -.21019752E+03  d E =-.309141E-01
       N       E                     dE             d eps       ncg     rms          rms(c)
DAV:   1    -0.210224806739E+03   -0.12025E-01   -0.58179E-01  6240   0.169E+00    0.716E-01
DAV:   2    -0.210228340619E+03   -0.35339E-02   -0.44696E-02  7328   0.519E-01    0.263E-01
DAV:   3    -0.210228016820E+03    0.32380E-03   -0.13811E-03  7336   0.105E-01    0.175E-01
DAV:   4    -0.210227858054E+03    0.15877E-03   -0.48668E-04  7408   0.518E-02    0.106E-01
DAV:   5    -0.210227832449E+03    0.25605E-04   -0.23749E-04  7568   0.345E-02    0.373E-02
DAV:   6    -0.210227833362E+03   -0.91252E-06   -0.35485E-05  7424   0.149E-02    0.334E-02
DAV:   7    -0.210227832036E+03    0.13263E-05   -0.63892E-06  6720   0.608E-03    0.218E-02
DAV:   8    -0.210227830158E+03    0.18776E-05   -0.61725E-06  6200   0.576E-03    0.103E-02
DAV:   9    -0.210227830061E+03    0.96709E-07   -0.24008E-06  4616   0.353E-03
   8 F= -.21022783E+03 E0= -.21021251E+03  d E =-.150480E-01
       N       E                     dE             d eps       ncg     rms          rms(c)
DAV:   1    -0.210229060542E+03   -0.12304E-02   -0.16444E+00  6240   0.283E+00    0.121E+00
DAV:   2    -0.210239061798E+03   -0.10001E-01   -0.12647E-01  7360   0.874E-01    0.444E-01
DAV:   3    -0.210238150242E+03    0.91156E-03   -0.38867E-03  7328   0.176E-01    0.295E-01
DAV:   4    -0.210237704290E+03    0.44595E-03   -0.13383E-03  7408   0.859E-02    0.178E-01
DAV:   5    -0.210237631729E+03    0.72561E-04   -0.64183E-04  7576   0.570E-02    0.603E-02
DAV:   6    -0.210237635212E+03   -0.34831E-05   -0.92299E-05  7432   0.243E-02    0.558E-02
DAV:   7    -0.210237632883E+03    0.23284E-05   -0.16240E-05  7408   0.972E-03    0.366E-02
DAV:   8    -0.210237627884E+03    0.49992E-05   -0.15157E-05  7096   0.917E-03    0.179E-02
DAV:   9    -0.210237627776E+03    0.10842E-06   -0.73268E-06  6664   0.581E-03
   9 F= -.21023763E+03 E0= -.21022222E+03  d E =-.248458E-01
       N       E                     dE             d eps       ncg     rms          rms(c)
DAV:   1    -0.210248300792E+03   -0.10673E-01   -0.29151E-01  6256   0.120E+00    0.464E-01
DAV:   2    -0.210249774147E+03   -0.14734E-02   -0.21680E-02  7408   0.364E-01    0.195E-01
DAV:   3    -0.210249610803E+03    0.16334E-03   -0.72770E-04  7288   0.745E-02    0.127E-01
DAV:   4    -0.210249518195E+03    0.92608E-04   -0.19152E-04  7432   0.328E-02    0.805E-02
DAV:   5    -0.210249490490E+03    0.27705E-04   -0.10393E-04  7424   0.232E-02    0.296E-02
DAV:   6    -0.210249490540E+03   -0.50910E-07   -0.20769E-05  8248   0.108E-02    0.188E-02
DAV:   7    -0.210249490115E+03    0.42509E-06   -0.26809E-06  4024   0.425E-03
  10 F= -.21024949E+03 E0= -.21023405E+03  d E =-.118623E-01
       N       E                     dE             d eps       ncg     rms          rms(c)
DAV:   1    -0.210261028214E+03   -0.11538E-01   -0.26265E+00  6240   0.360E+00    0.142E+00
DAV:   2    -0.210274269357E+03   -0.13241E-01   -0.19461E-01  7384   0.110E+00    0.591E-01
DAV:   3    -0.210272836448E+03    0.14329E-02   -0.63712E-03  7288   0.223E-01    0.381E-01
DAV:   4    -0.210271978284E+03    0.85816E-03   -0.17351E-03  7432   0.996E-02    0.240E-01
DAV:   5    -0.210271755053E+03    0.22323E-03   -0.87155E-04  7432   0.676E-02    0.902E-02
DAV:   6    -0.210271756986E+03   -0.19328E-05   -0.20776E-04  8104   0.336E-02    0.532E-02
DAV:   7    -0.210271753524E+03    0.34621E-05   -0.32970E-05  7280   0.143E-02    0.425E-02
DAV:   8    -0.210271748688E+03    0.48361E-05   -0.21873E-05  7192   0.107E-02    0.225E-02
DAV:   9    -0.210271748874E+03   -0.18680E-06   -0.76153E-06  6560   0.647E-03
  11 F= -.21027175E+03 E0= -.21025620E+03  d E =-.341211E-01
       N       E                     dE             d eps       ncg     rms          rms(c)
DAV:   1    -0.210212156631E+03    0.59592E-01   -0.10476E+01  6240   0.719E+00    0.292E+00
DAV:   2    -0.210264997502E+03   -0.52841E-01   -0.77204E-01  7432   0.219E+00    0.119E+00
DAV:   3    -0.210259223953E+03    0.57735E-02   -0.24986E-02  7288   0.444E-01    0.778E-01
DAV:   4    -0.210255706940E+03    0.35170E-02   -0.72733E-03  7456   0.207E-01    0.486E-01
DAV:   5    -0.210254929202E+03    0.77774E-03   -0.34589E-03  7448   0.134E-01    0.186E-01
DAV:   6    -0.210254927725E+03    0.14774E-05   -0.81151E-04  7808   0.672E-02    0.112E-01
DAV:   7    -0.210254915014E+03    0.12711E-04   -0.12775E-04  7296   0.287E-02    0.824E-02
DAV:   8    -0.210254898207E+03    0.16807E-04   -0.10356E-04  7208   0.232E-02    0.397E-02
DAV:   9    -0.210254900046E+03   -0.18386E-05   -0.26968E-05  7296   0.124E-02    0.241E-02
DAV:  10    -0.210254900243E+03   -0.19736E-06   -0.42320E-06  4944   0.495E-03
  12 F= -.21025490E+03 E0= -.21023914E+03  d E =-.172725E-01
       N       E                     dE             d eps       ncg     rms          rms(c)
DAV:   1    -0.210253718098E+03    0.11819E-02   -0.52669E+00  6240   0.512E+00    0.195E+00
DAV:   2    -0.210280477790E+03   -0.26760E-01   -0.39510E-01  7416   0.155E+00    0.834E-01
DAV:   3    -0.210277559343E+03    0.29184E-02   -0.12880E-02  7296   0.316E-01    0.558E-01
DAV:   4    -0.210275843684E+03    0.17157E-02   -0.34463E-03  7464   0.140E-01    0.356E-01
DAV:   5    -0.210275374450E+03    0.46923E-03   -0.17658E-03  7424   0.968E-02    0.138E-01
DAV:   6    -0.210275376635E+03   -0.21851E-05   -0.46039E-04  7928   0.502E-02    0.791E-02
DAV:   7    -0.210275374004E+03    0.26316E-05   -0.73195E-05  7296   0.215E-02    0.614E-02
DAV:   8    -0.210275364268E+03    0.97360E-05   -0.54415E-05  7120   0.171E-02    0.308E-02
DAV:   9    -0.210275365641E+03   -0.13729E-05   -0.17956E-05  7464   0.985E-03    0.173E-02
DAV:  10    -0.210275365646E+03   -0.54811E-08   -0.27703E-06  3744   0.386E-03
  13 F= -.21027537E+03 E0= -.21025975E+03  d E =-.377379E-01
       N       E                     dE             d eps       ncg     rms          rms(c)
DAV:   1    -0.210289657668E+03   -0.14292E-01   -0.50481E-01  6240   0.157E+00    0.580E-01
DAV:   2    -0.210292040145E+03   -0.23825E-02   -0.37278E-02  7376   0.481E-01    0.252E-01
DAV:   3    -0.210291759352E+03    0.28079E-03   -0.11980E-03  7544   0.958E-02    0.165E-01
DAV:   4    -0.210291586187E+03    0.17317E-03   -0.33148E-04  7472   0.437E-02    0.104E-01
DAV:   5    -0.210291543788E+03    0.42399E-04   -0.13906E-04  7576   0.266E-02    0.396E-02
DAV:   6    -0.210291537437E+03    0.63503E-05   -0.32024E-05  7576   0.135E-02    0.178E-02
DAV:   7    -0.210291536301E+03    0.11367E-05   -0.58525E-06  6928   0.602E-03    0.126E-02
DAV:   8    -0.210291535134E+03    0.11663E-05   -0.22916E-06  3880   0.384E-03    0.618E-03
DAV:   9    -0.210291535027E+03    0.10756E-06   -0.12248E-06  3744   0.274E-03
  14 F= -.21029154E+03 E0= -.21027584E+03  d E =-.161694E-01
       N       E                     dE             d eps       ncg     rms          rms(c)
DAV:   1    -0.210305147698E+03   -0.13613E-01   -0.45398E+00  6240   0.470E+00    0.177E+00
DAV:   2    -0.210326719534E+03   -0.21572E-01   -0.33541E-01  7368   0.145E+00    0.769E-01
DAV:   3    -0.210324150516E+03    0.25690E-02   -0.10899E-02  7512   0.289E-01    0.502E-01
DAV:   4    -0.210322620673E+03    0.15298E-02   -0.30422E-03  7456   0.133E-01    0.315E-01
DAV:   5    -0.210322257944E+03    0.36273E-03   -0.14722E-03  7496   0.864E-02    0.118E-01
DAV:   6    -0.210322232039E+03    0.25905E-04   -0.31564E-04  7528   0.425E-02    0.581E-02
DAV:   7    -0.210322228677E+03    0.33620E-05   -0.59025E-05  7376   0.188E-02    0.381E-02
DAV:   8    -0.210322223761E+03    0.49161E-05   -0.27803E-05  7248   0.126E-02    0.210E-02
DAV:   9    -0.210322223819E+03   -0.57668E-07   -0.87296E-06  6816   0.711E-03
  15 F= -.21032222E+03 E0= -.21030633E+03  d E =-.468582E-01
       N       E                     dE             d eps       ncg     rms          rms(c)
DAV:   1    -0.210227408283E+03    0.94815E-01   -0.18164E+01  6240   0.942E+00    0.371E+00
DAV:   2    -0.210315342538E+03   -0.87934E-01   -0.13547E+00  7384   0.291E+00    0.160E+00
DAV:   3    -0.210304543689E+03    0.10799E-01   -0.44918E-02  7560   0.589E-01    0.106E+00
DAV:   4    -0.210298726080E+03    0.58176E-02   -0.12604E-02  7448   0.267E-01    0.673E-01
DAV:   5    -0.210296927121E+03    0.17990E-02   -0.76872E-03  7464   0.196E-01    0.249E-01
DAV:   6    -0.210296880666E+03    0.46455E-04   -0.18781E-03  7416   0.103E-01    0.131E-01
DAV:   7    -0.210296869777E+03    0.10890E-04   -0.36379E-04  7312   0.455E-02    0.829E-02
DAV:   8    -0.210296848983E+03    0.20794E-04   -0.14129E-04  7208   0.294E-02    0.437E-02
DAV:   9    -0.210296852194E+03   -0.32114E-05   -0.43942E-05  7352   0.160E-02    0.261E-02
DAV:  10    -0.210296851645E+03    0.54867E-06   -0.62210E-06  6072   0.602E-03
  16 F= -.21029685E+03 E0= -.21028078E+03  d E =-.214860E-01
       N       E                     dE             d eps       ncg     rms          rms(c)
DAV:   1    -0.210291176418E+03    0.56758E-02   -0.95665E+00  6240   0.684E+00    0.262E+00
DAV:   2    -0.210336543416E+03   -0.45367E-01   -0.71480E-01  7336   0.211E+00    0.111E+00
DAV:   3    -0.210331097519E+03    0.54459E-02   -0.23715E-02  7600   0.426E-01    0.738E-01
DAV:   4    -0.210328185573E+03    0.29119E-02   -0.58975E-03  7448   0.186E-01    0.491E-01
DAV:   5    -0.210327280241E+03    0.90533E-03   -0.34120E-03  7480   0.132E-01    0.213E-01
DAV:   6    -0.210327247306E+03    0.32935E-04   -0.87073E-04  7424   0.708E-02    0.881E-02
DAV:   7    -0.210327256019E+03   -0.87127E-05   -0.17491E-04  7312   0.318E-02    0.513E-02
DAV:   8    -0.210327257803E+03   -0.17843E-05   -0.56691E-05  7256   0.190E-02    0.268E-02
DAV:   9    -0.210327261728E+03   -0.39251E-05   -0.19995E-05  7280   0.107E-02    0.174E-02
DAV:  10    -0.210327260959E+03    0.76870E-06   -0.20938E-06  3824   0.394E-03
  17 F= -.21032726E+03 E0= -.21031129E+03  d E =-.518953E-01
       N       E                     dE             d eps       ncg     rms          rms(c)
DAV:   1    -0.210339420489E+03   -0.12159E-01   -0.19232E+00  6240   0.312E+00    0.135E+00
DAV:   2    -0.210350858411E+03   -0.11438E-01   -0.15333E-01  7504   0.975E-01    0.485E-01
DAV:   3    -0.210349828870E+03    0.10295E-02   -0.51809E-03  7392   0.198E-01    0.308E-01
DAV:   4    -0.210349203644E+03    0.62523E-03   -0.14244E-03  7560   0.950E-02    0.169E-01
DAV:   5    -0.210349146763E+03    0.56881E-04   -0.44523E-04  7544   0.494E-02    0.829E-02
DAV:   6    -0.210349154281E+03   -0.75173E-05   -0.10943E-04  8096   0.253E-02    0.504E-02
DAV:   7    -0.210349142299E+03    0.11981E-04   -0.51933E-05  6992   0.177E-02    0.405E-02
DAV:   8    -0.210349142327E+03   -0.27982E-07   -0.17148E-05  7760   0.886E-03    0.221E-02
DAV:   9    -0.210349142473E+03   -0.14551E-06   -0.17779E-06  4016   0.356E-03
  18 F= -.21034914E+03 E0= -.21033316E+03  d E =-.218815E-01
       N       E                     dE             d eps       ncg     rms          rms(c)
DAV:   1    -0.210349255713E+03   -0.11339E-03   -0.66226E-01  6248   0.183E+00    0.794E-01
DAV:   2    -0.210353185628E+03   -0.39299E-02   -0.52681E-02  7472   0.572E-01    0.282E-01
DAV:   3    -0.210352835544E+03    0.35008E-03   -0.17978E-03  7392   0.117E-01    0.179E-01
DAV:   4    -0.210352619674E+03    0.21587E-03   -0.49680E-04  7560   0.562E-02    0.988E-02
DAV:   5    -0.210352601368E+03    0.18307E-04   -0.15979E-04  7536   0.296E-02    0.466E-02
DAV:   6    -0.210352604296E+03   -0.29283E-05   -0.35667E-05  8136   0.144E-02    0.298E-02
DAV:   7    -0.210352600490E+03    0.38064E-05   -0.15438E-05  7112   0.960E-03    0.231E-02
DAV:   8    -0.210352600223E+03    0.26647E-06   -0.68324E-06  6800   0.567E-03
  19 F= -.21035260E+03 E0= -.21033662E+03  d E =-.253393E-01
       N       E                     dE             d eps       ncg     rms          rms(c)
DAV:   1    -0.210365645804E+03   -0.13045E-01   -0.18308E+00  6240   0.298E+00    0.110E+00
DAV:   2    -0.210374595559E+03   -0.89498E-02   -0.13728E-01  7328   0.919E-01    0.490E-01
DAV:   3    -0.210373653836E+03    0.94172E-03   -0.41605E-03  7528   0.181E-01    0.321E-01
DAV:   4    -0.210373077068E+03    0.57677E-03   -0.12698E-03  7472   0.868E-02    0.202E-01
DAV:   5    -0.210373003110E+03    0.73958E-04   -0.49416E-04  7632   0.501E-02    0.862E-02
DAV:   6    -0.210373000371E+03    0.27395E-05   -0.12654E-04  7368   0.263E-02    0.389E-02
DAV:   7    -0.210373003295E+03   -0.29240E-05   -0.28333E-05  7280   0.132E-02    0.231E-02
DAV:   8    -0.210373004701E+03   -0.14069E-05   -0.12895E-05  7248   0.867E-03    0.116E-02
DAV:   9    -0.210373005480E+03   -0.77806E-06   -0.31588E-06  4368   0.455E-03
  20 F= -.21037301E+03 E0= -.21035705E+03  d E =-.204053E-01
       N       E                     dE             d eps       ncg     rms          rms(c)
DAV:   1    -0.210372407031E+03    0.59767E-03   -0.21386E+00  6240   0.322E+00    0.119E+00
DAV:   2    -0.210382863108E+03   -0.10456E-01   -0.16031E-01  7328   0.994E-01    0.531E-01
DAV:   3    -0.210381762279E+03    0.11008E-02   -0.48608E-03  7504   0.196E-01    0.348E-01
DAV:   4    -0.210381087972E+03    0.67431E-03   -0.14746E-03  7472   0.938E-02    0.218E-01
DAV:   5    -0.210381001963E+03    0.86009E-04   -0.57752E-04  7640   0.542E-02    0.941E-02
DAV:   6    -0.210380997590E+03    0.43723E-05   -0.14899E-04  7368   0.286E-02    0.423E-02
DAV:   7    -0.210381000953E+03   -0.33626E-05   -0.32664E-05  7280   0.142E-02    0.255E-02
DAV:   8    -0.210381002448E+03   -0.14952E-05   -0.14866E-05  7248   0.937E-03    0.127E-02
DAV:   9    -0.210381003305E+03   -0.85663E-06   -0.35421E-06  4376   0.484E-03
  21 F= -.21038100E+03 E0= -.21036507E+03  d E =-.284031E-01
       N       E                     dE             d eps       ncg     rms          rms(c)
DAV:   1    -0.210389374176E+03   -0.83717E-02   -0.19844E+00  6240   0.317E+00    0.136E+00
DAV:   2    -0.210399573275E+03   -0.10199E-01   -0.15182E-01  7376   0.963E-01    0.481E-01
DAV:   3    -0.210398387591E+03    0.11857E-02   -0.50953E-03  7352   0.202E-01    0.316E-01
DAV:   4    -0.210397855737E+03    0.53185E-03   -0.15335E-03  7496   0.929E-02    0.202E-01
DAV:   5    -0.210397677747E+03    0.17799E-03   -0.95364E-04  7392   0.721E-02    0.862E-02
DAV:   6    -0.210397686775E+03   -0.90276E-05   -0.27172E-04  7280   0.384E-02    0.489E-02
DAV:   7    -0.210397686659E+03    0.11601E-06   -0.30394E-05  7272   0.140E-02    0.327E-02
DAV:   8    -0.210397687366E+03   -0.70661E-06   -0.19901E-05  7296   0.101E-02    0.152E-02
DAV:   9    -0.210397687980E+03   -0.61489E-06   -0.61320E-06  5184   0.606E-03
  22 F= -.21039769E+03 E0= -.21038166E+03  d E =-.166847E-01
       N       E                     dE             d eps       ncg     rms          rms(c)
DAV:   1    -0.210397928041E+03   -0.24068E-03   -0.27155E-01  6288   0.117E+00    0.494E-01
DAV:   2    -0.210399321372E+03   -0.13933E-02   -0.20712E-02  7376   0.356E-01    0.178E-01
DAV:   3    -0.210399159185E+03    0.16219E-03   -0.69224E-04  7360   0.744E-02    0.118E-01
DAV:   4    -0.210399087247E+03    0.71938E-04   -0.20975E-04  7560   0.343E-02    0.754E-02
DAV:   5    -0.210399065208E+03    0.22040E-04   -0.13416E-04  7384   0.270E-02    0.316E-02
DAV:   6    -0.210399068347E+03   -0.31390E-05   -0.37274E-05  7280   0.143E-02    0.181E-02
DAV:   7    -0.210399068785E+03   -0.43851E-06   -0.40603E-06  5872   0.519E-03
  23 F= -.21039907E+03 E0= -.21038302E+03  d E =-.180655E-01
       N       E                     dE             d eps       ncg     rms          rms(c)
DAV:   1    -0.210404259079E+03   -0.51907E-02   -0.23871E+00  6240   0.342E+00    0.118E+00
DAV:   2    -0.210418259152E+03   -0.14000E-01   -0.17201E-01  7368   0.103E+00    0.523E-01
DAV:   3    -0.210417556073E+03    0.70308E-03   -0.43158E-03  7544   0.193E-01    0.350E-01
DAV:   4    -0.210417097116E+03    0.45896E-03   -0.11560E-03  7344   0.812E-02    0.236E-01
DAV:   5    -0.210416986910E+03    0.11021E-03   -0.76491E-04  7544   0.630E-02    0.872E-02
DAV:   6    -0.210417000058E+03   -0.13149E-04   -0.17091E-04  7272   0.307E-02    0.490E-02
DAV:   7    -0.210416999536E+03    0.52222E-06   -0.19033E-05  7520   0.107E-02    0.328E-02
DAV:   8    -0.210416992699E+03    0.68370E-05   -0.23070E-05  6936   0.113E-02    0.152E-02
DAV:   9    -0.210416992916E+03   -0.21693E-06   -0.78515E-06  6344   0.630E-03
  24 F= -.21041699E+03 E0= -.21040084E+03  d E =-.179241E-01
       N       E                     dE             d eps       ncg     rms          rms(c)
DAV:   1    -0.210411907038E+03    0.50857E-02   -0.19910E+00  6240   0.313E+00    0.107E+00
DAV:   2    -0.210423553419E+03   -0.11646E-01   -0.14318E-01  7360   0.940E-01    0.477E-01
DAV:   3    -0.210422977784E+03    0.57564E-03   -0.35842E-03  7544   0.176E-01    0.318E-01
DAV:   4    -0.210422589625E+03    0.38816E-03   -0.95994E-04  7344   0.741E-02    0.214E-01
DAV:   5    -0.210422504586E+03    0.85039E-04   -0.59655E-04  7536   0.556E-02    0.783E-02
DAV:   6    -0.210422514969E+03   -0.10382E-04   -0.12914E-04  7280   0.266E-02    0.442E-02
DAV:   7    -0.210422514318E+03    0.65078E-06   -0.15125E-05  7496   0.965E-03    0.296E-02
DAV:   8    -0.210422508869E+03    0.54490E-05   -0.17620E-05  6880   0.100E-02    0.142E-02
DAV:   9    -0.210422509059E+03   -0.19070E-06   -0.59111E-06  6088   0.546E-03
  25 F= -.21042251E+03 E0= -.21040626E+03  d E =-.234403E-01
       N       E                     dE             d eps       ncg     rms          rms(c)
DAV:   1    -0.210422038065E+03    0.47080E-03   -0.31542E+00  6240   0.400E+00    0.157E+00
DAV:   2    -0.210440287497E+03   -0.18249E-01   -0.24532E-01  7344   0.123E+00    0.627E-01
DAV:   3    -0.210439084748E+03    0.12027E-02   -0.74840E-03  7480   0.248E-01    0.405E-01
DAV:   4    -0.210438402545E+03    0.68220E-03   -0.17794E-03  7384   0.996E-02    0.260E-01
DAV:   5    -0.210438173752E+03    0.22879E-03   -0.11456E-03  7368   0.784E-02    0.107E-01
DAV:   6    -0.210438179707E+03   -0.59547E-05   -0.36472E-04  7288   0.433E-02    0.669E-02
DAV:   7    -0.210438176760E+03    0.29468E-05   -0.43986E-05  7336   0.170E-02    0.481E-02
DAV:   8    -0.210438167473E+03    0.92874E-05   -0.29802E-05  7168   0.126E-02    0.234E-02
DAV:   9    -0.210438166406E+03    0.10669E-05   -0.13468E-05  7200   0.849E-03    0.105E-02
DAV:  10    -0.210438166167E+03    0.23907E-06   -0.26393E-06  4040   0.402E-03
  26 F= -.21043817E+03 E0= -.21042173E+03  d E =-.156571E-01
       N       E                     dE             d eps       ncg     rms          rms(c)
DAV:   1    -0.210437938545E+03    0.22786E-03   -0.15252E-01  6240   0.879E-01    0.342E-01
DAV:   2    -0.210438819478E+03   -0.88093E-03   -0.11828E-02  7344   0.269E-01    0.136E-01
DAV:   3    -0.210438761568E+03    0.57910E-04   -0.36339E-04  7472   0.547E-02    0.876E-02
DAV:   4    -0.210438728635E+03    0.32933E-04   -0.85996E-05  7384   0.219E-02    0.569E-02
DAV:   5    -0.210438715942E+03    0.12693E-04   -0.54330E-05  7376   0.171E-02    0.240E-02
DAV:   6    -0.210438715210E+03    0.73179E-06   -0.18390E-05  7288   0.968E-03    0.145E-02
DAV:   7    -0.210438714699E+03    0.51125E-06   -0.19643E-06  3784   0.386E-03
  27 F= -.21043871E+03 E0= -.21042224E+03  d E =-.162056E-01
       N       E                     dE             d eps       ncg     rms          rms(c)
DAV:   1    -0.210440951581E+03   -0.22364E-02   -0.32321E+00  6240   0.398E+00    0.145E+00
DAV:   2    -0.210457945429E+03   -0.16994E-01   -0.24240E-01  7344   0.122E+00    0.651E-01
DAV:   3    -0.210456601137E+03    0.13443E-02   -0.73228E-03  7400   0.245E-01    0.428E-01
DAV:   4    -0.210455846130E+03    0.75501E-03   -0.16531E-03  7384   0.969E-02    0.288E-01
DAV:   5    -0.210455536580E+03    0.30955E-03   -0.10854E-03  7384   0.763E-02    0.128E-01
DAV:   6    -0.210455524230E+03    0.12349E-04   -0.38898E-04  7304   0.443E-02    0.569E-02
DAV:   7    -0.210455523650E+03    0.58086E-06   -0.50267E-05  7456   0.176E-02    0.375E-02
DAV:   8    -0.210455517109E+03    0.65405E-05   -0.22793E-05  7216   0.113E-02    0.190E-02
DAV:   9    -0.210455516325E+03    0.78437E-06   -0.11027E-05  6984   0.756E-03    0.124E-02
DAV:  10    -0.210455515980E+03    0.34490E-06   -0.23971E-06  3744   0.379E-03
  28 F= -.21045552E+03 E0= -.21043890E+03  d E =-.168013E-01
       N       E                     dE             d eps       ncg     rms          rms(c)
DAV:   1    -0.210450768947E+03    0.47474E-02   -0.20306E+00  6240   0.316E+00    0.115E+00
DAV:   2    -0.210461407958E+03   -0.10639E-01   -0.15206E-01  7336   0.965E-01    0.516E-01
DAV:   3    -0.210460571730E+03    0.83623E-03   -0.46175E-03  7344   0.194E-01    0.336E-01
DAV:   4    -0.210460094731E+03    0.47700E-03   -0.10430E-03  7384   0.772E-02    0.227E-01
DAV:   5    -0.210459903550E+03    0.19118E-03   -0.65610E-04  7376   0.595E-02    0.102E-01
DAV:   6    -0.210459893293E+03    0.10258E-04   -0.24200E-04  7312   0.349E-02    0.448E-02
DAV:   7    -0.210459892717E+03    0.57531E-06   -0.32230E-05  7464   0.141E-02    0.298E-02
DAV:   8    -0.210459888561E+03    0.41562E-05   -0.13775E-05  7192   0.880E-03    0.155E-02
DAV:   9    -0.210459887845E+03    0.71621E-06   -0.67634E-06  5816   0.599E-03
  29 F= -.21045989E+03 E0= -.21044317E+03  d E =-.211731E-01
       N       E                     dE             d eps       ncg     rms          rms(c)
DAV:   1    -0.210451510240E+03    0.83783E-02   -0.44576E+00  6240   0.470E+00    0.181E+00
DAV:   2    -0.210477076520E+03   -0.25566E-01   -0.33893E-01  7344   0.144E+00    0.772E-01
DAV:   3    -0.210475104544E+03    0.19720E-02   -0.98662E-03  7312   0.286E-01    0.504E-01
DAV:   4    -0.210474026671E+03    0.10779E-02   -0.27920E-03  7384   0.126E-01    0.327E-01
DAV:   5    -0.210473698658E+03    0.32801E-03   -0.15953E-03  7336   0.920E-02    0.132E-01
DAV:   6    -0.210473706472E+03   -0.78139E-05   -0.45804E-04  7296   0.492E-02    0.789E-02
DAV:   7    -0.210473708351E+03   -0.18792E-05   -0.58240E-05  7488   0.185E-02    0.514E-02
DAV:   8    -0.210473693773E+03    0.14578E-04   -0.52859E-05  7224   0.167E-02    0.255E-02
DAV:   9    -0.210473693373E+03    0.40007E-06   -0.19485E-05  7272   0.100E-02    0.158E-02
DAV:  10    -0.210473693231E+03    0.14221E-06   -0.21076E-06  3872   0.384E-03
  30 F= -.21047369E+03 E0= -.21045701E+03  d E =-.138054E-01
       N       E                     dE             d eps       ncg     rms          rms(c)
DAV:   1    -0.210473632765E+03    0.60608E-04   -0.28711E-02  6352   0.377E-01    0.145E-01
DAV:   2    -0.210473798159E+03   -0.16539E-03   -0.21798E-03  7352   0.115E-01    0.588E-02
DAV:   3    -0.210473785323E+03    0.12835E-04   -0.63433E-05  7320   0.230E-02    0.375E-02
DAV:   4    -0.210473778203E+03    0.71199E-05   -0.19020E-05  7376   0.104E-02    0.241E-02
DAV:   5    -0.210473775788E+03    0.24153E-05   -0.93219E-06  7184   0.706E-03    0.995E-03
DAV:   6    -0.210473775313E+03    0.47487E-06   -0.24390E-06  4128   0.378E-03
  31 F= -.21047378E+03 E0= -.21045710E+03  d E =-.138875E-01
       N       E                     dE             d eps       ncg     rms          rms(c)
DAV:   1    -0.210472397271E+03    0.13785E-02   -0.32003E+00  6240   0.399E+00    0.143E+00
DAV:   2    -0.210492173351E+03   -0.19776E-01   -0.24581E-01  7304   0.121E+00    0.621E-01
DAV:   3    -0.210491153693E+03    0.10197E-02   -0.58068E-03  7496   0.224E-01    0.429E-01
DAV:   4    -0.210490645708E+03    0.50798E-03   -0.15718E-03  7432   0.934E-02    0.286E-01
DAV:   5    -0.210490468729E+03    0.17698E-03   -0.93389E-04  7320   0.694E-02    0.115E-01
DAV:   6    -0.210490480619E+03   -0.11890E-04   -0.23182E-04  7312   0.355E-02    0.531E-02
DAV:   7    -0.210490479598E+03    0.10211E-05   -0.24268E-05  7400   0.122E-02    0.332E-02
DAV:   8    -0.210490472818E+03    0.67802E-05   -0.21467E-05  7024   0.109E-02    0.171E-02
DAV:   9    -0.210490472631E+03    0.18625E-06   -0.80021E-06  6656   0.644E-03
  32 F= -.21049047E+03 E0= -.21047368E+03  d E =-.166973E-01
       N       E                     dE             d eps       ncg     rms          rms(c)
DAV:   1    -0.210465018580E+03    0.25454E-01   -0.59739E+00  6240   0.546E+00    0.198E+00
DAV:   2    -0.210502026746E+03   -0.37008E-01   -0.45894E-01  7320   0.165E+00    0.860E-01
DAV:   3    -0.210500089475E+03    0.19373E-02   -0.11011E-02  7504   0.308E-01    0.597E-01
DAV:   4    -0.210499171570E+03    0.91791E-03   -0.29478E-03  7424   0.127E-01    0.403E-01
DAV:   5    -0.210498806768E+03    0.36480E-03   -0.18770E-03  7304   0.983E-02    0.165E-01
DAV:   6    -0.210498836528E+03   -0.29760E-04   -0.47414E-04  7304   0.507E-02    0.772E-02
DAV:   7    -0.210498835625E+03    0.90342E-06   -0.47486E-05  7392   0.171E-02    0.479E-02
DAV:   8    -0.210498823139E+03    0.12486E-04   -0.41463E-05  7224   0.152E-02    0.252E-02
DAV:   9    -0.210498823196E+03   -0.57260E-07   -0.15594E-05  7192   0.899E-03    0.146E-02
DAV:  10    -0.210498822986E+03    0.21010E-06   -0.19019E-06  3744   0.384E-03
  33 F= -.21049882E+03 E0= -.21048192E+03  d E =-.250477E-01
       N       E                     dE             d eps       ncg     rms          rms(c)
DAV:   1    -0.210504506486E+03   -0.56833E-02   -0.11815E+00  6240   0.242E+00    0.818E-01
DAV:   2    -0.210511939713E+03   -0.74332E-02   -0.89534E-02  7232   0.730E-01    0.360E-01
DAV:   3    -0.210511639761E+03    0.29995E-03   -0.21901E-03  7488   0.135E-01    0.252E-01
DAV:   4    -0.210511501026E+03    0.13873E-03   -0.37116E-04  7432   0.461E-02    0.183E-01
DAV:   5    -0.210511407053E+03    0.93973E-04   -0.38455E-04  7112   0.446E-02    0.834E-02
DAV:   6    -0.210511415395E+03   -0.83423E-05   -0.11401E-04  7608   0.236E-02    0.264E-02
DAV:   7    -0.210511415049E+03    0.34620E-06   -0.74756E-06  7336   0.701E-03
  34 F= -.21051142E+03 E0= -.21049446E+03  d E =-.125921E-01
       N       E                     dE             d eps       ncg     rms          rms(c)
DAV:   1    -0.210472918074E+03    0.38497E-01   -0.10671E+01  6240   0.726E+00    0.259E+00
DAV:   2    -0.210540650264E+03   -0.67732E-01   -0.81247E-01  7264   0.220E+00    0.113E+00
DAV:   3    -0.210537864993E+03    0.27853E-02   -0.20168E-02  7472   0.407E-01    0.810E-01
DAV:   4    -0.210536671691E+03    0.11933E-02   -0.32473E-03  7448   0.136E-01    0.601E-01
DAV:   5    -0.210535766367E+03    0.90532E-03   -0.33037E-03  7096   0.130E-01    0.289E-01
DAV:   6    -0.210535836231E+03   -0.69864E-04   -0.12186E-03  7736   0.756E-02    0.826E-02
DAV:   7    -0.210535835528E+03    0.70271E-06   -0.99161E-05  7392   0.251E-02    0.480E-02
DAV:   8    -0.210535821446E+03    0.14082E-04   -0.51834E-05  7128   0.174E-02    0.279E-02
DAV:   9    -0.210535821465E+03   -0.18589E-07   -0.20049E-05  7288   0.103E-02    0.125E-02
DAV:  10    -0.210535821529E+03   -0.63677E-07   -0.14964E-06  3744   0.323E-03
  35 F= -.21053582E+03 E0= -.21051873E+03  d E =-.369985E-01
       N       E                     dE             d eps       ncg     rms          rms(c)
DAV:   1    -0.210244455004E+03    0.29137E+00   -0.42851E+01  6240   0.146E+01    0.598E+00
DAV:   2    -0.210520926628E+03   -0.27647E+00   -0.32948E+00  7296   0.443E+00    0.250E+00
DAV:   3    -0.210509228990E+03    0.11698E-01   -0.78896E-02  7480   0.812E-01    0.185E+00
DAV:   4    -0.210503796022E+03    0.54330E-02   -0.13407E-02  7456   0.276E-01    0.134E+00
DAV:   5    -0.210500644890E+03    0.31511E-02   -0.10739E-02  7088   0.233E-01    0.628E-01
DAV:   6    -0.210500811888E+03   -0.16700E-03   -0.46282E-03  7856   0.147E-01    0.165E-01
DAV:   7    -0.210500815766E+03   -0.38782E-05   -0.52361E-04  7424   0.554E-02    0.102E-01
DAV:   8    -0.210500773010E+03    0.42756E-04   -0.15210E-04  7216   0.296E-02    0.730E-02
DAV:   9    -0.210500766739E+03    0.62712E-05   -0.10538E-04  7288   0.233E-02    0.283E-02
DAV:  10    -0.210500767230E+03   -0.49133E-06   -0.18167E-05  7128   0.103E-02    0.134E-02
DAV:  11    -0.210500767445E+03   -0.21473E-06   -0.15297E-06  3848   0.322E-03
  36 F= -.21050077E+03 E0= -.21048354E+03  d E =-.194446E-02
       N       E                     dE             d eps       ncg     rms          rms(c)
DAV:   1    -0.210373303109E+03    0.12746E+00   -0.28127E+01  6240   0.118E+01    0.440E+00
DAV:   2    -0.210552005487E+03   -0.17870E+00   -0.21644E+00  7232   0.359E+00    0.185E+00
DAV:   3    -0.210544329703E+03    0.76758E-02   -0.56823E-02  7416   0.686E-01    0.133E+00
DAV:   4    -0.210541180864E+03    0.31488E-02   -0.97096E-03  7448   0.234E-01    0.985E-01
DAV:   5    -0.210538828723E+03    0.23521E-02   -0.84513E-03  7096   0.209E-01    0.493E-01
DAV:   6    -0.210539035880E+03   -0.20716E-03   -0.33595E-03  7832   0.125E-01    0.146E-01
DAV:   7    -0.210539033207E+03    0.26734E-05   -0.22906E-04  7320   0.384E-02    0.819E-02
DAV:   8    -0.210539015655E+03    0.17551E-04   -0.12505E-04  7432   0.258E-02    0.422E-02
DAV:   9    -0.210539018253E+03   -0.25980E-05   -0.44574E-05  7336   0.153E-02    0.185E-02
DAV:  10    -0.210539018208E+03    0.45225E-07   -0.94463E-06  6816   0.682E-03
  37 F= -.21053902E+03 E0= -.21052188E+03  d E =-.401952E-01
       N       E                     dE             d eps       ncg     rms          rms(c)
DAV:   1    -0.210545947355E+03   -0.69291E-02   -0.26655E+00  6240   0.367E+00    0.133E+00
DAV:   2    -0.210563110640E+03   -0.17163E-01   -0.20493E-01  7328   0.112E+00    0.554E-01
DAV:   3    -0.210562409999E+03    0.70064E-03   -0.56054E-03  7576   0.215E-01    0.385E-01
DAV:   4    -0.210562031505E+03    0.37849E-03   -0.10419E-03  7416   0.781E-02    0.268E-01
DAV:   5    -0.210561858709E+03    0.17280E-03   -0.87090E-04  7176   0.668E-02    0.115E-01
DAV:   6    -0.210561881541E+03   -0.22832E-04   -0.25634E-04  7808   0.365E-02    0.521E-02
DAV:   7    -0.210561879668E+03    0.18728E-05   -0.28808E-05  7312   0.132E-02    0.354E-02
DAV:   8    -0.210561872470E+03    0.71980E-05   -0.25788E-05  7080   0.121E-02    0.190E-02
DAV:   9    -0.210561872620E+03   -0.14999E-06   -0.83079E-06  6696   0.668E-03
  38 F= -.21056187E+03 E0= -.21054470E+03  d E =-.228544E-01
       N       E                     dE             d eps       ncg     rms          rms(c)
DAV:   1    -0.210548989317E+03    0.12883E-01   -0.38221E+00  6240   0.439E+00    0.159E+00
DAV:   2    -0.210573576641E+03   -0.24587E-01   -0.29344E-01  7304   0.134E+00    0.668E-01
DAV:   3    -0.210572580699E+03    0.99594E-03   -0.81716E-03  7568   0.259E-01    0.459E-01
DAV:   4    -0.210572014709E+03    0.56599E-03   -0.15507E-03  7416   0.954E-02    0.319E-01
DAV:   5    -0.210571779950E+03    0.23476E-03   -0.12710E-03  7176   0.806E-02    0.135E-01
DAV:   6    -0.210571814300E+03   -0.34351E-04   -0.35876E-04  7776   0.435E-02    0.628E-02
DAV:   7    -0.210571811287E+03    0.30128E-05   -0.42111E-05  7296   0.160E-02    0.431E-02
DAV:   8    -0.210571801260E+03    0.10028E-04   -0.36234E-05  7080   0.143E-02    0.239E-02
DAV:   9    -0.210571801447E+03   -0.18726E-06   -0.11510E-05  6880   0.792E-03    0.104E-02
DAV:  10    -0.210571801455E+03   -0.84992E-08   -0.89383E-07  3744   0.248E-03
  39 F= -.21057180E+03 E0= -.21055459E+03  d E =-.327832E-01
       N       E                     dE             d eps       ncg     rms          rms(c)
DAV:   1    -0.210579581032E+03   -0.77796E-02   -0.15722E+00  6240   0.282E+00    0.112E+00
DAV:   2    -0.210589027628E+03   -0.94466E-02   -0.12085E-01  7304   0.863E-01    0.427E-01
DAV:   3    -0.210588366735E+03    0.66089E-03   -0.33317E-03  7392   0.166E-01    0.276E-01
DAV:   4    -0.210587999728E+03    0.36701E-03   -0.10573E-03  7376   0.774E-02    0.182E-01
DAV:   5    -0.210587937441E+03    0.62286E-04   -0.65845E-04  7320   0.565E-02    0.640E-02
DAV:   6    -0.210587948235E+03   -0.10794E-04   -0.13494E-04  7336   0.280E-02    0.474E-02
DAV:   7    -0.210587951013E+03   -0.27782E-05   -0.19868E-05  7408   0.106E-02    0.327E-02
DAV:   8    -0.210587946824E+03    0.41889E-05   -0.23579E-05  7072   0.114E-02    0.146E-02
DAV:   9    -0.210587947646E+03   -0.82137E-06   -0.62880E-06  6040   0.574E-03
  40 F= -.21058795E+03 E0= -.21057064E+03  d E =-.161462E-01
       N       E                     dE             d eps       ncg     rms          rms(c)
DAV:   1    -0.210587610854E+03    0.33597E-03   -0.61403E-01  6240   0.176E+00    0.699E-01
DAV:   2    -0.210591299333E+03   -0.36885E-02   -0.47118E-02  7312   0.540E-01    0.267E-01
DAV:   3    -0.210591040902E+03    0.25843E-03   -0.13096E-03  7392   0.104E-01    0.173E-01
DAV:   4    -0.210590900061E+03    0.14084E-03   -0.40210E-04  7392   0.477E-02    0.114E-01
DAV:   5    -0.210590875738E+03    0.24324E-04   -0.26050E-04  7312   0.355E-02    0.400E-02
DAV:   6    -0.210590880763E+03   -0.50257E-05   -0.56461E-05  7360   0.179E-02    0.294E-02
DAV:   7    -0.210590882408E+03   -0.16447E-05   -0.85046E-06  7160   0.686E-03    0.207E-02
DAV:   8    -0.210590880908E+03    0.15004E-05   -0.84676E-06  6400   0.699E-03    0.938E-03
DAV:   9    -0.210590881326E+03   -0.41880E-06   -0.22689E-06  4184   0.354E-03
  41 F= -.21059088E+03 E0= -.21057353E+03  d E =-.190799E-01
       N       E                     dE             d eps       ncg     rms          rms(c)
DAV:   1    -0.210598646943E+03   -0.77660E-02   -0.13967E+00  6240   0.264E+00    0.106E+00
DAV:   2    -0.210606669500E+03   -0.80226E-02   -0.10699E-01  7304   0.813E-01    0.410E-01
DAV:   3    -0.210605943371E+03    0.72613E-03   -0.30065E-03  7344   0.157E-01    0.264E-01
DAV:   4    -0.210605507504E+03    0.43587E-03   -0.10494E-03  7408   0.802E-02    0.162E-01
DAV:   5    -0.210605468714E+03    0.38791E-04   -0.41728E-04  7600   0.458E-02    0.672E-02
DAV:   6    -0.210605475837E+03   -0.71239E-05   -0.59475E-05  7904   0.184E-02    0.420E-02
DAV:   7    -0.210605471637E+03    0.42002E-05   -0.31155E-05  7328   0.128E-02    0.269E-02
DAV:   8    -0.210605470905E+03    0.73259E-06   -0.19522E-05  7344   0.937E-03    0.147E-02
DAV:   9    -0.210605471418E+03   -0.51286E-06   -0.45035E-06  4736   0.512E-03
  42 F= -.21060547E+03 E0= -.21058809E+03  d E =-.145901E-01
       N       E                     dE             d eps       ncg     rms          rms(c)
DAV:   1    -0.210605502220E+03   -0.31315E-04   -0.58769E-01  6240   0.171E+00    0.685E-01
DAV:   2    -0.210608874625E+03   -0.33724E-02   -0.45008E-02  7304   0.527E-01    0.266E-01
DAV:   3    -0.210608569557E+03    0.30507E-03   -0.12779E-03  7464   0.102E-01    0.172E-01
DAV:   4    -0.210608387506E+03    0.18205E-03   -0.44031E-04  7408   0.517E-02    0.105E-01
DAV:   5    -0.210608371567E+03    0.15939E-04   -0.17816E-04  7616   0.300E-02    0.436E-02
DAV:   6    -0.210608375526E+03   -0.39589E-05   -0.24792E-05  8216   0.118E-02    0.275E-02
DAV:   7    -0.210608373960E+03    0.15663E-05   -0.13094E-05  6992   0.821E-03    0.178E-02
DAV:   8    -0.210608373857E+03    0.10236E-06   -0.83866E-06  6392   0.610E-03
  43 F= -.21060837E+03 E0= -.21059096E+03  d E =-.174925E-01
       N       E                     dE             d eps       ncg     rms          rms(c)
DAV:   1    -0.210612551994E+03   -0.41780E-02   -0.19324E+00  6240   0.308E+00    0.119E+00
DAV:   2    -0.210624355573E+03   -0.11804E-01   -0.14838E-01  7360   0.941E-01    0.477E-01
DAV:   3    -0.210623512482E+03    0.84309E-03   -0.35973E-03  7544   0.175E-01    0.324E-01
DAV:   4    -0.210622995370E+03    0.51711E-03   -0.11496E-03  7472   0.832E-02    0.203E-01
DAV:   5    -0.210622908505E+03    0.86865E-04   -0.54847E-04  7512   0.538E-02    0.697E-02
DAV:   6    -0.210622917748E+03   -0.92431E-05   -0.84383E-05  8208   0.218E-02    0.409E-02
DAV:   7    -0.210622912495E+03    0.52523E-05   -0.29215E-05  7304   0.126E-02    0.303E-02
DAV:   8    -0.210622911412E+03    0.10838E-05   -0.17951E-05  7272   0.907E-03    0.197E-02
DAV:   9    -0.210622911602E+03   -0.19051E-06   -0.51223E-06  5144   0.529E-03
  44 F= -.21062291E+03 E0= -.21060539E+03  d E =-.145377E-01
       N       E                     dE             d eps       ncg     rms          rms(c)
DAV:   1    -0.210620947556E+03    0.19639E-02   -0.98128E-01  6240   0.220E+00    0.856E-01
DAV:   2    -0.210626942794E+03   -0.59952E-02   -0.75358E-02  7392   0.671E-01    0.338E-01
DAV:   3    -0.210626509606E+03    0.43319E-03   -0.18023E-03  7568   0.124E-01    0.231E-01
DAV:   4    -0.210626247479E+03    0.26213E-03   -0.60312E-04  7448   0.601E-02    0.141E-01
DAV:   5    -0.210626209556E+03    0.37923E-04   -0.26806E-04  7568   0.377E-02    0.486E-02
DAV:   6    -0.210626214564E+03   -0.50083E-05   -0.49721E-05  7856   0.164E-02    0.285E-02
DAV:   7    -0.210626212142E+03    0.24215E-05   -0.18953E-05  7320   0.980E-03    0.219E-02
DAV:   8    -0.210626211161E+03    0.98116E-06   -0.10177E-05  6656   0.694E-03    0.146E-02
DAV:   9    -0.210626211367E+03   -0.20597E-06   -0.26268E-06  3832   0.400E-03
  45 F= -.21062621E+03 E0= -.21060861E+03  d E =-.178375E-01
       N       E                     dE             d eps       ncg     rms          rms(c)
DAV:   1    -0.210622180507E+03    0.40307E-02   -0.29611E+00  6240   0.378E+00    0.135E+00
DAV:   2    -0.210641065461E+03   -0.18885E-01   -0.22269E-01  7296   0.114E+00    0.585E-01
DAV:   3    -0.210640258134E+03    0.80733E-03   -0.50424E-03  7536   0.208E-01    0.393E-01
DAV:   4    -0.210639675087E+03    0.58305E-03   -0.16171E-03  7360   0.983E-02    0.234E-01
DAV:   5    -0.210639655627E+03    0.19460E-04   -0.59099E-04  7472   0.547E-02    0.966E-02
DAV:   6    -0.210639671428E+03   -0.15801E-04   -0.14130E-04  7384   0.269E-02    0.524E-02
DAV:   7    -0.210639666817E+03    0.46109E-05   -0.39085E-05  7336   0.146E-02    0.403E-02
DAV:   8    -0.210639657194E+03    0.96225E-05   -0.41122E-05  7072   0.148E-02    0.193E-02
DAV:   9    -0.210639657851E+03   -0.65651E-06   -0.11982E-05  6656   0.769E-03    0.972E-03
DAV:  10    -0.210639657835E+03    0.16141E-07   -0.87573E-07  3744   0.268E-03
  46 F= -.21063966E+03 E0= -.21062201E+03  d E =-.134465E-01
       N       E                     dE             d eps       ncg     rms          rms(c)
DAV:   1    -0.210637183892E+03    0.24740E-02   -0.70021E-01  6240   0.184E+00    0.653E-01
DAV:   2    -0.210641646075E+03   -0.44622E-02   -0.52700E-02  7312   0.553E-01    0.284E-01
DAV:   3    -0.210641456249E+03    0.18983E-03   -0.11977E-03  7528   0.101E-01    0.189E-01
DAV:   4    -0.210641318209E+03    0.13804E-03   -0.38790E-04  7344   0.482E-02    0.113E-01
DAV:   5    -0.210641315255E+03    0.29547E-05   -0.14323E-04  7456   0.269E-02    0.461E-02
DAV:   6    -0.210641319553E+03   -0.42980E-05   -0.34152E-05  7360   0.132E-02    0.256E-02
DAV:   7    -0.210641318570E+03    0.98320E-06   -0.94932E-06  7048   0.719E-03
  47 F= -.21064132E+03 E0= -.21062365E+03  d E =-.151072E-01
       N       E                     dE             d eps       ncg     rms          rms(c)
DAV:   1    -0.210636833764E+03    0.44858E-02   -0.30260E+00  6240   0.381E+00    0.140E+00
DAV:   2    -0.210655109462E+03   -0.18276E-01   -0.22287E-01  7256   0.114E+00    0.604E-01
DAV:   3    -0.210654064621E+03    0.10448E-02   -0.51934E-03  7512   0.211E-01    0.412E-01
DAV:   4    -0.210653341063E+03    0.72356E-03   -0.14943E-03  7392   0.953E-02    0.255E-01
DAV:   5    -0.210653223731E+03    0.11733E-03   -0.64338E-04  7392   0.572E-02    0.848E-02
DAV:   6    -0.210653224659E+03   -0.92867E-06   -0.11505E-04  7920   0.254E-02    0.309E-02
DAV:   7    -0.210653221152E+03    0.35078E-05   -0.31449E-05  7320   0.131E-02    0.247E-02
DAV:   8    -0.210653219272E+03    0.18793E-05   -0.15536E-05  7232   0.875E-03    0.185E-02
DAV:   9    -0.210653219343E+03   -0.70822E-07   -0.53741E-06  5232   0.542E-03
  48 F= -.21065322E+03 E0= -.21063552E+03  d E =-.119008E-01
       N       E                     dE             d eps       ncg     rms          rms(c)
DAV:   1    -0.210649108824E+03    0.41104E-02   -0.11847E+00  6240   0.239E+00    0.877E-01
DAV:   2    -0.210656244433E+03   -0.71356E-02   -0.86971E-02  7264   0.713E-01    0.377E-01
DAV:   3    -0.210655837521E+03    0.40691E-03   -0.20378E-03  7504   0.132E-01    0.256E-01
DAV:   4    -0.210655549649E+03    0.28787E-03   -0.60267E-04  7424   0.607E-02    0.156E-01
DAV:   5    -0.210655508829E+03    0.40820E-04   -0.25447E-04  7432   0.359E-02    0.506E-02
DAV:   6    -0.210655509457E+03   -0.62759E-06   -0.36851E-05  7992   0.145E-02    0.190E-02
DAV:   7    -0.210655508025E+03    0.14318E-05   -0.96444E-06  7216   0.747E-03    0.154E-02
DAV:   8    -0.210655507454E+03    0.57080E-06   -0.56211E-06  5488   0.529E-03
  49 F= -.21065551E+03 E0= -.21063778E+03  d E =-.141889E-01
       N       E                     dE             d eps       ncg     rms          rms(c)
DAV:   1    -0.210656216964E+03   -0.70894E-03   -0.12963E+00  6240   0.249E+00    0.876E-01
DAV:   2    -0.210664260172E+03   -0.80432E-02   -0.95344E-02  7256   0.747E-01    0.392E-01
DAV:   3    -0.210663902653E+03    0.35752E-03   -0.22271E-03  7512   0.137E-01    0.269E-01
DAV:   4    -0.210663633955E+03    0.26870E-03   -0.64989E-04  7416   0.621E-02    0.162E-01
DAV:   5    -0.210663611150E+03    0.22805E-04   -0.27216E-04  7312   0.368E-02    0.665E-02
DAV:   6    -0.210663619141E+03   -0.79910E-05   -0.44547E-05  7984   0.156E-02    0.331E-02
DAV:   7    -0.210663611822E+03    0.73191E-05   -0.21115E-05  6952   0.113E-02    0.259E-02
DAV:   8    -0.210663610892E+03    0.93032E-06   -0.10207E-05  6880   0.664E-03    0.117E-02
DAV:   9    -0.210663610943E+03   -0.51473E-07   -0.13148E-06  3744   0.297E-03
  50 F= -.21066361E+03 E0= -.21064591E+03  d E =-.810349E-02
       N       E                     dE             d eps       ncg     rms          rms(c)
DAV:   1    -0.210659129688E+03    0.44812E-02   -0.12457E+00  6240   0.244E+00    0.860E-01
DAV:   2    -0.210666854594E+03   -0.77249E-02   -0.91556E-02  7272   0.732E-01    0.383E-01
DAV:   3    -0.210666510135E+03    0.34446E-03   -0.21384E-03  7512   0.134E-01    0.262E-01
DAV:   4    -0.210666249545E+03    0.26059E-03   -0.64520E-04  7424   0.620E-02    0.157E-01
DAV:   5    -0.210666231496E+03    0.18049E-04   -0.26349E-04  7352   0.362E-02    0.646E-02
DAV:   6    -0.210666238935E+03   -0.74386E-05   -0.40708E-05  7960   0.149E-02    0.334E-02
DAV:   7    -0.210666232432E+03    0.65025E-05   -0.17576E-05  7016   0.103E-02    0.258E-02
DAV:   8    -0.210666231018E+03    0.14142E-05   -0.11252E-05  6936   0.708E-03    0.118E-02
DAV:   9    -0.210666231079E+03   -0.60405E-07   -0.17942E-06  3840   0.344E-03
  51 F= -.21066623E+03 E0= -.21064856E+03  d E =-.107236E-01
       N       E                     dE             d eps       ncg     rms          rms(c)
DAV:   1    -0.210668449242E+03   -0.22182E-02   -0.58807E-01  6240   0.170E+00    0.658E-01
DAV:   2    -0.210672093545E+03   -0.36443E-02   -0.44729E-02  7280   0.512E-01    0.272E-01
DAV:   3    -0.210671882162E+03    0.21138E-03   -0.10427E-03  7520   0.943E-02    0.185E-01
DAV:   4    -0.210671731976E+03    0.15019E-03   -0.35801E-04  7392   0.462E-02    0.109E-01
DAV:   5    -0.210671716118E+03    0.15858E-04   -0.15807E-04  7400   0.285E-02    0.370E-02
DAV:   6    -0.210671718050E+03   -0.19321E-05   -0.21883E-05  7768   0.111E-02    0.253E-02
DAV:   7    -0.210671715987E+03    0.20629E-05   -0.71826E-06  6080   0.637E-03    0.167E-02
DAV:   8    -0.210671715418E+03    0.56992E-06   -0.58402E-06  6256   0.535E-03
  52 F= -.21067172E+03 E0= -.21065404E+03  d E =-.548434E-02
       N       E                     dE             d eps       ncg     rms          rms(c)
DAV:   1    -0.210667892500E+03    0.38235E-02   -0.12143E+00  6240   0.244E+00    0.952E-01
DAV:   2    -0.210675431844E+03   -0.75393E-02   -0.92405E-02  7280   0.736E-01    0.393E-01
DAV:   3    -0.210674995468E+03    0.43638E-03   -0.21564E-03  7520   0.135E-01    0.269E-01
DAV:   4    -0.210674685665E+03    0.30980E-03   -0.74519E-04  7400   0.667E-02    0.158E-01
DAV:   5    -0.210674653058E+03    0.32607E-04   -0.34107E-04  7416   0.419E-02    0.520E-02
DAV:   6    -0.210674656535E+03   -0.34768E-05   -0.48470E-05  7568   0.166E-02    0.364E-02
DAV:   7    -0.210674652588E+03    0.39467E-05   -0.14366E-05  7288   0.903E-03    0.244E-02
DAV:   8    -0.210674651357E+03    0.12312E-05   -0.11487E-05  6936   0.752E-03    0.143E-02
DAV:   9    -0.210674651421E+03   -0.63771E-07   -0.29385E-06  4168   0.433E-03
  53 F= -.21067465E+03 E0= -.21065697E+03  d E =-.842034E-02
       N       E                     dE             d eps       ncg     rms          rms(c)
DAV:   1    -0.210676849742E+03   -0.21984E-02   -0.19431E-01  6240   0.971E-01    0.344E-01
DAV:   2    -0.210678091643E+03   -0.12419E-02   -0.14650E-02  7328   0.298E-01    0.150E-01
DAV:   3    -0.210678032848E+03    0.58795E-04   -0.35545E-04  7496   0.552E-02    0.100E-01
DAV:   4    -0.210677991150E+03    0.41698E-04   -0.12537E-04  7400   0.270E-02    0.625E-02
DAV:   5    -0.210677988155E+03    0.29948E-05   -0.50929E-05  7488   0.160E-02    0.230E-02
DAV:   6    -0.210677988832E+03   -0.67710E-06   -0.10165E-05  7264   0.753E-03    0.157E-02
DAV:   7    -0.210677988258E+03    0.57418E-06   -0.14893E-06  3784   0.322E-03
  54 F= -.21067799E+03 E0= -.21066032E+03  d E =-.333684E-02
       N       E                     dE             d eps       ncg     rms          rms(c)
DAV:   1    -0.210676885548E+03    0.11033E-02   -0.69666E-01  6240   0.184E+00    0.657E-01
DAV:   2    -0.210681358193E+03   -0.44726E-02   -0.52745E-02  7328   0.564E-01    0.282E-01
DAV:   3    -0.210681145530E+03    0.21266E-03   -0.12744E-03  7496   0.105E-01    0.189E-01
DAV:   4    -0.210680996241E+03    0.14929E-03   -0.46902E-04  7400   0.522E-02    0.116E-01
DAV:   5    -0.210680989061E+03    0.71808E-05   -0.18467E-04  7496   0.305E-02    0.415E-02
DAV:   6    -0.210680992185E+03   -0.31244E-05   -0.36095E-05  7336   0.142E-02    0.282E-02
DAV:   7    -0.210680990439E+03    0.17460E-05   -0.56718E-06  6832   0.597E-03    0.203E-02
DAV:   8    -0.210680987319E+03    0.31196E-05   -0.10317E-05  6456   0.749E-03    0.920E-03
DAV:   9    -0.210680987429E+03   -0.10989E-06   -0.26425E-06  4368   0.379E-03
  55 F= -.21068099E+03 E0= -.21066335E+03  d E =-.633601E-02
       N       E                     dE             d eps       ncg     rms          rms(c)
DAV:   1    -0.210683421102E+03   -0.24338E-02   -0.32006E-01  6240   0.126E+00    0.491E-01
DAV:   2    -0.210685408489E+03   -0.19874E-02   -0.25167E-02  7472   0.390E-01    0.198E-01
DAV:   3    -0.210685266206E+03    0.14228E-03   -0.64524E-04  7504   0.724E-02    0.137E-01
DAV:   4    -0.210685175058E+03    0.91148E-04   -0.19652E-04  7480   0.342E-02    0.800E-02
DAV:   5    -0.210685160466E+03    0.14593E-04   -0.79947E-05  7536   0.206E-02    0.309E-02
DAV:   6    -0.210685161319E+03   -0.85355E-06   -0.15024E-05  8056   0.909E-03    0.182E-02
DAV:   7    -0.210685159334E+03    0.19849E-05   -0.60078E-06  6248   0.596E-03    0.136E-02
DAV:   8    -0.210685159065E+03    0.26912E-06   -0.18262E-06  3744   0.318E-03
  56 F= -.21068516E+03 E0= -.21066751E+03  d E =-.417164E-02
       N       E                     dE             d eps       ncg     rms          rms(c)
DAV:   1    -0.210684752473E+03    0.40686E-03   -0.39721E-01  6240   0.141E+00    0.550E-01
DAV:   2    -0.210687224792E+03   -0.24723E-02   -0.31259E-02  7456   0.435E-01    0.221E-01
DAV:   3    -0.210687048733E+03    0.17606E-03   -0.80035E-04  7504   0.808E-02    0.153E-01
DAV:   4    -0.210686934409E+03    0.11432E-03   -0.25020E-04  7480   0.386E-02    0.886E-02
DAV:   5    -0.210686917935E+03    0.16475E-04   -0.10053E-04  7552   0.231E-02    0.342E-02
DAV:   6    -0.210686919092E+03   -0.11576E-05   -0.17577E-05  8192   0.984E-03    0.206E-02
DAV:   7    -0.210686916705E+03    0.23876E-05   -0.70560E-06  6344   0.644E-03    0.151E-02
DAV:   8    -0.210686916329E+03    0.37540E-06   -0.25579E-06  3840   0.375E-03
  57 F= -.21068692E+03 E0= -.21066925E+03  d E =-.592890E-02
       N       E                     dE             d eps       ncg     rms          rms(c)
DAV:   1    -0.210687871567E+03   -0.95486E-03   -0.35720E-01  6240   0.132E+00    0.486E-01
DAV:   2    -0.210690195394E+03   -0.23238E-02   -0.27688E-02  7432   0.406E-01    0.197E-01
DAV:   3    -0.210690087466E+03    0.10793E-03   -0.65490E-04  7536   0.734E-02    0.137E-01
DAV:   4    -0.210690013869E+03    0.73597E-04   -0.19303E-04  7464   0.341E-02    0.783E-02
DAV:   5    -0.210690011088E+03    0.27810E-05   -0.64588E-05  7488   0.183E-02    0.314E-02
DAV:   6    -0.210690013763E+03   -0.26753E-05   -0.13763E-05  7512   0.890E-03    0.178E-02
DAV:   7    -0.210690011991E+03    0.17721E-05   -0.57303E-06  6624   0.608E-03    0.146E-02
DAV:   8    -0.210690011815E+03    0.17559E-06   -0.20646E-06  3784   0.331E-03
  58 F= -.21069001E+03 E0= -.21067236E+03  d E =-.309549E-02
       N       E                     dE             d eps       ncg     rms          rms(c)
DAV:   1    -0.210689602190E+03    0.40980E-03   -0.20305E-01  6240   0.998E-01    0.370E-01
DAV:   2    -0.210690924879E+03   -0.13227E-02   -0.15768E-02  7432   0.307E-01    0.148E-01
DAV:   3    -0.210690863303E+03    0.61577E-04   -0.37646E-04  7544   0.555E-02    0.103E-01
DAV:   4    -0.210690822499E+03    0.40803E-04   -0.10804E-04  7472   0.255E-02    0.590E-02
DAV:   5    -0.210690820749E+03    0.17501E-05   -0.39073E-05  7504   0.142E-02    0.235E-02
DAV:   6    -0.210690822378E+03   -0.16287E-05   -0.85616E-06  7280   0.701E-03    0.140E-02
DAV:   7    -0.210690821567E+03    0.81146E-06   -0.26297E-06  4040   0.427E-03
  59 F= -.21069082E+03 E0= -.21067318E+03  d E =-.390524E-02
       N       E                     dE             d eps       ncg     rms          rms(c)
DAV:   1    -0.210691857332E+03   -0.10350E-02   -0.24129E-01  6240   0.109E+00    0.379E-01
DAV:   2    -0.210693404977E+03   -0.15476E-02   -0.18591E-02  7504   0.329E-01    0.160E-01
DAV:   3    -0.210693341211E+03    0.63765E-04   -0.40433E-04  7512   0.581E-02    0.114E-01
DAV:   4    -0.210693301626E+03    0.39585E-04   -0.95984E-05  7480   0.237E-02    0.694E-02
DAV:   5    -0.210693294695E+03    0.69317E-05   -0.40325E-05  7320   0.145E-02    0.280E-02
DAV:   6    -0.210693295810E+03   -0.11153E-05   -0.12756E-05  7776   0.852E-03    0.158E-02
DAV:   7    -0.210693294999E+03    0.81064E-06   -0.37408E-06  4816   0.487E-03
  60 F= -.21069329E+03 E0= -.21067566E+03  d E =-.247343E-02
       N       E                     dE             d eps       ncg     rms          rms(c)
DAV:   1    -0.210692790577E+03    0.50523E-03   -0.26346E-01  6240   0.114E+00    0.401E-01
DAV:   2    -0.210694485935E+03   -0.16954E-02   -0.20377E-02  7520   0.344E-01    0.167E-01
DAV:   3    -0.210694416056E+03    0.69879E-04   -0.43911E-04  7504   0.607E-02    0.118E-01
DAV:   4    -0.210694373013E+03    0.43043E-04   -0.10933E-04  7472   0.253E-02    0.710E-02
DAV:   5    -0.210694366607E+03    0.64052E-05   -0.43404E-05  7336   0.150E-02    0.278E-02
DAV:   6    -0.210694367977E+03   -0.13700E-05   -0.11897E-05  7760   0.830E-03    0.166E-02
DAV:   7    -0.210694366957E+03    0.10207E-05   -0.41852E-06  5688   0.504E-03    0.124E-02
DAV:   8    -0.210694366605E+03    0.35165E-06   -0.15902E-06  3744   0.302E-03
  61 F= -.21069437E+03 E0= -.21067674E+03  d E =-.354504E-02
       N       E                     dE             d eps       ncg     rms          rms(c)
DAV:   1    -0.210694509601E+03   -0.14264E-03   -0.41776E-01  6240   0.142E+00    0.485E-01
DAV:   2    -0.210697161878E+03   -0.26523E-02   -0.31443E-02  7424   0.430E-01    0.208E-01
DAV:   3    -0.210697049033E+03    0.11284E-03   -0.64405E-04  7480   0.748E-02    0.145E-01
DAV:   4    -0.210696970558E+03    0.78475E-04   -0.20706E-04  7416   0.347E-02    0.861E-02
DAV:   5    -0.210696964546E+03    0.60116E-05   -0.84643E-05  7448   0.206E-02    0.291E-02
DAV:   6    -0.210696965749E+03   -0.12022E-05   -0.11594E-05  7448   0.825E-03    0.192E-02
DAV:   7    -0.210696964134E+03    0.16149E-05   -0.33187E-06  4184   0.466E-03    0.135E-02
DAV:   8    -0.210696963055E+03    0.10788E-05   -0.53023E-06  5776   0.513E-03    0.692E-03
DAV:   9    -0.210696963017E+03    0.37385E-07   -0.10301E-06  3744   0.258E-03
  62 F= -.21069696E+03 E0= -.21067933E+03  d E =-.259641E-02
       N       E                     dE             d eps       ncg     rms          rms(c)
DAV:   1    -0.210696121652E+03    0.84140E-03   -0.25817E-01  6240   0.112E+00    0.381E-01
DAV:   2    -0.210697760636E+03   -0.16390E-02   -0.19424E-02  7432   0.338E-01    0.163E-01
DAV:   3    -0.210697690955E+03    0.69681E-04   -0.39915E-04  7520   0.588E-02    0.114E-01
DAV:   4    -0.210697642223E+03    0.48732E-04   -0.12838E-04  7424   0.273E-02    0.677E-02
DAV:   5    -0.210697638236E+03    0.39868E-05   -0.51779E-05  7456   0.161E-02    0.230E-02
DAV:   6    -0.210697638829E+03   -0.59296E-06   -0.72223E-06  6976   0.654E-03
  63 F= -.21069764E+03 E0= -.21068001E+03  d E =-.327222E-02
       N       E                     dE             d eps       ncg     rms          rms(c)
DAV:   1    -0.210696638736E+03    0.99950E-03   -0.53827E-01  6240   0.161E+00    0.556E-01
DAV:   2    -0.210700010978E+03   -0.33722E-02   -0.40326E-02  7312   0.484E-01    0.237E-01
DAV:   3    -0.210699845025E+03    0.16595E-03   -0.84428E-04  7568   0.858E-02    0.166E-01
DAV:   4    -0.210699727619E+03    0.11741E-03   -0.29666E-04  7312   0.419E-02    0.984E-02
DAV:   5    -0.210699719936E+03    0.76834E-05   -0.13243E-04  7592   0.257E-02    0.296E-02
DAV:   6    -0.210699720836E+03   -0.90050E-06   -0.16530E-05  7344   0.991E-03    0.193E-02
DAV:   7    -0.210699719919E+03    0.91730E-06   -0.28840E-06  4120   0.442E-03
  64 F= -.21069972E+03 E0= -.21068210E+03  d E =-.208109E-02
       N       E                     dE             d eps       ncg     rms          rms(c)
DAV:   1    -0.210699147128E+03    0.57371E-03   -0.16345E-01  6240   0.886E-01    0.309E-01
DAV:   2    -0.210700181968E+03   -0.10348E-02   -0.12261E-02  7272   0.267E-01    0.133E-01
DAV:   3    -0.210700131861E+03    0.50107E-04   -0.25891E-04  7528   0.475E-02    0.926E-02
DAV:   4    -0.210700093878E+03    0.37983E-04   -0.10052E-04  7296   0.245E-02    0.536E-02
DAV:   5    -0.210700093062E+03    0.81539E-06   -0.42148E-05  7672   0.144E-02    0.158E-02
DAV:   6    -0.210700093148E+03   -0.85737E-07   -0.37927E-06  4944   0.491E-03
  65 F= -.21070009E+03 E0= -.21068248E+03  d E =-.245432E-02
       N       E                     dE             d eps       ncg     rms          rms(c)
DAV:   1    -0.210698571085E+03    0.15220E-02   -0.60142E-01  6240   0.171E+00    0.588E-01
DAV:   2    -0.210702410446E+03   -0.38394E-02   -0.45240E-02  7288   0.512E-01    0.251E-01
DAV:   3    -0.210702251344E+03    0.15910E-03   -0.92532E-04  7440   0.908E-02    0.173E-01
DAV:   4    -0.210702138410E+03    0.11293E-03   -0.32486E-04  7328   0.439E-02    0.101E-01
DAV:   5    -0.210702136500E+03    0.19109E-05   -0.11077E-04  7688   0.240E-02    0.369E-02
DAV:   6    -0.210702139808E+03   -0.33082E-05   -0.20033E-05  7312   0.106E-02    0.215E-02
DAV:   7    -0.210702138550E+03    0.12575E-05   -0.46348E-06  5600   0.566E-03    0.156E-02
DAV:   8    -0.210702137351E+03    0.11989E-05   -0.69213E-06  6072   0.610E-03    0.753E-03
DAV:   9    -0.210702137454E+03   -0.10299E-06   -0.13770E-06  3744   0.294E-03
  66 F= -.21070214E+03 E0= -.21068453E+03  d E =-.204431E-02
       N       E                     dE             d eps       ncg     rms          rms(c)
DAV:   1    -0.210701775726E+03    0.36163E-03   -0.92143E-02  6240   0.668E-01    0.229E-01
DAV:   2    -0.210702364037E+03   -0.58831E-03   -0.69121E-03  7280   0.200E-01    0.995E-02
DAV:   3    -0.210702339685E+03    0.24352E-04   -0.14214E-04  7488   0.355E-02    0.686E-02
DAV:   4    -0.210702322133E+03    0.17553E-04   -0.50986E-05  7328   0.174E-02    0.399E-02
DAV:   5    -0.210702322136E+03   -0.31819E-08   -0.17563E-05  7664   0.953E-03    0.144E-02
DAV:   6    -0.210702322744E+03   -0.60781E-06   -0.26341E-06  3928   0.409E-03
  67 F= -.21070232E+03 E0= -.21068471E+03  d E =-.222960E-02
       N       E                     dE             d eps       ncg     rms          rms(c)
DAV:   1    -0.210700257068E+03    0.20651E-02   -0.66913E-01  6240   0.180E+00    0.622E-01
DAV:   2    -0.210704391201E+03   -0.41341E-02   -0.50166E-02  7280   0.540E-01    0.271E-01
DAV:   3    -0.210704182996E+03    0.20821E-03   -0.10141E-03  7392   0.958E-02    0.188E-01
DAV:   4    -0.210704062205E+03    0.12079E-03   -0.29304E-04  7448   0.411E-02    0.122E-01
DAV:   5    -0.210704035511E+03    0.26694E-04   -0.15767E-04  7272   0.288E-02    0.479E-02
DAV:   6    -0.210704039708E+03   -0.41970E-05   -0.36499E-05  7488   0.140E-02    0.205E-02
DAV:   7    -0.210704039730E+03   -0.21916E-07   -0.45186E-06  5984   0.547E-03
  68 F= -.21070404E+03 E0= -.21068641E+03  d E =-.171699E-02
       N       E                     dE             d eps       ncg     rms          rms(c)
DAV:   1    -0.210703754241E+03    0.28547E-03   -0.69709E-02  6240   0.581E-01    0.204E-01
DAV:   2    -0.210704191665E+03   -0.43742E-03   -0.52785E-03  7240   0.175E-01    0.879E-02
DAV:   3    -0.210704170210E+03    0.21456E-04   -0.10668E-04  7368   0.312E-02    0.604E-02
DAV:   4    -0.210704157567E+03    0.12643E-04   -0.32797E-05  7416   0.138E-02    0.389E-02
DAV:   5    -0.210704155831E+03    0.17362E-05   -0.17825E-05  7296   0.967E-03    0.145E-02
DAV:   6    -0.210704156576E+03   -0.74534E-06   -0.32156E-06  4448   0.441E-03
  69 F= -.21070416E+03 E0= -.21068652E+03  d E =-.183383E-02
       N       E                     dE             d eps       ncg     rms          rms(c)
DAV:   1    -0.210703578568E+03    0.57726E-03   -0.27978E-01  6240   0.118E+00    0.430E-01
DAV:   2    -0.210705356456E+03   -0.17779E-02   -0.21314E-02  7408   0.358E-01    0.173E-01
DAV:   3    -0.210705268788E+03    0.87668E-04   -0.49610E-04  7496   0.653E-02    0.117E-01
DAV:   4    -0.210705215403E+03    0.53384E-04   -0.13838E-04  7464   0.281E-02    0.703E-02
DAV:   5    -0.210705207187E+03    0.82157E-05   -0.53698E-05  7488   0.170E-02    0.307E-02
DAV:   6    -0.210705208445E+03   -0.12578E-05   -0.16338E-05  7552   0.934E-03    0.177E-02
DAV:   7    -0.210705207989E+03    0.45587E-06   -0.28984E-06  4064   0.446E-03
  70 F= -.21070521E+03 E0= -.21068757E+03  d E =-.105141E-02
       N       E                     dE             d eps       ncg     rms          rms(c)
DAV:   1    -0.210705177906E+03    0.30540E-04   -0.10945E-02  6288   0.234E-01    0.899E-02
DAV:   2    -0.210705250145E+03   -0.72239E-04   -0.85809E-04  7392   0.715E-02    0.328E-02
DAV:   3    -0.210705246679E+03    0.34658E-05   -0.19064E-05  7456   0.129E-02    0.219E-02
DAV:   4    -0.210705244639E+03    0.20405E-05   -0.57673E-06  7024   0.572E-03    0.129E-02
DAV:   5    -0.210705244336E+03    0.30275E-06   -0.16187E-06  3752   0.326E-03
  71 F= -.21070524E+03 E0= -.21068761E+03  d E =-.108776E-02
       N       E                     dE             d eps       ncg     rms          rms(c)
DAV:   1    -0.210705019480E+03    0.22516E-03   -0.23195E-01  6240   0.108E+00    0.385E-01
DAV:   2    -0.210706403728E+03   -0.13842E-02   -0.17622E-02  7456   0.328E-01    0.164E-01
DAV:   3    -0.210706320824E+03    0.82904E-04   -0.44400E-04  7384   0.612E-02    0.112E-01
DAV:   4    -0.210706276455E+03    0.44369E-04   -0.98278E-05  7480   0.238E-02    0.736E-02
DAV:   5    -0.210706259635E+03    0.16820E-04   -0.43547E-05  7464   0.154E-02    0.334E-02
DAV:   6    -0.210706257523E+03    0.21121E-05   -0.23331E-05  7464   0.111E-02    0.136E-02
DAV:   7    -0.210706257370E+03    0.15298E-06   -0.42229E-06  4792   0.518E-03
  72 F= -.21070626E+03 E0= -.21068862E+03  d E =-.101303E-02
       N       E                     dE             d eps       ncg     rms          rms(c)
DAV:   1    -0.210706160957E+03    0.96566E-04   -0.33287E-02  6240   0.411E-01    0.150E-01
DAV:   2    -0.210706363710E+03   -0.20275E-03   -0.25691E-03  7496   0.125E-01    0.603E-02
DAV:   3    -0.210706351759E+03    0.11951E-04   -0.62649E-05  7408   0.231E-02    0.410E-02
DAV:   4    -0.210706345453E+03    0.63058E-05   -0.14707E-05  7480   0.913E-03    0.269E-02
DAV:   5    -0.210706342970E+03    0.24839E-05   -0.63163E-06  6768   0.592E-03    0.117E-02
DAV:   6    -0.210706342495E+03    0.47424E-06   -0.29577E-06  4264   0.417E-03
  73 F= -.21070634E+03 E0= -.21068870E+03  d E =-.109816E-02
       N       E                     dE             d eps       ncg     rms          rms(c)
DAV:   1    -0.210706180350E+03    0.16262E-03   -0.14146E-01  6240   0.848E-01    0.304E-01
DAV:   2    -0.210707094733E+03   -0.91438E-03   -0.10984E-02  7408   0.258E-01    0.117E-01
DAV:   3    -0.210707052986E+03    0.41747E-04   -0.23571E-04  7392   0.461E-02    0.818E-02
DAV:   4    -0.210707029945E+03    0.23041E-04   -0.69821E-05  7496   0.199E-02    0.508E-02
DAV:   5    -0.210707026156E+03    0.37886E-05   -0.22880E-05  7640   0.114E-02    0.205E-02
DAV:   6    -0.210707027004E+03   -0.84753E-06   -0.89554E-06  7240   0.680E-03
  74 F= -.21070703E+03 E0= -.21068936E+03  d E =-.684508E-03
       N       E                     dE             d eps       ncg     rms          rms(c)
DAV:   1    -0.210706978819E+03    0.47337E-04   -0.15885E-02  6240   0.284E-01    0.109E-01
DAV:   2    -0.210707082794E+03   -0.10397E-03   -0.12716E-03  7504   0.868E-02    0.365E-02
DAV:   3    -0.210707078373E+03    0.44210E-05   -0.26238E-05  7336   0.155E-02    0.249E-02
DAV:   4    -0.210707076339E+03    0.20332E-05   -0.80755E-06  7328   0.668E-03    0.149E-02
DAV:   5    -0.210707076117E+03    0.22226E-06   -0.17893E-06  3784   0.355E-03
  75 F= -.21070708E+03 E0= -.21068941E+03  d E =-.733622E-03
       N       E                     dE             d eps       ncg     rms          rms(c)
DAV:   1    -0.210706879418E+03    0.19692E-03   -0.15182E-01  6240   0.871E-01    0.310E-01
DAV:   2    -0.210707826851E+03   -0.94743E-03   -0.11560E-02  7336   0.264E-01    0.127E-01
DAV:   3    -0.210707780901E+03    0.45950E-04   -0.27329E-04  7504   0.485E-02    0.885E-02
DAV:   4    -0.210707751669E+03    0.29232E-04   -0.65178E-05  7464   0.199E-02    0.567E-02
DAV:   5    -0.210707744740E+03    0.69285E-05   -0.31001E-05  7384   0.127E-02    0.218E-02
DAV:   6    -0.210707744755E+03   -0.14300E-07   -0.75038E-06  7280   0.638E-03
  76 F= -.21070774E+03 E0= -.21069007E+03  d E =-.668638E-03
       N       E                     dE             d eps       ncg     rms          rms(c)
DAV:   1    -0.210707698023E+03    0.46717E-04   -0.18762E-02  6240   0.306E-01    0.113E-01
DAV:   2    -0.210707816927E+03   -0.11890E-03   -0.14614E-03  7384   0.934E-02    0.429E-02
DAV:   3    -0.210707811219E+03    0.57080E-05   -0.33332E-05  7496   0.170E-02    0.300E-02
DAV:   4    -0.210707807695E+03    0.35246E-05   -0.85413E-06  7408   0.716E-03    0.186E-02
DAV:   5    -0.210707806774E+03    0.92040E-06   -0.30937E-06  4608   0.434E-03
  77 F= -.21070781E+03 E0= -.21069013E+03  d E =-.730657E-03
       N       E                     dE             d eps       ncg     rms          rms(c)
DAV:   1    -0.210707516964E+03    0.29073E-03   -0.13569E-01  6240   0.824E-01    0.311E-01
DAV:   2    -0.210708382523E+03   -0.86556E-03   -0.10487E-02  7360   0.251E-01    0.122E-01
DAV:   3    -0.210708337947E+03    0.44576E-04   -0.25060E-04  7464   0.466E-02    0.813E-02
DAV:   4    -0.210708309074E+03    0.28874E-04   -0.75205E-05  7472   0.213E-02    0.499E-02
DAV:   5    -0.210708306391E+03    0.26822E-05   -0.33067E-05  7392   0.130E-02    0.197E-02
DAV:   6    -0.210708307400E+03   -0.10090E-05   -0.65033E-06  6912   0.592E-03    0.133E-02
DAV:   7    -0.210708307016E+03    0.38424E-06   -0.12356E-06  3744   0.308E-03
  78 F= -.21070831E+03 E0= -.21069062E+03  d E =-.500242E-03
       N       E                     dE             d eps       ncg     rms          rms(c)
DAV:   1    -0.210708301130E+03    0.62701E-05   -0.25844E-03  6288   0.114E-01    0.453E-02
DAV:   2    -0.210708318602E+03   -0.17471E-04   -0.20562E-04  7312   0.351E-02    0.165E-02
DAV:   3    -0.210708317714E+03    0.88807E-06   -0.44801E-06  6616   0.642E-03
  79 F= -.21070832E+03 E0= -.21069063E+03  d E =-.510939E-03
       N       E                     dE             d eps       ncg     rms          rms(c)
DAV:   1    -0.210708033626E+03    0.28498E-03   -0.13818E-01  6240   0.822E-01    0.278E-01
DAV:   2    -0.210708883987E+03   -0.85036E-03   -0.10226E-02  7328   0.247E-01    0.127E-01
DAV:   3    -0.210708843881E+03    0.40106E-04   -0.23518E-04  7528   0.448E-02    0.868E-02
DAV:   4    -0.210708814111E+03    0.29770E-04   -0.59274E-05  7464   0.190E-02    0.565E-02
DAV:   5    -0.210708809584E+03    0.45276E-05   -0.32345E-05  7392   0.126E-02    0.200E-02
DAV:   6    -0.210708810287E+03   -0.70331E-06   -0.50264E-06  6440   0.530E-03
  80 F= -.21070881E+03 E0= -.21069111E+03  d E =-.492573E-03
       N       E                     dE             d eps       ncg     rms          rms(c)
DAV:   1    -0.210708720005E+03    0.89578E-04   -0.26417E-02  6240   0.359E-01    0.128E-01
DAV:   2    -0.210708884950E+03   -0.16494E-03   -0.20095E-03  7352   0.109E-01    0.526E-02
DAV:   3    -0.210708877614E+03    0.73360E-05   -0.44976E-05  7512   0.197E-02    0.358E-02
DAV:   4    -0.210708872574E+03    0.50401E-05   -0.11085E-05  7464   0.819E-03    0.230E-02
DAV:   5    -0.210708871980E+03    0.59400E-06   -0.54991E-06  6560   0.528E-03
  81 F= -.21070887E+03 E0= -.21069116E+03  d E =-.554266E-03
       N       E                     dE             d eps       ncg     rms          rms(c)
DAV:   1    -0.210708476868E+03    0.39571E-03   -0.13219E-01  6240   0.806E-01    0.282E-01
DAV:   2    -0.210709324261E+03   -0.84739E-03   -0.10093E-02  7400   0.243E-01    0.121E-01
DAV:   3    -0.210709293435E+03    0.30825E-04   -0.21676E-04  7528   0.434E-02    0.837E-02
DAV:   4    -0.210709271955E+03    0.21480E-04   -0.53950E-05  7432   0.177E-02    0.524E-02
DAV:   5    -0.210709268427E+03    0.35282E-05   -0.23203E-05  7456   0.109E-02    0.205E-02
DAV:   6    -0.210709268835E+03   -0.40880E-06   -0.71343E-06  6880   0.618E-03
  82 F= -.21070927E+03 E0= -.21069154E+03  d E =-.396856E-03
       N       E                     dE             d eps       ncg     rms          rms(c)
DAV:   1    -0.210709251584E+03    0.16842E-04   -0.49453E-03  6256   0.156E-01    0.609E-02
DAV:   2    -0.210709283156E+03   -0.31572E-04   -0.39974E-04  7552   0.475E-02    0.205E-02
DAV:   3    -0.210709282090E+03    0.10658E-05   -0.82400E-06  7312   0.850E-03    0.137E-02
DAV:   4    -0.210709281426E+03    0.66354E-06   -0.16512E-06  3904   0.331E-03
  83 F= -.21070928E+03 E0= -.21069155E+03  d E =-.409447E-03
       N       E                     dE             d eps       ncg     rms          rms(c)
DAV:   1    -0.210709057178E+03    0.22491E-03   -0.10223E-01  6240   0.705E-01    0.240E-01
DAV:   2    -0.210709693272E+03   -0.63609E-03   -0.75942E-03  7392   0.211E-01    0.107E-01
DAV:   3    -0.210709664227E+03    0.29045E-04   -0.16074E-04  7568   0.373E-02    0.745E-02
DAV:   4    -0.210709645567E+03    0.18661E-04   -0.45417E-05  7456   0.163E-02    0.464E-02
DAV:   5    -0.210709643959E+03    0.16079E-05   -0.20270E-05  7520   0.101E-02    0.169E-02
DAV:   6    -0.210709644872E+03   -0.91323E-06   -0.34488E-06  4616   0.464E-03
  84 F= -.21070964E+03 E0= -.21069189E+03  d E =-.363446E-03
