<?xml version="1.0" encoding="ISO-8859-1"?>
<modeling>
 <generator>
  <i name="program" type="string">vasp </i>
  <i name="version" type="string">6.4.2  </i>
  <i name="subversion" type="string">20Jul23 (build Mar  2 2025 11:04:54) complex                          parallel </i>
  <i name="platform" type="string">LinuxNV </i>
  <i name="date" type="string">2026 04 15 </i>
  <i name="time" type="string">23:01:42 </i>
 </generator>
 <incar>
  <i type="string" name="SYSTEM">Rh FCC EOS static single-point</i>
  <i type="string" name="PREC">Accurate</i>
  <i type="int" name="NELM">   100</i>
  <i type="int" name="IBRION">    -1</i>
  <i name="EDIFF">      0.00000100</i>
  <i type="int" name="NSW">     0</i>
  <i type="int" name="ISIF">     2</i>
  <i name="ENCUT">    400.00000000</i>
  <i type="int" name="ISMEAR">     1</i>
  <i name="SIGMA">      0.20000000</i>
  <i name="KSPACING">      0.15000000</i>
  <i type="logical" name="KGAMMA"> T  </i>
  <i type="logical" name="LWAVE"> F  </i>
  <i type="logical" name="LCHARG"> F  </i>
 </incar>
 <primitive_cell>
  <structure name="primitive_cell" >
   <crystal>
    <varray name="basis" >
     <v>       2.33067207       0.00000000       1.34561394 </v>
     <v>       0.77689103       2.19737928       1.34561394 </v>
     <v>      -0.00000000      -0.00000000       2.69122890 </v>
    </varray>
    <i name="volume">     13.78278034 </i>
    <varray name="rec_basis" >
     <v>       0.42906079      -0.15169592       0.00000000 </v>
     <v>      -0.00000000       0.45508757       0.00000000 </v>
     <v>      -0.21453031      -0.15169577       0.37157746 </v>
    </varray>
   </crystal>
   <varray name="positions" >
    <v>       0.00000000       0.00000000       0.00000000 </v>
   </varray>
  </structure>
  <varray name="primitive_index" >
   <v type="int" >        1 </v>
  </varray>
 </primitive_cell>
 <kpoints>
  <generation param="Gamma">
   <v type="int" name="divisions">      20       20       20 </v>
   <v name="usershift">      0.00000000       0.00000000       0.00000000 </v>
   <v name="genvec1">      0.05000000       0.00000000       0.00000000 </v>
   <v name="genvec2">      0.00000000       0.05000000       0.00000000 </v>
   <v name="genvec3">     -0.00000000      -0.00000000       0.05000000 </v>
   <v name="shift">      0.00000000       0.00000000       0.00000000 </v>
  </generation>
  <varray name="kpointlist" >
   <v>       0.00000000       0.00000000       0.00000000 </v>
   <v>       0.05000000       0.00000000       0.00000000 </v>
   <v>       0.10000000       0.00000000       0.00000000 </v>
   <v>       0.15000000       0.00000000       0.00000000 </v>
   <v>       0.20000000       0.00000000       0.00000000 </v>
   <v>       0.25000000       0.00000000       0.00000000 </v>
   <v>       0.30000000       0.00000000       0.00000000 </v>
   <v>       0.35000000       0.00000000       0.00000000 </v>
   <v>       0.40000000       0.00000000       0.00000000 </v>
   <v>       0.45000000       0.00000000       0.00000000 </v>
   <v>       0.50000000       0.00000000       0.00000000 </v>
   <v>       0.05000000       0.05000000       0.00000000 </v>
   <v>       0.10000000       0.05000000       0.00000000 </v>
   <v>       0.15000000       0.05000000       0.00000000 </v>
   <v>       0.20000000       0.05000000       0.00000000 </v>
   <v>       0.25000000       0.05000000       0.00000000 </v>
   <v>       0.30000000       0.05000000       0.00000000 </v>
   <v>       0.35000000       0.05000000       0.00000000 </v>
   <v>       0.40000000       0.05000000       0.00000000 </v>
   <v>       0.45000000       0.05000000       0.00000000 </v>
   <v>       0.50000000       0.05000000       0.00000000 </v>
   <v>      -0.45000000       0.05000000       0.00000000 </v>
   <v>      -0.40000000       0.05000000       0.00000000 </v>
   <v>      -0.35000000       0.05000000       0.00000000 </v>
   <v>      -0.30000000       0.05000000       0.00000000 </v>
   <v>      -0.25000000       0.05000000       0.00000000 </v>
   <v>      -0.20000000       0.05000000       0.00000000 </v>
   <v>      -0.15000000       0.05000000       0.00000000 </v>
   <v>      -0.10000000       0.05000000       0.00000000 </v>
   <v>      -0.05000000       0.05000000       0.00000000 </v>
   <v>       0.10000000       0.10000000       0.00000000 </v>
   <v>       0.15000000       0.10000000       0.00000000 </v>
   <v>       0.20000000       0.10000000       0.00000000 </v>
   <v>       0.25000000       0.10000000       0.00000000 </v>
   <v>       0.30000000       0.10000000       0.00000000 </v>
   <v>       0.35000000       0.10000000       0.00000000 </v>
   <v>       0.40000000       0.10000000       0.00000000 </v>
   <v>       0.45000000       0.10000000       0.00000000 </v>
   <v>       0.50000000       0.10000000       0.00000000 </v>
   <v>      -0.45000000       0.10000000       0.00000000 </v>
   <v>      -0.40000000       0.10000000       0.00000000 </v>
   <v>      -0.35000000       0.10000000       0.00000000 </v>
   <v>      -0.30000000       0.10000000       0.00000000 </v>
   <v>      -0.25000000       0.10000000       0.00000000 </v>
   <v>      -0.20000000       0.10000000       0.00000000 </v>
   <v>      -0.15000000       0.10000000       0.00000000 </v>
   <v>      -0.10000000       0.10000000       0.00000000 </v>
   <v>       0.15000000       0.15000000       0.00000000 </v>
   <v>       0.20000000       0.15000000       0.00000000 </v>
   <v>       0.25000000       0.15000000       0.00000000 </v>
   <v>       0.30000000       0.15000000       0.00000000 </v>
   <v>       0.35000000       0.15000000       0.00000000 </v>
   <v>       0.40000000       0.15000000       0.00000000 </v>
   <v>       0.45000000       0.15000000       0.00000000 </v>
   <v>       0.50000000       0.15000000       0.00000000 </v>
   <v>      -0.45000000       0.15000000       0.00000000 </v>
   <v>      -0.40000000       0.15000000       0.00000000 </v>
   <v>      -0.35000000       0.15000000       0.00000000 </v>
   <v>      -0.30000000       0.15000000       0.00000000 </v>
   <v>      -0.25000000       0.15000000       0.00000000 </v>
   <v>      -0.20000000       0.15000000       0.00000000 </v>
   <v>      -0.15000000       0.15000000       0.00000000 </v>
   <v>       0.20000000       0.20000000       0.00000000 </v>
   <v>       0.25000000       0.20000000       0.00000000 </v>
   <v>       0.30000000       0.20000000       0.00000000 </v>
   <v>       0.35000000       0.20000000       0.00000000 </v>
   <v>       0.40000000       0.20000000       0.00000000 </v>
   <v>       0.45000000       0.20000000       0.00000000 </v>
   <v>       0.50000000       0.20000000       0.00000000 </v>
   <v>      -0.45000000       0.20000000       0.00000000 </v>
   <v>      -0.40000000       0.20000000       0.00000000 </v>
   <v>      -0.35000000       0.20000000       0.00000000 </v>
   <v>      -0.30000000       0.20000000       0.00000000 </v>
   <v>      -0.25000000       0.20000000       0.00000000 </v>
   <v>      -0.20000000       0.20000000       0.00000000 </v>
   <v>       0.25000000       0.25000000       0.00000000 </v>
   <v>       0.30000000       0.25000000       0.00000000 </v>
   <v>       0.35000000       0.25000000       0.00000000 </v>
   <v>       0.40000000       0.25000000       0.00000000 </v>
   <v>       0.45000000       0.25000000       0.00000000 </v>
   <v>       0.50000000       0.25000000       0.00000000 </v>
   <v>      -0.45000000       0.25000000       0.00000000 </v>
   <v>      -0.40000000       0.25000000       0.00000000 </v>
   <v>      -0.35000000       0.25000000       0.00000000 </v>
   <v>      -0.30000000       0.25000000       0.00000000 </v>
   <v>      -0.25000000       0.25000000       0.00000000 </v>
   <v>       0.30000000       0.30000000       0.00000000 </v>
   <v>       0.35000000       0.30000000       0.00000000 </v>
   <v>       0.40000000       0.30000000       0.00000000 </v>
   <v>       0.45000000       0.30000000       0.00000000 </v>
   <v>       0.50000000       0.30000000       0.00000000 </v>
   <v>      -0.45000000       0.30000000       0.00000000 </v>
   <v>      -0.40000000       0.30000000       0.00000000 </v>
   <v>      -0.35000000       0.30000000       0.00000000 </v>
   <v>      -0.30000000       0.30000000       0.00000000 </v>
   <v>       0.35000000       0.35000000       0.00000000 </v>
   <v>       0.40000000       0.35000000       0.00000000 </v>
   <v>       0.45000000       0.35000000       0.00000000 </v>
   <v>       0.50000000       0.35000000       0.00000000 </v>
   <v>      -0.45000000       0.35000000       0.00000000 </v>
   <v>      -0.40000000       0.35000000       0.00000000 </v>
   <v>      -0.35000000       0.35000000       0.00000000 </v>
   <v>       0.40000000       0.40000000       0.00000000 </v>
   <v>       0.45000000       0.40000000       0.00000000 </v>
   <v>       0.50000000       0.40000000       0.00000000 </v>
   <v>      -0.45000000       0.40000000       0.00000000 </v>
   <v>      -0.40000000       0.40000000       0.00000000 </v>
   <v>       0.45000000       0.45000000       0.00000000 </v>
   <v>       0.50000000       0.45000000       0.00000000 </v>
   <v>      -0.45000000       0.45000000       0.00000000 </v>
   <v>       0.50000000       0.50000000       0.00000000 </v>
   <v>       0.15000000       0.10000000       0.05000000 </v>
   <v>       0.20000000       0.10000000       0.05000000 </v>
   <v>       0.25000000       0.10000000       0.05000000 </v>
   <v>       0.30000000       0.10000000       0.05000000 </v>
   <v>       0.35000000       0.10000000       0.05000000 </v>
   <v>       0.40000000       0.10000000       0.05000000 </v>
   <v>       0.45000000       0.10000000       0.05000000 </v>
   <v>       0.50000000       0.10000000       0.05000000 </v>
   <v>      -0.45000000       0.10000000       0.05000000 </v>
   <v>       0.20000000       0.15000000       0.05000000 </v>
   <v>       0.25000000       0.15000000       0.05000000 </v>
   <v>       0.30000000       0.15000000       0.05000000 </v>
   <v>       0.35000000       0.15000000       0.05000000 </v>
   <v>       0.40000000       0.15000000       0.05000000 </v>
   <v>       0.45000000       0.15000000       0.05000000 </v>
   <v>       0.50000000       0.15000000       0.05000000 </v>
   <v>      -0.45000000       0.15000000       0.05000000 </v>
   <v>      -0.40000000       0.15000000       0.05000000 </v>
   <v>      -0.35000000       0.15000000       0.05000000 </v>
   <v>      -0.30000000       0.15000000       0.05000000 </v>
   <v>      -0.25000000       0.15000000       0.05000000 </v>
   <v>      -0.20000000       0.15000000       0.05000000 </v>
   <v>      -0.15000000       0.15000000       0.05000000 </v>
   <v>      -0.10000000       0.15000000       0.05000000 </v>
   <v>       0.25000000       0.20000000       0.05000000 </v>
   <v>       0.30000000       0.20000000       0.05000000 </v>
   <v>       0.35000000       0.20000000       0.05000000 </v>
   <v>       0.40000000       0.20000000       0.05000000 </v>
   <v>       0.45000000       0.20000000       0.05000000 </v>
   <v>       0.50000000       0.20000000       0.05000000 </v>
   <v>      -0.45000000       0.20000000       0.05000000 </v>
   <v>      -0.40000000       0.20000000       0.05000000 </v>
   <v>      -0.35000000       0.20000000       0.05000000 </v>
   <v>      -0.30000000       0.20000000       0.05000000 </v>
   <v>      -0.25000000       0.20000000       0.05000000 </v>
   <v>      -0.20000000       0.20000000       0.05000000 </v>
   <v>      -0.15000000       0.20000000       0.05000000 </v>
   <v>       0.30000000       0.25000000       0.05000000 </v>
   <v>       0.35000000       0.25000000       0.05000000 </v>
   <v>       0.40000000       0.25000000       0.05000000 </v>
   <v>       0.45000000       0.25000000       0.05000000 </v>
   <v>       0.50000000       0.25000000       0.05000000 </v>
   <v>      -0.45000000       0.25000000       0.05000000 </v>
   <v>      -0.40000000       0.25000000       0.05000000 </v>
   <v>      -0.35000000       0.25000000       0.05000000 </v>
   <v>      -0.30000000       0.25000000       0.05000000 </v>
   <v>      -0.25000000       0.25000000       0.05000000 </v>
   <v>      -0.20000000       0.25000000       0.05000000 </v>
   <v>       0.35000000       0.30000000       0.05000000 </v>
   <v>       0.40000000       0.30000000       0.05000000 </v>
   <v>       0.45000000       0.30000000       0.05000000 </v>
   <v>       0.50000000       0.30000000       0.05000000 </v>
   <v>      -0.45000000       0.30000000       0.05000000 </v>
   <v>      -0.40000000       0.30000000       0.05000000 </v>
   <v>      -0.35000000       0.30000000       0.05000000 </v>
   <v>      -0.30000000       0.30000000       0.05000000 </v>
   <v>      -0.25000000       0.30000000       0.05000000 </v>
   <v>       0.40000000       0.35000000       0.05000000 </v>
   <v>       0.45000000       0.35000000       0.05000000 </v>
   <v>       0.50000000       0.35000000       0.05000000 </v>
   <v>      -0.45000000       0.35000000       0.05000000 </v>
   <v>      -0.40000000       0.35000000       0.05000000 </v>
   <v>      -0.35000000       0.35000000       0.05000000 </v>
   <v>      -0.30000000       0.35000000       0.05000000 </v>
   <v>       0.45000000       0.40000000       0.05000000 </v>
   <v>       0.50000000       0.40000000       0.05000000 </v>
   <v>      -0.45000000       0.40000000       0.05000000 </v>
   <v>      -0.40000000       0.40000000       0.05000000 </v>
   <v>      -0.35000000       0.40000000       0.05000000 </v>
   <v>       0.50000000       0.45000000       0.05000000 </v>
   <v>      -0.45000000       0.45000000       0.05000000 </v>
   <v>      -0.40000000       0.45000000       0.05000000 </v>
   <v>      -0.45000000       0.50000000       0.05000000 </v>
   <v>       0.30000000       0.20000000       0.10000000 </v>
   <v>       0.35000000       0.20000000       0.10000000 </v>
   <v>       0.40000000       0.20000000       0.10000000 </v>
   <v>       0.45000000       0.20000000       0.10000000 </v>
   <v>       0.50000000       0.20000000       0.10000000 </v>
   <v>      -0.45000000       0.20000000       0.10000000 </v>
   <v>      -0.40000000       0.20000000       0.10000000 </v>
   <v>       0.35000000       0.25000000       0.10000000 </v>
   <v>       0.40000000       0.25000000       0.10000000 </v>
   <v>       0.45000000       0.25000000       0.10000000 </v>
   <v>       0.50000000       0.25000000       0.10000000 </v>
   <v>      -0.45000000       0.25000000       0.10000000 </v>
   <v>      -0.40000000       0.25000000       0.10000000 </v>
   <v>      -0.35000000       0.25000000       0.10000000 </v>
   <v>      -0.30000000       0.25000000       0.10000000 </v>
   <v>      -0.25000000       0.25000000       0.10000000 </v>
   <v>      -0.20000000       0.25000000       0.10000000 </v>
   <v>      -0.15000000       0.25000000       0.10000000 </v>
   <v>       0.40000000       0.30000000       0.10000000 </v>
   <v>       0.45000000       0.30000000       0.10000000 </v>
   <v>       0.50000000       0.30000000       0.10000000 </v>
   <v>      -0.45000000       0.30000000       0.10000000 </v>
   <v>      -0.40000000       0.30000000       0.10000000 </v>
   <v>      -0.35000000       0.30000000       0.10000000 </v>
   <v>      -0.30000000       0.30000000       0.10000000 </v>
   <v>      -0.25000000       0.30000000       0.10000000 </v>
   <v>      -0.20000000       0.30000000       0.10000000 </v>
   <v>       0.45000000       0.35000000       0.10000000 </v>
   <v>       0.50000000       0.35000000       0.10000000 </v>
   <v>      -0.45000000       0.35000000       0.10000000 </v>
   <v>      -0.40000000       0.35000000       0.10000000 </v>
   <v>      -0.35000000       0.35000000       0.10000000 </v>
   <v>      -0.30000000       0.35000000       0.10000000 </v>
   <v>      -0.25000000       0.35000000       0.10000000 </v>
   <v>       0.50000000       0.40000000       0.10000000 </v>
   <v>      -0.45000000       0.40000000       0.10000000 </v>
   <v>      -0.40000000       0.40000000       0.10000000 </v>
   <v>      -0.35000000       0.40000000       0.10000000 </v>
   <v>      -0.30000000       0.40000000       0.10000000 </v>
   <v>      -0.45000000       0.45000000       0.10000000 </v>
   <v>      -0.40000000       0.45000000       0.10000000 </v>
   <v>      -0.35000000       0.45000000       0.10000000 </v>
   <v>      -0.40000000       0.50000000       0.10000000 </v>
   <v>       0.45000000       0.30000000       0.15000000 </v>
   <v>       0.50000000       0.30000000       0.15000000 </v>
   <v>      -0.45000000       0.30000000       0.15000000 </v>
   <v>      -0.40000000       0.30000000       0.15000000 </v>
   <v>      -0.35000000       0.30000000       0.15000000 </v>
   <v>       0.50000000       0.35000000       0.15000000 </v>
   <v>      -0.45000000       0.35000000       0.15000000 </v>
   <v>      -0.40000000       0.35000000       0.15000000 </v>
   <v>      -0.35000000       0.35000000       0.15000000 </v>
   <v>      -0.30000000       0.35000000       0.15000000 </v>
   <v>      -0.25000000       0.35000000       0.15000000 </v>
   <v>      -0.20000000       0.35000000       0.15000000 </v>
   <v>      -0.45000000       0.40000000       0.15000000 </v>
   <v>      -0.40000000       0.40000000       0.15000000 </v>
   <v>      -0.35000000       0.40000000       0.15000000 </v>
   <v>      -0.30000000       0.40000000       0.15000000 </v>
   <v>      -0.25000000       0.40000000       0.15000000 </v>
   <v>      -0.40000000       0.45000000       0.15000000 </v>
   <v>      -0.35000000       0.45000000       0.15000000 </v>
   <v>      -0.30000000       0.45000000       0.15000000 </v>
   <v>      -0.35000000       0.50000000       0.15000000 </v>
   <v>      -0.40000000       0.40000000       0.20000000 </v>
   <v>      -0.35000000       0.40000000       0.20000000 </v>
   <v>      -0.30000000       0.40000000       0.20000000 </v>
   <v>      -0.35000000       0.45000000       0.20000000 </v>
   <v>      -0.30000000       0.45000000       0.20000000 </v>
   <v>      -0.25000000       0.45000000       0.20000000 </v>
   <v>      -0.30000000       0.50000000       0.20000000 </v>
   <v>      -0.25000000       0.50000000       0.25000000 </v>
  </varray>
  <varray name="weights" >
   <v>       0.00012500 </v>
   <v>       0.00100000 </v>
   <v>       0.00100000 </v>
   <v>       0.00100000 </v>
   <v>       0.00100000 </v>
   <v>       0.00100000 </v>
   <v>       0.00100000 </v>
   <v>       0.00100000 </v>
   <v>       0.00100000 </v>
   <v>       0.00100000 </v>
   <v>       0.00050000 </v>
   <v>       0.00075000 </v>
   <v>       0.00300000 </v>
   <v>       0.00300000 </v>
   <v>       0.00300000 </v>
   <v>       0.00300000 </v>
   <v>       0.00300000 </v>
   <v>       0.00300000 </v>
   <v>       0.00300000 </v>
   <v>       0.00300000 </v>
   <v>       0.00300000 </v>
   <v>       0.00300000 </v>
   <v>       0.00300000 </v>
   <v>       0.00300000 </v>
   <v>       0.00300000 </v>
   <v>       0.00300000 </v>
   <v>       0.00300000 </v>
   <v>       0.00300000 </v>
   <v>       0.00300000 </v>
   <v>       0.00150000 </v>
   <v>       0.00075000 </v>
   <v>       0.00300000 </v>
   <v>       0.00300000 </v>
   <v>       0.00300000 </v>
   <v>       0.00300000 </v>
   <v>       0.00300000 </v>
   <v>       0.00300000 </v>
   <v>       0.00300000 </v>
   <v>       0.00300000 </v>
   <v>       0.00300000 </v>
   <v>       0.00300000 </v>
   <v>       0.00300000 </v>
   <v>       0.00300000 </v>
   <v>       0.00300000 </v>
   <v>       0.00300000 </v>
   <v>       0.00300000 </v>
   <v>       0.00150000 </v>
   <v>       0.00075000 </v>
   <v>       0.00300000 </v>
   <v>       0.00300000 </v>
   <v>       0.00300000 </v>
   <v>       0.00300000 </v>
   <v>       0.00300000 </v>
   <v>       0.00300000 </v>
   <v>       0.00300000 </v>
   <v>       0.00300000 </v>
   <v>       0.00300000 </v>
   <v>       0.00300000 </v>
   <v>       0.00300000 </v>
   <v>       0.00300000 </v>
   <v>       0.00300000 </v>
   <v>       0.00150000 </v>
   <v>       0.00075000 </v>
   <v>       0.00300000 </v>
   <v>       0.00300000 </v>
   <v>       0.00300000 </v>
   <v>       0.00300000 </v>
   <v>       0.00300000 </v>
   <v>       0.00300000 </v>
   <v>       0.00300000 </v>
   <v>       0.00300000 </v>
   <v>       0.00300000 </v>
   <v>       0.00300000 </v>
   <v>       0.00300000 </v>
   <v>       0.00150000 </v>
   <v>       0.00075000 </v>
   <v>       0.00300000 </v>
   <v>       0.00300000 </v>
   <v>       0.00300000 </v>
   <v>       0.00300000 </v>
   <v>       0.00300000 </v>
   <v>       0.00300000 </v>
   <v>       0.00300000 </v>
   <v>       0.00300000 </v>
   <v>       0.00300000 </v>
   <v>       0.00150000 </v>
   <v>       0.00075000 </v>
   <v>       0.00300000 </v>
   <v>       0.00300000 </v>
   <v>       0.00300000 </v>
   <v>       0.00300000 </v>
   <v>       0.00300000 </v>
   <v>       0.00300000 </v>
   <v>       0.00300000 </v>
   <v>       0.00150000 </v>
   <v>       0.00075000 </v>
   <v>       0.00300000 </v>
   <v>       0.00300000 </v>
   <v>       0.00300000 </v>
   <v>       0.00300000 </v>
   <v>       0.00300000 </v>
   <v>       0.00150000 </v>
   <v>       0.00075000 </v>
   <v>       0.00300000 </v>
   <v>       0.00300000 </v>
   <v>       0.00300000 </v>
   <v>       0.00150000 </v>
   <v>       0.00075000 </v>
   <v>       0.00300000 </v>
   <v>       0.00150000 </v>
   <v>       0.00037500 </v>
   <v>       0.00300000 </v>
   <v>       0.00600000 </v>
   <v>       0.00600000 </v>
   <v>       0.00600000 </v>
   <v>       0.00600000 </v>
   <v>       0.00600000 </v>
   <v>       0.00600000 </v>
   <v>       0.00600000 </v>
   <v>       0.00300000 </v>
   <v>       0.00300000 </v>
   <v>       0.00600000 </v>
   <v>       0.00600000 </v>
   <v>       0.00600000 </v>
   <v>       0.00600000 </v>
   <v>       0.00600000 </v>
   <v>       0.00600000 </v>
   <v>       0.00600000 </v>
   <v>       0.00600000 </v>
   <v>       0.00600000 </v>
   <v>       0.00600000 </v>
   <v>       0.00600000 </v>
   <v>       0.00600000 </v>
   <v>       0.00600000 </v>
   <v>       0.00300000 </v>
   <v>       0.00300000 </v>
   <v>       0.00600000 </v>
   <v>       0.00600000 </v>
   <v>       0.00600000 </v>
   <v>       0.00600000 </v>
   <v>       0.00600000 </v>
   <v>       0.00600000 </v>
   <v>       0.00600000 </v>
   <v>       0.00600000 </v>
   <v>       0.00600000 </v>
   <v>       0.00600000 </v>
   <v>       0.00600000 </v>
   <v>       0.00300000 </v>
   <v>       0.00300000 </v>
   <v>       0.00600000 </v>
   <v>       0.00600000 </v>
   <v>       0.00600000 </v>
   <v>       0.00600000 </v>
   <v>       0.00600000 </v>
   <v>       0.00600000 </v>
   <v>       0.00600000 </v>
   <v>       0.00600000 </v>
   <v>       0.00600000 </v>
   <v>       0.00300000 </v>
   <v>       0.00300000 </v>
   <v>       0.00600000 </v>
   <v>       0.00600000 </v>
   <v>       0.00600000 </v>
   <v>       0.00600000 </v>
   <v>       0.00600000 </v>
   <v>       0.00600000 </v>
   <v>       0.00600000 </v>
   <v>       0.00300000 </v>
   <v>       0.00300000 </v>
   <v>       0.00600000 </v>
   <v>       0.00600000 </v>
   <v>       0.00600000 </v>
   <v>       0.00600000 </v>
   <v>       0.00600000 </v>
   <v>       0.00300000 </v>
   <v>       0.00300000 </v>
   <v>       0.00600000 </v>
   <v>       0.00600000 </v>
   <v>       0.00600000 </v>
   <v>       0.00300000 </v>
   <v>       0.00300000 </v>
   <v>       0.00600000 </v>
   <v>       0.00300000 </v>
   <v>       0.00150000 </v>
   <v>       0.00300000 </v>
   <v>       0.00600000 </v>
   <v>       0.00600000 </v>
   <v>       0.00600000 </v>
   <v>       0.00600000 </v>
   <v>       0.00600000 </v>
   <v>       0.00300000 </v>
   <v>       0.00300000 </v>
   <v>       0.00600000 </v>
   <v>       0.00600000 </v>
   <v>       0.00600000 </v>
   <v>       0.00600000 </v>
   <v>       0.00600000 </v>
   <v>       0.00600000 </v>
   <v>       0.00600000 </v>
   <v>       0.00600000 </v>
   <v>       0.00600000 </v>
   <v>       0.00300000 </v>
   <v>       0.00300000 </v>
   <v>       0.00600000 </v>
   <v>       0.00600000 </v>
   <v>       0.00600000 </v>
   <v>       0.00600000 </v>
   <v>       0.00600000 </v>
   <v>       0.00600000 </v>
   <v>       0.00600000 </v>
   <v>       0.00300000 </v>
   <v>       0.00300000 </v>
   <v>       0.00600000 </v>
   <v>       0.00600000 </v>
   <v>       0.00600000 </v>
   <v>       0.00600000 </v>
   <v>       0.00600000 </v>
   <v>       0.00300000 </v>
   <v>       0.00300000 </v>
   <v>       0.00600000 </v>
   <v>       0.00600000 </v>
   <v>       0.00600000 </v>
   <v>       0.00300000 </v>
   <v>       0.00300000 </v>
   <v>       0.00600000 </v>
   <v>       0.00300000 </v>
   <v>       0.00150000 </v>
   <v>       0.00300000 </v>
   <v>       0.00600000 </v>
   <v>       0.00600000 </v>
   <v>       0.00600000 </v>
   <v>       0.00300000 </v>
   <v>       0.00300000 </v>
   <v>       0.00600000 </v>
   <v>       0.00600000 </v>
   <v>       0.00600000 </v>
   <v>       0.00600000 </v>
   <v>       0.00600000 </v>
   <v>       0.00300000 </v>
   <v>       0.00300000 </v>
   <v>       0.00600000 </v>
   <v>       0.00600000 </v>
   <v>       0.00600000 </v>
   <v>       0.00300000 </v>
   <v>       0.00300000 </v>
   <v>       0.00600000 </v>
   <v>       0.00300000 </v>
   <v>       0.00150000 </v>
   <v>       0.00300000 </v>
   <v>       0.00600000 </v>
   <v>       0.00300000 </v>
   <v>       0.00300000 </v>
   <v>       0.00600000 </v>
   <v>       0.00300000 </v>
   <v>       0.00150000 </v>
   <v>       0.00075000 </v>
  </varray>
 </kpoints>
 <parameters>
  <separator name="general" >
   <i type="string" name="SYSTEM">Rh FCC EOS static single-point</i>
   <i type="logical" name="LCOMPAT"> F  </i>
  </separator>
  <separator name="electronic" >
   <i type="string" name="PREC">accura</i>
   <i name="ENMAX">    400.00000000</i>
   <i name="ENAUG">    374.51300000</i>
   <i name="EDIFF">      0.00000100</i>
   <i type="int" name="IALGO">    38</i>
   <i type="int" name="IWAVPR">    10</i>
   <i type="int" name="NBANDS">     8</i>
   <i type="int" name="NBANDSLOW">    -1</i>
   <i type="int" name="NBANDSHIGH">    -1</i>
   <i name="NELECT">      9.00000000</i>
   <i type="int" name="TURBO">     0</i>
   <i type="int" name="IRESTART">     0</i>
   <i type="int" name="NREBOOT">     0</i>
   <i type="int" name="NMIN">     0</i>
   <i name="EREF">      0.00000000</i>
   <separator name="electronic smearing" >
    <i type="int" name="ISMEAR">     1</i>
    <i name="SIGMA">      0.20000000</i>
    <i name="KSPACING">      0.15000000</i>
    <i type="logical" name="KGAMMA"> T  </i>
    <i type="logical" name="KBLOWUP"> T  </i>
   </separator>
   <separator name="electronic projectors" >
    <i type="logical" name="LREAL"> F  </i>
    <v name="ROPT">      0.00000000</v>
    <i type="int" name="LMAXPAW">  -100</i>
    <i type="int" name="LMAXMIX">     2</i>
    <i type="logical" name="NLSPLINE"> F  </i>
   </separator>
   <separator name="electronic startup" >
    <i type="int" name="ISTART">     0</i>
    <i type="int" name="ICHARG">     2</i>
    <i type="int" name="INIWAV">     1</i>
   </separator>
   <separator name="electronic spin" >
    <i type="int" name="ISPIN">     1</i>
    <i type="logical" name="LNONCOLLINEAR"> F  </i>
    <v name="MAGMOM">      1.00000000</v>
    <i name="NUPDOWN">     -1.00000000</i>
    <i type="logical" name="LSORBIT"> F  </i>
    <v name="SAXIS">      0.00000000      0.00000000      1.00000000</v>
    <i type="logical" name="LSPIRAL"> F  </i>
    <v name="QSPIRAL">      0.00000000      0.00000000      0.00000000</v>
    <i type="logical" name="LZEROZ"> F  </i>
   </separator>
   <separator name="electronic exchange-correlation" >
    <i type="logical" name="LASPH"> F  </i>
    <i type="logical" name="LMETAGGA"> F  </i>
   </separator>
   <separator name="electronic convergence" >
    <i type="int" name="NELM">   100</i>
    <i type="int" name="NELMDL">    -5</i>
    <i type="int" name="NELMIN">     2</i>
    <i name="ENINI">    400.00000000</i>
    <separator name="electronic convergence detail" >
     <i type="logical" name="LDIAG"> T  </i>
     <i type="logical" name="LSUBROT"> F  </i>
     <i name="WEIMIN">      0.00000000</i>
     <i name="EBREAK">      0.00000003</i>
     <i name="DEPER">      0.30000000</i>
     <i type="int" name="NRMM">     4</i>
     <i name="TIME">      0.40000000</i>
    </separator>
   </separator>
   <separator name="electronic mixer" >
    <i name="AMIX">      0.40000000</i>
    <i name="BMIX">      1.00000000</i>
    <i name="AMIN">      0.10000000</i>
    <i name="AMIX_MAG">      1.60000000</i>
    <i name="BMIX_MAG">      1.00000000</i>
    <separator name="electronic mixer details" >
     <i type="int" name="IMIX">     4</i>
     <i type="logical" name="MIXFIRST"> F  </i>
     <i type="int" name="MAXMIX">   -45</i>
     <i name="WC">    100.00000000</i>
     <i type="int" name="INIMIX">     1</i>
     <i type="int" name="MIXPRE">     1</i>
     <i type="int" name="MREMOVE">     5</i>
    </separator>
   </separator>
   <separator name="electronic dipolcorrection" >
    <i type="logical" name="LDIPOL"> F  </i>
    <i type="logical" name="LMONO"> F  </i>
    <i type="int" name="IDIPOL">     0</i>
    <i name="EPSILON">      1.00000000</i>
    <v name="DIPOL">   -100.00000000   -100.00000000   -100.00000000</v>
    <i name="EFIELD">      0.00000000</i>
   </separator>
  </separator>
  <separator name="grids" >
   <i type="int" name="NGX">    18</i>
   <i type="int" name="NGY">    18</i>
   <i type="int" name="NGZ">    18</i>
   <i type="int" name="NGXF">    36</i>
   <i type="int" name="NGYF">    36</i>
   <i type="int" name="NGZF">    36</i>
   <i type="logical" name="ADDGRID"> F  </i>
  </separator>
  <separator name="ionic" >
   <i type="int" name="NSW">     0</i>
   <i type="int" name="IBRION">    -1</i>
   <i type="int" name="MDALGO">     0</i>
   <i type="int" name="ISIF">     2</i>
   <i name="PSTRESS">      0.00000000</i>
   <i name="EDIFFG">      0.00001000</i>
   <i type="int" name="NFREE">     0</i>
   <i name="POTIM">      0.50000000</i>
   <i name="SMASS">     -3.00000000</i>
   <i name="SCALEE">      1.00000000</i>
  </separator>
  <separator name="ionic md" >
   <i name="TEBEG">      0.00010000</i>
   <i name="TEEND">      0.00010000</i>
   <i type="int" name="NBLOCK">     1</i>
   <i type="int" name="KBLOCK">     1</i>
   <i type="int" name="NPACO">   256</i>
   <i name="APACO">     10.00000000</i>
  </separator>
  <separator name="symmetry" >
   <i type="int" name="ISYM">     2</i>
   <i name="SYMPREC">      0.00001000</i>
  </separator>
  <separator name="dos" >
   <i type="int" name="LORBIT">     0</i>
   <v name="RWIGS">     -1.00000000</v>
   <i type="int" name="NEDOS">   301</i>
   <i name="EMIN">     10.00000000</i>
   <i name="EMAX">    -10.00000000</i>
   <i name="EFERMI">      0.00000000</i>
  </separator>
  <separator name="writing" >
   <i type="int" name="NWRITE">     2</i>
   <i type="logical" name="LWAVE"> F  </i>
   <i type="logical" name="LDOWNSAMPLE"> F  </i>
   <i type="logical" name="LCHARG"> F  </i>
   <i type="logical" name="LPARD"> F  </i>
   <i type="logical" name="LVTOT"> F  </i>
   <i type="logical" name="LVHAR"> F  </i>
   <i type="logical" name="LELF"> F  </i>
   <i type="logical" name="LOPTICS"> F  </i>
   <v name="STM">      0.00000000      0.00000000      0.00000000      0.00000000      0.00000000      0.00000000      0.00000000</v>
  </separator>
  <separator name="performance" >
   <i type="int" name="NPAR">     1</i>
   <i type="int" name="NSIM">     4</i>
   <i type="int" name="NBLK">    -1</i>
   <i type="logical" name="LPLANE"> T  </i>
   <i type="logical" name="LSCALAPACK"> T  </i>
   <i type="logical" name="LSCAAWARE"> F  </i>
   <i type="logical" name="LSCALU"> F  </i>
   <i type="logical" name="LASYNC"> F  </i>
   <i type="logical" name="LORBITALREAL"> F  </i>
  </separator>
  <separator name="miscellaneous" >
   <i type="int" name="IDIOT">     3</i>
   <i type="int" name="PHON_NSTRUCT">    -1</i>
   <i type="logical" name="LMUSIC"> F  </i>
   <v name="POMASS">    102.90600000</v>
   <v name="DARWINR">      0.00000000</v>
   <v name="DARWINV">      1.00000000</v>
   <i type="logical" name="LCORR"> T  </i>
  </separator>
  <i type="logical" name="GGA_COMPAT"> T  </i>
  <i type="logical" name="LBERRY"> F  </i>
  <i type="int" name="ICORELEVEL">     0</i>
  <i type="logical" name="LDAU"> F  </i>
  <i type="int" name="I_CONSTRAINED_M">     0</i>
  <separator name="electronic exchange-correlation" >
   <i type="string" name="GGA">--</i>
   <i type="int" name="VOSKOWN">     0</i>
   <i type="logical" name="LHFCALC"> F  </i>
   <i type="string" name="PRECFOCK"></i>
   <i type="logical" name="LSYMGRAD"> F  </i>
   <i type="logical" name="LHFONE"> F  </i>
   <i type="logical" name="LRHFCALC"> F  </i>
   <i type="logical" name="LTHOMAS"> F  </i>
   <i type="logical" name="LMODELHF"> F  </i>
   <i type="logical" name="LFOCKACE"> F  </i>
   <i name="ENCUT4O">     -1.00000000</i>
   <i type="int" name="EXXOEP">     0</i>
   <i type="int" name="FOURORBIT">     0</i>
   <i name="AEXX">      0.00000000</i>
   <i name="HFALPHA">      0.00000000</i>
   <i name="MCALPHA">      0.00000000</i>
   <i name="ALDAX">      1.00000000</i>
   <i name="AGGAX">      1.00000000</i>
   <i name="ALDAC">      1.00000000</i>
   <i name="AGGAC">      1.00000000</i>
   <i type="int" name="NKREDX">     1</i>
   <i type="int" name="NKREDY">     1</i>
   <i type="int" name="NKREDZ">     1</i>
   <i type="logical" name="SHIFTRED"> F  </i>
   <i type="logical" name="ODDONLY"> F  </i>
   <i type="logical" name="EVENONLY"> F  </i>
   <i type="int" name="LMAXFOCK">     0</i>
   <i type="int" name="NMAXFOCKAE">     0</i>
   <i type="logical" name="LFOCKAEDFT"> F  </i>
   <i name="HFSCREEN">      0.00000000</i>
   <i name="HFSCREENC">      0.00000000</i>
   <i type="int" name="NBANDSGWLOW">     0</i>
  </separator>
  <separator name="vdW DFT" >
   <i type="logical" name="LUSE_VDW"> F  </i>
   <i type="int" name="IVDW_NL">     1</i>
   <i type="logical" name="LSPIN_VDW"> F  </i>
   <i name="Zab_VDW">     -0.84910000</i>
   <i name="PARAM1">      0.12340000</i>
   <i name="PARAM2">      1.00000000</i>
   <i name="PARAM3">      0.00000000</i>
  </separator>
  <separator name="model GW" >
   <i type="int" name="MODEL_GW">     0</i>
   <i name="MODEL_EPS0">      8.26966820</i>
   <i name="MODEL_ALPHA">      1.00000000</i>
  </separator>
  <separator name="linear response parameters" >
   <i type="logical" name="LEPSILON"> F  </i>
   <i type="logical" name="LRPA"> F  </i>
   <i type="logical" name="LNABLA"> F  </i>
   <i type="logical" name="LVEL"> F  </i>
   <i name="CSHIFT">      0.10000000</i>
   <i name="OMEGAMAX">     -1.00000000</i>
   <i name="DEG_THRESHOLD">      0.00200000</i>
   <i name="RTIME">     -0.10000000</i>
   <i name="WPLASMAI">      0.00000000</i>
   <v name="DFIELD">      0.00000000      0.00000000      0.00000000</v>
   <v name="WPLASMA">      0.00000000      0.00000000      0.00000000      0.00000000      0.00000000      0.00000000      0.00000000      0.00000000      0.00000000</v>
  </separator>
  <separator name="orbital magnetization" >
   <i type="logical" name="NUCIND"> F  </i>
   <v name="MAGPOS">      0.00000000      0.00000000      0.00000000</v>
   <i type="logical" name="LNICSALL"> T  </i>
   <i type="logical" name="ORBITALMAG"> F  </i>
   <i type="logical" name="LMAGBLOCH"> F  </i>
   <i type="logical" name="LCHIMAG"> F  </i>
   <i type="logical" name="LGAUGE"> T  </i>
   <i type="int" name="MAGATOM">     0</i>
   <v name="MAGDIPOL">      0.00000000      0.00000000      0.00000000</v>
   <v name="AVECCONST">      0.00000000      0.00000000      0.00000000</v>
  </separator>
  <separator name="response functions" >
   <i type="logical" name="LALL_IN_ONE"> F  </i>
   <i type="int" name="IALL_IN_ONE">    -1</i>
   <i type="int" name="NBANDS_WAVE">    -1</i>
   <i type="logical" name="LFINITE_TEMPERATURE"> F  </i>
   <i type="logical" name="LADDER"> F  </i>
   <i type="logical" name="LRPAFORCE"> F  </i>
   <i type="logical" name="LFXC"> F  </i>
   <i type="logical" name="LHARTREE"> T  </i>
   <i type="int" name="IBSE">     0</i>
   <v type="int" name="KPOINT">    -1     0     0     0</v>
   <i type="logical" name="LTCTC"> F  </i>
   <i type="logical" name="LTCTE"> F  </i>
   <i type="logical" name="LTETE"> F  </i>
   <i type="logical" name="LTRIPLET"> F  </i>
   <i type="logical" name="LFXCEPS"> F  </i>
   <i type="logical" name="LFXHEG"> F  </i>
   <i type="int" name="NATURALO">     2</i>
   <i type="logical" name="LHOLEGF"> F  </i>
   <i type="logical" name="L2ORDER"> F  </i>
   <i type="logical" name="LDMP1"> F  </i>
   <i type="logical" name="LMP2LT"> F  </i>
   <i type="logical" name="LSMP2LT"> F  </i>
   <i type="logical" name="LGWLF"> F  </i>
   <i name="ENCUTGW">     -1.60000002</i>
   <i name="ENCUTGWSOFT">     -1.60000002</i>
   <i name="ENCUTLF">     -1.00000000</i>
   <i type="logical" name="LESF_SPLINES"> F  </i>
   <i type="int" name="LMAXMP2">    -1</i>
   <i name="SCISSOR">      0.00000000</i>
   <i type="int" name="NOMEGA">     0</i>
   <i type="int" name="NOMEGAR">     0</i>
   <i type="int" name="NBANDSGW">    -1</i>
   <i type="int" name="NBANDSO">    -1</i>
   <i type="int" name="NBANDSV">    -1</i>
   <i type="int" name="NELMGW">     1</i>
   <i type="int" name="NELMHF">     1</i>
   <i type="int" name="DIM">     3</i>
   <i type="int" name="IESPILON">     4</i>
   <i type="int" name="ANTIRES">     0</i>
   <i name="OMEGAMAX">    -30.00000000</i>
   <i name="OMEGAMIN">    -30.00000000</i>
   <i name="OMEGATL">   -200.00000000</i>
   <i type="int" name="OMEGAGRID">     0</i>
   <i name="CSHIFT">     -0.10000000</i>
   <i type="logical" name="LSELFENERGY"> F  </i>
   <i type="logical" name="LSPECTRAL"> F  </i>
   <i type="logical" name="LSPECTRALGW"> F  </i>
   <i type="logical" name="LSINGLES"> F  </i>
   <i type="logical" name="LFERMIGW"> F  </i>
   <i type="logical" name="ODDONLYGW"> F  </i>
   <i type="logical" name="EVENONLYGW"> F  </i>
   <i type="int" name="NKREDLFX">     1</i>
   <i type="int" name="NKREDLFY">     1</i>
   <i type="int" name="NKREDLFZ">     1</i>
   <i type="int" name="MAXMEM">  2800</i>
   <i type="int" name="TELESCOPE">     0</i>
   <i type="int" name="NTAUPAR">    -1</i>
   <i type="int" name="NOMEGAPAR">    -1</i>
   <i name="DAMP_NEWTON">      0.80000001</i>
   <i name="LAMBDA">      1.00000000</i>
  </separator>
  <separator name="External order field" >
   <i name="OFIELD_KAPPA">      0.00000000</i>
   <v name="OFIELD_K">      0.00000000      0.00000000      0.00000000</v>
   <i name="OFIELD_Q6_NEAR">      0.00000000</i>
   <i name="OFIELD_Q6_FAR">      0.00000000</i>
   <i name="OFIELD_A">      0.00000000</i>
  </separator>
  <separator name="optional k-points parameters" >
   <i type="int" name="KPOINTS_OPT_MODE">     1</i>
   <i type="logical" name="LKPOINTS_OPT"> F  </i>
  </separator>
 </parameters>
 <atominfo>
  <atoms>       1 </atoms>
  <types>       1 </types>
  <array name="atoms" >
   <dimension dim="1">ion</dimension>
   <field type="string">element</field>
   <field type="int">atomtype</field>
   <set>
    <rc><c>Rh</c><c>   1</c></rc>
   </set>
  </array>
  <array name="atomtypes" >
   <dimension dim="1">type</dimension>
   <field type="int">atomspertype</field>
   <field type="string">element</field>
   <field>mass</field>
   <field>valence</field>
   <field type="string">pseudopotential</field>
   <set>
    <rc><c>   1</c><c>Rh</c><c>    102.90600000</c><c>      9.00000000</c><c>  PAW_PBE Rh 04Feb2005                  </c></rc>
   </set>
  </array>
 </atominfo>
 <structure name="initialpos" >
  <crystal>
   <varray name="basis" >
    <v>       2.33067207       0.00000000       1.34561394 </v>
    <v>       0.77689103       2.19737928       1.34561394 </v>
    <v>      -0.00000000      -0.00000000       2.69122890 </v>
   </varray>
   <i name="volume">     13.78278034 </i>
   <varray name="rec_basis" >
    <v>       0.42906079      -0.15169592       0.00000000 </v>
    <v>      -0.00000000       0.45508757       0.00000000 </v>
    <v>      -0.21453031      -0.15169577       0.37157746 </v>
   </varray>
  </crystal>
  <varray name="positions" >
   <v>       0.00000000       0.00000000       0.00000000 </v>
  </varray>
 </structure>
 <calculation>
  <scstep>
   <time name="dav">    3.68   14.74</time>
   <time name="total">    3.71   14.85</time>
   <energy>
    <i name="alphaZ">     40.24111641 </i>
    <i name="ewald">   -702.54114306 </i>
    <i name="hartreedc">    -71.17620964 </i>
    <i name="XCdc">    -16.59246880 </i>
    <i name="pawpsdc">    606.06582986 </i>
    <i name="pawaedc">   -564.12837221 </i>
    <i name="eentropy">     -0.00145231 </i>
    <i name="bandstr">    111.26587695 </i>
    <i name="atom">    616.41545921 </i>
    <i name="e_fr_energy">     19.54863639 </i>
    <i name="e_wo_entrp">     19.55008870 </i>
    <i name="e_0_energy">     19.54912050 </i>
   </energy>
  </scstep>
  <scstep>
   <time name="dav">    3.50   13.99</time>
   <time name="total">    3.51   14.02</time>
   <energy>
    <i name="e_fr_energy">     -7.70320445 </i>
    <i name="e_wo_entrp">     -7.70499243 </i>
    <i name="e_0_energy">     -7.70380044 </i>
   </energy>
  </scstep>
  <scstep>
   <time name="dav">    4.89   19.59</time>
   <time name="total">    4.90   19.62</time>
   <energy>
    <i name="e_fr_energy">     -7.80681711 </i>
    <i name="e_wo_entrp">     -7.80845524 </i>
    <i name="e_0_energy">     -7.80736316 </i>
   </energy>
  </scstep>
  <scstep>
   <time name="dav">    4.61   18.45</time>
   <time name="total">    4.61   18.47</time>
   <energy>
    <i name="e_fr_energy">     -7.80691531 </i>
    <i name="e_wo_entrp">     -7.80855249 </i>
    <i name="e_0_energy">     -7.80746104 </i>
   </energy>
  </scstep>
  <scstep>
   <time name="dav">    4.59   18.32</time>
   <time name="total">    4.94   19.74</time>
   <energy>
    <i name="e_fr_energy">     -7.80691549 </i>
    <i name="e_wo_entrp">     -7.80855267 </i>
    <i name="e_0_energy">     -7.80746121 </i>
   </energy>
  </scstep>
  <scstep>
   <time name="dav">    3.70   14.81</time>
   <time name="total">    4.06   16.22</time>
   <energy>
    <i name="e_fr_energy">     -7.32031365 </i>
    <i name="e_wo_entrp">     -7.32207200 </i>
    <i name="e_0_energy">     -7.32089977 </i>
   </energy>
  </scstep>
  <scstep>
   <time name="dav">    5.48   21.94</time>
   <time name="total">    5.83   23.33</time>
   <energy>
    <i name="e_fr_energy">     -7.28027227 </i>
    <i name="e_wo_entrp">     -7.28247594 </i>
    <i name="e_0_energy">     -7.28100683 </i>
   </energy>
  </scstep>
  <scstep>
   <time name="dav">    3.81   15.25</time>
   <time name="total">    4.16   16.64</time>
   <energy>
    <i name="e_fr_energy">     -7.27492127 </i>
    <i name="e_wo_entrp">     -7.27714756 </i>
    <i name="e_0_energy">     -7.27566337 </i>
   </energy>
  </scstep>
  <scstep>
   <time name="dav">    4.71   18.91</time>
   <time name="total">    5.06   20.29</time>
   <energy>
    <i name="e_fr_energy">     -7.27376093 </i>
    <i name="e_wo_entrp">     -7.27598570 </i>
    <i name="e_0_energy">     -7.27450252 </i>
   </energy>
  </scstep>
  <scstep>
   <time name="dav">    4.80   19.24</time>
   <time name="total">    5.15   20.65</time>
   <energy>
    <i name="e_fr_energy">     -7.27375106 </i>
    <i name="e_wo_entrp">     -7.27597851 </i>
    <i name="e_0_energy">     -7.27449354 </i>
   </energy>
  </scstep>
  <scstep>
   <time name="dav">    3.60   12.43</time>
   <time name="total">    3.94   13.62</time>
   <energy>
    <i name="e_fr_energy">     -7.27374866 </i>
    <i name="e_wo_entrp">     -7.27597637 </i>
    <i name="e_0_energy">     -7.27449123 </i>
   </energy>
  </scstep>
  <scstep>
   <time name="dav">    3.46   11.30</time>
   <time name="total">    3.47   11.34</time>
   <energy>
    <i name="alphaZ">     40.24111641 </i>
    <i name="ewald">   -702.54114306 </i>
    <i name="hartreedc">    -60.06122687 </i>
    <i name="XCdc">    -16.89227416 </i>
    <i name="pawpsdc">    811.11829124 </i>
    <i name="pawaedc">   -772.57338216 </i>
    <i name="eentropy">      0.00222763 </i>
    <i name="bandstr">     77.01718306 </i>
    <i name="atom">    616.41545921 </i>
    <i name="e_fr_energy">     -7.27374871 </i>
    <i name="e_wo_entrp">     -7.27597634 </i>
    <i name="e_0_energy">     -7.27449125 </i>
   </energy>
  </scstep>
  <structure>
   <crystal>
    <varray name="basis" >
     <v>       2.33067207       0.00000000       1.34561394 </v>
     <v>       0.77689103       2.19737928       1.34561394 </v>
     <v>      -0.00000000      -0.00000000       2.69122890 </v>
    </varray>
    <i name="volume">     13.78278034 </i>
    <varray name="rec_basis" >
     <v>       0.42906079      -0.15169592       0.00000000 </v>
     <v>      -0.00000000       0.45508757       0.00000000 </v>
     <v>      -0.21453031      -0.15169577       0.37157746 </v>
    </varray>
   </crystal>
   <varray name="positions" >
    <v>       0.00000000       0.00000000       0.00000000 </v>
   </varray>
  </structure>
  <varray name="forces" >
   <v>       0.00000000       0.00000000      -0.00000000 </v>
  </varray>
  <varray name="stress" >
   <v>      36.76722659       0.00000569      -0.00000805 </v>
   <v>       0.00000569      36.76724598      -0.00000569 </v>
   <v>      -0.00000805      -0.00000569      36.76724315 </v>
  </varray>
  <energy>
   <i name="e_fr_energy">     -7.27374871 </i>
   <i name="e_wo_entrp">     -7.27597634 </i>
   <i name="e_0_energy">     -7.27449125 </i>
  </energy>
  <time name="totalsc">   60.48  226.02</time>
  <eigenvalues>
   <array>
    <dimension dim="1">band</dimension>
    <dimension dim="2">kpoint</dimension>
    <dimension dim="3">spin</dimension>
    <field>eigene</field>
    <field>occ</field>
    <set>
     <set comment="spin 1">
      <set comment="kpoint 1">
       <r>    3.7767    1.0000 </r>
       <r>    8.6267    1.0000 </r>
       <r>    8.6267    1.0000 </r>
       <r>    8.6267    1.0000 </r>
       <r>   10.7071    1.0000 </r>
       <r>   10.7071    1.0000 </r>
       <r>   27.7114    0.0000 </r>
       <r>   27.8031    0.0000 </r>
      </set>
      <set comment="kpoint 2">
       <r>    3.8771    1.0000 </r>
       <r>    8.5817    1.0000 </r>
       <r>    8.6663    1.0000 </r>
       <r>    8.6663    1.0000 </r>
       <r>   10.6847    1.0000 </r>
       <r>   10.6847    1.0000 </r>
       <r>   27.8028    0.0000 </r>
       <r>   27.8584    0.0000 </r>
      </set>
      <set comment="kpoint 3">
       <r>    4.1680    1.0000 </r>
       <r>    8.4647    1.0000 </r>
       <r>    8.7731    1.0000 </r>
       <r>    8.7731    1.0000 </r>
       <r>   10.6323    1.0000 </r>
       <r>   10.6323    1.0000 </r>
       <r>   27.8017    0.0000 </r>
       <r>   28.2607    0.0000 </r>
      </set>
      <set comment="kpoint 4">
       <r>    4.6128    1.0000 </r>
       <r>    8.3319    1.0000 </r>
       <r>    8.9065    1.0000 </r>
       <r>    8.9065    1.0000 </r>
       <r>   10.5977    1.0000 </r>
       <r>   10.5977    1.0000 </r>
       <r>   27.7994    0.0000 </r>
       <r>   28.7794    0.0000 </r>
      </set>
      <set comment="kpoint 5">
       <r>    5.1275    1.0000 </r>
       <r>    8.2890    1.0000 </r>
       <r>    8.9966    1.0000 </r>
       <r>    8.9966    1.0000 </r>
       <r>   10.6573    1.0000 </r>
       <r>   10.6573    1.0000 </r>
       <r>   27.7823    0.0000 </r>
       <r>   28.3228    0.0000 </r>
      </set>
      <set comment="kpoint 6">
       <r>    5.5551    1.0000 </r>
       <r>    8.5064    1.0000 </r>
       <r>    8.9875    1.0000 </r>
       <r>    8.9875    1.0000 </r>
       <r>   10.8674    1.0000 </r>
       <r>   10.8674    1.0000 </r>
       <r>   26.7750    0.0000 </r>
       <r>   27.8184    0.0000 </r>
      </set>
      <set comment="kpoint 7">
       <r>    5.7532    1.0000 </r>
       <r>    8.8943    1.0000 </r>
       <r>    8.8943    1.0000 </r>
       <r>    9.1235    1.0000 </r>
       <r>   11.2013    1.0015 </r>
       <r>   11.2013    1.0015 </r>
       <r>   25.1882    0.0000 </r>
       <r>   27.8111    0.0000 </r>
      </set>
      <set comment="kpoint 8">
       <r>    5.7595    1.0000 </r>
       <r>    8.7700    1.0000 </r>
       <r>    8.7701    1.0000 </r>
       <r>   10.0696    1.0000 </r>
       <r>   11.5812    0.8936 </r>
       <r>   11.5812    0.8936 </r>
       <r>   23.5554    0.0000 </r>
       <r>   27.8089    0.0000 </r>
      </set>
      <set comment="kpoint 9">
       <r>    5.6933    1.0000 </r>
       <r>    8.6571    1.0000 </r>
       <r>    8.6571    1.0000 </r>
       <r>   11.1379    1.0003 </r>
       <r>   11.9264   -0.0352 </r>
       <r>   11.9264   -0.0352 </r>
       <r>   22.0079    0.0000 </r>
       <r>   27.6656    0.0000 </r>
      </set>
      <set comment="kpoint 10">
       <r>    5.6310    1.0000 </r>
       <r>    8.5808    1.0000 </r>
       <r>    8.5808    1.0000 </r>
       <r>   12.0548   -0.0135 </r>
       <r>   12.1673   -0.0019 </r>
       <r>   12.1673   -0.0019 </r>
       <r>   20.7989    0.0000 </r>
       <r>   27.3267    0.0000 </r>
      </set>
      <set comment="kpoint 11">
       <r>    5.6071    1.0000 </r>
       <r>    8.5541    1.0000 </r>
       <r>    8.5541    1.0000 </r>
       <r>   12.2539   -0.0002 </r>
       <r>   12.2539   -0.0002 </r>
       <r>   12.4400   -0.0000 </r>
       <r>   20.3150    0.0000 </r>
       <r>   27.2114    0.0000 </r>
      </set>
      <set comment="kpoint 12">
       <r>    3.9106    1.0000 </r>
       <r>    8.5372    1.0000 </r>
       <r>    8.6951    1.0000 </r>
       <r>    8.6951    1.0000 </r>
       <r>   10.6121    1.0000 </r>
       <r>   10.7406    1.0000 </r>
       <r>   27.8028    0.0000 </r>
       <r>   27.9093    0.0000 </r>
      </set>
      <set comment="kpoint 13">
       <r>    4.1385    1.0000 </r>
       <r>    8.4245    1.0000 </r>
       <r>    8.7882    1.0000 </r>
       <r>    8.7955    1.0000 </r>
       <r>   10.5056    1.0000 </r>
       <r>   10.7576    1.0000 </r>
       <r>   27.8020    0.0000 </r>
       <r>   28.2332    0.0000 </r>
      </set>
      <set comment="kpoint 14">
       <r>    4.5352    1.0000 </r>
       <r>    8.2812    1.0000 </r>
       <r>    8.9194    1.0000 </r>
       <r>    8.9322    1.0000 </r>
       <r>   10.4073    1.0000 </r>
       <r>   10.7700    1.0000 </r>
       <r>   27.8003    0.0000 </r>
       <r>   28.7319    0.0000 </r>
      </set>
      <set comment="kpoint 15">
       <r>    5.0378    1.0000 </r>
       <r>    8.1799    1.0000 </r>
       <r>    9.0241    1.0000 </r>
       <r>    9.0444    1.0000 </r>
       <r>   10.4061    1.0000 </r>
       <r>   10.8404    1.0000 </r>
       <r>   27.7942    0.0000 </r>
       <r>   28.8235    0.0000 </r>
      </set>
      <set comment="kpoint 16">
       <r>    5.5150    1.0000 </r>
       <r>    8.2604    1.0000 </r>
       <r>    9.0179    1.0000 </r>
       <r>    9.0722    1.0000 </r>
       <r>   10.6010    1.0000 </r>
       <r>   11.0269    1.0000 </r>
       <r>   27.3417    0.0000 </r>
       <r>   27.8329    0.0000 </r>
      </set>
      <set comment="kpoint 17">
       <r>    5.7938    1.0000 </r>
       <r>    8.6777    1.0000 </r>
       <r>    8.9179    1.0000 </r>
       <r>    9.0085    1.0000 </r>
       <r>   10.9929    1.0000 </r>
       <r>   11.3255    1.0136 </r>
       <r>   25.7832    0.0000 </r>
       <r>   27.8126    0.0000 </r>
      </set>
      <set comment="kpoint 18">
       <r>    5.8462    1.0000 </r>
       <r>    8.7477    1.0000 </r>
       <r>    8.8942    1.0000 </r>
       <r>    9.4593    1.0000 </r>
       <r>   11.5203    1.0015 </r>
       <r>   11.6726    0.5737 </r>
       <r>   24.1380    0.0000 </r>
       <r>   27.8096    0.0000 </r>
      </set>
      <set comment="kpoint 19">
       <r>    5.7903    1.0000 </r>
       <r>    8.6170    1.0000 </r>
       <r>    8.7738    1.0000 </r>
       <r>   10.3179    1.0000 </r>
       <r>   11.9885   -0.0280 </r>
       <r>   12.1480   -0.0028 </r>
       <r>   22.5202    0.0000 </r>
       <r>   27.8077    0.0000 </r>
      </set>
      <set comment="kpoint 20">
       <r>    5.7207    1.0000 </r>
       <r>    8.5251    1.0000 </r>
       <r>    8.6778    1.0000 </r>
       <r>   11.0127    1.0000 </r>
       <r>   12.2011   -0.0009 </r>
       <r>   12.8277   -0.0000 </r>
       <r>   21.1393    0.0000 </r>
       <r>   27.5369    0.0000 </r>
      </set>
      <set comment="kpoint 21">
       <r>    5.6825    1.0000 </r>
       <r>    8.4865    1.0000 </r>
       <r>    8.6248    1.0000 </r>
       <r>   11.3751    1.0242 </r>
       <r>   12.2592   -0.0002 </r>
       <r>   13.3120   -0.0000 </r>
       <r>   20.3519    0.0000 </r>
       <r>   27.3499    0.0000 </r>
      </set>
      <set comment="kpoint 22">
       <r>    5.6916    1.0000 </r>
       <r>    8.5054    1.0000 </r>
       <r>    8.6239    1.0000 </r>
       <r>   11.3534    1.0193 </r>
       <r>   12.1438   -0.0031 </r>
       <r>   13.2526   -0.0000 </r>
       <r>   20.5242    0.0000 </r>
       <r>   27.3859    0.0000 </r>
      </set>
      <set comment="kpoint 23">
       <r>    5.7450    1.0000 </r>
       <r>    8.5779    1.0000 </r>
       <r>    8.6764    1.0000 </r>
       <r>   10.9070    1.0000 </r>
       <r>   11.8731   -0.0139 </r>
       <r>   12.7778   -0.0000 </r>
       <r>   21.5609    0.0000 </r>
       <r>   27.6427    0.0000 </r>
      </set>
      <set comment="kpoint 24">
       <r>    5.8186    1.0000 </r>
       <r>    8.6909    1.0000 </r>
       <r>    8.7750    1.0000 </r>
       <r>   10.1087    1.0000 </r>
       <r>   11.4956    1.0220 </r>
       <r>   12.2486   -0.0003 </r>
       <r>   23.0525    0.0000 </r>
       <r>   27.8088    0.0000 </r>
      </set>
      <set comment="kpoint 25">
       <r>    5.8528    1.0000 </r>
       <r>    8.8106    1.0000 </r>
       <r>    8.9016    1.0000 </r>
       <r>    9.2407    1.0000 </r>
       <r>   11.0775    1.0001 </r>
       <r>   11.7638    0.2105 </r>
       <r>   24.6945    0.0000 </r>
       <r>   27.8105    0.0000 </r>
      </set>
      <set comment="kpoint 26">
       <r>    5.7344    1.0000 </r>
       <r>    8.5132    1.0000 </r>
       <r>    8.9812    1.0000 </r>
       <r>    9.0188    1.0000 </r>
       <r>   10.6975    1.0000 </r>
       <r>   11.3352    1.0154 </r>
       <r>   26.3160    0.0000 </r>
       <r>   27.8148    0.0000 </r>
      </set>
      <set comment="kpoint 27">
       <r>    5.3727    1.0000 </r>
       <r>    8.2194    1.0000 </r>
       <r>    9.0348    1.0000 </r>
       <r>    9.0625    1.0000 </r>
       <r>   10.4476    1.0000 </r>
       <r>   11.0047    1.0000 </r>
       <r>   27.7195    0.0000 </r>
       <r>   27.9493    0.0000 </r>
      </set>
      <set comment="kpoint 28">
       <r>    4.8653    1.0000 </r>
       <r>    8.2221    1.0000 </r>
       <r>    8.9858    1.0000 </r>
       <r>    9.0002    1.0000 </r>
       <r>   10.3881    1.0000 </r>
       <r>   10.8122    1.0000 </r>
       <r>   27.7972    0.0000 </r>
       <r>   28.9952    0.0000 </r>
      </set>
      <set comment="kpoint 29">
       <r>    4.3865    1.0000 </r>
       <r>    8.3535    1.0000 </r>
       <r>    8.8423    1.0000 </r>
       <r>    8.8863    1.0000 </r>
       <r>   10.4661    1.0000 </r>
       <r>   10.7398    1.0000 </r>
       <r>   27.8010    0.0000 </r>
       <r>   28.5469    0.0000 </r>
      </set>
      <set comment="kpoint 30">
       <r>    4.0413    1.0000 </r>
       <r>    8.4957    1.0000 </r>
       <r>    8.7198    1.0000 </r>
       <r>    8.7552    1.0000 </r>
       <r>   10.5851    1.0000 </r>
       <r>   10.7178    1.0000 </r>
       <r>   27.8023    0.0000 </r>
       <r>   28.0930    0.0000 </r>
      </set>
      <set comment="kpoint 31">
       <r>    4.2992    1.0000 </r>
       <r>    8.2857    1.0000 </r>
       <r>    8.8986    1.0000 </r>
       <r>    8.8986    1.0000 </r>
       <r>   10.3497    1.0000 </r>
       <r>   10.8387    1.0000 </r>
       <r>   27.8018    0.0000 </r>
       <r>   28.4776    0.0000 </r>
      </set>
      <set comment="kpoint 32">
       <r>    4.6336    1.0000 </r>
       <r>    8.1162    1.0000 </r>
       <r>    9.0444    1.0000 </r>
       <r>    9.0504    1.0000 </r>
       <r>   10.2021    1.0000 </r>
       <r>   10.8982    1.0000 </r>
       <r>   27.8010    0.0000 </r>
       <r>   28.9302    0.0000 </r>
      </set>
      <set comment="kpoint 33">
       <r>    5.0977    1.0000 </r>
       <r>    7.9601    1.0000 </r>
       <r>    9.1408    1.0000 </r>
       <r>    9.1947    1.0000 </r>
       <r>   10.1836    1.0000 </r>
       <r>   10.9861    1.0000 </r>
       <r>   27.7982    0.0000 </r>
       <r>   29.3123    0.0000 </r>
      </set>
      <set comment="kpoint 34">
       <r>    5.5930    1.0000 </r>
       <r>    7.9108    1.0000 </r>
       <r>    9.0681    1.0000 </r>
       <r>    9.2668    1.0000 </r>
       <r>   10.4493    1.0000 </r>
       <r>   11.1606    1.0006 </r>
       <r>   27.7655    0.0000 </r>
       <r>   28.1104    0.0000 </r>
      </set>
      <set comment="kpoint 35">
       <r>    5.9444    1.0000 </r>
       <r>    8.1267    1.0000 </r>
       <r>    8.8791    1.0000 </r>
       <r>    9.2405    1.0000 </r>
       <r>   10.9750    1.0000 </r>
       <r>   11.4352    1.0351 </r>
       <r>   26.4877    0.0000 </r>
       <r>   27.8154    0.0000 </r>
      </set>
      <set comment="kpoint 36">
       <r>    6.0487    1.0000 </r>
       <r>    8.6403    1.0000 </r>
       <r>    8.7009    1.0000 </r>
       <r>    9.1442    1.0000 </r>
       <r>   11.6852    0.5209 </r>
       <r>   11.7583    0.2292 </r>
       <r>   24.8105    0.0000 </r>
       <r>   27.8103    0.0000 </r>
      </set>
      <set comment="kpoint 37">
       <r>    6.0082    1.0000 </r>
       <r>    8.4895    1.0000 </r>
       <r>    9.0227    1.0000 </r>
       <r>    9.3697    1.0000 </r>
       <r>   12.0516   -0.0142 </r>
       <r>   12.5375   -0.0000 </r>
       <r>   23.1095    0.0000 </r>
       <r>   27.8086    0.0000 </r>
      </set>
      <set comment="kpoint 38">
       <r>    5.9381    1.0000 </r>
       <r>    8.3640    1.0000 </r>
       <r>    8.9116    1.0000 </r>
       <r>   10.0106    1.0000 </r>
       <r>   12.2413   -0.0003 </r>
       <r>   13.4558   -0.0000 </r>
       <r>   21.5613    0.0000 </r>
       <r>   27.8073    0.0000 </r>
      </set>
      <set comment="kpoint 39">
       <r>    5.8929    1.0000 </r>
       <r>    8.3026    1.0000 </r>
       <r>    8.8342    1.0000 </r>
       <r>   10.4491    1.0000 </r>
       <r>   12.2750   -0.0001 </r>
       <r>   14.2163   -0.0000 </r>
       <r>   20.4745    0.0000 </r>
       <r>   27.7028    0.0000 </r>
      </set>
      <set comment="kpoint 40">
       <r>    5.8934    1.0000 </r>
       <r>    8.3090    1.0000 </r>
       <r>    8.8045    1.0000 </r>
       <r>   10.5853    1.0000 </r>
       <r>   12.1338   -0.0037 </r>
       <r>   14.4107   -0.0000 </r>
       <r>   20.3103    0.0000 </r>
       <r>   27.6554    0.0000 </r>
      </set>
      <set comment="kpoint 41">
       <r>    5.9417    1.0000 </r>
       <r>    8.3790    1.0000 </r>
       <r>    8.8286    1.0000 </r>
       <r>   10.3628    1.0000 </r>
       <r>   11.8358    0.0307 </r>
       <r>   13.9628   -0.0000 </r>
       <r>   21.1709    0.0000 </r>
       <r>   27.8081    0.0000 </r>
      </set>
      <set comment="kpoint 42">
       <r>    6.0229    1.0000 </r>
       <r>    8.4991    1.0000 </r>
       <r>    8.9056    1.0000 </r>
       <r>    9.8121    1.0000 </r>
       <r>   11.4276    1.0344 </r>
       <r>   13.2818   -0.0000 </r>
       <r>   22.6175    0.0000 </r>
       <r>   27.8088    0.0000 </r>
      </set>
      <set comment="kpoint 43">
       <r>    6.0935    1.0000 </r>
       <r>    8.6236    1.0000 </r>
       <r>    9.0255    1.0000 </r>
       <r>    9.1174    1.0000 </r>
       <r>   10.9711    1.0000 </r>
       <r>   12.6157   -0.0000 </r>
       <r>   24.2799    0.0000 </r>
       <r>   27.8101    0.0000 </r>
      </set>
      <set comment="kpoint 44">
       <r>    6.0527    1.0000 </r>
       <r>    8.3514    1.0000 </r>
       <r>    8.9025    1.0000 </r>
       <r>    9.1611    1.0000 </r>
       <r>   10.5379    1.0000 </r>
       <r>   12.0166   -0.0216 </r>
       <r>   25.9448    0.0000 </r>
       <r>   27.8132    0.0000 </r>
      </set>
      <set comment="kpoint 45">
       <r>    5.7647    1.0000 </r>
       <r>    8.0387    1.0000 </r>
       <r>    9.0147    1.0000 </r>
       <r>    9.2431    1.0000 </r>
       <r>   10.2283    1.0000 </r>
       <r>   11.5067    1.0142 </r>
       <r>   27.4581    0.0000 </r>
       <r>   27.8437    0.0000 </r>
      </set>
      <set comment="kpoint 46">
       <r>    5.2740    1.0000 </r>
       <r>    8.0350    1.0000 </r>
       <r>    9.0664    1.0000 </r>
       <r>    9.1687    1.0000 </r>
       <r>   10.1616    1.0000 </r>
       <r>   11.1212    1.0002 </r>
       <r>   27.7934    0.0000 </r>
       <r>   28.8554    0.0000 </r>
      </set>
      <set comment="kpoint 47">
       <r>    4.7732    1.0000 </r>
       <r>    8.1820    1.0000 </r>
       <r>    8.9920    1.0000 </r>
       <r>    9.0133    1.0000 </r>
       <r>   10.2865    1.0000 </r>
       <r>   10.8784    1.0000 </r>
       <r>   27.7992    0.0000 </r>
       <r>   28.9935    0.0000 </r>
      </set>
      <set comment="kpoint 48">
       <r>    4.8950    1.0000 </r>
       <r>    7.9154    1.0000 </r>
       <r>    9.2316    1.0000 </r>
       <r>    9.2316    1.0000 </r>
       <r>    9.9955    1.0000 </r>
       <r>   10.9943    1.0000 </r>
       <r>   27.8007    0.0000 </r>
       <r>   29.3471    0.0000 </r>
      </set>
      <set comment="kpoint 49">
       <r>    5.2880    1.0000 </r>
       <r>    7.7162    1.0000 </r>
       <r>    9.3469    1.0000 </r>
       <r>    9.4232    1.0000 </r>
       <r>    9.9529    1.0000 </r>
       <r>   11.0963    1.0001 </r>
       <r>   27.8000    0.0000 </r>
       <r>   29.8241    0.0000 </r>
      </set>
      <set comment="kpoint 50">
       <r>    5.7469    1.0000 </r>
       <r>    7.5716    1.0000 </r>
       <r>    9.1786    1.0000 </r>
       <r>    9.5541    1.0000 </r>
       <r>   10.3333    1.0000 </r>
       <r>   11.2614    1.0049 </r>
       <r>   27.7943    0.0000 </r>
       <r>   28.8749    0.0000 </r>
      </set>
      <set comment="kpoint 51">
       <r>    6.1317    1.0000 </r>
       <r>    7.5988    1.0000 </r>
       <r>    8.9185    1.0000 </r>
       <r>    9.5777    1.0000 </r>
       <r>   10.9882    1.0000 </r>
       <r>   11.5186    1.0034 </r>
       <r>   27.2778    0.0000 </r>
       <r>   27.8272    0.0000 </r>
      </set>
      <set comment="kpoint 52">
       <r>    6.2829    1.0000 </r>
       <r>    7.9045    1.0000 </r>
       <r>    8.6948    1.0000 </r>
       <r>    9.5091    1.0000 </r>
       <r>   11.8273    0.0451 </r>
       <r>   11.8389    0.0257 </r>
       <r>   25.5673    0.0000 </r>
       <r>   27.8103    0.0000 </r>
      </set>
      <set comment="kpoint 53">
       <r>    6.2639    1.0000 </r>
       <r>    8.1857    1.0000 </r>
       <r>    8.7404    1.0000 </r>
       <r>    9.3940    1.0000 </r>
       <r>   12.1080   -0.0059 </r>
       <r>   12.8525   -0.0000 </r>
       <r>   23.7804    0.0000 </r>
       <r>   27.8076    0.0000 </r>
      </set>
      <set comment="kpoint 54">
       <r>    6.2091    1.0000 </r>
       <r>    8.1271    1.0000 </r>
       <r>    9.1995    1.0000 </r>
       <r>    9.2727    1.0000 </r>
       <r>   12.2836   -0.0001 </r>
       <r>   13.9658   -0.0000 </r>
       <r>   22.0820    0.0000 </r>
       <r>   27.8060    0.0000 </r>
      </set>
      <set comment="kpoint 55">
       <r>    6.1779    1.0000 </r>
       <r>    8.0512    1.0000 </r>
       <r>    9.1733    1.0000 </r>
       <r>    9.6302    1.0000 </r>
       <r>   12.3003   -0.0001 </r>
       <r>   15.0095   -0.0000 </r>
       <r>   20.7156    0.0000 </r>
       <r>   27.8037    0.0000 </r>
      </set>
      <set comment="kpoint 56">
       <r>    6.1899    1.0000 </r>
       <r>    8.0388    1.0000 </r>
       <r>    9.1137    1.0000 </r>
       <r>    9.8551    1.0000 </r>
       <r>   12.1396   -0.0033 </r>
       <r>   15.5445   -0.0000 </r>
       <r>   20.1705    0.0000 </r>
       <r>   27.7917    0.0000 </r>
      </set>
      <set comment="kpoint 57">
       <r>    6.2486    1.0000 </r>
       <r>    8.0988    1.0000 </r>
       <r>    9.1048    1.0000 </r>
       <r>    9.7887    1.0000 </r>
       <r>   11.8205    0.0580 </r>
       <r>   15.2022   -0.0000 </r>
       <r>   20.8400    0.0000 </r>
       <r>   27.7866    0.0000 </r>
      </set>
      <set comment="kpoint 58">
       <r>    6.3457    1.0000 </r>
       <r>    8.2214    1.0000 </r>
       <r>    9.1510    1.0000 </r>
       <r>    9.4223    1.0000 </r>
       <r>   11.3889    1.0274 </r>
       <r>   14.4288   -0.0000 </r>
       <r>   22.2552    0.0000 </r>
       <r>   27.8012    0.0000 </r>
      </set>
      <set comment="kpoint 59">
       <r>    6.4532    1.0000 </r>
       <r>    8.3565    1.0000 </r>
       <r>    8.8813    1.0000 </r>
       <r>    9.2506    1.0000 </r>
       <r>   10.9018    1.0000 </r>
       <r>   13.6138   -0.0000 </r>
       <r>   23.9345    0.0000 </r>
       <r>   27.8061    0.0000 </r>
      </set>
      <set comment="kpoint 60">
       <r>    6.4880    1.0000 </r>
       <r>    8.1273    1.0000 </r>
       <r>    8.7173    1.0000 </r>
       <r>    9.3927    1.0000 </r>
       <r>   10.4180    1.0000 </r>
       <r>   12.8515   -0.0000 </r>
       <r>   25.6279    0.0000 </r>
       <r>   27.8110    0.0000 </r>
      </set>
      <set comment="kpoint 61">
       <r>    6.2697    1.0000 </r>
       <r>    7.8313    1.0000 </r>
       <r>    8.8844    1.0000 </r>
       <r>    9.5279    1.0000 </r>
       <r>   10.0209    1.0000 </r>
       <r>   12.1625   -0.0021 </r>
       <r>   27.1074    0.0000 </r>
       <r>   27.8268    0.0000 </r>
      </set>
      <set comment="kpoint 62">
       <r>    5.7874    1.0000 </r>
       <r>    7.8604    1.0000 </r>
       <r>    9.0239    1.0000 </r>
       <r>    9.4219    1.0000 </r>
       <r>    9.9649    1.0000 </r>
       <r>   11.5740    0.9110 </r>
       <r>   27.7723    0.0000 </r>
       <r>   28.2383    0.0000 </r>
      </set>
      <set comment="kpoint 63">
       <r>    5.5784    1.0000 </r>
       <r>    7.4808    1.0000 </r>
       <r>    9.6833    1.0000 </r>
       <r>    9.6833    1.0000 </r>
       <r>    9.7087    1.0000 </r>
       <r>   11.1954    1.0013 </r>
       <r>   27.8005    0.0000 </r>
       <r>   30.4188    0.0000 </r>
      </set>
      <set comment="kpoint 64">
       <r>    5.9244    1.0000 </r>
       <r>    7.2786    1.0000 </r>
       <r>    9.4368    1.0000 </r>
       <r>    9.8992    1.0000 </r>
       <r>   10.2202    1.0000 </r>
       <r>   11.3369    1.0158 </r>
       <r>   27.7986    0.0000 </r>
       <r>   29.6704    0.0000 </r>
      </set>
      <set comment="kpoint 65">
       <r>    6.2469    1.0000 </r>
       <r>    7.1699    1.0000 </r>
       <r>    9.1763    1.0000 </r>
       <r>    9.9965    1.0000 </r>
       <r>   10.9641    1.0000 </r>
       <r>   11.5708    0.9184 </r>
       <r>   27.7771    0.0000 </r>
       <r>   28.1698    0.0000 </r>
      </set>
      <set comment="kpoint 66">
       <r>    6.4066    1.0000 </r>
       <r>    7.2705    1.0000 </r>
       <r>    8.9554    1.0000 </r>
       <r>    9.9701    1.0000 </r>
       <r>   11.8709   -0.0121 </r>
       <r>   11.9185   -0.0343 </r>
       <r>   26.3756    0.0000 </r>
       <r>   27.8101    0.0000 </r>
      </set>
      <set comment="kpoint 67">
       <r>    6.4054    1.0000 </r>
       <r>    7.5251    1.0000 </r>
       <r>    8.8358    1.0000 </r>
       <r>    9.8701    1.0000 </r>
       <r>   12.1503   -0.0027 </r>
       <r>   13.0564   -0.0000 </r>
       <r>   24.5201    0.0000 </r>
       <r>   27.8052    0.0000 </r>
      </set>
      <set comment="kpoint 68">
       <r>    6.3814    1.0000 </r>
       <r>    7.7066    1.0000 </r>
       <r>    8.8955    1.0000 </r>
       <r>    9.7444    1.0000 </r>
       <r>   12.3233   -0.0000 </r>
       <r>   14.3276   -0.0000 </r>
       <r>   22.7078    0.0000 </r>
       <r>   27.8001    0.0000 </r>
      </set>
      <set comment="kpoint 69">
       <r>    6.3944    1.0000 </r>
       <r>    7.7558    1.0000 </r>
       <r>    9.0965    1.0000 </r>
       <r>    9.6258    1.0000 </r>
       <r>   12.3332   -0.0000 </r>
       <r>   15.6238   -0.0000 </r>
       <r>   21.1164    0.0000 </r>
       <r>   27.7667    0.0000 </r>
      </set>
      <set comment="kpoint 70">
       <r>    6.4578    1.0000 </r>
       <r>    7.7690    1.0000 </r>
       <r>    9.2649    1.0000 </r>
       <r>    9.5359    1.0000 </r>
       <r>   12.1626   -0.0021 </r>
       <r>   16.5833   -0.0000 </r>
       <r>   20.1487    0.0000 </r>
       <r>   27.4412    0.0000 </r>
      </set>
      <set comment="kpoint 71">
       <r>    6.5682    1.0000 </r>
       <r>    7.8187    1.0000 </r>
       <r>    9.2577    1.0000 </r>
       <r>    9.4883    1.0000 </r>
       <r>   11.8328    0.0356 </r>
       <r>   16.4524   -0.0000 </r>
       <r>   20.5735    0.0000 </r>
       <r>   27.1313    0.0000 </r>
      </set>
      <set comment="kpoint 72">
       <r>    6.7142    1.0000 </r>
       <r>    7.9277    1.0000 </r>
       <r>    9.0158    1.0000 </r>
       <r>    9.4909    1.0000 </r>
       <r>   11.3915    1.0280 </r>
       <r>   15.6070   -0.0000 </r>
       <r>   21.9889    0.0000 </r>
       <r>   26.9788    0.0000 </r>
      </set>
      <set comment="kpoint 73">
       <r>    6.8746    1.0000 </r>
       <r>    8.0614    1.0000 </r>
       <r>    8.6052    1.0000 </r>
       <r>    9.5461    1.0000 </r>
       <r>   10.8956    1.0000 </r>
       <r>   14.6723   -0.0000 </r>
       <r>   23.6834    0.0000 </r>
       <r>   27.0215    0.0000 </r>
      </set>
      <set comment="kpoint 74">
       <r>    6.9832    1.0000 </r>
       <r>    7.8962    1.0000 </r>
       <r>    8.4755    1.0000 </r>
       <r>    9.6507    1.0000 </r>
       <r>   10.3995    1.0000 </r>
       <r>   13.7752   -0.0000 </r>
       <r>   25.3492    0.0000 </r>
       <r>   27.3033    0.0000 </r>
      </set>
      <set comment="kpoint 75">
       <r>    6.7816    1.0000 </r>
       <r>    7.7004    1.0000 </r>
       <r>    8.6783    1.0000 </r>
       <r>    9.7715    1.0000 </r>
       <r>    9.9734    1.0000 </r>
       <r>   12.9317   -0.0000 </r>
       <r>   26.5510    0.0000 </r>
       <r>   27.8200    0.0000 </r>
      </set>
      <set comment="kpoint 76">
       <r>    6.0917    1.0000 </r>
       <r>    7.0340    1.0000 </r>
       <r>    9.7866    1.0000 </r>
       <r>   10.2348    1.0000 </r>
       <r>   10.2348    1.0000 </r>
       <r>   11.4254    1.0342 </r>
       <r>   27.7986    0.0000 </r>
       <r>   30.0816    0.0000 </r>
      </set>
      <set comment="kpoint 77">
       <r>    6.2402    1.0000 </r>
       <r>    6.8507    1.0000 </r>
       <r>    9.7452    1.0000 </r>
       <r>   10.4533    1.0000 </r>
       <r>   10.8860    1.0000 </r>
       <r>   11.6016    0.8370 </r>
       <r>   27.7953    0.0000 </r>
       <r>   28.8724    0.0000 </r>
      </set>
      <set comment="kpoint 78">
       <r>    6.3363    1.0000 </r>
       <r>    6.7895    1.0000 </r>
       <r>    9.5701    1.0000 </r>
       <r>   10.4972    1.0000 </r>
       <r>   11.8842   -0.0218 </r>
       <r>   11.9049   -0.0312 </r>
       <r>   27.1417    0.0000 </r>
       <r>   27.8097    0.0000 </r>
      </set>
      <set comment="kpoint 79">
       <r>    6.3394    1.0000 </r>
       <r>    6.9069    1.0000 </r>
       <r>    9.3963    1.0000 </r>
       <r>   10.4237    1.0000 </r>
       <r>   12.1721   -0.0017 </r>
       <r>   13.1365   -0.0000 </r>
       <r>   25.2826    0.0000 </r>
       <r>   27.7974    0.0000 </r>
      </set>
      <set comment="kpoint 80">
       <r>    6.3332    1.0000 </r>
       <r>    7.1117    1.0000 </r>
       <r>    9.2556    1.0000 </r>
       <r>   10.3004    1.0000 </r>
       <r>   12.3561   -0.0000 </r>
       <r>   14.5240   -0.0000 </r>
       <r>   23.4207    0.0000 </r>
       <r>   27.7436    0.0000 </r>
      </set>
      <set comment="kpoint 81">
       <r>    6.3802    1.0000 </r>
       <r>    7.3181    1.0000 </r>
       <r>    9.1554    1.0000 </r>
       <r>   10.1667    1.0000 </r>
       <r>   12.3718   -0.0000 </r>
       <r>   16.0037   -0.0000 </r>
       <r>   21.6984    0.0000 </r>
       <r>   27.1582    0.0000 </r>
      </set>
      <set comment="kpoint 82">
       <r>    6.4962    1.0000 </r>
       <r>    7.4918    1.0000 </r>
       <r>    9.0682    1.0000 </r>
       <r>   10.0462    1.0000 </r>
       <r>   12.2033   -0.0009 </r>
       <r>   17.3858    0.0000 </r>
       <r>   20.3461    0.0000 </r>
       <r>   26.4931    0.0000 </r>
      </set>
      <set comment="kpoint 83">
       <r>    6.6789    1.0000 </r>
       <r>    7.6362    1.0000 </r>
       <r>    8.9299    1.0000 </r>
       <r>    9.9527    1.0000 </r>
       <r>   11.8775   -0.0173 </r>
       <r>   17.6844    0.0000 </r>
       <r>   20.3579    0.0000 </r>
       <r>   25.9220    0.0000 </r>
      </set>
      <set comment="kpoint 84">
       <r>    6.9137    1.0000 </r>
       <r>    7.7749    1.0000 </r>
       <r>    8.6776    1.0000 </r>
       <r>    9.8919    1.0000 </r>
       <r>   11.4502    1.0354 </r>
       <r>   16.7796   -0.0000 </r>
       <r>   21.8221    0.0000 </r>
       <r>   25.5134    0.0000 </r>
      </set>
      <set comment="kpoint 85">
       <r>    7.1679    1.0000 </r>
       <r>    7.9095    1.0000 </r>
       <r>    8.3269    1.0000 </r>
       <r>    9.8568    1.0000 </r>
       <r>   10.9920    1.0000 </r>
       <r>   15.7481   -0.0000 </r>
       <r>   23.5710    0.0000 </r>
       <r>   25.3391    0.0000 </r>
      </set>
      <set comment="kpoint 86">
       <r>    7.3138    1.0000 </r>
       <r>    7.8192    1.0000 </r>
       <r>    8.2534    1.0000 </r>
       <r>    9.8083    1.0000 </r>
       <r>   10.5965    1.0000 </r>
       <r>   14.7456   -0.0000 </r>
       <r>   25.0002    0.0000 </r>
       <r>   25.7488    0.0000 </r>
      </set>
      <set comment="kpoint 87">
       <r>    6.1813    1.0000 </r>
       <r>    6.6179    1.0000 </r>
       <r>   10.5083    1.0000 </r>
       <r>   10.8559    1.0000 </r>
       <r>   10.8559    1.0000 </r>
       <r>   11.6636    0.6110 </r>
       <r>   27.7958    0.0000 </r>
       <r>   28.9109    0.0000 </r>
      </set>
      <set comment="kpoint 88">
       <r>    6.1437    1.0000 </r>
       <r>    6.4690    1.0000 </r>
       <r>   10.4892    1.0000 </r>
       <r>   11.0424    1.0000 </r>
       <r>   11.7991    0.1061 </r>
       <r>   11.8711   -0.0123 </r>
       <r>   27.6225    0.0000 </r>
       <r>   27.8045    0.0000 </r>
      </set>
      <set comment="kpoint 89">
       <r>    6.1272    1.0000 </r>
       <r>    6.4472    1.0000 </r>
       <r>   10.2679    1.0000 </r>
       <r>   11.0154    1.0000 </r>
       <r>   12.1684   -0.0019 </r>
       <r>   13.0979   -0.0000 </r>
       <r>   25.9564    0.0000 </r>
       <r>   27.7322    0.0000 </r>
      </set>
      <set comment="kpoint 90">
       <r>    6.1255    1.0000 </r>
       <r>    6.5715    1.0000 </r>
       <r>   10.0143    1.0000 </r>
       <r>   10.9016    1.0000 </r>
       <r>   12.3783   -0.0000 </r>
       <r>   14.5545   -0.0000 </r>
       <r>   24.1642    0.0000 </r>
       <r>   27.0523    0.0000 </r>
      </set>
      <set comment="kpoint 91">
       <r>    6.1763    1.0000 </r>
       <r>    6.7953    1.0000 </r>
       <r>    9.7381    1.0000 </r>
       <r>   10.7581    1.0000 </r>
       <r>   12.4145   -0.0000 </r>
       <r>   16.1272   -0.0000 </r>
       <r>   22.4340    0.0000 </r>
       <r>   26.2371    0.0000 </r>
      </set>
      <set comment="kpoint 92">
       <r>    6.3002    1.0000 </r>
       <r>    7.0748    1.0000 </r>
       <r>    9.4332    1.0000 </r>
       <r>   10.6077    1.0000 </r>
       <r>   12.2624   -0.0002 </r>
       <r>   17.7549    0.0000 </r>
       <r>   20.8905    0.0000 </r>
       <r>   25.4540    0.0000 </r>
      </set>
      <set comment="kpoint 93">
       <r>    6.4985    1.0000 </r>
       <r>    7.3782    1.0000 </r>
       <r>    9.0848    1.0000 </r>
       <r>   10.4587    1.0000 </r>
       <r>   11.9607   -0.0333 </r>
       <r>   18.8384    0.0000 </r>
       <r>   20.1433    0.0000 </r>
       <r>   24.7471    0.0000 </r>
      </set>
      <set comment="kpoint 94">
       <r>    6.7578    1.0000 </r>
       <r>    7.6824    1.0000 </r>
       <r>    8.6838    1.0000 </r>
       <r>   10.3041    1.0000 </r>
       <r>   11.5840    0.8864 </r>
       <r>   17.9377    0.0000 </r>
       <r>   21.5893    0.0000 </r>
       <r>   24.1876    0.0000 </r>
      </set>
      <set comment="kpoint 95">
       <r>    7.0379    1.0000 </r>
       <r>    7.9537    1.0000 </r>
       <r>    8.2792    1.0000 </r>
       <r>   10.1155    1.0000 </r>
       <r>   11.2298    1.0027 </r>
       <r>   16.8318   -0.0000 </r>
       <r>   23.2452    0.0000 </r>
       <r>   23.9702    0.0000 </r>
      </set>
      <set comment="kpoint 96">
       <r>    5.9664    1.0000 </r>
       <r>    6.2649    1.0000 </r>
       <r>   11.4970    1.0212 </r>
       <r>   11.4970    1.0212 </r>
       <r>   11.7447    0.2783 </r>
       <r>   11.8859   -0.0228 </r>
       <r>   27.3877    0.0000 </r>
       <r>   27.3877    0.0000 </r>
      </set>
      <set comment="kpoint 97">
       <r>    5.8735    1.0000 </r>
       <r>    6.1605    1.0000 </r>
       <r>   11.3050    1.0101 </r>
       <r>   11.5900    0.8704 </r>
       <r>   12.1358   -0.0036 </r>
       <r>   12.9864   -0.0000 </r>
       <r>   26.3214    0.0000 </r>
       <r>   26.8247    0.0000 </r>
      </set>
      <set comment="kpoint 98">
       <r>    5.8599    1.0000 </r>
       <r>    6.1809    1.0000 </r>
       <r>   10.9675    1.0000 </r>
       <r>   11.4902    1.0251 </r>
       <r>   12.3896   -0.0000 </r>
       <r>   14.4425   -0.0000 </r>
       <r>   24.8233    0.0000 </r>
       <r>   26.1820    0.0000 </r>
      </set>
      <set comment="kpoint 99">
       <r>    5.9113    1.0000 </r>
       <r>    6.3395    1.0000 </r>
       <r>   10.5681    1.0000 </r>
       <r>   11.3435    1.0171 </r>
       <r>   12.4618   -0.0000 </r>
       <r>   16.0032   -0.0000 </r>
       <r>   23.2400    0.0000 </r>
       <r>   25.3708    0.0000 </r>
      </set>
      <set comment="kpoint 100">
       <r>    6.0326    1.0000 </r>
       <r>    6.6137    1.0000 </r>
       <r>   10.1136    1.0000 </r>
       <r>   11.1660    1.0007 </r>
       <r>   12.3421   -0.0000 </r>
       <r>   17.6279    0.0000 </r>
       <r>   21.7395    0.0000 </r>
       <r>   24.6142    0.0000 </r>
      </set>
      <set comment="kpoint 101">
       <r>    6.2266    1.0000 </r>
       <r>    6.9672    1.0000 </r>
       <r>    9.6134    1.0000 </r>
       <r>   10.9491    1.0000 </r>
       <r>   12.0904   -0.0080 </r>
       <r>   19.2408    0.0000 </r>
       <r>   20.3888    0.0000 </r>
       <r>   23.9829    0.0000 </r>
      </set>
      <set comment="kpoint 102">
       <r>    6.4817    1.0000 </r>
       <r>    7.3546    1.0000 </r>
       <r>    9.0986    1.0000 </r>
       <r>   10.6673    1.0000 </r>
       <r>   11.8074    0.0863 </r>
       <r>   19.1026    0.0000 </r>
       <r>   20.7471    0.0000 </r>
       <r>   23.6781    0.0000 </r>
      </set>
      <set comment="kpoint 103">
       <r>    5.6909    1.0000 </r>
       <r>    5.9981    1.0000 </r>
       <r>   12.0679   -0.0113 </r>
       <r>   12.0820   -0.0091 </r>
       <r>   12.0820   -0.0091 </r>
       <r>   13.1714   -0.0000 </r>
       <r>   26.1264    0.0000 </r>
       <r>   26.1264    0.0000 </r>
      </set>
      <set comment="kpoint 104">
       <r>    5.6228    1.0000 </r>
       <r>    5.9452    1.0000 </r>
       <r>   11.9360   -0.0355 </r>
       <r>   11.9756   -0.0307 </r>
       <r>   12.4042   -0.0000 </r>
       <r>   14.2788   -0.0000 </r>
       <r>   25.1275    0.0000 </r>
       <r>   25.4713    0.0000 </r>
      </set>
      <set comment="kpoint 105">
       <r>    5.6605    1.0000 </r>
       <r>    6.0174    1.0000 </r>
       <r>   11.4729    1.0319 </r>
       <r>   11.8397    0.0246 </r>
       <r>   12.5220   -0.0000 </r>
       <r>   15.6661   -0.0000 </r>
       <r>   23.9490    0.0000 </r>
       <r>   24.7490    0.0000 </r>
      </set>
      <set comment="kpoint 106">
       <r>    5.7826    1.0000 </r>
       <r>    6.2258    1.0000 </r>
       <r>   10.8953    1.0000 </r>
       <r>   11.6457    0.6831 </r>
       <r>   12.4467   -0.0000 </r>
       <r>   17.0776    0.0000 </r>
       <r>   22.7028    0.0000 </r>
       <r>   24.1546    0.0000 </r>
      </set>
      <set comment="kpoint 107">
       <r>    5.9758    1.0000 </r>
       <r>    6.5560    1.0000 </r>
       <r>   10.2560    1.0000 </r>
       <r>   11.3568    1.0200 </r>
       <r>   12.2675   -0.0002 </r>
       <r>   18.3616    0.0000 </r>
       <r>   21.4859    0.0000 </r>
       <r>   23.8281    0.0000 </r>
      </set>
      <set comment="kpoint 108">
       <r>    5.4883    1.0000 </r>
       <r>    5.8323    1.0000 </r>
       <r>   12.1873   -0.0012 </r>
       <r>   12.5066   -0.0000 </r>
       <r>   12.5066   -0.0000 </r>
       <r>   14.4213   -0.0000 </r>
       <r>   24.5930    0.0000 </r>
       <r>   25.2812    0.0000 </r>
      </set>
      <set comment="kpoint 109">
       <r>    5.4805    1.0000 </r>
       <r>    5.8349    1.0000 </r>
       <r>   12.1429   -0.0031 </r>
       <r>   12.2838   -0.0001 </r>
       <r>   12.6088   -0.0000 </r>
       <r>   15.2164   -0.0000 </r>
       <r>   24.0526    0.0000 </r>
       <r>   24.7986    0.0000 </r>
      </set>
      <set comment="kpoint 110">
       <r>    5.5882    1.0000 </r>
       <r>    5.9625    1.0000 </r>
       <r>   11.6582    0.6331 </r>
       <r>   11.9725   -0.0313 </r>
       <r>   12.5628   -0.0000 </r>
       <r>   16.2147   -0.0000 </r>
       <r>   23.5396    0.0000 </r>
       <r>   24.2161    0.0000 </r>
      </set>
      <set comment="kpoint 111">
       <r>    5.4155    1.0000 </r>
       <r>    5.7762    1.0000 </r>
       <r>   12.2290   -0.0005 </r>
       <r>   12.6643   -0.0000 </r>
       <r>   12.6643   -0.0000 </r>
       <r>   14.9592   -0.0000 </r>
       <r>   23.9475    0.0000 </r>
       <r>   24.9812    0.0000 </r>
      </set>
      <set comment="kpoint 112">
       <r>    4.4208    1.0000 </r>
       <r>    8.2779    1.0000 </r>
       <r>    8.9012    1.0000 </r>
       <r>    8.9290    1.0000 </r>
       <r>   10.3642    1.0000 </r>
       <r>   10.8131    1.0000 </r>
       <r>   27.8012    0.0000 </r>
       <r>   28.6162    0.0000 </r>
      </set>
      <set comment="kpoint 113">
       <r>    4.8558    1.0000 </r>
       <r>    8.1167    1.0000 </r>
       <r>    9.0465    1.0000 </r>
       <r>    9.0600    1.0000 </r>
       <r>   10.2508    1.0000 </r>
       <r>   10.9033    1.0000 </r>
       <r>   27.7992    0.0000 </r>
       <r>   29.0996    0.0000 </r>
      </set>
      <set comment="kpoint 114">
       <r>    5.3668    1.0000 </r>
       <r>    8.0239    1.0000 </r>
       <r>    9.0706    1.0000 </r>
       <r>    9.1811    1.0000 </r>
       <r>   10.2812    1.0000 </r>
       <r>   11.0971    1.0001 </r>
       <r>   27.7871    0.0000 </r>
       <r>   28.4733    0.0000 </r>
      </set>
      <set comment="kpoint 115">
       <r>    5.7980    1.0000 </r>
       <r>    8.1498    1.0000 </r>
       <r>    8.9706    1.0000 </r>
       <r>    9.1862    1.0000 </r>
       <r>   10.5424    1.0000 </r>
       <r>   11.4321    1.0349 </r>
       <r>   26.9515    0.0000 </r>
       <r>   27.8208    0.0000 </r>
      </set>
      <set comment="kpoint 116">
       <r>    5.9897    1.0000 </r>
       <r>    8.6046    1.0000 </r>
       <r>    8.8224    1.0000 </r>
       <r>    9.1016    1.0000 </r>
       <r>   10.9732    1.0000 </r>
       <r>   11.8913   -0.0257 </r>
       <r>   25.3419    0.0000 </r>
       <r>   27.8115    0.0000 </r>
      </set>
      <set comment="kpoint 117">
       <r>    5.9834    1.0000 </r>
       <r>    8.6157    1.0000 </r>
       <r>    8.9566    1.0000 </r>
       <r>    9.3837    1.0000 </r>
       <r>   11.4566    1.0349 </r>
       <r>   12.4569   -0.0000 </r>
       <r>   23.6599    0.0000 </r>
       <r>   27.8094    0.0000 </r>
      </set>
      <set comment="kpoint 118">
       <r>    5.9100    1.0000 </r>
       <r>    8.4779    1.0000 </r>
       <r>    8.8507    1.0000 </r>
       <r>   10.0942    1.0000 </r>
       <r>   11.8707   -0.0119 </r>
       <r>   13.1325   -0.0000 </r>
       <r>   22.0544    0.0000 </r>
       <r>   27.8084    0.0000 </r>
      </set>
      <set comment="kpoint 119">
       <r>    5.8453    1.0000 </r>
       <r>    8.3876    1.0000 </r>
       <r>    8.7750    1.0000 </r>
       <r>   10.6068    1.0000 </r>
       <r>   12.1285   -0.0041 </r>
       <r>   13.8142   -0.0000 </r>
       <r>   20.7799    0.0000 </r>
       <r>   27.6640    0.0000 </r>
      </set>
      <set comment="kpoint 120">
       <r>    5.8209    1.0000 </r>
       <r>    8.3565    1.0000 </r>
       <r>    8.7481    1.0000 </r>
       <r>   10.7915    1.0000 </r>
       <r>   12.2125   -0.0007 </r>
       <r>   14.1378   -0.0000 </r>
       <r>   20.2570    0.0000 </r>
       <r>   27.5592    0.0000 </r>
      </set>
      <set comment="kpoint 121">
       <r>    5.0030    1.0000 </r>
       <r>    7.9286    1.0000 </r>
       <r>    9.1738    1.0000 </r>
       <r>    9.2291    1.0000 </r>
       <r>   10.0777    1.0000 </r>
       <r>   10.9996    1.0000 </r>
       <r>   27.8000    0.0000 </r>
       <r>   29.3921    0.0000 </r>
      </set>
      <set comment="kpoint 122">
       <r>    5.4779    1.0000 </r>
       <r>    7.7674    1.0000 </r>
       <r>    9.1481    1.0000 </r>
       <r>    9.4056    1.0000 </r>
       <r>   10.1521    1.0000 </r>
       <r>   11.1813    1.0009 </r>
       <r>   27.7959    0.0000 </r>
       <r>   29.1211    0.0000 </r>
      </set>
      <set comment="kpoint 123">
       <r>    5.9422    1.0000 </r>
       <r>    7.7377    1.0000 </r>
       <r>    8.9621    1.0000 </r>
       <r>    9.4697    1.0000 </r>
       <r>   10.5039    1.0000 </r>
       <r>   11.5046    1.0159 </r>
       <r>   27.6316    0.0000 </r>
       <r>   27.8771    0.0000 </r>
      </set>
      <set comment="kpoint 124">
       <r>    6.2061    1.0000 </r>
       <r>    8.0005    1.0000 </r>
       <r>    8.7266    1.0000 </r>
       <r>    9.4184    1.0000 </r>
       <r>   11.0235    1.0000 </r>
       <r>   11.9855   -0.0287 </r>
       <r>   26.0791    0.0000 </r>
       <r>   27.8127    0.0000 </r>
      </set>
      <set comment="kpoint 125">
       <r>    6.2340    1.0000 </r>
       <r>    8.4282    1.0000 </r>
       <r>    8.6191    1.0000 </r>
       <r>    9.3157    1.0000 </r>
       <r>   11.5558    0.9495 </r>
       <r>   12.6441   -0.0000 </r>
       <r>   24.3471    0.0000 </r>
       <r>   27.8092    0.0000 </r>
      </set>
      <set comment="kpoint 126">
       <r>    6.1700    1.0000 </r>
       <r>    8.2939    1.0000 </r>
       <r>    9.0838    1.0000 </r>
       <r>    9.3118    1.0000 </r>
       <r>   11.9568   -0.0339 </r>
       <r>   13.4966   -0.0000 </r>
       <r>   22.6312    0.0000 </r>
       <r>   27.8078    0.0000 </r>
      </set>
      <set comment="kpoint 127">
       <r>    6.1068    1.0000 </r>
       <r>    8.1749    1.0000 </r>
       <r>    9.0605    1.0000 </r>
       <r>    9.7628    1.0000 </r>
       <r>   12.1687   -0.0018 </r>
       <r>   14.4258   -0.0000 </r>
       <r>   21.1399    0.0000 </r>
       <r>   27.8070    0.0000 </r>
      </set>
      <set comment="kpoint 128">
       <r>    6.0799    1.0000 </r>
       <r>    8.1248    1.0000 </r>
       <r>    9.0090    1.0000 </r>
       <r>   10.0593    1.0000 </r>
       <r>   12.1924   -0.0011 </r>
       <r>   15.0846   -0.0000 </r>
       <r>   20.2561    0.0000 </r>
       <r>   27.8063    0.0000 </r>
      </set>
      <set comment="kpoint 129">
       <r>    6.1002    1.0000 </r>
       <r>    8.1480    1.0000 </r>
       <r>    9.0018    1.0000 </r>
       <r>   10.0523    1.0000 </r>
       <r>   12.0481   -0.0148 </r>
       <r>   14.9912   -0.0000 </r>
       <r>   20.4811    0.0000 </r>
       <r>   27.8182    0.0000 </r>
      </set>
      <set comment="kpoint 130">
       <r>    6.1650    1.0000 </r>
       <r>    8.2408    1.0000 </r>
       <r>    9.0400    1.0000 </r>
       <r>    9.7305    1.0000 </r>
       <r>   11.7545    0.2424 </r>
       <r>   14.3039   -0.0000 </r>
       <r>   21.6554    0.0000 </r>
       <r>   27.8256    0.0000 </r>
      </set>
      <set comment="kpoint 131">
       <r>    6.2546    1.0000 </r>
       <r>    8.3898    1.0000 </r>
       <r>    9.0230    1.0000 </r>
       <r>    9.2737    1.0000 </r>
       <r>   11.3357    1.0155 </r>
       <r>   13.4970   -0.0000 </r>
       <r>   23.2531    0.0000 </r>
       <r>   27.8080    0.0000 </r>
      </set>
      <set comment="kpoint 132">
       <r>    6.3140    1.0000 </r>
       <r>    8.4116    1.0000 </r>
       <r>    8.6423    1.0000 </r>
       <r>    9.3032    1.0000 </r>
       <r>   10.8525    1.0000 </r>
       <r>   12.7519   -0.0000 </r>
       <r>   24.9695    0.0000 </r>
       <r>   27.8101    0.0000 </r>
      </set>
      <set comment="kpoint 133">
       <r>    6.2095    1.0000 </r>
       <r>    7.9619    1.0000 </r>
       <r>    8.8213    1.0000 </r>
       <r>    9.4153    1.0000 </r>
       <r>   10.3985    1.0000 </r>
       <r>   12.0985   -0.0070 </r>
       <r>   26.6115    0.0000 </r>
       <r>   27.8168    0.0000 </r>
      </set>
      <set comment="kpoint 134">
       <r>    5.8265    1.0000 </r>
       <r>    7.8279    1.0000 </r>
       <r>    9.0013    1.0000 </r>
       <r>    9.4322    1.0000 </r>
       <r>   10.1121    1.0000 </r>
       <r>   11.5541    0.9526 </r>
       <r>   27.7585    0.0000 </r>
       <r>   28.0962    0.0000 </r>
      </set>
      <set comment="kpoint 135">
       <r>    5.3143    1.0000 </r>
       <r>    7.9350    1.0000 </r>
       <r>    9.0909    1.0000 </r>
       <r>    9.2617    1.0000 </r>
       <r>   10.1095    1.0000 </r>
       <r>   11.1515    1.0005 </r>
       <r>   27.7958    0.0000 </r>
       <r>   29.1519    0.0000 </r>
      </set>
      <set comment="kpoint 136">
       <r>    5.6753    1.0000 </r>
       <r>    7.5128    1.0000 </r>
       <r>    9.2935    1.0000 </r>
       <r>    9.6793    1.0000 </r>
       <r>   10.0775    1.0000 </r>
       <r>   11.2487    1.0039 </r>
       <r>   27.7989    0.0000 </r>
       <r>   29.6815    0.0000 </r>
      </set>
      <set comment="kpoint 137">
       <r>    6.0945    1.0000 </r>
       <r>    7.3740    1.0000 </r>
       <r>    9.0610    1.0000 </r>
       <r>    9.8457    1.0000 </r>
       <r>   10.4967    1.0000 </r>
       <r>   11.5414    0.9742 </r>
       <r>   27.7878    0.0000 </r>
       <r>   28.4969    0.0000 </r>
      </set>
      <set comment="kpoint 138">
       <r>    6.3911    1.0000 </r>
       <r>    7.4293    1.0000 </r>
       <r>    8.8065    1.0000 </r>
       <r>    9.8474    1.0000 </r>
       <r>   11.0871    1.0001 </r>
       <r>   12.0316   -0.0182 </r>
       <r>   26.8788    0.0000 </r>
       <r>   27.8166    0.0000 </r>
      </set>
      <set comment="kpoint 139">
       <r>    6.4498    1.0000 </r>
       <r>    7.7302    1.0000 </r>
       <r>    8.6213    1.0000 </r>
       <r>    9.7583    1.0000 </r>
       <r>   11.6467    0.6789 </r>
       <r>   12.7772   -0.0000 </r>
       <r>   25.1043    0.0000 </r>
       <r>   27.8079    0.0000 </r>
      </set>
      <set comment="kpoint 140">
       <r>    6.4082    1.0000 </r>
       <r>    7.9414    1.0000 </r>
       <r>    8.6940    1.0000 </r>
       <r>    9.6389    1.0000 </r>
       <r>   12.0304   -0.0185 </r>
       <r>   13.7868   -0.0000 </r>
       <r>   23.2947    0.0000 </r>
       <r>   27.8052    0.0000 </r>
      </set>
      <set comment="kpoint 141">
       <r>    6.3733    1.0000 </r>
       <r>    7.9091    1.0000 </r>
       <r>    9.0336    1.0000 </r>
       <r>    9.5285    1.0000 </r>
       <r>   12.2142   -0.0007 </r>
       <r>   14.9353   -0.0000 </r>
       <r>   21.6270    0.0000 </r>
       <r>   27.8025    0.0000 </r>
      </set>
      <set comment="kpoint 142">
       <r>    6.3766    1.0000 </r>
       <r>    7.8542    1.0000 </r>
       <r>    9.3106    1.0000 </r>
       <r>    9.4655    1.0000 </r>
       <r>   12.2033   -0.0009 </r>
       <r>   15.9504   -0.0000 </r>
       <r>   20.3940    0.0000 </r>
       <r>   27.7983    0.0000 </r>
      </set>
      <set comment="kpoint 143">
       <r>    6.4239    1.0000 </r>
       <r>    7.8596    1.0000 </r>
       <r>    9.3503    1.0000 </r>
       <r>    9.4756    1.0000 </r>
       <r>   12.0187   -0.0211 </r>
       <r>   16.1941   -0.0000 </r>
       <r>   20.2510    0.0000 </r>
       <r>   27.6937    0.0000 </r>
      </set>
      <set comment="kpoint 144">
       <r>    6.5113    1.0000 </r>
       <r>    7.9417    1.0000 </r>
       <r>    9.2276    1.0000 </r>
       <r>    9.4282    1.0000 </r>
       <r>   11.6924    0.4901 </r>
       <r>   15.5243   -0.0000 </r>
       <r>   21.3368    0.0000 </r>
       <r>   27.6136    0.0000 </r>
      </set>
      <set comment="kpoint 145">
       <r>    6.6273    1.0000 </r>
       <r>    8.0922    1.0000 </r>
       <r>    8.8208    1.0000 </r>
       <r>    9.4770    1.0000 </r>
       <r>   11.2583    1.0046 </r>
       <r>   14.6112   -0.0000 </r>
       <r>   22.9350    0.0000 </r>
       <r>   27.6662    0.0000 </r>
      </set>
      <set comment="kpoint 146">
       <r>    6.7379    1.0000 </r>
       <r>    8.1624    1.0000 </r>
       <r>    8.4066    1.0000 </r>
       <r>    9.5853    1.0000 </r>
       <r>   10.7631    1.0000 </r>
       <r>   13.7244   -0.0000 </r>
       <r>   24.6641    0.0000 </r>
       <r>   27.7873    0.0000 </r>
      </set>
      <set comment="kpoint 147">
       <r>    6.7137    1.0000 </r>
       <r>    7.7574    1.0000 </r>
       <r>    8.5892    1.0000 </r>
       <r>    9.7290    1.0000 </r>
       <r>   10.2703    1.0000 </r>
       <r>   12.9069   -0.0000 </r>
       <r>   26.2759    0.0000 </r>
       <r>   27.8134    0.0000 </r>
      </set>
      <set comment="kpoint 148">
       <r>    6.3459    1.0000 </r>
       <r>    7.6755    1.0000 </r>
       <r>    8.8220    1.0000 </r>
       <r>    9.7610    1.0000 </r>
       <r>    9.9639    1.0000 </r>
       <r>   12.1729   -0.0017 </r>
       <r>   27.4006    0.0000 </r>
       <r>   27.8445    0.0000 </r>
      </set>
      <set comment="kpoint 149">
       <r>    6.1913    1.0000 </r>
       <r>    7.0827    1.0000 </r>
       <r>    9.3577    1.0000 </r>
       <r>   10.2307    1.0000 </r>
       <r>   10.5512    1.0000 </r>
       <r>   11.5520    0.9565 </r>
       <r>   27.7957    0.0000 </r>
       <r>   29.0732    0.0000 </r>
      </set>
      <set comment="kpoint 150">
       <r>    6.4152    1.0000 </r>
       <r>    6.9857    1.0000 </r>
       <r>    9.1753    1.0000 </r>
       <r>   10.3625    1.0000 </r>
       <r>   11.1241    1.0002 </r>
       <r>   12.0223   -0.0203 </r>
       <r>   27.6288    0.0000 </r>
       <r>   27.8558    0.0000 </r>
      </set>
      <set comment="kpoint 151">
       <r>    6.4828    1.0000 </r>
       <r>    7.0979    1.0000 </r>
       <r>    8.9979    1.0000 </r>
       <r>   10.3052    1.0000 </r>
       <r>   11.7002    0.4573 </r>
       <r>   12.8352   -0.0000 </r>
       <r>   25.8929    0.0000 </r>
       <r>   27.8050    0.0000 </r>
      </set>
      <set comment="kpoint 152">
       <r>    6.4611    1.0000 </r>
       <r>    7.3236    1.0000 </r>
       <r>    8.8872    1.0000 </r>
       <r>   10.1811    1.0000 </r>
       <r>   12.0817   -0.0091 </r>
       <r>   13.9674   -0.0000 </r>
       <r>   24.0296    0.0000 </r>
       <r>   27.7984    0.0000 </r>
      </set>
      <set comment="kpoint 153">
       <r>    6.4657    1.0000 </r>
       <r>    7.4984    1.0000 </r>
       <r>    8.8879    1.0000 </r>
       <r>   10.0384    1.0000 </r>
       <r>   12.2590   -0.0002 </r>
       <r>   15.2843   -0.0000 </r>
       <r>   22.2491    0.0000 </r>
       <r>   27.7661    0.0000 </r>
      </set>
      <set comment="kpoint 154">
       <r>    6.5278    1.0000 </r>
       <r>    7.5812    1.0000 </r>
       <r>    8.9729    1.0000 </r>
       <r>    9.9011    1.0000 </r>
       <r>   12.2364   -0.0004 </r>
       <r>   16.6133   -0.0000 </r>
       <r>   20.7392    0.0000 </r>
       <r>   27.3234    0.0000 </r>
      </set>
      <set comment="kpoint 155">
       <r>    6.6489    1.0000 </r>
       <r>    7.6238    1.0000 </r>
       <r>    9.0179    1.0000 </r>
       <r>    9.7946    1.0000 </r>
       <r>   12.0348   -0.0175 </r>
       <r>   17.3538    0.0000 </r>
       <r>   20.1115    0.0000 </r>
       <r>   26.8073    0.0000 </r>
      </set>
      <set comment="kpoint 156">
       <r>    6.8168    1.0000 </r>
       <r>    7.6892    1.0000 </r>
       <r>    8.8844    1.0000 </r>
       <r>    9.7588    1.0000 </r>
       <r>   11.6933    0.4864 </r>
       <r>   16.7524   -0.0000 </r>
       <r>   21.1085    0.0000 </r>
       <r>   26.4188    0.0000 </r>
      </set>
      <set comment="kpoint 157">
       <r>    7.0092    1.0000 </r>
       <r>    7.8103    1.0000 </r>
       <r>    8.5439    1.0000 </r>
       <r>    9.7954    1.0000 </r>
       <r>   11.2570    1.0045 </r>
       <r>   15.7458   -0.0000 </r>
       <r>   22.7408    0.0000 </r>
       <r>   26.2274    0.0000 </r>
      </set>
      <set comment="kpoint 158">
       <r>    7.1924    1.0000 </r>
       <r>    7.8984    1.0000 </r>
       <r>    8.1740    1.0000 </r>
       <r>    9.8711    1.0000 </r>
       <r>   10.7793    1.0000 </r>
       <r>   14.7482   -0.0000 </r>
       <r>   24.4627    0.0000 </r>
       <r>   26.3000    0.0000 </r>
      </set>
      <set comment="kpoint 159">
       <r>    7.1834    1.0000 </r>
       <r>    7.6412    1.0000 </r>
       <r>    8.3276    1.0000 </r>
       <r>    9.9282    1.0000 </r>
       <r>   10.3577    1.0000 </r>
       <r>   13.7996   -0.0000 </r>
       <r>   25.7713    0.0000 </r>
       <r>   26.9468    0.0000 </r>
      </set>
      <set comment="kpoint 160">
       <r>    6.2865    1.0000 </r>
       <r>    6.6807    1.0000 </r>
       <r>    9.8244    1.0000 </r>
       <r>   10.8521    1.0000 </r>
       <r>   11.2295    1.0027 </r>
       <r>   11.9593   -0.0335 </r>
       <r>   27.7827    0.0000 </r>
       <r>   28.1735    0.0000 </r>
      </set>
      <set comment="kpoint 161">
       <r>    6.3200    1.0000 </r>
       <r>    6.6297    1.0000 </r>
       <r>    9.6937    1.0000 </r>
       <r>   10.9249    1.0000 </r>
       <r>   11.7127    0.4051 </r>
       <r>   12.8157   -0.0000 </r>
       <r>   26.6079    0.0000 </r>
       <r>   27.7948    0.0000 </r>
      </set>
      <set comment="kpoint 162">
       <r>    6.3101    1.0000 </r>
       <r>    6.7469    1.0000 </r>
       <r>    9.5168    1.0000 </r>
       <r>   10.8018    1.0000 </r>
       <r>   12.1065   -0.0061 </r>
       <r>   14.0299   -0.0000 </r>
       <r>   24.7860    0.0000 </r>
       <r>   27.7427    0.0000 </r>
      </set>
      <set comment="kpoint 163">
       <r>    6.3267    1.0000 </r>
       <r>    6.9542    1.0000 </r>
       <r>    9.3374    1.0000 </r>
       <r>   10.6343    1.0000 </r>
       <r>   12.3007   -0.0001 </r>
       <r>   15.4514   -0.0000 </r>
       <r>   22.9827    0.0000 </r>
       <r>   27.1157    0.0000 </r>
      </set>
      <set comment="kpoint 164">
       <r>    6.4109    1.0000 </r>
       <r>    7.1860    1.0000 </r>
       <r>    9.1625    1.0000 </r>
       <r>   10.4579    1.0000 </r>
       <r>   12.2889   -0.0001 </r>
       <r>   16.9785   -0.0000 </r>
       <r>   21.3352    0.0000 </r>
       <r>   26.3531    0.0000 </r>
      </set>
      <set comment="kpoint 165">
       <r>    6.5703    1.0000 </r>
       <r>    7.4068    1.0000 </r>
       <r>    8.9671    1.0000 </r>
       <r>   10.2981    1.0000 </r>
       <r>   12.0946   -0.0074 </r>
       <r>   18.3139    0.0000 </r>
       <r>   20.1556    0.0000 </r>
       <r>   25.6431    0.0000 </r>
      </set>
      <set comment="kpoint 166">
       <r>    6.7990    1.0000 </r>
       <r>    7.6033    1.0000 </r>
       <r>    8.7019    1.0000 </r>
       <r>   10.1814    1.0000 </r>
       <r>   11.7667    0.2007 </r>
       <r>   17.9663    0.0000 </r>
       <r>   20.9215    0.0000 </r>
       <r>   25.0446    0.0000 </r>
      </set>
      <set comment="kpoint 167">
       <r>    7.0780    1.0000 </r>
       <r>    7.7833    1.0000 </r>
       <r>    8.3369    1.0000 </r>
       <r>   10.1126    1.0000 </r>
       <r>   11.3698    1.0230 </r>
       <r>   16.8785   -0.0000 </r>
       <r>   22.6392    0.0000 </r>
       <r>   24.6264    0.0000 </r>
      </set>
      <set comment="kpoint 168">
       <r>    7.3390    1.0000 </r>
       <r>    7.9188    1.0000 </r>
       <r>    7.9808    1.0000 </r>
       <r>   10.0432    1.0000 </r>
       <r>   10.9957    1.0000 </r>
       <r>   15.7984   -0.0000 </r>
       <r>   24.3958    0.0000 </r>
       <r>   24.5156    0.0000 </r>
      </set>
      <set comment="kpoint 169">
       <r>    6.0683    1.0000 </r>
       <r>    6.3388    1.0000 </r>
       <r>   10.5593    1.0000 </r>
       <r>   11.4941    1.0229 </r>
       <r>   11.7706    0.1880 </r>
       <r>   12.7589   -0.0000 </r>
       <r>   26.9437    0.0000 </r>
       <r>   27.1804    0.0000 </r>
      </set>
      <set comment="kpoint 170">
       <r>    6.0514    1.0000 </r>
       <r>    6.3303    1.0000 </r>
       <r>   10.3654    1.0000 </r>
       <r>   11.4549    1.0351 </r>
       <r>   12.1005   -0.0067 </r>
       <r>   13.9975   -0.0000 </r>
       <r>   25.4510    0.0000 </r>
       <r>   26.7543    0.0000 </r>
      </set>
      <set comment="kpoint 171">
       <r>    6.0739    1.0000 </r>
       <r>    6.4664    1.0000 </r>
       <r>   10.0995    1.0000 </r>
       <r>   11.2536    1.0042 </r>
       <r>   12.3396   -0.0000 </r>
       <r>   15.4442   -0.0000 </r>
       <r>   23.7613    0.0000 </r>
       <r>   26.1914    0.0000 </r>
      </set>
      <set comment="kpoint 172">
       <r>    6.1570    1.0000 </r>
       <r>    6.7115    1.0000 </r>
       <r>    9.7824    1.0000 </r>
       <r>   11.0318    1.0000 </r>
       <r>   12.3623   -0.0000 </r>
       <r>   17.0216    0.0000 </r>
       <r>   22.1372    0.0000 </r>
       <r>   25.3857    0.0000 </r>
      </set>
      <set comment="kpoint 173">
       <r>    6.3142    1.0000 </r>
       <r>    7.0229    1.0000 </r>
       <r>    9.4111    1.0000 </r>
       <r>   10.8097    1.0000 </r>
       <r>   12.1997   -0.0009 </r>
       <r>   18.6553    0.0000 </r>
       <r>   20.6841    0.0000 </r>
       <r>   24.6305    0.0000 </r>
      </set>
      <set comment="kpoint 174">
       <r>    6.5424    1.0000 </r>
       <r>    7.3619    1.0000 </r>
       <r>    8.9851    1.0000 </r>
       <r>   10.5959    1.0000 </r>
       <r>   11.9190   -0.0344 </r>
       <r>   19.1638    0.0000 </r>
       <r>   20.5432    0.0000 </r>
       <r>   24.0039    0.0000 </r>
      </set>
      <set comment="kpoint 175">
       <r>    6.8214    1.0000 </r>
       <r>    7.6757    1.0000 </r>
       <r>    8.5452    1.0000 </r>
       <r>   10.3759    1.0000 </r>
       <r>   11.6097    0.8116 </r>
       <r>   18.0190    0.0000 </r>
       <r>   22.0217    0.0000 </r>
       <r>   23.7378    0.0000 </r>
      </set>
      <set comment="kpoint 176">
       <r>    5.7884    1.0000 </r>
       <r>    6.0798    1.0000 </r>
       <r>   11.2522    1.0041 </r>
       <r>   12.0367   -0.0171 </r>
       <r>   12.0805   -0.0093 </r>
       <r>   13.9732   -0.0000 </r>
       <r>   25.7311    0.0000 </r>
       <r>   25.9540    0.0000 </r>
      </set>
      <set comment="kpoint 177">
       <r>    5.8006    1.0000 </r>
       <r>    6.1213    1.0000 </r>
       <r>   10.9684    1.0000 </r>
       <r>   11.8093    0.0819 </r>
       <r>   12.3891   -0.0000 </r>
       <r>   15.3035   -0.0000 </r>
       <r>   24.4440    0.0000 </r>
       <r>   25.3639    0.0000 </r>
      </set>
      <set comment="kpoint 178">
       <r>    5.8876    1.0000 </r>
       <r>    6.3002    1.0000 </r>
       <r>   10.5678    1.0000 </r>
       <r>   11.5446    0.9692 </r>
       <r>   12.4638   -0.0000 </r>
       <r>   16.7685   -0.0000 </r>
       <r>   23.0213    0.0000 </r>
       <r>   24.6433    0.0000 </r>
      </set>
      <set comment="kpoint 179">
       <r>    6.0447    1.0000 </r>
       <r>    6.5983    1.0000 </r>
       <r>   10.0690    1.0000 </r>
       <r>   11.2678    1.0055 </r>
       <r>   12.3482   -0.0000 </r>
       <r>   18.2577    0.0000 </r>
       <r>   21.6587    0.0000 </r>
       <r>   24.0309    0.0000 </r>
      </set>
      <set comment="kpoint 180">
       <r>    6.2691    1.0000 </r>
       <r>    6.9749    1.0000 </r>
       <r>    9.5131    1.0000 </r>
       <r>   10.9595    1.0000 </r>
       <r>   12.1339   -0.0037 </r>
       <r>   19.6064    0.0000 </r>
       <r>   20.3915    0.0000 </r>
       <r>   23.7072    0.0000 </r>
      </set>
      <set comment="kpoint 181">
       <r>    5.5832    1.0000 </r>
       <r>    5.9188    1.0000 </r>
       <r>   11.7661    0.2029 </r>
       <r>   12.1391   -0.0034 </r>
       <r>   12.5064   -0.0000 </r>
       <r>   15.1445   -0.0000 </r>
       <r>   24.4647    0.0000 </r>
       <r>   25.1251    0.0000 </r>
      </set>
      <set comment="kpoint 182">
       <r>    5.6573    1.0000 </r>
       <r>    6.0151    1.0000 </r>
       <r>   11.3655    1.0220 </r>
       <r>   11.9063   -0.0316 </r>
       <r>   12.5914   -0.0000 </r>
       <r>   16.2742   -0.0000 </r>
       <r>   23.7106    0.0000 </r>
       <r>   24.3845    0.0000 </r>
      </set>
      <set comment="kpoint 183">
       <r>    5.8184    1.0000 </r>
       <r>    6.2458    1.0000 </r>
       <r>   10.7590    1.0000 </r>
       <r>   11.6279    0.7498 </r>
       <r>   12.5086   -0.0000 </r>
       <r>   17.3870    0.0000 </r>
       <r>   22.7368    0.0000 </r>
       <r>   23.9580    0.0000 </r>
      </set>
      <set comment="kpoint 184">
       <r>    5.5096    1.0000 </r>
       <r>    5.8643    1.0000 </r>
       <r>   12.0265   -0.0193 </r>
       <r>   12.0950   -0.0074 </r>
       <r>   12.6647   -0.0000 </r>
       <r>   15.6700   -0.0000 </r>
       <r>   23.8430    0.0000 </r>
       <r>   24.8298    0.0000 </r>
      </set>
      <set comment="kpoint 185">
       <r>    5.9490    1.0000 </r>
       <r>    7.5930    1.0000 </r>
       <r>    8.9924    1.0000 </r>
       <r>    9.6867    1.0000 </r>
       <r>   10.1739    1.0000 </r>
       <r>   11.5627    0.9359 </r>
       <r>   27.7856    0.0000 </r>
       <r>   28.4949    0.0000 </r>
      </set>
      <set comment="kpoint 186">
       <r>    6.3884    1.0000 </r>
       <r>    7.5494    1.0000 </r>
       <r>    8.7503    1.0000 </r>
       <r>    9.8094    1.0000 </r>
       <r>   10.4143    1.0000 </r>
       <r>   12.1284   -0.0041 </r>
       <r>   27.2893    0.0000 </r>
       <r>   27.8315    0.0000 </r>
      </set>
      <set comment="kpoint 187">
       <r>    6.5717    1.0000 </r>
       <r>    7.8298    1.0000 </r>
       <r>    8.4926    1.0000 </r>
       <r>    9.7294    1.0000 </r>
       <r>   10.8889    1.0000 </r>
       <r>   12.8399   -0.0000 </r>
       <r>   25.7182    0.0000 </r>
       <r>   27.8101    0.0000 </r>
      </set>
      <set comment="kpoint 188">
       <r>    6.5353    1.0000 </r>
       <r>    8.1839    1.0000 </r>
       <r>    8.4264    1.0000 </r>
       <r>    9.6104    1.0000 </r>
       <r>   11.3871    1.0270 </r>
       <r>   13.6826   -0.0000 </r>
       <r>   23.9607    0.0000 </r>
       <r>   27.8061    0.0000 </r>
      </set>
      <set comment="kpoint 189">
       <r>    6.4562    1.0000 </r>
       <r>    8.0269    1.0000 </r>
       <r>    8.9148    1.0000 </r>
       <r>    9.5117    1.0000 </r>
       <r>   11.7881    0.1355 </r>
       <r>   14.6425   -0.0000 </r>
       <r>   22.2422    0.0000 </r>
       <r>   27.8041    0.0000 </r>
      </set>
      <set comment="kpoint 190">
       <r>    6.3977    1.0000 </r>
       <r>    7.9047    1.0000 </r>
       <r>    9.2513    1.0000 </r>
       <r>    9.4889    1.0000 </r>
       <r>   12.0299   -0.0186 </r>
       <r>   15.5987   -0.0000 </r>
       <r>   20.7988    0.0000 </r>
       <r>   27.8184    0.0000 </r>
      </set>
      <set comment="kpoint 191">
       <r>    6.3771    1.0000 </r>
       <r>    7.8619    1.0000 </r>
       <r>    9.3142    1.0000 </r>
       <r>    9.5435    1.0000 </r>
       <r>   12.1075   -0.0060 </r>
       <r>   16.0870   -0.0000 </r>
       <r>   20.1441    0.0000 </r>
       <r>   27.9912    0.0000 </r>
      </set>
      <set comment="kpoint 192">
       <r>    6.4705    1.0000 </r>
       <r>    7.2208    1.0000 </r>
       <r>    8.8461    1.0000 </r>
       <r>   10.2273    1.0000 </r>
       <r>   10.5663    1.0000 </r>
       <r>   12.1028   -0.0065 </r>
       <r>   27.7009    0.0000 </r>
       <r>   27.9319    0.0000 </r>
      </set>
      <set comment="kpoint 193">
       <r>    6.7112    1.0000 </r>
       <r>    7.2622    1.0000 </r>
       <r>    8.6116    1.0000 </r>
       <r>   10.2813    1.0000 </r>
       <r>   10.9490    1.0000 </r>
       <r>   12.8701   -0.0000 </r>
       <r>   26.4792    0.0000 </r>
       <r>   27.8109    0.0000 </r>
      </set>
      <set comment="kpoint 194">
       <r>    6.7041    1.0000 </r>
       <r>    7.5518    1.0000 </r>
       <r>    8.4440    1.0000 </r>
       <r>   10.1539    1.0000 </r>
       <r>   11.4530    1.0352 </r>
       <r>   13.8080   -0.0000 </r>
       <r>   24.7270    0.0000 </r>
       <r>   27.7978    0.0000 </r>
      </set>
      <set comment="kpoint 195">
       <r>    6.6612    1.0000 </r>
       <r>    7.7062    1.0000 </r>
       <r>    8.5148    1.0000 </r>
       <r>   10.0028    1.0000 </r>
       <r>   11.8450    0.0168 </r>
       <r>   14.9059   -0.0000 </r>
       <r>   22.9312    0.0000 </r>
       <r>   27.7912    0.0000 </r>
      </set>
      <set comment="kpoint 196">
       <r>    6.6550    1.0000 </r>
       <r>    7.6517    1.0000 </r>
       <r>    8.7969    1.0000 </r>
       <r>    9.8528    1.0000 </r>
       <r>   12.0565   -0.0132 </r>
       <r>   16.0939   -0.0000 </r>
       <r>   21.2941    0.0000 </r>
       <r>   27.7908    0.0000 </r>
      </set>
      <set comment="kpoint 197">
       <r>    6.6900    1.0000 </r>
       <r>    7.5881    1.0000 </r>
       <r>    9.0186    1.0000 </r>
       <r>    9.7294    1.0000 </r>
       <r>   12.0849   -0.0087 </r>
       <r>   17.0376    0.0000 </r>
       <r>   20.1937    0.0000 </r>
       <r>   27.6386    0.0000 </r>
      </set>
      <set comment="kpoint 198">
       <r>    6.7540    1.0000 </r>
       <r>    7.6014    1.0000 </r>
       <r>    8.9805    1.0000 </r>
       <r>    9.7170    1.0000 </r>
       <r>   11.9534   -0.0343 </r>
       <r>   16.8285   -0.0000 </r>
       <r>   20.5476    0.0000 </r>
       <r>   27.3294    0.0000 </r>
      </set>
      <set comment="kpoint 199">
       <r>    6.8348    1.0000 </r>
       <r>    7.7146    1.0000 </r>
       <r>    8.6626    1.0000 </r>
       <r>    9.8185    1.0000 </r>
       <r>   11.6762    0.5585 </r>
       <r>   15.8328   -0.0000 </r>
       <r>   21.9731    0.0000 </r>
       <r>   27.1286    0.0000 </r>
      </set>
      <set comment="kpoint 200">
       <r>    6.9301    1.0000 </r>
       <r>    7.9070    1.0000 </r>
       <r>    8.2005    1.0000 </r>
       <r>    9.9562    1.0000 </r>
       <r>   11.2664    1.0054 </r>
       <r>   14.7761   -0.0000 </r>
       <r>   23.6884    0.0000 </r>
       <r>   27.1193    0.0000 </r>
      </set>
      <set comment="kpoint 201">
       <r>    7.0177    1.0000 </r>
       <r>    7.6602    1.0000 </r>
       <r>    8.1984    1.0000 </r>
       <r>   10.1092    1.0000 </r>
       <r>   10.7693    1.0000 </r>
       <r>   13.7979   -0.0000 </r>
       <r>   25.4095    0.0000 </r>
       <r>   27.3534    0.0000 </r>
      </set>
      <set comment="kpoint 202">
       <r>    6.8558    1.0000 </r>
       <r>    7.4224    1.0000 </r>
       <r>    8.4802    1.0000 </r>
       <r>   10.2534    1.0000 </r>
       <r>   10.2746    1.0000 </r>
       <r>   12.9109   -0.0000 </r>
       <r>   26.7039    0.0000 </r>
       <r>   27.8204    0.0000 </r>
      </set>
      <set comment="kpoint 203">
       <r>    6.5889    1.0000 </r>
       <r>    6.8646    1.0000 </r>
       <r>    9.0508    1.0000 </r>
       <r>   10.8450    1.0000 </r>
       <r>   11.0768    1.0001 </r>
       <r>   12.8464   -0.0000 </r>
       <r>   27.0029    0.0000 </r>
       <r>   27.8152    0.0000 </r>
      </set>
      <set comment="kpoint 204">
       <r>    6.6323    1.0000 </r>
       <r>    6.9552    1.0000 </r>
       <r>    8.8917    1.0000 </r>
       <r>   10.8002    1.0000 </r>
       <r>   11.4926    1.0238 </r>
       <r>   13.8677   -0.0000 </r>
       <r>   25.5029    0.0000 </r>
       <r>   27.3001    0.0000 </r>
      </set>
      <set comment="kpoint 205">
       <r>    6.6131    1.0000 </r>
       <r>    7.1680    1.0000 </r>
       <r>    8.7656    1.0000 </r>
       <r>   10.6065    1.0000 </r>
       <r>   11.8982   -0.0288 </r>
       <r>   15.0692   -0.0000 </r>
       <r>   23.7018    0.0000 </r>
       <r>   27.1903    0.0000 </r>
      </set>
      <set comment="kpoint 206">
       <r>    6.6496    1.0000 </r>
       <r>    7.3353    1.0000 </r>
       <r>    8.7180    1.0000 </r>
       <r>   10.3976    1.0000 </r>
       <r>   12.1132   -0.0054 </r>
       <r>   16.4154   -0.0000 </r>
       <r>   21.9705    0.0000 </r>
       <r>   27.3114    0.0000 </r>
      </set>
      <set comment="kpoint 207">
       <r>    6.7579    1.0000 </r>
       <r>    7.4134    1.0000 </r>
       <r>    8.7260    1.0000 </r>
       <r>   10.2073    1.0000 </r>
       <r>   12.1301   -0.0040 </r>
       <r>   17.7552    0.0000 </r>
       <r>   20.5183    0.0000 </r>
       <r>   26.6365    0.0000 </r>
      </set>
      <set comment="kpoint 208">
       <r>    6.9347    1.0000 </r>
       <r>    7.4379    1.0000 </r>
       <r>    8.6612    1.0000 </r>
       <r>   10.0999    1.0000 </r>
       <r>   11.9762   -0.0306 </r>
       <r>   18.0626    0.0000 </r>
       <r>   20.3781    0.0000 </r>
       <r>   26.0392    0.0000 </r>
      </set>
      <set comment="kpoint 209">
       <r>    7.1608    1.0000 </r>
       <r>    7.4742    1.0000 </r>
       <r>    8.4090    1.0000 </r>
       <r>   10.1234    1.0000 </r>
       <r>   11.6828    0.5311 </r>
       <r>   17.0299    0.0000 </r>
       <r>   21.8345    0.0000 </r>
       <r>   25.5980    0.0000 </r>
      </set>
      <set comment="kpoint 210">
       <r>    7.3702    1.0000 </r>
       <r>    7.6077    1.0000 </r>
       <r>    7.9970    1.0000 </r>
       <r>   10.2296    1.0000 </r>
       <r>   11.2865    1.0075 </r>
       <r>   15.8955   -0.0000 </r>
       <r>   23.5798    0.0000 </r>
       <r>   25.3914    0.0000 </r>
      </set>
      <set comment="kpoint 211">
       <r>    7.4997    1.0000 </r>
       <r>    7.5221    1.0000 </r>
       <r>    7.8832    1.0000 </r>
       <r>   10.3103    1.0000 </r>
       <r>   10.8844    1.0000 </r>
       <r>   14.8185   -0.0000 </r>
       <r>   25.0477    0.0000 </r>
       <r>   25.7567    0.0000 </r>
      </set>
      <set comment="kpoint 212">
       <r>    6.3607    1.0000 </r>
       <r>    6.5576    1.0000 </r>
       <r>    9.5881    1.0000 </r>
       <r>   11.4871    1.0266 </r>
       <r>   11.4965    1.0215 </r>
       <r>   13.8913   -0.0000 </r>
       <r>   26.0299    0.0000 </r>
       <r>   26.5893    0.0000 </r>
      </set>
      <set comment="kpoint 213">
       <r>    6.3790    1.0000 </r>
       <r>    6.6615    1.0000 </r>
       <r>    9.4068    1.0000 </r>
       <r>   11.2399    1.0033 </r>
       <r>   11.9467   -0.0350 </r>
       <r>   15.1418   -0.0000 </r>
       <r>   24.4957    0.0000 </r>
       <r>   26.2265    0.0000 </r>
      </set>
      <set comment="kpoint 214">
       <r>    6.4198    1.0000 </r>
       <r>    6.8799    1.0000 </r>
       <r>    9.2015    1.0000 </r>
       <r>   10.9631    1.0000 </r>
       <r>   12.2006   -0.0009 </r>
       <r>   16.5545   -0.0000 </r>
       <r>   22.7861    0.0000 </r>
       <r>   26.1726    0.0000 </r>
      </set>
      <set comment="kpoint 215">
       <r>    6.5298    1.0000 </r>
       <r>    7.1331    1.0000 </r>
       <r>    8.9771    1.0000 </r>
       <r>   10.6923    1.0000 </r>
       <r>   12.2422   -0.0003 </r>
       <r>   18.0810    0.0000 </r>
       <r>   21.2030    0.0000 </r>
       <r>   25.4888    0.0000 </r>
      </set>
      <set comment="kpoint 216">
       <r>    6.7135    1.0000 </r>
       <r>    7.3770    1.0000 </r>
       <r>    8.7041    1.0000 </r>
       <r>   10.4800    1.0000 </r>
       <r>   12.1041   -0.0063 </r>
       <r>   19.2225    0.0000 </r>
       <r>   20.2621    0.0000 </r>
       <r>   24.7813    0.0000 </r>
      </set>
      <set comment="kpoint 217">
       <r>    6.9625    1.0000 </r>
       <r>    7.5883    1.0000 </r>
       <r>    8.3467    1.0000 </r>
       <r>   10.3707    1.0000 </r>
       <r>   11.8370    0.0287 </r>
       <r>   18.2247    0.0000 </r>
       <r>   21.6832    0.0000 </r>
       <r>   24.2048    0.0000 </r>
      </set>
      <set comment="kpoint 218">
       <r>    7.2582    1.0000 </r>
       <r>    7.7375    1.0000 </r>
       <r>    7.9469    1.0000 </r>
       <r>   10.3320    1.0000 </r>
       <r>   11.5173    1.0046 </r>
       <r>   17.0392    0.0000 </r>
       <r>   23.3247    0.0000 </r>
       <r>   23.9644    0.0000 </r>
      </set>
      <set comment="kpoint 219">
       <r>    6.0661    1.0000 </r>
       <r>    6.3232    1.0000 </r>
       <r>   10.1926    1.0000 </r>
       <r>   11.7211    0.3704 </r>
       <r>   12.0762   -0.0099 </r>
       <r>   15.1784   -0.0000 </r>
       <r>   25.0497    0.0000 </r>
       <r>   25.4419    0.0000 </r>
      </set>
      <set comment="kpoint 220">
       <r>    6.1286    1.0000 </r>
       <r>    6.4640    1.0000 </r>
       <r>    9.9248    1.0000 </r>
       <r>   11.4495    1.0354 </r>
       <r>   12.3345   -0.0000 </r>
       <r>   16.5360   -0.0000 </r>
       <r>   23.6456    0.0000 </r>
       <r>   25.1593    0.0000 </r>
      </set>
      <set comment="kpoint 221">
       <r>    6.2433    1.0000 </r>
       <r>    6.7261    1.0000 </r>
       <r>    9.5834    1.0000 </r>
       <r>   11.1217    1.0002 </r>
       <r>   12.4109   -0.0000 </r>
       <r>   18.0168    0.0000 </r>
       <r>   22.1400    0.0000 </r>
       <r>   24.5617    0.0000 </r>
      </set>
      <set comment="kpoint 222">
       <r>    6.4253    1.0000 </r>
       <r>    7.0558    1.0000 </r>
       <r>    9.1668    1.0000 </r>
       <r>   10.8243    1.0000 </r>
       <r>   12.3039   -0.0001 </r>
       <r>   19.5393    0.0000 </r>
       <r>   20.7485    0.0000 </r>
       <r>   23.9389    0.0000 </r>
      </set>
      <set comment="kpoint 223">
       <r>    6.6717    1.0000 </r>
       <r>    7.3915    1.0000 </r>
       <r>    8.7035    1.0000 </r>
       <r>   10.5833    1.0000 </r>
       <r>   12.0808   -0.0093 </r>
       <r>   19.4376    0.0000 </r>
       <r>   20.9499    0.0000 </r>
       <r>   23.6332    0.0000 </r>
      </set>
      <set comment="kpoint 224">
       <r>    5.8521    1.0000 </r>
       <r>    6.1768    1.0000 </r>
       <r>   10.6980    1.0000 </r>
       <r>   11.7577    0.2313 </r>
       <r>   12.5056   -0.0000 </r>
       <r>   16.4131   -0.0000 </r>
       <r>   24.1072    0.0000 </r>
       <r>   24.6525    0.0000 </r>
      </set>
      <set comment="kpoint 225">
       <r>    5.9823    1.0000 </r>
       <r>    6.3673    1.0000 </r>
       <r>   10.2813    1.0000 </r>
       <r>   11.4596    1.0346 </r>
       <r>   12.5857   -0.0000 </r>
       <r>   17.6232    0.0000 </r>
       <r>   23.1051    0.0000 </r>
       <r>   24.0764    0.0000 </r>
      </set>
      <set comment="kpoint 226">
       <r>    6.1749    1.0000 </r>
       <r>    6.6785    1.0000 </r>
       <r>    9.7455    1.0000 </r>
       <r>   11.1423    1.0004 </r>
       <r>   12.4970   -0.0000 </r>
       <r>   18.7609    0.0000 </r>
       <r>   21.9037    0.0000 </r>
       <r>   23.7454    0.0000 </r>
      </set>
      <set comment="kpoint 227">
       <r>    5.7757    1.0000 </r>
       <r>    6.1270    1.0000 </r>
       <r>   10.9224    1.0000 </r>
       <r>   11.7215    0.3691 </r>
       <r>   12.6655   -0.0000 </r>
       <r>   16.9883   -0.0000 </r>
       <r>   23.5667    0.0000 </r>
       <r>   24.3690    0.0000 </r>
      </set>
      <set comment="kpoint 228">
       <r>    7.0407    1.0000 </r>
       <r>    7.1546    1.0000 </r>
       <r>    8.3822    1.0000 </r>
       <r>   10.7184    1.0000 </r>
       <r>   10.8474    1.0000 </r>
       <r>   13.8336   -0.0000 </r>
       <r>   25.9296    0.0000 </r>
       <r>   26.9066    0.0000 </r>
      </set>
      <set comment="kpoint 229">
       <r>    7.0230    1.0000 </r>
       <r>    7.4060    1.0000 </r>
       <r>    8.2102    1.0000 </r>
       <r>   10.5458    1.0000 </r>
       <r>   11.3252    1.0135 </r>
       <r>   14.9016   -0.0000 </r>
       <r>   24.4929    0.0000 </r>
       <r>   26.3561    0.0000 </r>
      </set>
      <set comment="kpoint 230">
       <r>    6.9988    1.0000 </r>
       <r>    7.4897    1.0000 </r>
       <r>    8.2808    1.0000 </r>
       <r>   10.3384    1.0000 </r>
       <r>   11.7310    0.3308 </r>
       <r>   16.0767   -0.0000 </r>
       <r>   22.7380    0.0000 </r>
       <r>   26.3708    0.0000 </r>
      </set>
      <set comment="kpoint 231">
       <r>    7.0288    1.0000 </r>
       <r>    7.3734    1.0000 </r>
       <r>    8.5201    1.0000 </r>
       <r>   10.1561    1.0000 </r>
       <r>   11.9812   -0.0296 </r>
       <r>   17.3150    0.0000 </r>
       <r>   21.1042    0.0000 </r>
       <r>   26.6545    0.0000 </r>
      </set>
      <set comment="kpoint 232">
       <r>    7.0668    1.0000 </r>
       <r>    7.2918    1.0000 </r>
       <r>    8.6395    1.0000 </r>
       <r>   10.0749    1.0000 </r>
       <r>   12.0636   -0.0120 </r>
       <r>   18.1225    0.0000 </r>
       <r>   20.1594    0.0000 </r>
       <r>   27.1435    0.0000 </r>
      </set>
      <set comment="kpoint 233">
       <r>    6.7964    1.0000 </r>
       <r>    6.9122    1.0000 </r>
       <r>    8.7251    1.0000 </r>
       <r>   11.0855    1.0001 </r>
       <r>   11.4808    1.0293 </r>
       <r>   15.0022   -0.0000 </r>
       <r>   25.1227    0.0000 </r>
       <r>   25.6904    0.0000 </r>
      </set>
      <set comment="kpoint 234">
       <r>    6.8077    1.0000 </r>
       <r>    7.1053    1.0000 </r>
       <r>    8.5703    1.0000 </r>
       <r>   10.8641    1.0000 </r>
       <r>   11.8510    0.0089 </r>
       <r>   16.2505   -0.0000 </r>
       <r>   23.5994    0.0000 </r>
       <r>   25.4533    0.0000 </r>
      </set>
      <set comment="kpoint 235">
       <r>    6.8501    1.0000 </r>
       <r>    7.2871    1.0000 </r>
       <r>    8.4723    1.0000 </r>
       <r>   10.5963    1.0000 </r>
       <r>   12.1052   -0.0062 </r>
       <r>   17.6142    0.0000 </r>
       <r>   21.9016    0.0000 </r>
       <r>   25.7106    0.0000 </r>
      </set>
      <set comment="kpoint 236">
       <r>    6.9480    1.0000 </r>
       <r>    7.3839    1.0000 </r>
       <r>    8.4057    1.0000 </r>
       <r>   10.4007    1.0000 </r>
       <r>   12.1774   -0.0015 </r>
       <r>   18.9591    0.0000 </r>
       <r>   20.4606    0.0000 </r>
       <r>   25.7087    0.0000 </r>
      </set>
      <set comment="kpoint 237">
       <r>    7.0756    1.0000 </r>
       <r>    7.4374    1.0000 </r>
       <r>    8.2617    1.0000 </r>
       <r>   10.3666    1.0000 </r>
       <r>   12.0739   -0.0103 </r>
       <r>   18.5541    0.0000 </r>
       <r>   21.0287    0.0000 </r>
       <r>   25.1484    0.0000 </r>
      </set>
      <set comment="kpoint 238">
       <r>    7.1859    1.0000 </r>
       <r>    7.4952    1.0000 </r>
       <r>    8.0364    1.0000 </r>
       <r>   10.4869    1.0000 </r>
       <r>   11.8189    0.0613 </r>
       <r>   17.2747    0.0000 </r>
       <r>   22.7089    0.0000 </r>
       <r>   24.6991    0.0000 </r>
      </set>
      <set comment="kpoint 239">
       <r>    7.2587    1.0000 </r>
       <r>    7.3854    1.0000 </r>
       <r>    8.0062    1.0000 </r>
       <r>   10.6350    1.0000 </r>
       <r>   11.4848    1.0277 </r>
       <r>   16.0527   -0.0000 </r>
       <r>   24.4186    0.0000 </r>
       <r>   24.5738    0.0000 </r>
      </set>
      <set comment="kpoint 240">
       <r>    6.4706    1.0000 </r>
       <r>    6.7221    1.0000 </r>
       <r>    9.2080    1.0000 </r>
       <r>   11.2559    1.0044 </r>
       <r>   12.0702   -0.0109 </r>
       <r>   16.3837   -0.0000 </r>
       <r>   24.3879    0.0000 </r>
       <r>   24.6169    0.0000 </r>
      </set>
      <set comment="kpoint 241">
       <r>    6.5413    1.0000 </r>
       <r>    6.9455    1.0000 </r>
       <r>    8.9677    1.0000 </r>
       <r>   10.9676    1.0000 </r>
       <r>   12.3051   -0.0001 </r>
       <r>   17.7503    0.0000 </r>
       <r>   22.8527    0.0000 </r>
       <r>   24.6809    0.0000 </r>
      </set>
      <set comment="kpoint 242">
       <r>    6.6500    1.0000 </r>
       <r>    7.2298    1.0000 </r>
       <r>    8.6842    1.0000 </r>
       <r>   10.6810    1.0000 </r>
       <r>   12.3850   -0.0000 </r>
       <r>   19.2267    0.0000 </r>
       <r>   21.3048    0.0000 </r>
       <r>   24.5191    0.0000 </r>
      </set>
      <set comment="kpoint 243">
       <r>    6.8081    1.0000 </r>
       <r>    7.5136    1.0000 </r>
       <r>    8.3351    1.0000 </r>
       <r>   10.5114    1.0000 </r>
       <r>   12.2899   -0.0001 </r>
       <r>   19.7994    0.0000 </r>
       <r>   20.8682    0.0000 </r>
       <r>   23.9579    0.0000 </r>
      </set>
      <set comment="kpoint 244">
       <r>    7.0011    1.0000 </r>
       <r>    7.7605    1.0000 </r>
       <r>    7.9360    1.0000 </r>
       <r>   10.4812    1.0000 </r>
       <r>   12.0649   -0.0118 </r>
       <r>   18.5116    0.0000 </r>
       <r>   22.2889    0.0000 </r>
       <r>   23.6798    0.0000 </r>
      </set>
      <set comment="kpoint 245">
       <r>    6.2397    1.0000 </r>
       <r>    6.6015    1.0000 </r>
       <r>    9.6322    1.0000 </r>
       <r>   11.2462    1.0037 </r>
       <r>   12.5041   -0.0000 </r>
       <r>   17.7494    0.0000 </r>
       <r>   23.7121    0.0000 </r>
       <r>   23.8688    0.0000 </r>
      </set>
      <set comment="kpoint 246">
       <r>    6.3836    1.0000 </r>
       <r>    6.8727    1.0000 </r>
       <r>    9.2440    1.0000 </r>
       <r>   10.9375    1.0000 </r>
       <r>   12.5839   -0.0000 </r>
       <r>   19.0203    0.0000 </r>
       <r>   22.4046    0.0000 </r>
       <r>   23.7455    0.0000 </r>
      </set>
      <set comment="kpoint 247">
       <r>    6.5727    1.0000 </r>
       <r>    7.2137    1.0000 </r>
       <r>    8.7794    1.0000 </r>
       <r>   10.6837    1.0000 </r>
       <r>   12.4963   -0.0000 </r>
       <r>   20.1802    0.0000 </r>
       <r>   21.0787    0.0000 </r>
       <r>   23.5400    0.0000 </r>
      </set>
      <set comment="kpoint 248">
       <r>    6.1582    1.0000 </r>
       <r>    6.5603    1.0000 </r>
       <r>    9.8167    1.0000 </r>
       <r>   11.2016    1.0015 </r>
       <r>   12.6665   -0.0000 </r>
       <r>   18.4351    0.0000 </r>
       <r>   23.2492    0.0000 </r>
       <r>   23.5979    0.0000 </r>
      </set>
      <set comment="kpoint 249">
       <r>    6.8757    1.0000 </r>
       <r>    7.2656    1.0000 </r>
       <r>    8.3641    1.0000 </r>
       <r>   10.7695    1.0000 </r>
       <r>   12.0648   -0.0118 </r>
       <r>   17.5059    0.0000 </r>
       <r>   23.5392    0.0000 </r>
       <r>   23.9189    0.0000 </r>
      </set>
      <set comment="kpoint 250">
       <r>    6.8667    1.0000 </r>
       <r>    7.5236    1.0000 </r>
       <r>    8.1846    1.0000 </r>
       <r>   10.5701    1.0000 </r>
       <r>   12.2917   -0.0001 </r>
       <r>   18.8529    0.0000 </r>
       <r>   21.9590    0.0000 </r>
       <r>   24.1982    0.0000 </r>
      </set>
      <set comment="kpoint 251">
       <r>    6.8619    1.0000 </r>
       <r>    7.6590    1.0000 </r>
       <r>    8.0923    1.0000 </r>
       <r>   10.4792    1.0000 </r>
       <r>   12.3778   -0.0000 </r>
       <r>   20.1051    0.0000 </r>
       <r>   20.5884    0.0000 </r>
       <r>   24.5147    0.0000 </r>
      </set>
      <set comment="kpoint 252">
       <r>    6.6228    1.0000 </r>
       <r>    7.1854    1.0000 </r>
       <r>    8.6721    1.0000 </r>
       <r>   10.7478    1.0000 </r>
       <r>   12.5017   -0.0000 </r>
       <r>   19.0230    0.0000 </r>
       <r>   22.8137    0.0000 </r>
       <r>   23.4622    0.0000 </r>
      </set>
      <set comment="kpoint 253">
       <r>    6.6969    1.0000 </r>
       <r>    7.5167    1.0000 </r>
       <r>    8.3171    1.0000 </r>
       <r>   10.5565    1.0000 </r>
       <r>   12.5836   -0.0000 </r>
       <r>   20.3525    0.0000 </r>
       <r>   21.5124    0.0000 </r>
       <r>   23.4914    0.0000 </r>
      </set>
      <set comment="kpoint 254">
       <r>    6.7836    1.0000 </r>
       <r>    7.8610    1.0000 </r>
       <r>    7.9170    1.0000 </r>
       <r>   10.5050    1.0000 </r>
       <r>   12.4987   -0.0000 </r>
       <r>   20.1439    0.0000 </r>
       <r>   21.5574    0.0000 </r>
       <r>   23.4159    0.0000 </r>
      </set>
      <set comment="kpoint 255">
       <r>    6.5353    1.0000 </r>
       <r>    7.1574    1.0000 </r>
       <r>    8.8011    1.0000 </r>
       <r>   10.7100    1.0000 </r>
       <r>   12.6673   -0.0000 </r>
       <r>   19.8926    0.0000 </r>
       <r>   22.5492    0.0000 </r>
       <r>   23.0227    0.0000 </r>
      </set>
      <set comment="kpoint 256">
       <r>    6.7048    1.0000 </r>
       <r>    7.9086    1.0000 </r>
       <r>    7.9086    1.0000 </r>
       <r>   10.4963    1.0000 </r>
       <r>   12.6676   -0.0000 </r>
       <r>   21.2884    0.0000 </r>
       <r>   21.2884    0.0000 </r>
       <r>   22.9436    0.0000 </r>
      </set>
     </set>
    </set>
   </array>
  </eigenvalues>
  <separator name="orbital magnetization" >
   <v name="MAGDIPOLOUT">      0.00000000      0.00000000      0.00000000</v>
  </separator>
  <dos>
   <i name="efermi">     11.69011051 </i>
   <total>
    <array>
     <dimension dim="1">gridpoints</dimension>
     <dimension dim="2">spin</dimension>
     <field>energy</field>
     <field>total</field>
     <field>integrated</field>
     <set>
      <set comment="spin 1">
       <r>     1.7767     0.0000     0.0000 </r>
       <r>     1.8788     0.0000     0.0000 </r>
       <r>     1.9810     0.0000     0.0000 </r>
       <r>     2.0831    -0.0000    -0.0000 </r>
       <r>     2.1853    -0.0000    -0.0000 </r>
       <r>     2.2874    -0.0000    -0.0000 </r>
       <r>     2.3895    -0.0000    -0.0000 </r>
       <r>     2.4917    -0.0000    -0.0000 </r>
       <r>     2.5938    -0.0000    -0.0000 </r>
       <r>     2.6960    -0.0000    -0.0000 </r>
       <r>     2.7981    -0.0000    -0.0000 </r>
       <r>     2.9002    -0.0000    -0.0000 </r>
       <r>     3.0024    -0.0000    -0.0000 </r>
       <r>     3.1045    -0.0000    -0.0000 </r>
       <r>     3.2067    -0.0000    -0.0000 </r>
       <r>     3.3088    -0.0000    -0.0000 </r>
       <r>     3.4109    -0.0001    -0.0000 </r>
       <r>     3.5131    -0.0004    -0.0001 </r>
       <r>     3.6152    -0.0008    -0.0001 </r>
       <r>     3.7174     0.0008    -0.0001 </r>
       <r>     3.8195     0.0070     0.0007 </r>
       <r>     3.9216     0.0168     0.0024 </r>
       <r>     4.0238     0.0284     0.0053 </r>
       <r>     4.1259     0.0389     0.0092 </r>
       <r>     4.2281     0.0412     0.0134 </r>
       <r>     4.3302     0.0452     0.0181 </r>
       <r>     4.4323     0.0607     0.0243 </r>
       <r>     4.5345     0.0686     0.0313 </r>
       <r>     4.6366     0.0615     0.0376 </r>
       <r>     4.7388     0.0618     0.0439 </r>
       <r>     4.8409     0.0857     0.0526 </r>
       <r>     4.9431     0.1059     0.0634 </r>
       <r>     5.0452     0.0968     0.0733 </r>
       <r>     5.1473     0.0783     0.0813 </r>
       <r>     5.2495     0.0913     0.0907 </r>
       <r>     5.3516     0.1429     0.1053 </r>
       <r>     5.4538     0.1917     0.1248 </r>
       <r>     5.5559     0.2473     0.1501 </r>
       <r>     5.6580     0.3966     0.1906 </r>
       <r>     5.7602     0.6836     0.2604 </r>
       <r>     5.8623     0.9888     0.3614 </r>
       <r>     5.9645     1.1787     0.4818 </r>
       <r>     6.0666     1.3226     0.6169 </r>
       <r>     6.1687     1.5113     0.7713 </r>
       <r>     6.2709     1.7644     0.9515 </r>
       <r>     6.3730     2.0416     1.1600 </r>
       <r>     6.4752     2.1161     1.3762 </r>
       <r>     6.5773     1.9537     1.5757 </r>
       <r>     6.6794     1.8107     1.7607 </r>
       <r>     6.7816     1.6889     1.9332 </r>
       <r>     6.8837     1.5240     2.0888 </r>
       <r>     6.9859     1.4085     2.2327 </r>
       <r>     7.0880     1.2976     2.3652 </r>
       <r>     7.1901     1.1504     2.4827 </r>
       <r>     7.2923     1.1064     2.5957 </r>
       <r>     7.3944     1.2265     2.7210 </r>
       <r>     7.4966     1.3544     2.8593 </r>
       <r>     7.5987     1.3632     2.9986 </r>
       <r>     7.7008     1.3003     3.1314 </r>
       <r>     7.8030     1.2834     3.2625 </r>
       <r>     7.9051     1.3324     3.3986 </r>
       <r>     8.0073     1.3190     3.5333 </r>
       <r>     8.1094     1.2661     3.6626 </r>
       <r>     8.2115     1.3108     3.7965 </r>
       <r>     8.3137     1.3970     3.9392 </r>
       <r>     8.4158     1.4289     4.0851 </r>
       <r>     8.5180     1.4457     4.2328 </r>
       <r>     8.6201     1.5938     4.3956 </r>
       <r>     8.7222     1.8300     4.5825 </r>
       <r>     8.8244     2.0106     4.7879 </r>
       <r>     8.9265     2.2736     5.0201 </r>
       <r>     9.0287     2.5284     5.2783 </r>
       <r>     9.1308     2.3556     5.5190 </r>
       <r>     9.2329     1.8772     5.7107 </r>
       <r>     9.3351     1.5605     5.8701 </r>
       <r>     9.4372     1.4702     6.0202 </r>
       <r>     9.5394     1.3571     6.1588 </r>
       <r>     9.6415     1.2066     6.2821 </r>
       <r>     9.7436     1.2248     6.4072 </r>
       <r>     9.8458     1.2635     6.5362 </r>
       <r>     9.9479     1.1642     6.6552 </r>
       <r>    10.0501     1.1939     6.7771 </r>
       <r>    10.1522     1.4053     6.9206 </r>
       <r>    10.2543     1.5493     7.0789 </r>
       <r>    10.3565     1.6073     7.2431 </r>
       <r>    10.4586     1.6427     7.4108 </r>
       <r>    10.5608     1.5731     7.5715 </r>
       <r>    10.6629     1.3714     7.7116 </r>
       <r>    10.7650     1.2658     7.8409 </r>
       <r>    10.8672     1.4019     7.9841 </r>
       <r>    10.9693     1.5031     8.1376 </r>
       <r>    11.0715     1.3125     8.2717 </r>
       <r>    11.1736     1.0511     8.3790 </r>
       <r>    11.2758     1.0328     8.4845 </r>
       <r>    11.3779     1.1977     8.6068 </r>
       <r>    11.4800     1.3272     8.7424 </r>
       <r>    11.5822     1.2825     8.8734 </r>
       <r>    11.6843     1.1732     8.9932 </r>
       <r>    11.7865     1.2242     9.1183 </r>
       <r>    11.8886     1.4318     9.2645 </r>
       <r>    11.9907     1.7779     9.4461 </r>
       <r>    12.0929     2.1914     9.6699 </r>
       <r>    12.1950     2.2885     9.9037 </r>
       <r>    12.2972     1.9347    10.1013 </r>
       <r>    12.3993     1.4375    10.2481 </r>
       <r>    12.5014     1.0206    10.3524 </r>
       <r>    12.6036     0.7204    10.4259 </r>
       <r>    12.7057     0.5429    10.4814 </r>
       <r>    12.8079     0.5052    10.5330 </r>
       <r>    12.9100     0.4665    10.5807 </r>
       <r>    13.0121     0.3110    10.6124 </r>
       <r>    13.1143     0.1767    10.6305 </r>
       <r>    13.2164     0.1327    10.6440 </r>
       <r>    13.3186     0.1120    10.6555 </r>
       <r>    13.4207     0.1087    10.6666 </r>
       <r>    13.5228     0.1270    10.6795 </r>
       <r>    13.6250     0.1646    10.6963 </r>
       <r>    13.7271     0.2763    10.7246 </r>
       <r>    13.8293     0.4159    10.7670 </r>
       <r>    13.9314     0.4347    10.8114 </r>
       <r>    14.0335     0.3206    10.8442 </r>
       <r>    14.1357     0.1793    10.8625 </r>
       <r>    14.2378     0.1220    10.8750 </r>
       <r>    14.3400     0.1628    10.8916 </r>
       <r>    14.4421     0.2085    10.9129 </r>
       <r>    14.5442     0.2118    10.9345 </r>
       <r>    14.6464     0.2103    10.9560 </r>
       <r>    14.7485     0.2238    10.9789 </r>
       <r>    14.8507     0.2507    11.0045 </r>
       <r>    14.9528     0.2951    11.0346 </r>
       <r>    15.0549     0.3256    11.0679 </r>
       <r>    15.1571     0.3086    11.0994 </r>
       <r>    15.2592     0.2518    11.1251 </r>
       <r>    15.3614     0.1975    11.1453 </r>
       <r>    15.4635     0.1960    11.1653 </r>
       <r>    15.5656     0.2317    11.1890 </r>
       <r>    15.6678     0.2424    11.2137 </r>
       <r>    15.7699     0.2240    11.2366 </r>
       <r>    15.8721     0.2149    11.2586 </r>
       <r>    15.9742     0.2365    11.2827 </r>
       <r>    16.0763     0.2744    11.3107 </r>
       <r>    16.1785     0.2787    11.3392 </r>
       <r>    16.2806     0.2380    11.3635 </r>
       <r>    16.3828     0.2038    11.3843 </r>
       <r>    16.4849     0.2079    11.4056 </r>
       <r>    16.5870     0.2163    11.4277 </r>
       <r>    16.6892     0.2088    11.4490 </r>
       <r>    16.7913     0.2212    11.4716 </r>
       <r>    16.8935     0.2571    11.4978 </r>
       <r>    16.9956     0.2867    11.5271 </r>
       <r>    17.0977     0.2537    11.5530 </r>
       <r>    17.1999     0.1697    11.5704 </r>
       <r>    17.3020     0.1510    11.5858 </r>
       <r>    17.4042     0.1680    11.6029 </r>
       <r>    17.5063     0.1521    11.6185 </r>
       <r>    17.6085     0.1771    11.6366 </r>
       <r>    17.7106     0.2336    11.6604 </r>
       <r>    17.8127     0.2186    11.6828 </r>
       <r>    17.9149     0.1790    11.7010 </r>
       <r>    18.0170     0.2109    11.7226 </r>
       <r>    18.1192     0.2441    11.7475 </r>
       <r>    18.2213     0.2166    11.7696 </r>
       <r>    18.3234     0.1677    11.7868 </r>
       <r>    18.4256     0.1207    11.7991 </r>
       <r>    18.5277     0.1011    11.8094 </r>
       <r>    18.6299     0.1067    11.8203 </r>
       <r>    18.7320     0.1090    11.8314 </r>
       <r>    18.8341     0.1206    11.8438 </r>
       <r>    18.9363     0.1474    11.8588 </r>
       <r>    19.0384     0.1695    11.8761 </r>
       <r>    19.1406     0.1881    11.8953 </r>
       <r>    19.2427     0.1877    11.9145 </r>
       <r>    19.3448     0.1327    11.9281 </r>
       <r>    19.4470     0.0769    11.9359 </r>
       <r>    19.5491     0.0727    11.9433 </r>
       <r>    19.6513     0.0738    11.9509 </r>
       <r>    19.7534     0.0591    11.9569 </r>
       <r>    19.8555     0.0403    11.9610 </r>
       <r>    19.9577     0.0365    11.9648 </r>
       <r>    20.0598     0.1439    11.9795 </r>
       <r>    20.1620     0.3733    12.0176 </r>
       <r>    20.2641     0.5433    12.0731 </r>
       <r>    20.3662     0.5702    12.1313 </r>
       <r>    20.4684     0.5225    12.1847 </r>
       <r>    20.5705     0.4316    12.2288 </r>
       <r>    20.6727     0.3518    12.2647 </r>
       <r>    20.7748     0.3446    12.2999 </r>
       <r>    20.8769     0.3350    12.3341 </r>
       <r>    20.9791     0.2887    12.3636 </r>
       <r>    21.0812     0.2999    12.3943 </r>
       <r>    21.1834     0.3481    12.4298 </r>
       <r>    21.2855     0.3321    12.4637 </r>
       <r>    21.3876     0.2542    12.4897 </r>
       <r>    21.4898     0.2125    12.5114 </r>
       <r>    21.5919     0.2730    12.5393 </r>
       <r>    21.6941     0.3244    12.5724 </r>
       <r>    21.7962     0.2908    12.6021 </r>
       <r>    21.8983     0.2906    12.6318 </r>
       <r>    22.0005     0.3470    12.6672 </r>
       <r>    22.1026     0.3477    12.7028 </r>
       <r>    22.2048     0.2891    12.7323 </r>
       <r>    22.3069     0.2192    12.7547 </r>
       <r>    22.4090     0.1495    12.7699 </r>
       <r>    22.5112     0.1301    12.7832 </r>
       <r>    22.6133     0.2192    12.8056 </r>
       <r>    22.7155     0.3548    12.8419 </r>
       <r>    22.8176     0.3936    12.8821 </r>
       <r>    22.9197     0.3412    12.9169 </r>
       <r>    23.0219     0.2901    12.9465 </r>
       <r>    23.1240     0.2409    12.9711 </r>
       <r>    23.2262     0.2005    12.9916 </r>
       <r>    23.3283     0.1863    13.0106 </r>
       <r>    23.4304     0.2075    13.0318 </r>
       <r>    23.5326     0.3359    13.0662 </r>
       <r>    23.6347     0.5488    13.1222 </r>
       <r>    23.7369     0.6390    13.1875 </r>
       <r>    23.8390     0.5473    13.2434 </r>
       <r>    23.9412     0.5034    13.2948 </r>
       <r>    24.0433     0.5351    13.3494 </r>
       <r>    24.1454     0.4621    13.3966 </r>
       <r>    24.2476     0.3315    13.4305 </r>
       <r>    24.3497     0.3166    13.4628 </r>
       <r>    24.4519     0.4591    13.5097 </r>
       <r>    24.5540     0.6288    13.5739 </r>
       <r>    24.6561     0.6990    13.6453 </r>
       <r>    24.7583     0.6129    13.7079 </r>
       <r>    24.8604     0.3938    13.7482 </r>
       <r>    24.9626     0.2333    13.7720 </r>
       <r>    25.0647     0.2534    13.7979 </r>
       <r>    25.1668     0.3068    13.8292 </r>
       <r>    25.2690     0.3298    13.8629 </r>
       <r>    25.3711     0.4479    13.9086 </r>
       <r>    25.4733     0.5604    13.9659 </r>
       <r>    25.5754     0.5107    14.0180 </r>
       <r>    25.6775     0.4210    14.0610 </r>
       <r>    25.7797     0.3629    14.0981 </r>
       <r>    25.8818     0.2913    14.1279 </r>
       <r>    25.9840     0.2505    14.1534 </r>
       <r>    26.0861     0.2736    14.1814 </r>
       <r>    26.1882     0.3654    14.2187 </r>
       <r>    26.2904     0.4741    14.2671 </r>
       <r>    26.3925     0.4789    14.3160 </r>
       <r>    26.4947     0.3866    14.3555 </r>
       <r>    26.5968     0.3237    14.3886 </r>
       <r>    26.6989     0.3038    14.4196 </r>
       <r>    26.8011     0.2776    14.4480 </r>
       <r>    26.9032     0.2762    14.4762 </r>
       <r>    27.0054     0.3252    14.5094 </r>
       <r>    27.1075     0.4118    14.5515 </r>
       <r>    27.2096     0.5039    14.6029 </r>
       <r>    27.3118     0.5379    14.6579 </r>
       <r>    27.4139     0.4031    14.6991 </r>
       <r>    27.5161     0.1999    14.7195 </r>
       <r>    27.6182     0.5947    14.7802 </r>
       <r>    27.7203     2.1991    15.0048 </r>
       <r>    27.8225     3.7653    15.3894 </r>
       <r>    27.9246     3.1094    15.7070 </r>
       <r>    28.0268     1.1166    15.8211 </r>
       <r>    28.1289     0.0791    15.8291 </r>
       <r>    28.2310     0.0055    15.8297 </r>
       <r>    28.3332     0.0674    15.8366 </r>
       <r>    28.4353     0.1098    15.8478 </r>
       <r>    28.5375     0.1531    15.8634 </r>
       <r>    28.6396     0.1332    15.8770 </r>
       <r>    28.7417     0.0996    15.8872 </r>
       <r>    28.8439     0.1241    15.8999 </r>
       <r>    28.9460     0.1656    15.9168 </r>
       <r>    29.0482     0.1862    15.9358 </r>
       <r>    29.1503     0.1768    15.9539 </r>
       <r>    29.2524     0.1240    15.9665 </r>
       <r>    29.3546     0.0683    15.9735 </r>
       <r>    29.4567     0.0380    15.9774 </r>
       <r>    29.5589     0.0277    15.9802 </r>
       <r>    29.6610     0.0431    15.9846 </r>
       <r>    29.7631     0.0584    15.9906 </r>
       <r>    29.8653     0.0452    15.9952 </r>
       <r>    29.9674     0.0203    15.9973 </r>
       <r>    30.0696     0.0067    15.9980 </r>
       <r>    30.1717     0.0035    15.9983 </r>
       <r>    30.2739     0.0027    15.9986 </r>
       <r>    30.3760     0.0042    15.9990 </r>
       <r>    30.4781     0.0058    15.9996 </r>
       <r>    30.5803     0.0036    16.0000 </r>
       <r>    30.6824     0.0006    16.0001 </r>
       <r>    30.7846    -0.0003    16.0000 </r>
       <r>    30.8867    -0.0002    16.0000 </r>
       <r>    30.9888    -0.0000    16.0000 </r>
       <r>    31.0910    -0.0000    16.0000 </r>
       <r>    31.1931    -0.0000    16.0000 </r>
       <r>    31.2953    -0.0000    16.0000 </r>
       <r>    31.3974    -0.0000    16.0000 </r>
       <r>    31.4995    -0.0000    16.0000 </r>
       <r>    31.6017    -0.0000    16.0000 </r>
       <r>    31.7038    -0.0000    16.0000 </r>
       <r>    31.8060     0.0000    16.0000 </r>
       <r>    31.9081     0.0000    16.0000 </r>
       <r>    32.0102     0.0000    16.0000 </r>
       <r>    32.1124     0.0000    16.0000 </r>
       <r>    32.2145     0.0000    16.0000 </r>
       <r>    32.3167     0.0000    16.0000 </r>
       <r>    32.4188     0.0000    16.0000 </r>
      </set>
     </set>
    </array>
   </total>
  </dos>
 </calculation>
 <structure name="finalpos" >
  <crystal>
   <varray name="basis" >
    <v>       2.33067207       0.00000000       1.34561394 </v>
    <v>       0.77689103       2.19737928       1.34561394 </v>
    <v>      -0.00000000      -0.00000000       2.69122890 </v>
   </varray>
   <i name="volume">     13.78278034 </i>
   <varray name="rec_basis" >
    <v>       0.42906079      -0.15169592       0.00000000 </v>
    <v>      -0.00000000       0.45508757       0.00000000 </v>
    <v>      -0.21453031      -0.15169577       0.37157746 </v>
   </varray>
  </crystal>
  <varray name="positions" >
   <v>       0.00000000       0.00000000       0.00000000 </v>
  </varray>
 </structure>
</modeling>
