 running    8 mpi-ranks, with    2 threads/rank, on    1 nodes
 distrk:  each k-point on    1 cores,    8 groups
 distr:  one band on    1 cores,    1 groups
 OpenACC runtime initialized ...    8 GPUs detected
 vasp.6.4.2 20Jul23 (build Mar  2 2025 11:04:54) complex                         
 POSCAR found type information on POSCAR PbS 
 POSCAR found :  2 types and       8 ions
 scaLAPACK will be used selectively (only on CPU)
 LDA part: xc-table for Pade appr. of Perdew
 -----------------------------------------------------------------------------
|                                                                             |
|           W    W    AA    RRRRR   N    N  II  N    N   GGGG   !!!           |
|           W    W   A  A   R    R  NN   N  II  NN   N  G    G  !!!           |
|           W    W  A    A  R    R  N N  N  II  N N  N  G       !!!           |
|           W WW W  AAAAAA  RRRRR   N  N N  II  N  N N  G  GGG   !            |
|           WW  WW  A    A  R   R   N   NN  II  N   NN  G    G                |
|           W    W  A    A  R    R  N    N  II  N    N   GGGG   !!!           |
|                                                                             |
|     The requested file  could not be found or opened for reading            |
|     k-point information. Automatic k-point generation is used as a          |
|     fallback, which may lead to unwanted results.                           |
|                                                                             |
 -----------------------------------------------------------------------------

 POSCAR, INCAR and KPOINTS ok, starting setup
 FFT: planning ... GRIDC
 FFT: planning ... GRID_SOFT
 FFT: planning ... GRID
 WAVECAR not read
 entering main loop
       N       E                     dE             d eps       ncg     rms          rms(c)
DAV:   1     0.943029388139E+03    0.94303E+03   -0.36608E+04  1728   0.179E+03
DAV:   2     0.982635658310E+02   -0.84477E+03   -0.82045E+03  1744   0.490E+02
DAV:   3    -0.284982026236E+02   -0.12676E+03   -0.12026E+03  2272   0.211E+02
DAV:   4    -0.366851510072E+02   -0.81869E+01   -0.80794E+01  2168   0.525E+01
DAV:   5    -0.370578673487E+02   -0.37272E+00   -0.37242E+00  2184   0.106E+01    0.921E+00
DAV:   6    -0.350076983736E+02    0.20502E+01   -0.55026E+00  2272   0.108E+01    0.603E+00
DAV:   7    -0.350467494090E+02   -0.39051E-01   -0.11294E+00  2312   0.338E+00    0.355E+00
DAV:   8    -0.350667108873E+02   -0.19961E-01   -0.16426E-01  2280   0.290E+00    0.101E+00
DAV:   9    -0.350554161613E+02    0.11295E-01   -0.37789E-02  2312   0.129E+00    0.281E-01
DAV:  10    -0.350564615854E+02   -0.10454E-02   -0.44227E-03  2216   0.296E-01    0.180E-01
DAV:  11    -0.350566083966E+02   -0.14681E-03   -0.30041E-04  2184   0.139E-01    0.164E-02
DAV:  12    -0.350566072714E+02    0.11252E-05   -0.30873E-05  2400   0.438E-02    0.118E-02
DAV:  13    -0.350566076631E+02   -0.39172E-06   -0.40223E-06  1656   0.926E-03
   1 F= -.35056608E+02 E0= -.35056608E+02  d E =-.793160E-11
 writing wavefunctions
Warning: ieee_invalid is signaling
Warning: ieee_divide_by_zero is signaling
Warning: ieee_underflow is signaling
Warning: ieee_inexact is signaling
FORTRAN STOP
Warning: ieee_invalid is signaling
Warning: ieee_divide_by_zero is signaling
Warning: ieee_underflow is signaling
Warning: ieee_inexact is signaling
FORTRAN STOP
Warning: ieee_invalid is signaling
Warning: ieee_divide_by_zero is signaling
Warning: ieee_underflow is signaling
Warning: ieee_inexact is signaling
FORTRAN STOP
Warning: ieee_invalid is signaling
Warning: ieee_divide_by_zero is signaling
Warning: ieee_underflow is signaling
Warning: ieee_inexact is signaling
FORTRAN STOP
Warning: ieee_invalid is signaling
Warning: ieee_divide_by_zero is signaling
Warning: ieee_underflow is signaling
Warning: ieee_inexact is signaling
FORTRAN STOP
Warning: ieee_invalid is signaling
Warning: ieee_divide_by_zero is signaling
Warning: ieee_underflow is signaling
Warning: ieee_inexact is signaling
FORTRAN STOP
Warning: ieee_invalid is signaling
Warning: ieee_divide_by_zero is signaling
Warning: ieee_underflow is signaling
Warning: ieee_inexact is signaling
FORTRAN STOP
Warning: ieee_invalid is signaling
Warning: ieee_divide_by_zero is signaling
Warning: ieee_underflow is signaling
Warning: ieee_inexact is signaling
FORTRAN STOP
