       N       E                     dE             d eps       ncg     rms          rms(c)
DAV:   1     0.604834679667E+01    0.60483E+01   -0.25601E+03  2744   0.628E+02
DAV:   2    -0.114038216447E+02   -0.17452E+02   -0.16889E+02  3409   0.120E+02
DAV:   3    -0.116017850608E+02   -0.19796E+00   -0.19695E+00  3143   0.155E+01
DAV:   4    -0.116019965027E+02   -0.21144E-03   -0.21144E-03  4382   0.404E-01
DAV:   5    -0.116019965618E+02   -0.59082E-07   -0.58956E-07  3248   0.393E-03    0.107E+01
DAV:   6    -0.108879038088E+02    0.71409E+00   -0.11441E+00  3241   0.809E+00    0.332E+00
DAV:   7    -0.107372613031E+02    0.15064E+00   -0.56084E-01  3556   0.537E+00    0.102E+00
DAV:   8    -0.107346551115E+02    0.26062E-02   -0.24804E-03  2919   0.524E-01    0.259E-01
DAV:   9    -0.107342764961E+02    0.37862E-03   -0.64505E-04  3549   0.171E-01    0.229E-02
DAV:  10    -0.107342732536E+02    0.32424E-05   -0.92179E-06  3192   0.302E-02    0.156E-02
DAV:  11    -0.107342701568E+02    0.30968E-05   -0.63094E-07  2142   0.682E-03    0.170E-03
DAV:  12    -0.107342703428E+02   -0.18604E-06   -0.11236E-08  1736   0.103E-03
   1 F= -.10734270E+02 E0= -.10734513E+02  d E =0.727400E-03
