   1   1   0   0
  0.1747992E+02  0.2913073E-09  0.2913073E-09  0.2913074E-09  0.5000000E-15
   1.0000000000000000E-004
  CAR 
 Al FCC - EOS calculation                
     23.39331140     -4.60261637  301      7.40941125      1.00000000
     -4.603  0.0000E+00  0.0000E+00
     -4.509  0.0000E+00  0.0000E+00
     -4.416  0.0000E+00  0.0000E+00
     -4.323  0.0000E+00  0.0000E+00
     -4.229  0.0000E+00  0.0000E+00
     -4.136 -0.5159E-30 -0.4814E-31
     -4.043 -0.6511E-24 -0.6076E-25
     -3.949 -0.1415E-18 -0.1321E-19
     -3.856 -0.5084E-14 -0.4744E-15
     -3.763 -0.3167E-10 -0.2956E-11
     -3.669 -0.3290E-07 -0.3073E-08
     -3.576 -0.5683E-05 -0.5334E-06
     -3.483 -0.1764E-03 -0.1699E-04
     -3.389 -0.9002E-03 -0.1010E-03
     -3.296  0.8193E-02  0.6636E-03
     -3.203  0.3399E-01  0.3836E-02
     -3.110  0.4083E-01  0.7646E-02
     -3.016  0.8650E-01  0.1572E-01
     -2.923  0.5292E-01  0.2066E-01
     -2.830  0.6967E-01  0.2716E-01
     -2.736  0.1229E+00  0.3862E-01
     -2.643  0.1008E+00  0.4803E-01
     -2.550  0.9249E-01  0.5666E-01
     -2.456  0.5240E-01  0.6155E-01
     -2.363  0.1868E+00  0.7898E-01
     -2.270  0.1441E+00  0.9242E-01
     -2.176  0.1185E+00  0.1035E+00
     -2.083  0.1026E+00  0.1131E+00
     -1.990  0.8949E-01  0.1214E+00
     -1.896  0.1860E+00  0.1388E+00
     -1.803  0.1865E+00  0.1562E+00
     -1.710  0.2311E+00  0.1777E+00
     -1.616  0.6245E-01  0.1836E+00
     -1.523  0.1243E+00  0.1952E+00
     -1.430  0.1769E+00  0.2117E+00
     -1.336  0.1945E+00  0.2298E+00
     -1.243  0.1909E+00  0.2476E+00
     -1.150  0.1515E+00  0.2618E+00
     -1.056  0.3144E+00  0.2911E+00
     -0.963  0.1543E+00  0.3055E+00
     -0.870  0.1358E+00  0.3182E+00
     -0.777  0.8526E-01  0.3262E+00
     -0.683  0.2190E+00  0.3466E+00
     -0.590  0.2585E+00  0.3707E+00
     -0.497  0.3013E+00  0.3988E+00
     -0.403  0.2646E+00  0.4235E+00
     -0.310  0.7380E-01  0.4304E+00
     -0.217  0.2856E+00  0.4571E+00
     -0.123  0.2365E+00  0.4791E+00
     -0.030  0.1738E+00  0.4954E+00
      0.063  0.6419E-01  0.5014E+00
      0.157  0.2996E+00  0.5293E+00
      0.250  0.3721E+00  0.5640E+00
      0.343  0.2489E+00  0.5873E+00
      0.437  0.3129E+00  0.6165E+00
      0.530  0.1598E+00  0.6314E+00
      0.623  0.2180E+00  0.6517E+00
      0.717  0.2383E+00  0.6740E+00
      0.810  0.3351E+00  0.7052E+00
      0.903  0.1402E+00  0.7183E+00
      0.997  0.1951E+00  0.7365E+00
      1.090  0.3054E+00  0.7650E+00
      1.183  0.3154E+00  0.7945E+00
      1.277  0.3487E+00  0.8270E+00
      1.370  0.2008E+00  0.8457E+00
      1.463  0.4932E+00  0.8918E+00
      1.556  0.2767E+00  0.9176E+00
      1.650  0.1642E+00  0.9329E+00
      1.743  0.5713E-01  0.9382E+00
      1.836  0.2743E+00  0.9638E+00
      1.930  0.3659E+00  0.9980E+00
      2.023  0.3957E+00  0.1035E+01
      2.116  0.3528E+00  0.1068E+01
      2.210  0.1734E+00  0.1084E+01
      2.303  0.3871E+00  0.1120E+01
      2.396  0.3753E+00  0.1155E+01
      2.490  0.3366E+00  0.1187E+01
      2.583  0.1824E+00  0.1204E+01
      2.676  0.4336E+00  0.1244E+01
      2.770  0.2925E+00  0.1271E+01
      2.863  0.2307E+00  0.1293E+01
      2.956  0.2271E+00  0.1314E+01
      3.050  0.1899E+00  0.1332E+01
      3.143  0.4460E+00  0.1373E+01
      3.236  0.4685E+00  0.1417E+01
      3.330  0.4617E+00  0.1460E+01
      3.423  0.1622E+00  0.1475E+01
      3.516  0.4509E+00  0.1517E+01
      3.610  0.4229E+00  0.1557E+01
      3.703  0.2589E+00  0.1581E+01
      3.796  0.2107E+00  0.1601E+01
      3.889  0.4816E+00  0.1646E+01
      3.983  0.4138E+00  0.1684E+01
      4.076  0.2439E+00  0.1707E+01
      4.169  0.2350E+00  0.1729E+01
      4.263  0.2190E+00  0.1749E+01
      4.356  0.4088E+00  0.1788E+01
      4.449  0.5959E+00  0.1843E+01
      4.543  0.5171E+00  0.1891E+01
      4.636  0.3688E+00  0.1926E+01
      4.729  0.4084E+00  0.1964E+01
      4.823  0.4446E+00  0.2005E+01
      4.916  0.3384E+00  0.2037E+01
      5.009  0.3171E+00  0.2067E+01
      5.103  0.3843E+00  0.2103E+01
      5.196  0.3887E+00  0.2139E+01
      5.289  0.1778E+00  0.2155E+01
      5.383  0.4432E+00  0.2197E+01
      5.476  0.4143E+00  0.2235E+01
      5.569  0.3758E+00  0.2270E+01
      5.663  0.4230E+00  0.2310E+01
      5.756  0.2878E+00  0.2337E+01
      5.849  0.1629E+00  0.2352E+01
      5.943  0.6151E+00  0.2409E+01
      6.036  0.6651E+00  0.2471E+01
      6.129  0.3190E+00  0.2501E+01
      6.222  0.1739E+00  0.2517E+01
      6.316  0.3918E+00  0.2554E+01
      6.409  0.6078E+00  0.2611E+01
      6.502  0.2970E+00  0.2638E+01
      6.596  0.2189E+00  0.2659E+01
      6.689  0.2960E+00  0.2686E+01
      6.782  0.3555E+00  0.2720E+01
      6.876  0.5395E+00  0.2770E+01
      6.969  0.4189E+00  0.2809E+01
      7.062  0.3098E+00  0.2838E+01
      7.156  0.5352E+00  0.2888E+01
      7.249  0.5741E+00  0.2942E+01
      7.342  0.3102E+00  0.2970E+01
      7.436  0.4774E+00  0.3015E+01
      7.529  0.5465E+00  0.3066E+01
      7.622  0.4224E+00  0.3105E+01
      7.716  0.3902E+00  0.3142E+01
      7.809  0.4788E+00  0.3187E+01
      7.902  0.3958E+00  0.3223E+01
      7.996  0.2320E+00  0.3245E+01
      8.089  0.2254E+00  0.3266E+01
      8.182  0.3386E+00  0.3298E+01
      8.276  0.4232E+00  0.3337E+01
      8.369  0.5263E+00  0.3386E+01
      8.462  0.6880E+00  0.3451E+01
      8.555  0.6013E+00  0.3507E+01
      8.649  0.6230E+00  0.3565E+01
      8.742  0.5157E+00  0.3613E+01
      8.835  0.2431E+00  0.3636E+01
      8.929  0.3194E+00  0.3665E+01
      9.022  0.5662E+00  0.3718E+01
      9.115  0.4451E+00  0.3760E+01
      9.209  0.4322E+00  0.3800E+01
      9.302  0.3682E+00  0.3835E+01
      9.395  0.2793E+00  0.3861E+01
      9.489  0.3851E+00  0.3897E+01
      9.582  0.5682E+00  0.3950E+01
      9.675  0.4416E+00  0.3991E+01
      9.769  0.5030E+00  0.4038E+01
      9.862  0.8060E+00  0.4113E+01
      9.955  0.6814E+00  0.4177E+01
     10.049  0.4362E+00  0.4217E+01
     10.142  0.3355E+00  0.4249E+01
     10.235  0.3501E+00  0.4281E+01
     10.329  0.3190E+00  0.4311E+01
     10.422  0.7340E+00  0.4379E+01
     10.515  0.4310E+00  0.4420E+01
     10.609  0.2211E+00  0.4440E+01
     10.702  0.7284E+00  0.4508E+01
     10.795  0.5603E+00  0.4561E+01
     10.888  0.4146E+00  0.4599E+01
     10.982  0.6082E+00  0.4656E+01
     11.075  0.5975E+00  0.4712E+01
     11.168  0.4109E+00  0.4750E+01
     11.262  0.2222E+00  0.4771E+01
     11.355  0.8185E+00  0.4847E+01
     11.448  0.7510E+00  0.4917E+01
     11.542  0.4046E+00  0.4955E+01
     11.635  0.2158E+00  0.4975E+01
     11.728  0.3358E+00  0.5007E+01
     11.822  0.8193E+00  0.5083E+01
     11.915  0.7296E+00  0.5151E+01
     12.008  0.5084E+00  0.5199E+01
     12.102  0.4876E+00  0.5244E+01
     12.195  0.4986E+00  0.5291E+01
     12.288  0.4352E+00  0.5331E+01
     12.382  0.3759E+00  0.5366E+01
     12.475  0.8125E+00  0.5442E+01
     12.568  0.8971E+00  0.5526E+01
     12.662  0.6037E+00  0.5582E+01
     12.755  0.4334E+00  0.5623E+01
     12.848  0.3424E+00  0.5655E+01
     12.941  0.6843E+00  0.5718E+01
     13.035  0.7140E+00  0.5785E+01
     13.128  0.3238E+00  0.5815E+01
     13.221  0.5775E+00  0.5869E+01
     13.315  0.8057E+00  0.5944E+01
     13.408  0.6982E+00  0.6009E+01
     13.501  0.4854E+00  0.6055E+01
     13.595  0.7836E+00  0.6128E+01
     13.688  0.6235E+00  0.6186E+01
     13.781  0.4668E+00  0.6230E+01
     13.875  0.3175E+00  0.6259E+01
     13.968  0.4648E+00  0.6303E+01
     14.061  0.5834E+00  0.6357E+01
     14.155  0.4072E+00  0.6395E+01
     14.248  0.4590E+00  0.6438E+01
     14.341  0.8209E+00  0.6515E+01
     14.435  0.8523E+00  0.6594E+01
     14.528  0.5540E+00  0.6646E+01
     14.621  0.4945E+00  0.6692E+01
     14.715  0.6277E+00  0.6750E+01
     14.808  0.4752E+00  0.6795E+01
     14.901  0.3780E+00  0.6830E+01
     14.995  0.4888E+00  0.6876E+01
     15.088  0.4511E+00  0.6918E+01
     15.181  0.3171E+00  0.6947E+01
     15.274  0.7398E+00  0.7016E+01
     15.368  0.7520E+00  0.7087E+01
     15.461  0.4931E+00  0.7133E+01
     15.554  0.5973E+00  0.7188E+01
     15.648  0.5722E+00  0.7242E+01
     15.741  0.2725E+00  0.7267E+01
     15.834  0.6733E+00  0.7330E+01
     15.928  0.9288E+00  0.7417E+01
     16.021  0.5691E+00  0.7470E+01
     16.114  0.2370E+00  0.7492E+01
     16.208  0.6129E+00  0.7549E+01
     16.301  0.5702E+00  0.7602E+01
     16.394  0.3087E+00  0.7631E+01
     16.488  0.3616E+00  0.7665E+01
     16.581  0.5790E+00  0.7719E+01
     16.674  0.6828E+00  0.7783E+01
     16.768  0.8755E+00  0.7864E+01
     16.861  0.6707E+00  0.7927E+01
     16.954  0.3571E+00  0.7960E+01
     17.048  0.4850E+00  0.8006E+01
     17.141  0.6225E+00  0.8064E+01
     17.234  0.2296E+00  0.8085E+01
     17.328  0.3455E+00  0.8117E+01
     17.421  0.6697E+00  0.8180E+01
     17.514  0.8354E+00  0.8258E+01
     17.607  0.6301E+00  0.8317E+01
     17.701  0.3648E+00  0.8351E+01
     17.794  0.4836E+00  0.8396E+01
     17.887  0.4295E+00  0.8436E+01
     17.981  0.3908E+00  0.8472E+01
     18.074  0.6759E+00  0.8535E+01
     18.167  0.8263E+00  0.8612E+01
     18.261  0.6671E+00  0.8675E+01
     18.354  0.7028E+00  0.8740E+01
     18.447  0.5556E+00  0.8792E+01
     18.541  0.3694E+00  0.8827E+01
     18.634  0.5176E+00  0.8875E+01
     18.727  0.6748E+00  0.8938E+01
     18.821  0.4057E+00  0.8976E+01
     18.914  0.5646E+00  0.9028E+01
     19.007  0.6542E+00  0.9089E+01
     19.101  0.7241E+00  0.9157E+01
     19.194  0.6716E+00  0.9220E+01
     19.287  0.3754E+00  0.9255E+01
     19.381  0.5440E+00  0.9306E+01
     19.474  0.6569E+00  0.9367E+01
     19.567  0.4599E+00  0.9410E+01
     19.661  0.3182E+00  0.9439E+01
     19.754  0.4470E+00  0.9481E+01
     19.847  0.5751E+00  0.9535E+01
     19.940  0.4477E+00  0.9577E+01
     20.034  0.2904E+00  0.9604E+01
     20.127  0.3366E+00  0.9635E+01
     20.220  0.2706E+00  0.9660E+01
     20.314  0.2400E+00  0.9683E+01
     20.407  0.5838E+00  0.9737E+01
     20.500  0.5435E+00  0.9788E+01
     20.594  0.2352E+00  0.9810E+01
     20.687  0.2227E+00  0.9831E+01
     20.780  0.2328E+00  0.9852E+01
     20.874  0.3204E+00  0.9882E+01
     20.967  0.3250E+00  0.9913E+01
     21.060  0.9256E-01  0.9921E+01
     21.154 -0.3667E-03  0.9921E+01
     21.247  0.7464E-01  0.9928E+01
     21.340  0.1294E+00  0.9940E+01
     21.434  0.1589E+00  0.9955E+01
     21.527  0.2116E+00  0.9975E+01
     21.620  0.1045E+00  0.9985E+01
     21.714  0.6029E-01  0.9990E+01
     21.807  0.1950E-01  0.9992E+01
     21.900 -0.3184E-02  0.9992E+01
     21.994 -0.3065E-02  0.9991E+01
     22.087  0.2341E-01  0.9994E+01
     22.180  0.6058E-01  0.9999E+01
     22.273  0.9630E-02  0.1000E+02
     22.367 -0.2209E-02  0.1000E+02
     22.460 -0.1210E-03  0.1000E+02
     22.553 -0.7711E-06  0.1000E+02
     22.647 -0.7564E-09  0.1000E+02
     22.740 -0.1219E-12  0.1000E+02
     22.833  0.0000E+00  0.1000E+02
     22.927  0.0000E+00  0.1000E+02
     23.020  0.0000E+00  0.1000E+02
     23.113  0.0000E+00  0.1000E+02
     23.207  0.0000E+00  0.1000E+02
     23.300  0.0000E+00  0.1000E+02
     23.393  0.0000E+00  0.1000E+02
