<?xml version="1.0" encoding="ISO-8859-1"?>
<modeling>
 <generator>
  <i name="program" type="string">vasp </i>
  <i name="version" type="string">6.4.2  </i>
  <i name="subversion" type="string">20Jul23 (build Mar  2 2025 11:04:54) complex                          parallel </i>
  <i name="platform" type="string">LinuxNV </i>
  <i name="date" type="string">2026 04 18 </i>
  <i name="time" type="string">09:23:48 </i>
 </generator>
 <incar>
  <i type="string" name="SYSTEM">Al FCC - EOS calculation</i>
  <i type="string" name="PREC">Accurate</i>
  <i type="int" name="NELM">   100</i>
  <i type="int" name="IBRION">    -1</i>
  <i name="EDIFF">      0.00000100</i>
  <i type="int" name="NSW">     0</i>
  <i type="int" name="ISIF">     2</i>
  <i name="ENCUT">    400.00000000</i>
  <i type="int" name="ISMEAR">     1</i>
  <i name="SIGMA">      0.10000000</i>
  <i name="KSPACING">      0.15000000</i>
  <i type="logical" name="KGAMMA"> T  </i>
  <i type="logical" name="LWAVE"> F  </i>
  <i type="logical" name="LCHARG"> F  </i>
 </incar>
 <primitive_cell>
  <structure name="primitive_cell" >
   <crystal>
    <varray name="basis" >
     <v>       2.52279558       0.00000000       1.45653654 </v>
     <v>       0.84093186       2.37851454       1.45653654 </v>
     <v>       0.00000000       0.00000000       2.91307410 </v>
    </varray>
    <i name="volume">     17.47991852 </i>
    <varray name="rec_basis" >
     <v>       0.39638566      -0.14014349       0.00000000 </v>
     <v>       0.00000000       0.42043048       0.00000000 </v>
     <v>      -0.19819276      -0.14014344       0.34327997 </v>
    </varray>
   </crystal>
   <varray name="positions" >
    <v>       0.00000000       0.00000000       0.00000000 </v>
   </varray>
  </structure>
  <varray name="primitive_index" >
   <v type="int" >        1 </v>
  </varray>
 </primitive_cell>
 <kpoints>
  <generation param="Gamma">
   <v type="int" name="divisions">      18       18       18 </v>
   <v name="usershift">      0.00000000       0.00000000       0.00000000 </v>
   <v name="genvec1">      0.05555556       0.00000000       0.00000000 </v>
   <v name="genvec2">      0.00000000       0.05555556       0.00000000 </v>
   <v name="genvec3">     -0.00000000      -0.00000000       0.05555556 </v>
   <v name="shift">      0.00000000       0.00000000       0.00000000 </v>
  </generation>
  <varray name="kpointlist" >
   <v>       0.00000000       0.00000000       0.00000000 </v>
   <v>       0.05555556       0.00000000       0.00000000 </v>
   <v>       0.11111111       0.00000000       0.00000000 </v>
   <v>       0.16666667       0.00000000       0.00000000 </v>
   <v>       0.22222222       0.00000000       0.00000000 </v>
   <v>       0.27777778       0.00000000       0.00000000 </v>
   <v>       0.33333333       0.00000000       0.00000000 </v>
   <v>       0.38888889       0.00000000       0.00000000 </v>
   <v>       0.44444444       0.00000000       0.00000000 </v>
   <v>       0.50000000       0.00000000       0.00000000 </v>
   <v>       0.05555556       0.05555556       0.00000000 </v>
   <v>       0.11111111       0.05555556       0.00000000 </v>
   <v>       0.16666667       0.05555556       0.00000000 </v>
   <v>       0.22222222       0.05555556       0.00000000 </v>
   <v>       0.27777778       0.05555556       0.00000000 </v>
   <v>       0.33333333       0.05555556       0.00000000 </v>
   <v>       0.38888889       0.05555556       0.00000000 </v>
   <v>       0.44444444       0.05555556       0.00000000 </v>
   <v>       0.50000000       0.05555556       0.00000000 </v>
   <v>      -0.44444444       0.05555556       0.00000000 </v>
   <v>      -0.38888889       0.05555556       0.00000000 </v>
   <v>      -0.33333333       0.05555556       0.00000000 </v>
   <v>      -0.27777778       0.05555556       0.00000000 </v>
   <v>      -0.22222222       0.05555556       0.00000000 </v>
   <v>      -0.16666667       0.05555556       0.00000000 </v>
   <v>      -0.11111111       0.05555556       0.00000000 </v>
   <v>      -0.05555556       0.05555556       0.00000000 </v>
   <v>       0.11111111       0.11111111       0.00000000 </v>
   <v>       0.16666667       0.11111111       0.00000000 </v>
   <v>       0.22222222       0.11111111       0.00000000 </v>
   <v>       0.27777778       0.11111111       0.00000000 </v>
   <v>       0.33333333       0.11111111       0.00000000 </v>
   <v>       0.38888889       0.11111111       0.00000000 </v>
   <v>       0.44444444       0.11111111       0.00000000 </v>
   <v>       0.50000000       0.11111111       0.00000000 </v>
   <v>      -0.44444444       0.11111111       0.00000000 </v>
   <v>      -0.38888889       0.11111111       0.00000000 </v>
   <v>      -0.33333333       0.11111111       0.00000000 </v>
   <v>      -0.27777778       0.11111111       0.00000000 </v>
   <v>      -0.22222222       0.11111111       0.00000000 </v>
   <v>      -0.16666667       0.11111111       0.00000000 </v>
   <v>      -0.11111111       0.11111111       0.00000000 </v>
   <v>       0.16666667       0.16666667       0.00000000 </v>
   <v>       0.22222222       0.16666667       0.00000000 </v>
   <v>       0.27777778       0.16666667       0.00000000 </v>
   <v>       0.33333333       0.16666667       0.00000000 </v>
   <v>       0.38888889       0.16666667       0.00000000 </v>
   <v>       0.44444444       0.16666667       0.00000000 </v>
   <v>       0.50000000       0.16666667       0.00000000 </v>
   <v>      -0.44444444       0.16666667       0.00000000 </v>
   <v>      -0.38888889       0.16666667       0.00000000 </v>
   <v>      -0.33333333       0.16666667       0.00000000 </v>
   <v>      -0.27777778       0.16666667       0.00000000 </v>
   <v>      -0.22222222       0.16666667       0.00000000 </v>
   <v>      -0.16666667       0.16666667       0.00000000 </v>
   <v>       0.22222222       0.22222222       0.00000000 </v>
   <v>       0.27777778       0.22222222       0.00000000 </v>
   <v>       0.33333333       0.22222222       0.00000000 </v>
   <v>       0.38888889       0.22222222       0.00000000 </v>
   <v>       0.44444444       0.22222222       0.00000000 </v>
   <v>       0.50000000       0.22222222       0.00000000 </v>
   <v>      -0.44444444       0.22222222       0.00000000 </v>
   <v>      -0.38888889       0.22222222       0.00000000 </v>
   <v>      -0.33333333       0.22222222       0.00000000 </v>
   <v>      -0.27777778       0.22222222       0.00000000 </v>
   <v>      -0.22222222       0.22222222       0.00000000 </v>
   <v>       0.27777778       0.27777778       0.00000000 </v>
   <v>       0.33333333       0.27777778       0.00000000 </v>
   <v>       0.38888889       0.27777778       0.00000000 </v>
   <v>       0.44444444       0.27777778       0.00000000 </v>
   <v>       0.50000000       0.27777778       0.00000000 </v>
   <v>      -0.44444444       0.27777778       0.00000000 </v>
   <v>      -0.38888889       0.27777778       0.00000000 </v>
   <v>      -0.33333333       0.27777778       0.00000000 </v>
   <v>      -0.27777778       0.27777778       0.00000000 </v>
   <v>       0.33333333       0.33333333       0.00000000 </v>
   <v>       0.38888889       0.33333333       0.00000000 </v>
   <v>       0.44444444       0.33333333       0.00000000 </v>
   <v>       0.50000000       0.33333333       0.00000000 </v>
   <v>      -0.44444444       0.33333333       0.00000000 </v>
   <v>      -0.38888889       0.33333333       0.00000000 </v>
   <v>      -0.33333333       0.33333333       0.00000000 </v>
   <v>       0.38888889       0.38888889       0.00000000 </v>
   <v>       0.44444444       0.38888889       0.00000000 </v>
   <v>       0.50000000       0.38888889       0.00000000 </v>
   <v>      -0.44444444       0.38888889       0.00000000 </v>
   <v>      -0.38888889       0.38888889       0.00000000 </v>
   <v>       0.44444444       0.44444444       0.00000000 </v>
   <v>       0.50000000       0.44444444       0.00000000 </v>
   <v>      -0.44444444       0.44444444       0.00000000 </v>
   <v>       0.50000000       0.50000000       0.00000000 </v>
   <v>       0.16666667       0.11111111       0.05555556 </v>
   <v>       0.22222222       0.11111111       0.05555556 </v>
   <v>       0.27777778       0.11111111       0.05555556 </v>
   <v>       0.33333333       0.11111111       0.05555556 </v>
   <v>       0.38888889       0.11111111       0.05555556 </v>
   <v>       0.44444444       0.11111111       0.05555556 </v>
   <v>       0.50000000       0.11111111       0.05555556 </v>
   <v>      -0.44444444       0.11111111       0.05555556 </v>
   <v>       0.22222222       0.16666667       0.05555556 </v>
   <v>       0.27777778       0.16666667       0.05555556 </v>
   <v>       0.33333333       0.16666667       0.05555556 </v>
   <v>       0.38888889       0.16666667       0.05555556 </v>
   <v>       0.44444444       0.16666667       0.05555556 </v>
   <v>       0.50000000       0.16666667       0.05555556 </v>
   <v>      -0.44444444       0.16666667       0.05555556 </v>
   <v>      -0.38888889       0.16666667       0.05555556 </v>
   <v>      -0.33333333       0.16666667       0.05555556 </v>
   <v>      -0.27777778       0.16666667       0.05555556 </v>
   <v>      -0.22222222       0.16666667       0.05555556 </v>
   <v>      -0.16666667       0.16666667       0.05555556 </v>
   <v>      -0.11111111       0.16666667       0.05555556 </v>
   <v>       0.27777778       0.22222222       0.05555556 </v>
   <v>       0.33333333       0.22222222       0.05555556 </v>
   <v>       0.38888889       0.22222222       0.05555556 </v>
   <v>       0.44444444       0.22222222       0.05555556 </v>
   <v>       0.50000000       0.22222222       0.05555556 </v>
   <v>      -0.44444444       0.22222222       0.05555556 </v>
   <v>      -0.38888889       0.22222222       0.05555556 </v>
   <v>      -0.33333333       0.22222222       0.05555556 </v>
   <v>      -0.27777778       0.22222222       0.05555556 </v>
   <v>      -0.22222222       0.22222222       0.05555556 </v>
   <v>      -0.16666667       0.22222222       0.05555556 </v>
   <v>       0.33333333       0.27777778       0.05555556 </v>
   <v>       0.38888889       0.27777778       0.05555556 </v>
   <v>       0.44444444       0.27777778       0.05555556 </v>
   <v>       0.50000000       0.27777778       0.05555556 </v>
   <v>      -0.44444444       0.27777778       0.05555556 </v>
   <v>      -0.38888889       0.27777778       0.05555556 </v>
   <v>      -0.33333333       0.27777778       0.05555556 </v>
   <v>      -0.27777778       0.27777778       0.05555556 </v>
   <v>      -0.22222222       0.27777778       0.05555556 </v>
   <v>       0.38888889       0.33333333       0.05555556 </v>
   <v>       0.44444444       0.33333333       0.05555556 </v>
   <v>       0.50000000       0.33333333       0.05555556 </v>
   <v>      -0.44444444       0.33333333       0.05555556 </v>
   <v>      -0.38888889       0.33333333       0.05555556 </v>
   <v>      -0.33333333       0.33333333       0.05555556 </v>
   <v>      -0.27777778       0.33333333       0.05555556 </v>
   <v>       0.44444444       0.38888889       0.05555556 </v>
   <v>       0.50000000       0.38888889       0.05555556 </v>
   <v>      -0.44444444       0.38888889       0.05555556 </v>
   <v>      -0.38888889       0.38888889       0.05555556 </v>
   <v>      -0.33333333       0.38888889       0.05555556 </v>
   <v>       0.50000000       0.44444444       0.05555556 </v>
   <v>      -0.44444444       0.44444444       0.05555556 </v>
   <v>      -0.38888889       0.44444444       0.05555556 </v>
   <v>      -0.44444444       0.50000000       0.05555556 </v>
   <v>       0.33333333       0.22222222       0.11111111 </v>
   <v>       0.38888889       0.22222222       0.11111111 </v>
   <v>       0.44444444       0.22222222       0.11111111 </v>
   <v>       0.50000000       0.22222222       0.11111111 </v>
   <v>      -0.44444444       0.22222222       0.11111111 </v>
   <v>      -0.38888889       0.22222222       0.11111111 </v>
   <v>       0.38888889       0.27777778       0.11111111 </v>
   <v>       0.44444444       0.27777778       0.11111111 </v>
   <v>       0.50000000       0.27777778       0.11111111 </v>
   <v>      -0.44444444       0.27777778       0.11111111 </v>
   <v>      -0.38888889       0.27777778       0.11111111 </v>
   <v>      -0.33333333       0.27777778       0.11111111 </v>
   <v>      -0.27777778       0.27777778       0.11111111 </v>
   <v>      -0.22222222       0.27777778       0.11111111 </v>
   <v>      -0.16666667       0.27777778       0.11111111 </v>
   <v>       0.44444444       0.33333333       0.11111111 </v>
   <v>       0.50000000       0.33333333       0.11111111 </v>
   <v>      -0.44444444       0.33333333       0.11111111 </v>
   <v>      -0.38888889       0.33333333       0.11111111 </v>
   <v>      -0.33333333       0.33333333       0.11111111 </v>
   <v>      -0.27777778       0.33333333       0.11111111 </v>
   <v>      -0.22222222       0.33333333       0.11111111 </v>
   <v>       0.50000000       0.38888889       0.11111111 </v>
   <v>      -0.44444444       0.38888889       0.11111111 </v>
   <v>      -0.38888889       0.38888889       0.11111111 </v>
   <v>      -0.33333333       0.38888889       0.11111111 </v>
   <v>      -0.27777778       0.38888889       0.11111111 </v>
   <v>      -0.44444444       0.44444444       0.11111111 </v>
   <v>      -0.38888889       0.44444444       0.11111111 </v>
   <v>      -0.33333333       0.44444444       0.11111111 </v>
   <v>      -0.38888889       0.50000000       0.11111111 </v>
   <v>       0.50000000       0.33333333       0.16666667 </v>
   <v>      -0.44444444       0.33333333       0.16666667 </v>
   <v>      -0.38888889       0.33333333       0.16666667 </v>
   <v>      -0.33333333       0.33333333       0.16666667 </v>
   <v>      -0.44444444       0.38888889       0.16666667 </v>
   <v>      -0.38888889       0.38888889       0.16666667 </v>
   <v>      -0.33333333       0.38888889       0.16666667 </v>
   <v>      -0.27777778       0.38888889       0.16666667 </v>
   <v>      -0.22222222       0.38888889       0.16666667 </v>
   <v>      -0.38888889       0.44444444       0.16666667 </v>
   <v>      -0.33333333       0.44444444       0.16666667 </v>
   <v>      -0.27777778       0.44444444       0.16666667 </v>
   <v>      -0.33333333       0.50000000       0.16666667 </v>
   <v>      -0.33333333       0.44444444       0.22222222 </v>
   <v>      -0.27777778       0.44444444       0.22222222 </v>
   <v>      -0.27777778       0.50000000       0.22222222 </v>
  </varray>
  <varray name="weights" >
   <v>       0.00017147 </v>
   <v>       0.00137174 </v>
   <v>       0.00137174 </v>
   <v>       0.00137174 </v>
   <v>       0.00137174 </v>
   <v>       0.00137174 </v>
   <v>       0.00137174 </v>
   <v>       0.00137174 </v>
   <v>       0.00137174 </v>
   <v>       0.00068587 </v>
   <v>       0.00102881 </v>
   <v>       0.00411523 </v>
   <v>       0.00411523 </v>
   <v>       0.00411523 </v>
   <v>       0.00411523 </v>
   <v>       0.00411523 </v>
   <v>       0.00411523 </v>
   <v>       0.00411523 </v>
   <v>       0.00411523 </v>
   <v>       0.00411523 </v>
   <v>       0.00411523 </v>
   <v>       0.00411523 </v>
   <v>       0.00411523 </v>
   <v>       0.00411523 </v>
   <v>       0.00411523 </v>
   <v>       0.00411523 </v>
   <v>       0.00205761 </v>
   <v>       0.00102881 </v>
   <v>       0.00411523 </v>
   <v>       0.00411523 </v>
   <v>       0.00411523 </v>
   <v>       0.00411523 </v>
   <v>       0.00411523 </v>
   <v>       0.00411523 </v>
   <v>       0.00411523 </v>
   <v>       0.00411523 </v>
   <v>       0.00411523 </v>
   <v>       0.00411523 </v>
   <v>       0.00411523 </v>
   <v>       0.00411523 </v>
   <v>       0.00411523 </v>
   <v>       0.00205761 </v>
   <v>       0.00102881 </v>
   <v>       0.00411523 </v>
   <v>       0.00411523 </v>
   <v>       0.00411523 </v>
   <v>       0.00411523 </v>
   <v>       0.00411523 </v>
   <v>       0.00411523 </v>
   <v>       0.00411523 </v>
   <v>       0.00411523 </v>
   <v>       0.00411523 </v>
   <v>       0.00411523 </v>
   <v>       0.00411523 </v>
   <v>       0.00205761 </v>
   <v>       0.00102881 </v>
   <v>       0.00411523 </v>
   <v>       0.00411523 </v>
   <v>       0.00411523 </v>
   <v>       0.00411523 </v>
   <v>       0.00411523 </v>
   <v>       0.00411523 </v>
   <v>       0.00411523 </v>
   <v>       0.00411523 </v>
   <v>       0.00411523 </v>
   <v>       0.00205761 </v>
   <v>       0.00102881 </v>
   <v>       0.00411523 </v>
   <v>       0.00411523 </v>
   <v>       0.00411523 </v>
   <v>       0.00411523 </v>
   <v>       0.00411523 </v>
   <v>       0.00411523 </v>
   <v>       0.00411523 </v>
   <v>       0.00205761 </v>
   <v>       0.00102881 </v>
   <v>       0.00411523 </v>
   <v>       0.00411523 </v>
   <v>       0.00411523 </v>
   <v>       0.00411523 </v>
   <v>       0.00411523 </v>
   <v>       0.00205761 </v>
   <v>       0.00102881 </v>
   <v>       0.00411523 </v>
   <v>       0.00411523 </v>
   <v>       0.00411523 </v>
   <v>       0.00205761 </v>
   <v>       0.00102881 </v>
   <v>       0.00411523 </v>
   <v>       0.00205761 </v>
   <v>       0.00051440 </v>
   <v>       0.00411523 </v>
   <v>       0.00823045 </v>
   <v>       0.00823045 </v>
   <v>       0.00823045 </v>
   <v>       0.00823045 </v>
   <v>       0.00823045 </v>
   <v>       0.00823045 </v>
   <v>       0.00411523 </v>
   <v>       0.00411523 </v>
   <v>       0.00823045 </v>
   <v>       0.00823045 </v>
   <v>       0.00823045 </v>
   <v>       0.00823045 </v>
   <v>       0.00823045 </v>
   <v>       0.00823045 </v>
   <v>       0.00823045 </v>
   <v>       0.00823045 </v>
   <v>       0.00823045 </v>
   <v>       0.00823045 </v>
   <v>       0.00823045 </v>
   <v>       0.00411523 </v>
   <v>       0.00411523 </v>
   <v>       0.00823045 </v>
   <v>       0.00823045 </v>
   <v>       0.00823045 </v>
   <v>       0.00823045 </v>
   <v>       0.00823045 </v>
   <v>       0.00823045 </v>
   <v>       0.00823045 </v>
   <v>       0.00823045 </v>
   <v>       0.00823045 </v>
   <v>       0.00411523 </v>
   <v>       0.00411523 </v>
   <v>       0.00823045 </v>
   <v>       0.00823045 </v>
   <v>       0.00823045 </v>
   <v>       0.00823045 </v>
   <v>       0.00823045 </v>
   <v>       0.00823045 </v>
   <v>       0.00823045 </v>
   <v>       0.00411523 </v>
   <v>       0.00411523 </v>
   <v>       0.00823045 </v>
   <v>       0.00823045 </v>
   <v>       0.00823045 </v>
   <v>       0.00823045 </v>
   <v>       0.00823045 </v>
   <v>       0.00411523 </v>
   <v>       0.00411523 </v>
   <v>       0.00823045 </v>
   <v>       0.00823045 </v>
   <v>       0.00823045 </v>
   <v>       0.00411523 </v>
   <v>       0.00411523 </v>
   <v>       0.00823045 </v>
   <v>       0.00411523 </v>
   <v>       0.00205761 </v>
   <v>       0.00411523 </v>
   <v>       0.00823045 </v>
   <v>       0.00823045 </v>
   <v>       0.00823045 </v>
   <v>       0.00823045 </v>
   <v>       0.00411523 </v>
   <v>       0.00411523 </v>
   <v>       0.00823045 </v>
   <v>       0.00823045 </v>
   <v>       0.00823045 </v>
   <v>       0.00823045 </v>
   <v>       0.00823045 </v>
   <v>       0.00823045 </v>
   <v>       0.00823045 </v>
   <v>       0.00411523 </v>
   <v>       0.00411523 </v>
   <v>       0.00823045 </v>
   <v>       0.00823045 </v>
   <v>       0.00823045 </v>
   <v>       0.00823045 </v>
   <v>       0.00823045 </v>
   <v>       0.00411523 </v>
   <v>       0.00411523 </v>
   <v>       0.00823045 </v>
   <v>       0.00823045 </v>
   <v>       0.00823045 </v>
   <v>       0.00411523 </v>
   <v>       0.00411523 </v>
   <v>       0.00823045 </v>
   <v>       0.00411523 </v>
   <v>       0.00205761 </v>
   <v>       0.00411523 </v>
   <v>       0.00823045 </v>
   <v>       0.00823045 </v>
   <v>       0.00411523 </v>
   <v>       0.00411523 </v>
   <v>       0.00823045 </v>
   <v>       0.00823045 </v>
   <v>       0.00823045 </v>
   <v>       0.00411523 </v>
   <v>       0.00411523 </v>
   <v>       0.00823045 </v>
   <v>       0.00411523 </v>
   <v>       0.00205761 </v>
   <v>       0.00411523 </v>
   <v>       0.00411523 </v>
   <v>       0.00205761 </v>
  </varray>
 </kpoints>
 <parameters>
  <separator name="general" >
   <i type="string" name="SYSTEM">Al FCC - EOS calculation</i>
   <i type="logical" name="LCOMPAT"> F  </i>
  </separator>
  <separator name="electronic" >
   <i type="string" name="PREC">accura</i>
   <i name="ENMAX">    400.00000000</i>
   <i name="ENAUG">    291.05200000</i>
   <i name="EDIFF">      0.00000100</i>
   <i type="int" name="IALGO">    38</i>
   <i type="int" name="IWAVPR">    10</i>
   <i type="int" name="NBANDS">     5</i>
   <i type="int" name="NBANDSLOW">    -1</i>
   <i type="int" name="NBANDSHIGH">    -1</i>
   <i name="NELECT">      3.00000000</i>
   <i type="int" name="TURBO">     0</i>
   <i type="int" name="IRESTART">     0</i>
   <i type="int" name="NREBOOT">     0</i>
   <i type="int" name="NMIN">     0</i>
   <i name="EREF">      0.00000000</i>
   <separator name="electronic smearing" >
    <i type="int" name="ISMEAR">     1</i>
    <i name="SIGMA">      0.10000000</i>
    <i name="KSPACING">      0.15000000</i>
    <i type="logical" name="KGAMMA"> T  </i>
    <i type="logical" name="KBLOWUP"> T  </i>
   </separator>
   <separator name="electronic projectors" >
    <i type="logical" name="LREAL"> F  </i>
    <v name="ROPT">      0.00000000</v>
    <i type="int" name="LMAXPAW">  -100</i>
    <i type="int" name="LMAXMIX">     2</i>
    <i type="logical" name="NLSPLINE"> F  </i>
   </separator>
   <separator name="electronic startup" >
    <i type="int" name="ISTART">     0</i>
    <i type="int" name="ICHARG">     2</i>
    <i type="int" name="INIWAV">     1</i>
   </separator>
   <separator name="electronic spin" >
    <i type="int" name="ISPIN">     1</i>
    <i type="logical" name="LNONCOLLINEAR"> F  </i>
    <v name="MAGMOM">      1.00000000</v>
    <i name="NUPDOWN">     -1.00000000</i>
    <i type="logical" name="LSORBIT"> F  </i>
    <v name="SAXIS">      0.00000000      0.00000000      1.00000000</v>
    <i type="logical" name="LSPIRAL"> F  </i>
    <v name="QSPIRAL">      0.00000000      0.00000000      0.00000000</v>
    <i type="logical" name="LZEROZ"> F  </i>
   </separator>
   <separator name="electronic exchange-correlation" >
    <i type="logical" name="LASPH"> F  </i>
    <i type="logical" name="LMETAGGA"> F  </i>
   </separator>
   <separator name="electronic convergence" >
    <i type="int" name="NELM">   100</i>
    <i type="int" name="NELMDL">    -5</i>
    <i type="int" name="NELMIN">     2</i>
    <i name="ENINI">    400.00000000</i>
    <separator name="electronic convergence detail" >
     <i type="logical" name="LDIAG"> T  </i>
     <i type="logical" name="LSUBROT"> F  </i>
     <i name="WEIMIN">      0.00000000</i>
     <i name="EBREAK">      0.00000005</i>
     <i name="DEPER">      0.30000000</i>
     <i type="int" name="NRMM">     4</i>
     <i name="TIME">      0.40000000</i>
    </separator>
   </separator>
   <separator name="electronic mixer" >
    <i name="AMIX">      0.40000000</i>
    <i name="BMIX">      1.00000000</i>
    <i name="AMIN">      0.10000000</i>
    <i name="AMIX_MAG">      1.60000000</i>
    <i name="BMIX_MAG">      1.00000000</i>
    <separator name="electronic mixer details" >
     <i type="int" name="IMIX">     4</i>
     <i type="logical" name="MIXFIRST"> F  </i>
     <i type="int" name="MAXMIX">   -45</i>
     <i name="WC">    100.00000000</i>
     <i type="int" name="INIMIX">     1</i>
     <i type="int" name="MIXPRE">     1</i>
     <i type="int" name="MREMOVE">     5</i>
    </separator>
   </separator>
   <separator name="electronic dipolcorrection" >
    <i type="logical" name="LDIPOL"> F  </i>
    <i type="logical" name="LMONO"> F  </i>
    <i type="int" name="IDIPOL">     0</i>
    <i name="EPSILON">      1.00000000</i>
    <v name="DIPOL">   -100.00000000   -100.00000000   -100.00000000</v>
    <i name="EFIELD">      0.00000000</i>
   </separator>
  </separator>
  <separator name="grids" >
   <i type="int" name="NGX">    20</i>
   <i type="int" name="NGY">    20</i>
   <i type="int" name="NGZ">    20</i>
   <i type="int" name="NGXF">    40</i>
   <i type="int" name="NGYF">    40</i>
   <i type="int" name="NGZF">    40</i>
   <i type="logical" name="ADDGRID"> F  </i>
  </separator>
  <separator name="ionic" >
   <i type="int" name="NSW">     0</i>
   <i type="int" name="IBRION">    -1</i>
   <i type="int" name="MDALGO">     0</i>
   <i type="int" name="ISIF">     2</i>
   <i name="PSTRESS">      0.00000000</i>
   <i name="EDIFFG">      0.00001000</i>
   <i type="int" name="NFREE">     0</i>
   <i name="POTIM">      0.50000000</i>
   <i name="SMASS">     -3.00000000</i>
   <i name="SCALEE">      1.00000000</i>
  </separator>
  <separator name="ionic md" >
   <i name="TEBEG">      0.00010000</i>
   <i name="TEEND">      0.00010000</i>
   <i type="int" name="NBLOCK">     1</i>
   <i type="int" name="KBLOCK">     1</i>
   <i type="int" name="NPACO">   256</i>
   <i name="APACO">     10.00000000</i>
  </separator>
  <separator name="symmetry" >
   <i type="int" name="ISYM">     2</i>
   <i name="SYMPREC">      0.00001000</i>
  </separator>
  <separator name="dos" >
   <i type="int" name="LORBIT">     0</i>
   <v name="RWIGS">     -1.00000000</v>
   <i type="int" name="NEDOS">   301</i>
   <i name="EMIN">     10.00000000</i>
   <i name="EMAX">    -10.00000000</i>
   <i name="EFERMI">      0.00000000</i>
  </separator>
  <separator name="writing" >
   <i type="int" name="NWRITE">     2</i>
   <i type="logical" name="LWAVE"> F  </i>
   <i type="logical" name="LDOWNSAMPLE"> F  </i>
   <i type="logical" name="LCHARG"> F  </i>
   <i type="logical" name="LPARD"> F  </i>
   <i type="logical" name="LVTOT"> F  </i>
   <i type="logical" name="LVHAR"> F  </i>
   <i type="logical" name="LELF"> F  </i>
   <i type="logical" name="LOPTICS"> F  </i>
   <v name="STM">      0.00000000      0.00000000      0.00000000      0.00000000      0.00000000      0.00000000      0.00000000</v>
  </separator>
  <separator name="performance" >
   <i type="int" name="NPAR">     1</i>
   <i type="int" name="NSIM">     4</i>
   <i type="int" name="NBLK">    -1</i>
   <i type="logical" name="LPLANE"> T  </i>
   <i type="logical" name="LSCALAPACK"> T  </i>
   <i type="logical" name="LSCAAWARE"> F  </i>
   <i type="logical" name="LSCALU"> F  </i>
   <i type="logical" name="LASYNC"> F  </i>
   <i type="logical" name="LORBITALREAL"> F  </i>
  </separator>
  <separator name="miscellaneous" >
   <i type="int" name="IDIOT">     3</i>
   <i type="int" name="PHON_NSTRUCT">    -1</i>
   <i type="logical" name="LMUSIC"> F  </i>
   <v name="POMASS">     26.98100000</v>
   <v name="DARWINR">      0.00000000</v>
   <v name="DARWINV">      1.00000000</v>
   <i type="logical" name="LCORR"> T  </i>
  </separator>
  <i type="logical" name="GGA_COMPAT"> T  </i>
  <i type="logical" name="LBERRY"> F  </i>
  <i type="int" name="ICORELEVEL">     0</i>
  <i type="logical" name="LDAU"> F  </i>
  <i type="int" name="I_CONSTRAINED_M">     0</i>
  <separator name="electronic exchange-correlation" >
   <i type="string" name="GGA">--</i>
   <i type="int" name="VOSKOWN">     0</i>
   <i type="logical" name="LHFCALC"> F  </i>
   <i type="string" name="PRECFOCK"></i>
   <i type="logical" name="LSYMGRAD"> F  </i>
   <i type="logical" name="LHFONE"> F  </i>
   <i type="logical" name="LRHFCALC"> F  </i>
   <i type="logical" name="LTHOMAS"> F  </i>
   <i type="logical" name="LMODELHF"> F  </i>
   <i type="logical" name="LFOCKACE"> F  </i>
   <i name="ENCUT4O">     -1.00000000</i>
   <i type="int" name="EXXOEP">     0</i>
   <i type="int" name="FOURORBIT">     0</i>
   <i name="AEXX">      0.00000000</i>
   <i name="HFALPHA">      0.00000000</i>
   <i name="MCALPHA">      0.00000000</i>
   <i name="ALDAX">      1.00000000</i>
   <i name="AGGAX">      1.00000000</i>
   <i name="ALDAC">      1.00000000</i>
   <i name="AGGAC">      1.00000000</i>
   <i type="int" name="NKREDX">     1</i>
   <i type="int" name="NKREDY">     1</i>
   <i type="int" name="NKREDZ">     1</i>
   <i type="logical" name="SHIFTRED"> F  </i>
   <i type="logical" name="ODDONLY"> F  </i>
   <i type="logical" name="EVENONLY"> F  </i>
   <i type="int" name="LMAXFOCK">     0</i>
   <i type="int" name="NMAXFOCKAE">     0</i>
   <i type="logical" name="LFOCKAEDFT"> F  </i>
   <i name="HFSCREEN">      0.00000000</i>
   <i name="HFSCREENC">      0.00000000</i>
   <i type="int" name="NBANDSGWLOW">     0</i>
  </separator>
  <separator name="vdW DFT" >
   <i type="logical" name="LUSE_VDW"> F  </i>
   <i type="int" name="IVDW_NL">     1</i>
   <i type="logical" name="LSPIN_VDW"> F  </i>
   <i name="Zab_VDW">     -0.84910000</i>
   <i name="PARAM1">      0.12340000</i>
   <i name="PARAM2">      1.00000000</i>
   <i name="PARAM3">      0.00000000</i>
  </separator>
  <separator name="model GW" >
   <i type="int" name="MODEL_GW">     0</i>
   <i name="MODEL_EPS0">     10.48795111</i>
   <i name="MODEL_ALPHA">      1.00000000</i>
  </separator>
  <separator name="linear response parameters" >
   <i type="logical" name="LEPSILON"> F  </i>
   <i type="logical" name="LRPA"> F  </i>
   <i type="logical" name="LNABLA"> F  </i>
   <i type="logical" name="LVEL"> F  </i>
   <i name="CSHIFT">      0.10000000</i>
   <i name="OMEGAMAX">     -1.00000000</i>
   <i name="DEG_THRESHOLD">      0.00200000</i>
   <i name="RTIME">     -0.10000000</i>
   <i name="WPLASMAI">      0.00000000</i>
   <v name="DFIELD">      0.00000000      0.00000000      0.00000000</v>
   <v name="WPLASMA">      0.00000000      0.00000000      0.00000000      0.00000000      0.00000000      0.00000000      0.00000000      0.00000000      0.00000000</v>
  </separator>
  <separator name="orbital magnetization" >
   <i type="logical" name="NUCIND"> F  </i>
   <v name="MAGPOS">      0.00000000      0.00000000      0.00000000</v>
   <i type="logical" name="LNICSALL"> T  </i>
   <i type="logical" name="ORBITALMAG"> F  </i>
   <i type="logical" name="LMAGBLOCH"> F  </i>
   <i type="logical" name="LCHIMAG"> F  </i>
   <i type="logical" name="LGAUGE"> T  </i>
   <i type="int" name="MAGATOM">     0</i>
   <v name="MAGDIPOL">      0.00000000      0.00000000      0.00000000</v>
   <v name="AVECCONST">      0.00000000      0.00000000      0.00000000</v>
  </separator>
  <separator name="response functions" >
   <i type="logical" name="LALL_IN_ONE"> F  </i>
   <i type="int" name="IALL_IN_ONE">    -1</i>
   <i type="int" name="NBANDS_WAVE">    -1</i>
   <i type="logical" name="LFINITE_TEMPERATURE"> F  </i>
   <i type="logical" name="LADDER"> F  </i>
   <i type="logical" name="LRPAFORCE"> F  </i>
   <i type="logical" name="LFXC"> F  </i>
   <i type="logical" name="LHARTREE"> T  </i>
   <i type="int" name="IBSE">     0</i>
   <v type="int" name="KPOINT">    -1     0     0     0</v>
   <i type="logical" name="LTCTC"> F  </i>
   <i type="logical" name="LTCTE"> F  </i>
   <i type="logical" name="LTETE"> F  </i>
   <i type="logical" name="LTRIPLET"> F  </i>
   <i type="logical" name="LFXCEPS"> F  </i>
   <i type="logical" name="LFXHEG"> F  </i>
   <i type="int" name="NATURALO">     2</i>
   <i type="logical" name="LHOLEGF"> F  </i>
   <i type="logical" name="L2ORDER"> F  </i>
   <i type="logical" name="LDMP1"> F  </i>
   <i type="logical" name="LMP2LT"> F  </i>
   <i type="logical" name="LSMP2LT"> F  </i>
   <i type="logical" name="LGWLF"> F  </i>
   <i name="ENCUTGW">     -1.60000002</i>
   <i name="ENCUTGWSOFT">     -1.60000002</i>
   <i name="ENCUTLF">     -1.00000000</i>
   <i type="logical" name="LESF_SPLINES"> F  </i>
   <i type="int" name="LMAXMP2">    -1</i>
   <i name="SCISSOR">      0.00000000</i>
   <i type="int" name="NOMEGA">     0</i>
   <i type="int" name="NOMEGAR">     0</i>
   <i type="int" name="NBANDSGW">    -1</i>
   <i type="int" name="NBANDSO">    -1</i>
   <i type="int" name="NBANDSV">    -1</i>
   <i type="int" name="NELMGW">     1</i>
   <i type="int" name="NELMHF">     1</i>
   <i type="int" name="DIM">     3</i>
   <i type="int" name="IESPILON">     4</i>
   <i type="int" name="ANTIRES">     0</i>
   <i name="OMEGAMAX">    -30.00000000</i>
   <i name="OMEGAMIN">    -30.00000000</i>
   <i name="OMEGATL">   -200.00000000</i>
   <i type="int" name="OMEGAGRID">     0</i>
   <i name="CSHIFT">     -0.10000000</i>
   <i type="logical" name="LSELFENERGY"> F  </i>
   <i type="logical" name="LSPECTRAL"> F  </i>
   <i type="logical" name="LSPECTRALGW"> F  </i>
   <i type="logical" name="LSINGLES"> F  </i>
   <i type="logical" name="LFERMIGW"> F  </i>
   <i type="logical" name="ODDONLYGW"> F  </i>
   <i type="logical" name="EVENONLYGW"> F  </i>
   <i type="int" name="NKREDLFX">     1</i>
   <i type="int" name="NKREDLFY">     1</i>
   <i type="int" name="NKREDLFZ">     1</i>
   <i type="int" name="MAXMEM">  2800</i>
   <i type="int" name="TELESCOPE">     0</i>
   <i type="int" name="NTAUPAR">    -1</i>
   <i type="int" name="NOMEGAPAR">    -1</i>
   <i name="DAMP_NEWTON">      0.80000001</i>
   <i name="LAMBDA">      1.00000000</i>
  </separator>
  <separator name="External order field" >
   <i name="OFIELD_KAPPA">      0.00000000</i>
   <v name="OFIELD_K">      0.00000000      0.00000000      0.00000000</v>
   <i name="OFIELD_Q6_NEAR">      0.00000000</i>
   <i name="OFIELD_Q6_FAR">      0.00000000</i>
   <i name="OFIELD_A">      0.00000000</i>
  </separator>
  <separator name="optional k-points parameters" >
   <i type="int" name="KPOINTS_OPT_MODE">     1</i>
   <i type="logical" name="LKPOINTS_OPT"> F  </i>
  </separator>
 </parameters>
 <atominfo>
  <atoms>       1 </atoms>
  <types>       1 </types>
  <array name="atoms" >
   <dimension dim="1">ion</dimension>
   <field type="string">element</field>
   <field type="int">atomtype</field>
   <set>
    <rc><c>Al</c><c>   1</c></rc>
   </set>
  </array>
  <array name="atomtypes" >
   <dimension dim="1">type</dimension>
   <field type="int">atomspertype</field>
   <field type="string">element</field>
   <field>mass</field>
   <field>valence</field>
   <field type="string">pseudopotential</field>
   <set>
    <rc><c>   1</c><c>Al</c><c>     26.98100000</c><c>      3.00000000</c><c>  PAW_PBE Al 04Jan2001                  </c></rc>
   </set>
  </array>
 </atominfo>
 <structure name="initialpos" >
  <crystal>
   <varray name="basis" >
    <v>       2.52279558       0.00000000       1.45653654 </v>
    <v>       0.84093186       2.37851454       1.45653654 </v>
    <v>       0.00000000       0.00000000       2.91307410 </v>
   </varray>
   <i name="volume">     17.47991852 </i>
   <varray name="rec_basis" >
    <v>       0.39638566      -0.14014349       0.00000000 </v>
    <v>       0.00000000       0.42043048       0.00000000 </v>
    <v>      -0.19819276      -0.14014344       0.34327997 </v>
   </varray>
  </crystal>
  <varray name="positions" >
   <v>       0.00000000       0.00000000       0.00000000 </v>
  </varray>
 </structure>
 <calculation>
  <scstep>
   <time name="dav">    2.38   13.32</time>
   <time name="total">    2.42   13.45</time>
   <energy>
    <i name="alphaZ">     -0.19215249 </i>
    <i name="ewald">    -72.11546316 </i>
    <i name="hartreedc">     -0.12652475 </i>
    <i name="XCdc">    -26.34244203 </i>
    <i name="pawpsdc">     66.20015713 </i>
    <i name="pawaedc">    -34.24562076 </i>
    <i name="eentropy">     -0.00024972 </i>
    <i name="bandstr">     10.89386190 </i>
    <i name="atom">     53.53815432 </i>
    <i name="e_fr_energy">     -2.39027955 </i>
    <i name="e_wo_entrp">     -2.39002984 </i>
    <i name="e_0_energy">     -2.39019632 </i>
   </energy>
  </scstep>
  <scstep>
   <time name="dav">    2.45   13.54</time>
   <time name="total">    2.46   13.55</time>
   <energy>
    <i name="e_fr_energy">     -3.73949034 </i>
    <i name="e_wo_entrp">     -3.73914381 </i>
    <i name="e_0_energy">     -3.73937483 </i>
   </energy>
  </scstep>
  <scstep>
   <time name="dav">    2.54   14.12</time>
   <time name="total">    2.54   14.13</time>
   <energy>
    <i name="e_fr_energy">     -3.75174152 </i>
    <i name="e_wo_entrp">     -3.75142508 </i>
    <i name="e_0_energy">     -3.75163604 </i>
   </energy>
  </scstep>
  <scstep>
   <time name="dav">    2.47   13.52</time>
   <time name="total">    2.47   13.53</time>
   <energy>
    <i name="e_fr_energy">     -3.75177753 </i>
    <i name="e_wo_entrp">     -3.75146129 </i>
    <i name="e_0_energy">     -3.75167212 </i>
   </energy>
  </scstep>
  <scstep>
   <time name="dav">    2.51   13.89</time>
   <time name="total">    2.75   15.14</time>
   <energy>
    <i name="e_fr_energy">     -3.75177774 </i>
    <i name="e_wo_entrp">     -3.75146150 </i>
    <i name="e_0_energy">     -3.75167233 </i>
   </energy>
  </scstep>
  <scstep>
   <time name="dav">    2.33   13.00</time>
   <time name="total">    2.63   14.54</time>
   <energy>
    <i name="e_fr_energy">     -3.73931445 </i>
    <i name="e_wo_entrp">     -3.73900584 </i>
    <i name="e_0_energy">     -3.73921158 </i>
   </energy>
  </scstep>
  <scstep>
   <time name="dav">    2.25   12.49</time>
   <time name="total">    2.52   13.95</time>
   <energy>
    <i name="e_fr_energy">     -3.73020126 </i>
    <i name="e_wo_entrp">     -3.72990497 </i>
    <i name="e_0_energy">     -3.73010250 </i>
   </energy>
  </scstep>
  <scstep>
   <time name="dav">    2.36   13.11</time>
   <time name="total">    2.62   14.42</time>
   <energy>
    <i name="e_fr_energy">     -3.73019624 </i>
    <i name="e_wo_entrp">     -3.72990020 </i>
    <i name="e_0_energy">     -3.73009756 </i>
   </energy>
  </scstep>
  <scstep>
   <time name="dav">    2.23   12.10</time>
   <time name="total">    2.45   13.11</time>
   <energy>
    <i name="e_fr_energy">     -3.73019502 </i>
    <i name="e_wo_entrp">     -3.72989911 </i>
    <i name="e_0_energy">     -3.73009638 </i>
   </energy>
  </scstep>
  <scstep>
   <time name="dav">    1.33    6.80</time>
   <time name="total">    1.35    6.83</time>
   <energy>
    <i name="alphaZ">     -0.19215249 </i>
    <i name="ewald">    -72.11546316 </i>
    <i name="hartreedc">     -0.09989742 </i>
    <i name="XCdc">    -26.24613228 </i>
    <i name="pawpsdc">    127.87399563 </i>
    <i name="pawaedc">    -95.92360778 </i>
    <i name="eentropy">     -0.00029590 </i>
    <i name="bandstr">      9.43520450 </i>
    <i name="atom">     53.53815432 </i>
    <i name="e_fr_energy">     -3.73019459 </i>
    <i name="e_wo_entrp">     -3.72989869 </i>
    <i name="e_0_energy">     -3.73009595 </i>
   </energy>
  </scstep>
  <structure>
   <crystal>
    <varray name="basis" >
     <v>       2.52279558       0.00000000       1.45653654 </v>
     <v>       0.84093186       2.37851454       1.45653654 </v>
     <v>       0.00000000       0.00000000       2.91307410 </v>
    </varray>
    <i name="volume">     17.47991852 </i>
    <varray name="rec_basis" >
     <v>       0.39638566      -0.14014349       0.00000000 </v>
     <v>       0.00000000       0.42043048       0.00000000 </v>
     <v>      -0.19819276      -0.14014344       0.34327997 </v>
    </varray>
   </crystal>
   <varray name="positions" >
    <v>       0.00000000       0.00000000       0.00000000 </v>
   </varray>
  </structure>
  <varray name="forces" >
   <v>       0.00000000       0.00000000      -0.00000000 </v>
  </varray>
  <varray name="stress" >
   <v>     -39.51786920       0.00000000       0.00000799 </v>
   <v>       0.00000000     -39.51787110       0.00000565 </v>
   <v>       0.00000799       0.00000565     -39.51788780 </v>
  </varray>
  <energy>
   <i name="e_fr_energy">     -3.73019459 </i>
   <i name="e_wo_entrp">     -3.72989869 </i>
   <i name="e_0_energy">     -3.73009595 </i>
  </energy>
  <time name="totalsc">   32.25  164.92</time>
  <eigenvalues>
   <array>
    <dimension dim="1">band</dimension>
    <dimension dim="2">kpoint</dimension>
    <dimension dim="3">spin</dimension>
    <field>eigene</field>
    <field>occ</field>
    <set>
     <set comment="spin 1">
      <set comment="kpoint 1">
       <r>   -3.3301    1.0000 </r>
       <r>   19.7176    0.0000 </r>
       <r>   19.7176    0.0000 </r>
       <r>   19.7176    0.0000 </r>
       <r>   20.7827    0.0000 </r>
      </set>
      <set comment="kpoint 2">
       <r>   -3.2493    1.0000 </r>
       <r>   18.1591    0.0000 </r>
       <r>   19.3419    0.0000 </r>
       <r>   19.3419    0.0000 </r>
       <r>   21.2810    0.0000 </r>
      </set>
      <set comment="kpoint 3">
       <r>   -3.0073    1.0000 </r>
       <r>   15.9985    0.0000 </r>
       <r>   18.7994    0.0000 </r>
       <r>   18.7994    0.0000 </r>
       <r>   21.5712    0.0000 </r>
      </set>
      <set comment="kpoint 4">
       <r>   -2.6049    1.0000 </r>
       <r>   13.8326    0.0000 </r>
       <r>   18.3464    0.0000 </r>
       <r>   18.3464    0.0000 </r>
       <r>   21.4368    0.0000 </r>
      </set>
      <set comment="kpoint 5">
       <r>   -2.0432    1.0000 </r>
       <r>   11.7420    0.0000 </r>
       <r>   18.0176    0.0000 </r>
       <r>   18.0176    0.0000 </r>
       <r>   21.2850    0.0000 </r>
      </set>
      <set comment="kpoint 6">
       <r>   -1.3242    1.0000 </r>
       <r>    9.7556   -0.0000 </r>
       <r>   17.8205    0.0000 </r>
       <r>   17.8205    0.0000 </r>
       <r>   21.1704    0.0000 </r>
      </set>
      <set comment="kpoint 7">
       <r>   -0.4499    1.0000 </r>
       <r>    7.8883   -0.0000 </r>
       <r>   17.7575    0.0000 </r>
       <r>   17.7575    0.0000 </r>
       <r>   20.2998    0.0000 </r>
      </set>
      <set comment="kpoint 8">
       <r>    0.5770    1.0000 </r>
       <r>    6.1489    1.0000 </r>
       <r>   17.8276    0.0000 </r>
       <r>   17.8276    0.0000 </r>
       <r>   19.5529    0.0000 </r>
      </set>
      <set comment="kpoint 9">
       <r>    1.7535    1.0000 </r>
       <r>    4.5438    1.0000 </r>
       <r>   18.0217    0.0000 </r>
       <r>   18.0217    0.0000 </r>
       <r>   18.9495    0.0000 </r>
      </set>
      <set comment="kpoint 10">
       <r>    3.0466    1.0000 </r>
       <r>    3.1077    1.0000 </r>
       <r>   18.2220    0.0000 </r>
       <r>   18.2220    0.0000 </r>
       <r>   18.6116    0.0000 </r>
      </set>
      <set comment="kpoint 11">
       <r>   -3.2224    1.0000 </r>
       <r>   18.6083    0.0000 </r>
       <r>   18.6083    0.0000 </r>
       <r>   18.9929    0.0000 </r>
       <r>   20.5211    0.0000 </r>
      </set>
      <set comment="kpoint 12">
       <r>   -3.0342    1.0000 </r>
       <r>   16.7441    0.0000 </r>
       <r>   17.9680    0.0000 </r>
       <r>   18.9783    0.0000 </r>
       <r>   20.7024    0.0000 </r>
      </set>
      <set comment="kpoint 13">
       <r>   -2.6852    1.0000 </r>
       <r>   14.5935    0.0000 </r>
       <r>   17.4530    0.0000 </r>
       <r>   18.6839    0.0000 </r>
       <r>   21.3486    0.0000 </r>
      </set>
      <set comment="kpoint 14">
       <r>   -2.1767    1.0000 </r>
       <r>   12.4841    0.0000 </r>
       <r>   17.0709    0.0000 </r>
       <r>   18.3693    0.0000 </r>
       <r>   20.9291    0.0000 </r>
      </set>
      <set comment="kpoint 15">
       <r>   -1.5103    1.0000 </r>
       <r>   10.4663    0.0000 </r>
       <r>   16.8246    0.0000 </r>
       <r>   18.1489    0.0000 </r>
       <r>   19.9425    0.0000 </r>
      </set>
      <set comment="kpoint 16">
       <r>   -0.6879    1.0000 </r>
       <r>    8.5611   -0.0000 </r>
       <r>   16.7152    0.0000 </r>
       <r>   18.0480    0.0000 </r>
       <r>   19.0188    0.0000 </r>
      </set>
      <set comment="kpoint 17">
       <r>    0.2880    1.0000 </r>
       <r>    6.7802    1.0000 </r>
       <r>   16.7430    0.0000 </r>
       <r>   18.0115    0.0000 </r>
       <r>   18.2834    0.0000 </r>
      </set>
      <set comment="kpoint 18">
       <r>    1.4144    1.0000 </r>
       <r>    5.1311    1.0000 </r>
       <r>   16.9080    0.0000 </r>
       <r>   17.4843    0.0000 </r>
       <r>   18.3086    0.0000 </r>
      </set>
      <set comment="kpoint 19">
       <r>    2.6877    1.0000 </r>
       <r>    3.6198    1.0000 </r>
       <r>   16.9505    0.0000 </r>
       <r>   17.2092    0.0000 </r>
       <r>   18.6176    0.0000 </r>
      </set>
      <set comment="kpoint 20">
       <r>    2.2474    1.0000 </r>
       <r>    4.1076    1.0000 </r>
       <r>   16.5486    0.0000 </r>
       <r>   17.6425    0.0000 </r>
       <r>   19.0726    0.0000 </r>
      </set>
      <set comment="kpoint 21">
       <r>    1.0224    1.0000 </r>
       <r>    5.6655    1.0000 </r>
       <r>   16.2854    0.0000 </r>
       <r>   18.1921    0.0000 </r>
       <r>   19.1525    0.0000 </r>
      </set>
      <set comment="kpoint 22">
       <r>   -0.0542    1.0000 </r>
       <r>    7.3590    0.8725 </r>
       <r>   16.1626    0.0000 </r>
       <r>   18.7194    0.0000 </r>
       <r>   19.2186    0.0000 </r>
      </set>
      <set comment="kpoint 23">
       <r>   -0.9792    1.0000 </r>
       <r>    9.1816   -0.0000 </r>
       <r>   16.1802    0.0000 </r>
       <r>   18.9023    0.0000 </r>
       <r>   19.8912    0.0000 </r>
      </set>
      <set comment="kpoint 24">
       <r>   -1.7499    1.0000 </r>
       <r>   11.1246    0.0000 </r>
       <r>   16.3383    0.0000 </r>
       <r>   19.0776    0.0000 </r>
       <r>   20.8048    0.0000 </r>
      </set>
      <set comment="kpoint 25">
       <r>   -2.3639    1.0000 </r>
       <r>   13.1720    0.0000 </r>
       <r>   16.6371    0.0000 </r>
       <r>   19.3592    0.0000 </r>
       <r>   21.6772    0.0000 </r>
      </set>
      <set comment="kpoint 26">
       <r>   -2.8194    1.0000 </r>
       <r>   15.2873    0.0000 </r>
       <r>   17.0821    0.0000 </r>
       <r>   19.7298    0.0000 </r>
       <r>   21.4866    0.0000 </r>
      </set>
      <set comment="kpoint 27">
       <r>   -3.1148    1.0000 </r>
       <r>   17.2518    0.0000 </r>
       <r>   17.8107    0.0000 </r>
       <r>   19.9268    0.0000 </r>
       <r>   20.9061    0.0000 </r>
      </set>
      <set comment="kpoint 28">
       <r>   -2.8999    1.0000 </r>
       <r>   17.2636    0.0000 </r>
       <r>   17.2636    0.0000 </r>
       <r>   17.6908    0.0000 </r>
       <r>   19.8577    0.0000 </r>
      </set>
      <set comment="kpoint 29">
       <r>   -2.6048    1.0000 </r>
       <r>   15.4252    0.0000 </r>
       <r>   16.6934    0.0000 </r>
       <r>   17.8420    0.0000 </r>
       <r>   19.8651    0.0000 </r>
      </set>
      <set comment="kpoint 30">
       <r>   -2.1500    1.0000 </r>
       <r>   13.3391    0.0000 </r>
       <r>   16.2601    0.0000 </r>
       <r>   17.7337    0.0000 </r>
       <r>   19.4925    0.0000 </r>
      </set>
      <set comment="kpoint 31">
       <r>   -1.5368    1.0000 </r>
       <r>   11.3072    0.0000 </r>
       <r>   15.9643    0.0000 </r>
       <r>   17.5424    0.0000 </r>
       <r>   18.4062    0.0000 </r>
      </set>
      <set comment="kpoint 32">
       <r>   -0.7673    1.0000 </r>
       <r>    9.3733   -0.0000 </r>
       <r>   15.8069    0.0000 </r>
       <r>   17.3642    0.0000 </r>
       <r>   17.4641    0.0000 </r>
      </set>
      <set comment="kpoint 33">
       <r>    0.1563    1.0000 </r>
       <r>    7.5563   -0.0290 </r>
       <r>   15.7878    0.0000 </r>
       <r>   16.5134    0.0000 </r>
       <r>   17.4445    0.0000 </r>
      </set>
      <set comment="kpoint 34">
       <r>    1.2312    1.0000 </r>
       <r>    5.8669    1.0000 </r>
       <r>   15.7709    0.0000 </r>
       <r>   15.9069    0.0000 </r>
       <r>   17.5894    0.0000 </r>
      </set>
      <set comment="kpoint 35">
       <r>    2.4540    1.0000 </r>
       <r>    4.3121    1.0000 </r>
       <r>   15.1687    0.0000 </r>
       <r>   16.1644    0.0000 </r>
       <r>   17.8769    0.0000 </r>
      </set>
      <set comment="kpoint 36">
       <r>    2.8939    1.0000 </r>
       <r>    3.8243    1.0000 </r>
       <r>   14.7094    0.0000 </r>
       <r>   16.5591    0.0000 </r>
       <r>   18.3069    0.0000 </r>
      </set>
      <set comment="kpoint 37">
       <r>    1.6229    1.0000 </r>
       <r>    5.3315    1.0000 </r>
       <r>   14.3947    0.0000 </r>
       <r>   17.0896    0.0000 </r>
       <r>   18.8777    0.0000 </r>
      </set>
      <set comment="kpoint 38">
       <r>    0.4981    1.0000 </r>
       <r>    6.9747    1.0000 </r>
       <r>   14.2263    0.0000 </r>
       <r>   17.7519    0.0000 </r>
       <r>   19.5851    0.0000 </r>
      </set>
      <set comment="kpoint 39">
       <r>   -0.4764    1.0000 </r>
       <r>    8.7452   -0.0000 </r>
       <r>   14.2063    0.0000 </r>
       <r>   18.5352    0.0000 </r>
       <r>   20.3313    0.0000 </r>
      </set>
      <set comment="kpoint 40">
       <r>   -1.2976    1.0000 </r>
       <r>   10.6288    0.0000 </r>
       <r>   14.3405    0.0000 </r>
       <r>   19.4042    0.0000 </r>
       <r>   20.4760    0.0000 </r>
      </set>
      <set comment="kpoint 41">
       <r>   -1.9631    1.0000 </r>
       <r>   12.5851    0.0000 </r>
       <r>   14.6544    0.0000 </r>
       <r>   20.2216    0.0000 </r>
       <r>   20.8057    0.0000 </r>
      </set>
      <set comment="kpoint 42">
       <r>   -2.4709    1.0000 </r>
       <r>   14.3614    0.0000 </r>
       <r>   15.3713    0.0000 </r>
       <r>   20.5535    0.0000 </r>
       <r>   20.9857    0.0000 </r>
      </set>
      <set comment="kpoint 43">
       <r>   -2.3638    1.0000 </r>
       <r>   16.0716    0.0000 </r>
       <r>   16.0716    0.0000 </r>
       <r>   16.4110    0.0000 </r>
       <r>   18.9498    0.0000 </r>
      </set>
      <set comment="kpoint 44">
       <r>   -1.9631    1.0000 </r>
       <r>   14.2688    0.0000 </r>
       <r>   15.5883    0.0000 </r>
       <r>   16.7158    0.0000 </r>
       <r>   18.0582    0.0000 </r>
      </set>
      <set comment="kpoint 45">
       <r>   -1.4039    1.0000 </r>
       <r>   12.2628    0.0000 </r>
       <r>   15.2440    0.0000 </r>
       <r>   16.7376    0.0000 </r>
       <r>   16.8738    0.0000 </r>
      </set>
      <set comment="kpoint 46">
       <r>   -0.6880    1.0000 </r>
       <r>   10.3167    0.0000 </r>
       <r>   15.0387    0.0000 </r>
       <r>   15.7968    0.0000 </r>
       <r>   16.6551    0.0000 </r>
      </set>
      <set comment="kpoint 47">
       <r>    0.1824    1.0000 </r>
       <r>    8.4723   -0.0000 </r>
       <r>   14.8542    0.0000 </r>
       <r>   14.9722    0.0000 </r>
       <r>   16.6436    0.0000 </r>
      </set>
      <set comment="kpoint 48">
       <r>    1.2044    1.0000 </r>
       <r>    6.7477    1.0000 </r>
       <r>   14.0518    0.0000 </r>
       <r>   15.0446    0.0000 </r>
       <r>   16.7546    0.0000 </r>
      </set>
      <set comment="kpoint 49">
       <r>    2.3748    1.0000 </r>
       <r>    5.1533    1.0000 </r>
       <r>   13.3932    0.0000 </r>
       <r>   15.2556    0.0000 </r>
       <r>   17.0040    0.0000 </r>
      </set>
      <set comment="kpoint 50">
       <r>    3.6459    1.0000 </r>
       <r>    3.7392    1.0000 </r>
       <r>   12.8810    0.0000 </r>
       <r>   15.6052    0.0000 </r>
       <r>   17.3970    0.0000 </r>
      </set>
      <set comment="kpoint 51">
       <r>    2.3763    1.0000 </r>
       <r>    5.1469    1.0000 </r>
       <r>   12.5179    0.0000 </r>
       <r>   16.0930    0.0000 </r>
       <r>   17.9331    0.0000 </r>
      </set>
      <set comment="kpoint 52">
       <r>    1.2052    1.0000 </r>
       <r>    6.7339    1.0000 </r>
       <r>   12.3083    0.0000 </r>
       <r>   16.7175    0.0000 </r>
       <r>   18.6090    0.0000 </r>
      </set>
      <set comment="kpoint 53">
       <r>    0.1827    1.0000 </r>
       <r>    8.4386   -0.0000 </r>
       <r>   12.2615    0.0000 </r>
       <r>   17.4756    0.0000 </r>
       <r>   19.4177    0.0000 </r>
      </set>
      <set comment="kpoint 54">
       <r>   -0.6878    1.0000 </r>
       <r>   10.2152    0.0000 </r>
       <r>   12.4154    0.0000 </r>
       <r>   18.3608    0.0000 </r>
       <r>   20.3469    0.0000 </r>
      </set>
      <set comment="kpoint 55">
       <r>   -1.4039    1.0000 </r>
       <r>   11.7900    0.0000 </r>
       <r>   13.0299    0.0000 </r>
       <r>   19.3536    0.0000 </r>
       <r>   21.3760    0.0000 </r>
      </set>
      <set comment="kpoint 56">
       <r>   -1.6166    1.0000 </r>
       <r>   15.0563    0.0000 </r>
       <r>   15.0564    0.0000 </r>
       <r>   15.2836    0.0000 </r>
       <r>   16.6963    0.0000 </r>
      </set>
      <set comment="kpoint 57">
       <r>   -1.1118    1.0000 </r>
       <r>   13.2931    0.0000 </r>
       <r>   14.6640    0.0000 </r>
       <r>   15.4253    0.0000 </r>
       <r>   15.7409    0.0000 </r>
      </set>
      <set comment="kpoint 58">
       <r>   -0.4502    1.0000 </r>
       <r>   11.3744    0.0000 </r>
       <r>   14.2868    0.0000 </r>
       <r>   14.4110    0.0000 </r>
       <r>   15.8691    0.0000 </r>
      </set>
      <set comment="kpoint 59">
       <r>    0.3659    1.0000 </r>
       <r>    9.5191   -0.0000 </r>
       <r>   13.2850    0.0000 </r>
       <r>   14.2973    0.0000 </r>
       <r>   15.8881    0.0000 </r>
      </set>
      <set comment="kpoint 60">
       <r>    1.3338    1.0000 </r>
       <r>    7.7679   -0.0000 </r>
       <r>   12.4257    0.0000 </r>
       <r>   14.3227    0.0000 </r>
       <r>   15.9778    0.0000 </r>
      </set>
      <set comment="kpoint 61">
       <r>    2.4500    1.0000 </r>
       <r>    6.1389    1.0000 </r>
       <r>   11.7126    0.0000 </r>
       <r>   14.4871    0.0000 </r>
       <r>   16.1913    0.0000 </r>
      </set>
      <set comment="kpoint 62">
       <r>    3.7077    1.0000 </r>
       <r>    4.6439    1.0000 </r>
       <r>   11.1493    0.0000 </r>
       <r>   14.7904    0.0000 </r>
       <r>   16.5445    0.0000 </r>
      </set>
      <set comment="kpoint 63">
       <r>    3.2796    1.0000 </r>
       <r>    5.1098    1.0000 </r>
       <r>   10.7412    0.0000 </r>
       <r>   15.2326    0.0000 </r>
       <r>   17.0411    0.0000 </r>
      </set>
      <set comment="kpoint 64">
       <r>    2.0646    1.0000 </r>
       <r>    6.6277    1.0000 </r>
       <r>   10.4997    0.0000 </r>
       <r>   15.8132    0.0000 </r>
       <r>   17.6793    0.0000 </r>
      </set>
      <set comment="kpoint 65">
       <r>    0.9959    1.0000 </r>
       <r>    8.2205   -0.0000 </r>
       <r>   10.4687    0.0000 </r>
       <r>   16.5310    0.0000 </r>
       <r>   18.4533    0.0000 </r>
      </set>
      <set comment="kpoint 66">
       <r>    0.0774    1.0000 </r>
       <r>    9.6009   -0.0000 </r>
       <r>   10.9270    0.0000 </r>
       <r>   17.3829    0.0000 </r>
       <r>   19.3507    0.0000 </r>
      </set>
      <set comment="kpoint 67">
       <r>   -0.6616    1.0000 </r>
       <r>   14.0947    0.0000 </r>
       <r>   14.2239    0.0000 </r>
       <r>   14.2240    0.0000 </r>
       <r>   14.3451    0.0000 </r>
      </set>
      <set comment="kpoint 68">
       <r>   -0.0550    1.0000 </r>
       <r>   12.5007    0.0000 </r>
       <r>   12.9006    0.0000 </r>
       <r>   13.9236    0.0000 </r>
       <r>   14.9431    0.0000 </r>
      </set>
      <set comment="kpoint 69">
       <r>    0.7061    1.0000 </r>
       <r>   10.6761    0.0000 </r>
       <r>   11.8401    0.0000 </r>
       <r>   13.7628    0.0000 </r>
       <r>   15.1726    0.0000 </r>
      </set>
      <set comment="kpoint 70">
       <r>    1.6185    1.0000 </r>
       <r>    8.9162   -0.0000 </r>
       <r>   10.9243    0.0000 </r>
       <r>   13.7412    0.0000 </r>
       <r>   15.2926    0.0000 </r>
      </set>
      <set comment="kpoint 71">
       <r>    2.6782    1.0000 </r>
       <r>    7.2620    1.0288 </r>
       <r>   10.1574    0.0000 </r>
       <r>   13.8588    0.0000 </r>
       <r>   15.4846    0.0000 </r>
      </set>
      <set comment="kpoint 72">
       <r>    3.8778    1.0000 </r>
       <r>    5.7323    1.0000 </r>
       <r>    9.5454   -0.0000 </r>
       <r>   14.1155    0.0000 </r>
       <r>   15.8015    0.0000 </r>
      </set>
      <set comment="kpoint 73">
       <r>    4.3277    1.0000 </r>
       <r>    5.2125    1.0000 </r>
       <r>    9.1008   -0.0000 </r>
       <r>   14.5113    0.0000 </r>
       <r>   16.2579    0.0000 </r>
      </set>
      <set comment="kpoint 74">
       <r>    3.0734    1.0000 </r>
       <r>    6.6161    1.0000 </r>
       <r>    8.8684   -0.0000 </r>
       <r>   15.0462    0.0000 </r>
       <r>   16.8558    0.0000 </r>
      </set>
      <set comment="kpoint 75">
       <r>    1.9606    1.0000 </r>
       <r>    7.8081   -0.0000 </r>
       <r>    9.1382   -0.0000 </r>
       <r>   15.7197    0.0000 </r>
       <r>   17.5911    0.0000 </r>
      </set>
      <set comment="kpoint 76">
       <r>    0.4962    1.0000 </r>
       <r>   11.6342    0.0000 </r>
       <r>   13.5762    0.0000 </r>
       <r>   13.5762    0.0000 </r>
       <r>   13.6086    0.0000 </r>
      </set>
      <set comment="kpoint 77">
       <r>    1.2012    1.0000 </r>
       <r>   10.5146    0.0000 </r>
       <r>   11.9190    0.0000 </r>
       <r>   13.3684    0.0000 </r>
       <r>   14.3411    0.0000 </r>
      </set>
      <set comment="kpoint 78">
       <r>    2.0564    1.0000 </r>
       <r>    9.5331   -0.0000 </r>
       <r>   10.2024    0.0000 </r>
       <r>   13.2999    0.0000 </r>
       <r>   14.6670    0.0000 </r>
      </set>
      <set comment="kpoint 79">
       <r>    3.0560    1.0000 </r>
       <r>    8.4689   -0.0000 </r>
       <r>    8.7867   -0.0000 </r>
       <r>   13.3707    0.0000 </r>
       <r>   14.8881    0.0000 </r>
      </set>
      <set comment="kpoint 80">
       <r>    4.1869    1.0000 </r>
       <r>    6.9511    1.0000 </r>
       <r>    8.0972   -0.0000 </r>
       <r>   13.5805    0.0000 </r>
       <r>   15.1833    0.0000 </r>
      </set>
      <set comment="kpoint 81">
       <r>    5.3830    1.0000 </r>
       <r>    5.5466    1.0000 </r>
       <r>    7.6503   -0.0017 </r>
       <r>   13.9297    0.0000 </r>
       <r>   15.6032    0.0000 </r>
      </set>
      <set comment="kpoint 82">
       <r>    4.2272    1.0000 </r>
       <r>    6.4150    1.0000 </r>
       <r>    7.7110   -0.0001 </r>
       <r>   14.4182    0.0000 </r>
       <r>   16.1608    0.0000 </r>
      </set>
      <set comment="kpoint 83">
       <r>    1.8486    1.0000 </r>
       <r>    9.3453   -0.0000 </r>
       <r>   13.0799    0.0000 </r>
       <r>   13.1137    0.0000 </r>
       <r>   13.1138    0.0000 </r>
      </set>
      <set comment="kpoint 84">
       <r>    2.6433    1.0000 </r>
       <r>    8.3237   -0.0000 </r>
       <r>   11.5219    0.0000 </r>
       <r>   12.9984    0.0000 </r>
       <r>   13.9380    0.0000 </r>
      </set>
      <set comment="kpoint 85">
       <r>    3.5740    1.0000 </r>
       <r>    7.4636    0.1075 </r>
       <r>    9.8933   -0.0000 </r>
       <r>   13.0224    0.0000 </r>
       <r>   14.3609    0.0000 </r>
      </set>
      <set comment="kpoint 86">
       <r>    4.5985    1.0000 </r>
       <r>    6.8050    1.0000 </r>
       <r>    8.3328   -0.0000 </r>
       <r>   13.1855    0.0000 </r>
       <r>   14.6840    0.0000 </r>
      </set>
      <set comment="kpoint 87">
       <r>    5.4213    1.0000 </r>
       <r>    6.5862    1.0000 </r>
       <r>    6.9397    1.0000 </r>
       <r>   13.4878    0.0000 </r>
       <r>   15.0819    0.0000 </r>
      </set>
      <set comment="kpoint 88">
       <r>    3.3691    1.0000 </r>
       <r>    7.2612    1.0284 </r>
       <r>   12.7619    0.0000 </r>
       <r>   12.8364    0.0000 </r>
       <r>   12.8364    0.0000 </r>
      </set>
      <set comment="kpoint 89">
       <r>    4.1943    1.0000 </r>
       <r>    6.3971    1.0000 </r>
       <r>   11.3233    0.0000 </r>
       <r>   12.8135    0.0000 </r>
       <r>   13.7360    0.0000 </r>
      </set>
      <set comment="kpoint 90">
       <r>    4.8258    1.0000 </r>
       <r>    6.0251    1.0000 </r>
       <r>    9.7926   -0.0000 </r>
       <r>   12.9299    0.0000 </r>
       <r>   14.2585    0.0000 </r>
      </set>
      <set comment="kpoint 91">
       <r>    4.6273    1.0000 </r>
       <r>    5.8148    1.0000 </r>
       <r>   12.6556    0.0000 </r>
       <r>   12.7439    0.0000 </r>
       <r>   12.7440    0.0000 </r>
      </set>
      <set comment="kpoint 92">
       <r>   -2.7925    1.0000 </r>
       <r>   15.8249    0.0000 </r>
       <r>   16.5678    0.0000 </r>
       <r>   19.2351    0.0000 </r>
       <r>   20.5015    0.0000 </r>
      </set>
      <set comment="kpoint 93">
       <r>   -2.3906    1.0000 </r>
       <r>   13.9444    0.0000 </r>
       <r>   15.8624    0.0000 </r>
       <r>   19.2340    0.0000 </r>
       <r>   20.6185    0.0000 </r>
      </set>
      <set comment="kpoint 94">
       <r>   -1.8298    1.0000 </r>
       <r>   11.9052    0.0000 </r>
       <r>   15.4871    0.0000 </r>
       <r>   18.9964    0.0000 </r>
       <r>   19.7425    0.0000 </r>
      </set>
      <set comment="kpoint 95">
       <r>   -1.1118    1.0000 </r>
       <r>    9.9386   -0.0000 </r>
       <r>   15.2714    0.0000 </r>
       <r>   18.5980    0.0000 </r>
       <r>   18.9706    0.0000 </r>
      </set>
      <set comment="kpoint 96">
       <r>   -0.2388    1.0000 </r>
       <r>    8.0813   -0.0000 </r>
       <r>   15.2019    0.0000 </r>
       <r>   17.7604    0.0000 </r>
       <r>   18.8571    0.0000 </r>
      </set>
      <set comment="kpoint 97">
       <r>    0.7866    1.0000 </r>
       <r>    6.3479    1.0000 </r>
       <r>   15.2761    0.0000 </r>
       <r>   16.9923    0.0000 </r>
       <r>   18.9320    0.0000 </r>
      </set>
      <set comment="kpoint 98">
       <r>    1.9613    1.0000 </r>
       <r>    4.7468    1.0000 </r>
       <r>   15.4929    0.0000 </r>
       <r>   16.3546    0.0000 </r>
       <r>   19.1394    0.0000 </r>
      </set>
      <set comment="kpoint 99">
       <r>    3.2466    1.0000 </r>
       <r>    3.3192    1.0000 </r>
       <r>   15.8252    0.0000 </r>
       <r>   15.8815    0.0000 </r>
       <r>   19.3645    0.0000 </r>
      </set>
      <set comment="kpoint 100">
       <r>   -2.2569    1.0000 </r>
       <r>   14.5608    0.0000 </r>
       <r>   15.3997    0.0000 </r>
       <r>   18.0922    0.0000 </r>
       <r>   19.3140    0.0000 </r>
      </set>
      <set comment="kpoint 101">
       <r>   -1.7498    1.0000 </r>
       <r>   12.7730    0.0000 </r>
       <r>   14.7577    0.0000 </r>
       <r>   18.1814    0.0000 </r>
       <r>   18.2986    0.0000 </r>
      </set>
      <set comment="kpoint 102">
       <r>   -1.0852    1.0000 </r>
       <r>   10.8201    0.0000 </r>
       <r>   14.4640    0.0000 </r>
       <r>   17.1307    0.0000 </r>
       <r>   18.1735    0.0000 </r>
      </set>
      <set comment="kpoint 103">
       <r>   -0.2652    1.0000 </r>
       <r>    8.9412   -0.0000 </r>
       <r>   14.3367    0.0000 </r>
       <r>   16.1572    0.0000 </r>
       <r>   18.1235    0.0000 </r>
      </set>
      <set comment="kpoint 104">
       <r>    0.7077    1.0000 </r>
       <r>    7.1744    1.0022 </r>
       <r>   14.3575    0.0000 </r>
       <r>   15.3182    0.0000 </r>
       <r>   18.1840    0.0000 </r>
      </set>
      <set comment="kpoint 105">
       <r>    1.8305    1.0000 </r>
       <r>    5.5343    1.0000 </r>
       <r>   14.4939    0.0000 </r>
       <r>   14.6492    0.0000 </r>
       <r>   18.3745    0.0000 </r>
      </set>
      <set comment="kpoint 106">
       <r>    3.0986    1.0000 </r>
       <r>    4.0299    1.0000 </r>
       <r>   14.0490    0.0000 </r>
       <r>   14.8488    0.0000 </r>
       <r>   18.7000    0.0000 </r>
      </set>
      <set comment="kpoint 107">
       <r>    2.6610    1.0000 </r>
       <r>    4.5139    1.0000 </r>
       <r>   13.6393    0.0000 </r>
       <r>   15.3017    0.0000 </r>
       <r>   19.1575    0.0000 </r>
      </set>
      <set comment="kpoint 108">
       <r>    1.4401    1.0000 </r>
       <r>    6.0628    1.0000 </r>
       <r>   13.3754    0.0000 </r>
       <r>   15.8976    0.0000 </r>
       <r>   19.7193    0.0000 </r>
      </set>
      <set comment="kpoint 109">
       <r>    0.3667    1.0000 </r>
       <r>    7.7419   -0.0000 </r>
       <r>   13.2618    0.0000 </r>
       <r>   16.6326    0.0000 </r>
       <r>   20.0887    0.0000 </r>
      </set>
      <set comment="kpoint 110">
       <r>   -0.5557    1.0000 </r>
       <r>    9.5364   -0.0000 </r>
       <r>   13.3066    0.0000 </r>
       <r>   17.5009    0.0000 </r>
       <r>   20.1390    0.0000 </r>
      </set>
      <set comment="kpoint 111">
       <r>   -1.3241    1.0000 </r>
       <r>   11.4034    0.0000 </r>
       <r>   13.5412    0.0000 </r>
       <r>   18.4907    0.0000 </r>
       <r>   20.2096    0.0000 </r>
      </set>
      <set comment="kpoint 112">
       <r>   -1.9364    1.0000 </r>
       <r>   13.0799    0.0000 </r>
       <r>   14.2065    0.0000 </r>
       <r>   19.5646    0.0000 </r>
       <r>   20.0422    0.0000 </r>
      </set>
      <set comment="kpoint 113">
       <r>   -1.5102    1.0000 </r>
       <r>   13.4804    0.0000 </r>
       <r>   14.3829    0.0000 </r>
       <r>   16.7854    0.0000 </r>
       <r>   17.0471    0.0000 </r>
      </set>
      <set comment="kpoint 114">
       <r>   -0.8997    1.0000 </r>
       <r>   11.7877    0.0000 </r>
       <r>   13.8154    0.0000 </r>
       <r>   15.6163    0.0000 </r>
       <r>   17.3218    0.0000 </r>
      </set>
      <set comment="kpoint 115">
       <r>   -0.1336    1.0000 </r>
       <r>    9.9255   -0.0000 </r>
       <r>   13.6064    0.0000 </r>
       <r>   14.5803    0.0000 </r>
       <r>   17.3526    0.0000 </r>
      </set>
      <set comment="kpoint 116">
       <r>    0.7857    1.0000 </r>
       <r>    8.1384   -0.0000 </r>
       <r>   13.5262    0.0000 </r>
       <r>   13.7252    0.0000 </r>
       <r>   17.4079    0.0000 </r>
      </set>
      <set comment="kpoint 117">
       <r>    1.8552    1.0000 </r>
       <r>    6.4656    1.0000 </r>
       <r>   12.9025    0.0000 </r>
       <r>   13.7079    0.0000 </r>
       <r>   17.5705    0.0000 </r>
      </set>
      <set comment="kpoint 118">
       <r>    3.0705    1.0000 </r>
       <r>    4.9222    1.0000 </r>
       <r>   12.2955    0.0000 </r>
       <r>   13.9670    0.0000 </r>
       <r>   17.8633    0.0000 </r>
      </set>
      <set comment="kpoint 119">
       <r>    3.5099    1.0000 </r>
       <r>    4.4330    1.0000 </r>
       <r>   11.8345    0.0000 </r>
       <r>   14.3744    0.0000 </r>
       <r>   18.2922    0.0000 </r>
      </set>
      <set comment="kpoint 120">
       <r>    2.2461    1.0000 </r>
       <r>    5.9230    1.0000 </r>
       <r>   11.5270    0.0000 </r>
       <r>   14.9257    0.0000 </r>
       <r>   18.8566    0.0000 </r>
      </set>
      <set comment="kpoint 121">
       <r>    1.1265    1.0000 </r>
       <r>    7.5347   -0.0353 </r>
       <r>   11.3842    0.0000 </r>
       <r>   15.6183    0.0000 </r>
       <r>   19.5504    0.0000 </r>
      </set>
      <set comment="kpoint 122">
       <r>    0.1563    1.0000 </r>
       <r>    9.2193   -0.0000 </r>
       <r>   11.4472    0.0000 </r>
       <r>   16.4488    0.0000 </r>
       <r>   20.3576    0.0000 </r>
      </set>
      <set comment="kpoint 123">
       <r>   -0.6614    1.0000 </r>
       <r>   10.6964    0.0000 </r>
       <r>   11.9858    0.0000 </r>
       <r>   17.4115    0.0000 </r>
       <r>   21.2431    0.0000 </r>
      </set>
      <set comment="kpoint 124">
       <r>   -0.5559    1.0000 </r>
       <r>   12.5911    0.0000 </r>
       <r>   13.5303    0.0000 </r>
       <r>   14.2038    0.0000 </r>
       <r>   16.1715    0.0000 </r>
      </set>
      <set comment="kpoint 125">
       <r>    0.1556    1.0000 </r>
       <r>   10.9944    0.0000 </r>
       <r>   12.9715    0.0000 </r>
       <r>   13.1806    0.0000 </r>
       <r>   16.5526    0.0000 </r>
      </set>
      <set comment="kpoint 126">
       <r>    1.0202    1.0000 </r>
       <r>    9.2256   -0.0000 </r>
       <r>   12.1215    0.0000 </r>
       <r>   12.9587    0.0000 </r>
       <r>   16.6879    0.0000 </r>
      </set>
      <set comment="kpoint 127">
       <r>    2.0348    1.0000 </r>
       <r>    7.5334   -0.0354 </r>
       <r>   11.3144    0.0000 </r>
       <r>   13.0129    0.0000 </r>
       <r>   16.8443    0.0000 </r>
      </set>
      <set comment="kpoint 128">
       <r>    3.1944    1.0000 </r>
       <r>    5.9578    1.0000 </r>
       <r>   10.6520    0.0000 </r>
       <r>   13.2241    0.0000 </r>
       <r>   17.1073    0.0000 </r>
      </set>
      <set comment="kpoint 129">
       <r>    4.4407    1.0000 </r>
       <r>    4.5649    1.0000 </r>
       <r>   10.1435    0.0000 </r>
       <r>   13.5838    0.0000 </r>
       <r>   17.5003    0.0000 </r>
      </set>
      <set comment="kpoint 130">
       <r>    3.2017    1.0000 </r>
       <r>    5.9198    1.0000 </r>
       <r>    9.8017   -0.0000 </r>
       <r>   14.0887    0.0000 </r>
       <r>   18.0285    0.0000 </r>
      </set>
      <set comment="kpoint 131">
       <r>    2.0382    1.0000 </r>
       <r>    7.4190    0.4196 </r>
       <r>    9.6715   -0.0000 </r>
       <r>   14.7365    0.0000 </r>
       <r>   18.6907    0.0000 </r>
      </set>
      <set comment="kpoint 132">
       <r>    1.0219    1.0000 </r>
       <r>    8.7045   -0.0000 </r>
       <r>   10.0377   -0.0000 </r>
       <r>   15.5246    0.0000 </r>
       <r>   19.4774    0.0000 </r>
      </set>
      <set comment="kpoint 133">
       <r>    0.6012    1.0000 </r>
       <r>   11.7249    0.0000 </r>
       <r>   11.8968    0.0000 </r>
       <r>   12.8936    0.0000 </r>
       <r>   15.4845    0.0000 </r>
      </set>
      <set comment="kpoint 134">
       <r>    1.4100    1.0000 </r>
       <r>   10.3807    0.0000 </r>
       <r>   10.7333    0.0000 </r>
       <r>   12.4934    0.0000 </r>
       <r>   15.9668    0.0000 </r>
      </set>
      <set comment="kpoint 135">
       <r>    2.3676    1.0000 </r>
       <r>    8.7186   -0.0000 </r>
       <r>    9.8594   -0.0000 </r>
       <r>   12.4705    0.0000 </r>
       <r>   16.2034    0.0000 </r>
      </set>
      <set comment="kpoint 136">
       <r>    3.4676    1.0000 </r>
       <r>    7.1269    1.0002 </r>
       <r>    9.1441   -0.0000 </r>
       <r>   12.6258    0.0000 </r>
       <r>   16.4600    0.0000 </r>
      </set>
      <set comment="kpoint 137">
       <r>    4.6941    1.0000 </r>
       <r>    5.6540    1.0000 </r>
       <r>    8.5961   -0.0000 </r>
       <r>   12.9349    0.0000 </r>
       <r>   16.8226    0.0000 </r>
      </set>
      <set comment="kpoint 138">
       <r>    4.3024    1.0000 </r>
       <r>    6.0135    1.0000 </r>
       <r>    8.2595   -0.0000 </r>
       <r>   13.3918    0.0000 </r>
       <r>   17.3140    0.0000 </r>
      </set>
      <set comment="kpoint 139">
       <r>    3.0985    1.0000 </r>
       <r>    7.1113    1.0001 </r>
       <r>    8.4270   -0.0000 </r>
       <r>   13.9932    0.0000 </r>
       <r>   17.9387    0.0000 </r>
      </set>
      <set comment="kpoint 140">
       <r>    1.9525    1.0000 </r>
       <r>    9.4438   -0.0000 </r>
       <r>   11.3997    0.0000 </r>
       <r>   12.4148    0.0000 </r>
       <r>   14.9919    0.0000 </r>
      </set>
      <set comment="kpoint 141">
       <r>    2.8498    1.0000 </r>
       <r>    8.5220   -0.0000 </r>
       <r>   10.0089   -0.0000 </r>
       <r>   12.1060    0.0000 </r>
       <r>   15.5733    0.0000 </r>
      </set>
      <set comment="kpoint 142">
       <r>    3.8808    1.0000 </r>
       <r>    7.7548   -0.0000 </r>
       <r>    8.4499   -0.0000 </r>
       <r>   12.1798    0.0000 </r>
       <r>   15.9097    0.0000 </r>
      </set>
      <set comment="kpoint 143">
       <r>    5.0017    1.0000 </r>
       <r>    6.8834    1.0000 </r>
       <r>    7.2788    1.0346 </r>
       <r>   12.4323    0.0000 </r>
       <r>   16.2657    0.0000 </r>
      </set>
      <set comment="kpoint 144">
       <r>    5.5403    1.0000 </r>
       <r>    5.9180    1.0000 </r>
       <r>    7.1983    1.0055 </r>
       <r>   12.8385    0.0000 </r>
       <r>   16.7268    0.0000 </r>
      </set>
      <set comment="kpoint 145">
       <r>    3.4715    1.0000 </r>
       <r>    7.3629    0.8504 </r>
       <r>   11.1010    0.0000 </r>
       <r>   12.1286    0.0000 </r>
       <r>   14.6959    0.0000 </r>
      </set>
      <set comment="kpoint 146">
       <r>    4.3965    1.0000 </r>
       <r>    6.6032    1.0000 </r>
       <r>    9.8074   -0.0000 </r>
       <r>   11.9125    0.0000 </r>
       <r>   15.3758    0.0000 </r>
      </set>
      <set comment="kpoint 147">
       <r>    5.1234    1.0000 </r>
       <r>    6.3369    1.0000 </r>
       <r>    8.3378   -0.0000 </r>
       <r>   12.0829    0.0000 </r>
       <r>   15.8113    0.0000 </r>
      </set>
      <set comment="kpoint 148">
       <r>    4.7266    1.0000 </r>
       <r>    5.9202    1.0000 </r>
       <r>   11.0014    0.0000 </r>
       <r>   12.0333    0.0000 </r>
       <r>   14.5972    0.0000 </r>
      </set>
      <set comment="kpoint 149">
       <r>   -1.1914    1.0000 </r>
       <r>   11.9903    0.0000 </r>
       <r>   13.1776    0.0000 </r>
       <r>   17.0422    0.0000 </r>
       <r>   19.0898    0.0000 </r>
      </set>
      <set comment="kpoint 150">
       <r>   -0.4764    1.0000 </r>
       <r>   10.4117    0.0000 </r>
       <r>   12.5853    0.0000 </r>
       <r>   15.9738    0.0000 </r>
       <r>   19.3857    0.0000 </r>
      </set>
      <set comment="kpoint 151">
       <r>    0.3927    1.0000 </r>
       <r>    8.6367   -0.0000 </r>
       <r>   12.4384    0.0000 </r>
       <r>   15.0376    0.0000 </r>
       <r>   19.4539    0.0000 </r>
      </set>
      <set comment="kpoint 152">
       <r>    1.4133    1.0000 </r>
       <r>    6.9347    1.0000 </r>
       <r>   12.4861    0.0000 </r>
       <r>   14.2410    0.0000 </r>
       <r>   19.5727    0.0000 </r>
      </set>
      <set comment="kpoint 153">
       <r>    2.5820    1.0000 </r>
       <r>    5.3504    1.0000 </r>
       <r>   12.6901    0.0000 </r>
       <r>   13.5913    0.0000 </r>
       <r>   19.7874    0.0000 </r>
      </set>
      <set comment="kpoint 154">
       <r>    3.8454    1.0000 </r>
       <r>    3.9476    1.0000 </r>
       <r>   12.9565    0.0000 </r>
       <r>   13.1767    0.0000 </r>
       <r>   19.9790    0.0000 </r>
      </set>
      <set comment="kpoint 155">
       <r>   -0.2391    1.0000 </r>
       <r>   11.0966    0.0000 </r>
       <r>   12.3136    0.0000 </r>
       <r>   14.4852    0.0000 </r>
       <r>   18.2433    0.0000 </r>
      </set>
      <set comment="kpoint 156">
       <r>    0.5760    1.0000 </r>
       <r>    9.6148   -0.0000 </r>
       <r>   11.8031    0.0000 </r>
       <r>   13.4906    0.0000 </r>
       <r>   18.6556    0.0000 </r>
      </set>
      <set comment="kpoint 157">
       <r>    1.5425    1.0000 </r>
       <r>    7.9338   -0.0000 </r>
       <r>   11.7412    0.0000 </r>
       <r>   12.6436    0.0000 </r>
       <r>   18.8380    0.0000 </r>
      </set>
      <set comment="kpoint 158">
       <r>    2.6571    1.0000 </r>
       <r>    6.3271    1.0000 </r>
       <r>   11.7742    0.0000 </r>
       <r>   12.0457    0.0000 </r>
       <r>   19.0669    0.0000 </r>
      </set>
      <set comment="kpoint 159">
       <r>    3.9127    1.0000 </r>
       <r>    4.8422    1.0000 </r>
       <r>   11.3273    0.0000 </r>
       <r>   12.2389    0.0000 </r>
       <r>   19.4043    0.0000 </r>
      </set>
      <set comment="kpoint 160">
       <r>    3.4825    1.0000 </r>
       <r>    5.3134    1.0000 </r>
       <r>   10.9292    0.0000 </r>
       <r>   12.6903    0.0000 </r>
       <r>   19.8599    0.0000 </r>
      </set>
      <set comment="kpoint 161">
       <r>    2.2708    1.0000 </r>
       <r>    6.8289    1.0000 </r>
       <r>   10.6901    0.0000 </r>
       <r>   13.2964    0.0000 </r>
       <r>   20.4124    0.0000 </r>
      </set>
      <set comment="kpoint 162">
       <r>    1.2044    1.0000 </r>
       <r>    8.4198   -0.0000 </r>
       <r>   10.6577    0.0000 </r>
       <r>   14.0490    0.0000 </r>
       <r>   20.8325    0.0000 </r>
      </set>
      <set comment="kpoint 163">
       <r>    0.2876    1.0000 </r>
       <r>    9.8007   -0.0000 </r>
       <r>   11.1087    0.0000 </r>
       <r>   14.9433    0.0000 </r>
       <r>   20.4851    0.0000 </r>
      </set>
      <set comment="kpoint 164">
       <r>    0.9156    1.0000 </r>
       <r>   10.4003    0.0000 </r>
       <r>   11.5872    0.0000 </r>
       <r>   12.0932    0.0000 </r>
       <r>   17.5683    0.0000 </r>
      </set>
      <set comment="kpoint 165">
       <r>    1.8268    1.0000 </r>
       <r>    9.0144   -0.0000 </r>
       <r>   11.0087    0.0000 </r>
       <r>   11.3445    0.0000 </r>
       <r>   18.0885    0.0000 </r>
      </set>
      <set comment="kpoint 166">
       <r>    2.8849    1.0000 </r>
       <r>    7.4293    0.3349 </r>
       <r>   10.3353    0.0000 </r>
       <r>   11.2980    0.0000 </r>
       <r>   18.3771    0.0000 </r>
      </set>
      <set comment="kpoint 167">
       <r>    4.0825    1.0000 </r>
       <r>    5.9214    1.0000 </r>
       <r>    9.7366   -0.0000 </r>
       <r>   11.5309    0.0000 </r>
       <r>   18.7075    0.0000 </r>
      </set>
      <set comment="kpoint 168">
       <r>    4.5258    1.0000 </r>
       <r>    5.4156    1.0000 </r>
       <r>    9.2964   -0.0000 </r>
       <r>   11.9345    0.0000 </r>
       <r>   19.1461    0.0000 </r>
      </set>
      <set comment="kpoint 169">
       <r>    3.2767    1.0000 </r>
       <r>    6.8167    1.0000 </r>
       <r>    9.0654   -0.0000 </r>
       <r>   12.4926    0.0000 </r>
       <r>   19.7048    0.0000 </r>
      </set>
      <set comment="kpoint 170">
       <r>    2.1669    1.0000 </r>
       <r>    8.0075   -0.0000 </r>
       <r>    9.3333   -0.0000 </r>
       <r>   13.1990    0.0000 </r>
       <r>   20.3764    0.0000 </r>
      </set>
      <set comment="kpoint 171">
       <r>    2.2639    1.0000 </r>
       <r>    9.7317   -0.0000 </r>
       <r>    9.9026   -0.0000 </r>
       <r>   11.1830    0.0000 </r>
       <r>   17.0813    0.0000 </r>
      </set>
      <set comment="kpoint 172">
       <r>    3.2619    1.0000 </r>
       <r>    8.5930   -0.0000 </r>
       <r>    8.9502   -0.0000 </r>
       <r>   10.8517    0.0000 </r>
       <r>   17.7046    0.0000 </r>
      </set>
      <set comment="kpoint 173">
       <r>    4.3909    1.0000 </r>
       <r>    7.1203    1.0002 </r>
       <r>    8.2929   -0.0000 </r>
       <r>   10.9883    0.0000 </r>
       <r>   18.0946    0.0000 </r>
      </set>
      <set comment="kpoint 174">
       <r>    5.5824    1.0000 </r>
       <r>    5.7380    1.0000 </r>
       <r>    7.8509   -0.0000 </r>
       <r>   11.3299    0.0000 </r>
       <r>   18.5237    0.0000 </r>
      </set>
      <set comment="kpoint 175">
       <r>    4.4257    1.0000 </r>
       <r>    6.6140    1.0000 </r>
       <r>    7.9128   -0.0000 </r>
       <r>   11.8351    0.0000 </r>
       <r>   19.0574    0.0000 </r>
      </set>
      <set comment="kpoint 176">
       <r>    3.7786    1.0000 </r>
       <r>    7.6661   -0.0009 </r>
       <r>    9.6038   -0.0000 </r>
       <r>   10.8790    0.0000 </r>
       <r>   16.7877    0.0000 </r>
      </set>
      <set comment="kpoint 177">
       <r>    4.8004    1.0000 </r>
       <r>    7.0105    1.0000 </r>
       <r>    8.4259   -0.0000 </r>
       <r>   10.6490    0.0000 </r>
       <r>   17.5113    0.0000 </r>
      </set>
      <set comment="kpoint 178">
       <r>    5.6200    1.0000 </r>
       <r>    6.7896    1.0000 </r>
       <r>    7.1091    1.0001 </r>
       <r>   10.8878    0.0000 </r>
       <r>   17.9998    0.0000 </r>
      </set>
      <set comment="kpoint 179">
       <r>    5.0242    1.0000 </r>
       <r>    6.2347    1.0000 </r>
       <r>    9.5042   -0.0000 </r>
       <r>   10.7791    0.0000 </r>
       <r>   16.6897    0.0000 </r>
      </set>
      <set comment="kpoint 180">
       <r>    1.4382    1.0000 </r>
       <r>    9.1038   -0.0000 </r>
       <r>   10.4102    0.0000 </r>
       <r>   12.5384    0.0000 </r>
       <r>   19.8353    0.0000 </r>
      </set>
      <set comment="kpoint 181">
       <r>    2.4499    1.0000 </r>
       <r>    7.8185   -0.0000 </r>
       <r>   10.0517   -0.0000 </r>
       <r>   11.7319    0.0000 </r>
       <r>   20.3906    0.0000 </r>
      </set>
      <set comment="kpoint 182">
       <r>    3.6061    1.0000 </r>
       <r>    6.3236    1.0000 </r>
       <r>   10.1721    0.0000 </r>
       <r>   11.0829    0.0000 </r>
       <r>   20.6902    0.0000 </r>
      </set>
      <set comment="kpoint 183">
       <r>    4.8367    1.0000 </r>
       <r>    4.9691    1.0000 </r>
       <r>   10.3838    0.0000 </r>
       <r>   10.7053    0.0000 </r>
       <r>   20.8826    0.0000 </r>
      </set>
      <set comment="kpoint 184">
       <r>    2.7816    1.0000 </r>
       <r>    8.6059   -0.0000 </r>
       <r>    9.8349   -0.0000 </r>
       <r>   10.3516    0.0000 </r>
       <r>   19.3587    0.0000 </r>
      </set>
      <set comment="kpoint 185">
       <r>    3.8782    1.0000 </r>
       <r>    7.4160    0.4446 </r>
       <r>    9.4146   -0.0000 </r>
       <r>    9.8064   -0.0000 </r>
       <r>   20.0302    0.0000 </r>
      </set>
      <set comment="kpoint 186">
       <r>    5.1003    1.0000 </r>
       <r>    6.0214    1.0000 </r>
       <r>    8.9712   -0.0000 </r>
       <r>    9.9384   -0.0000 </r>
       <r>   20.4637    0.0000 </r>
      </set>
      <set comment="kpoint 187">
       <r>    4.6953    1.0000 </r>
       <r>    6.4151    1.0000 </r>
       <r>    8.6505   -0.0000 </r>
       <r>   10.3663    0.0000 </r>
       <r>   20.9352    0.0000 </r>
      </set>
      <set comment="kpoint 188">
       <r>    3.5034    1.0000 </r>
       <r>    7.5099   -0.0256 </r>
       <r>    8.8186   -0.0000 </r>
       <r>   10.9707    0.0000 </r>
       <r>   21.4647    0.0000 </r>
      </set>
      <set comment="kpoint 189">
       <r>    4.2891    1.0000 </r>
       <r>    8.1591   -0.0000 </r>
       <r>    8.3072   -0.0000 </r>
       <r>    9.6618   -0.0000 </r>
       <r>   19.0695    0.0000 </r>
      </set>
      <set comment="kpoint 190">
       <r>    5.4047    1.0000 </r>
       <r>    7.1961    1.0051 </r>
       <r>    7.6479   -0.0019 </r>
       <r>    9.4940   -0.0000 </r>
       <r>   19.8450    0.0000 </r>
      </set>
      <set comment="kpoint 191">
       <r>    5.9089    1.0000 </r>
       <r>    6.3157    1.0000 </r>
       <r>    7.5980   -0.0114 </r>
       <r>    9.8226   -0.0000 </r>
       <r>   20.3790    0.0000 </r>
      </set>
      <set comment="kpoint 192">
       <r>    5.5207    1.0000 </r>
       <r>    6.7516    1.0000 </r>
       <r>    8.2076   -0.0000 </r>
       <r>    9.5507   -0.0000 </r>
       <r>   18.9726    0.0000 </r>
      </set>
      <set comment="kpoint 193">
       <r>    5.0010    1.0000 </r>
       <r>    7.2113    1.0085 </r>
       <r>    8.4321   -0.0000 </r>
       <r>    9.0031   -0.0000 </r>
       <r>   21.5304    0.0000 </r>
      </set>
      <set comment="kpoint 194">
       <r>    6.1623    1.0000 </r>
       <r>    6.2571    1.0000 </r>
       <r>    8.2575   -0.0000 </r>
       <r>    8.6805   -0.0000 </r>
       <r>   22.1208    0.0000 </r>
      </set>
      <set comment="kpoint 195">
       <r>    6.2163    1.0000 </r>
       <r>    7.1118    1.0001 </r>
       <r>    7.4359    0.2845 </r>
       <r>    8.4971   -0.0000 </r>
       <r>   21.4359    0.0000 </r>
      </set>
     </set>
    </set>
   </array>
  </eigenvalues>
  <separator name="orbital magnetization" >
   <v name="MAGDIPOLOUT">      0.00000000      0.00000000      0.00000000</v>
  </separator>
  <dos>
   <i name="efermi">      7.40941125 </i>
   <total>
    <array>
     <dimension dim="1">gridpoints</dimension>
     <dimension dim="2">spin</dimension>
     <field>energy</field>
     <field>total</field>
     <field>integrated</field>
     <set>
      <set comment="spin 1">
       <r>    -4.6026     0.0000     0.0000 </r>
       <r>    -4.5093     0.0000     0.0000 </r>
       <r>    -4.4160     0.0000     0.0000 </r>
       <r>    -4.3227     0.0000     0.0000 </r>
       <r>    -4.2293     0.0000     0.0000 </r>
       <r>    -4.1360    -0.0000    -0.0000 </r>
       <r>    -4.0427    -0.0000    -0.0000 </r>
       <r>    -3.9494    -0.0000    -0.0000 </r>
       <r>    -3.8561    -0.0000    -0.0000 </r>
       <r>    -3.7627    -0.0000    -0.0000 </r>
       <r>    -3.6694    -0.0000    -0.0000 </r>
       <r>    -3.5761    -0.0000    -0.0000 </r>
       <r>    -3.4828    -0.0002    -0.0000 </r>
       <r>    -3.3895    -0.0009    -0.0001 </r>
       <r>    -3.2961     0.0082     0.0007 </r>
       <r>    -3.2028     0.0340     0.0038 </r>
       <r>    -3.1095     0.0408     0.0076 </r>
       <r>    -3.0162     0.0865     0.0157 </r>
       <r>    -2.9229     0.0529     0.0207 </r>
       <r>    -2.8295     0.0697     0.0272 </r>
       <r>    -2.7362     0.1229     0.0386 </r>
       <r>    -2.6429     0.1008     0.0480 </r>
       <r>    -2.5496     0.0925     0.0567 </r>
       <r>    -2.4563     0.0524     0.0616 </r>
       <r>    -2.3629     0.1868     0.0790 </r>
       <r>    -2.2696     0.1441     0.0924 </r>
       <r>    -2.1763     0.1185     0.1035 </r>
       <r>    -2.0830     0.1026     0.1131 </r>
       <r>    -1.9897     0.0895     0.1214 </r>
       <r>    -1.8963     0.1860     0.1388 </r>
       <r>    -1.8030     0.1865     0.1562 </r>
       <r>    -1.7097     0.2311     0.1777 </r>
       <r>    -1.6164     0.0624     0.1836 </r>
       <r>    -1.5231     0.1243     0.1952 </r>
       <r>    -1.4297     0.1769     0.2117 </r>
       <r>    -1.3364     0.1945     0.2298 </r>
       <r>    -1.2431     0.1909     0.2476 </r>
       <r>    -1.1498     0.1515     0.2618 </r>
       <r>    -1.0565     0.3144     0.2911 </r>
       <r>    -0.9631     0.1543     0.3055 </r>
       <r>    -0.8698     0.1358     0.3182 </r>
       <r>    -0.7765     0.0853     0.3262 </r>
       <r>    -0.6832     0.2190     0.3466 </r>
       <r>    -0.5899     0.2585     0.3707 </r>
       <r>    -0.4965     0.3013     0.3988 </r>
       <r>    -0.4032     0.2646     0.4235 </r>
       <r>    -0.3099     0.0738     0.4304 </r>
       <r>    -0.2166     0.2856     0.4571 </r>
       <r>    -0.1233     0.2365     0.4791 </r>
       <r>    -0.0299     0.1738     0.4954 </r>
       <r>     0.0634     0.0642     0.5014 </r>
       <r>     0.1567     0.2996     0.5293 </r>
       <r>     0.2500     0.3721     0.5640 </r>
       <r>     0.3433     0.2489     0.5873 </r>
       <r>     0.4367     0.3129     0.6165 </r>
       <r>     0.5300     0.1598     0.6314 </r>
       <r>     0.6233     0.2180     0.6517 </r>
       <r>     0.7166     0.2383     0.6740 </r>
       <r>     0.8099     0.3351     0.7052 </r>
       <r>     0.9032     0.1402     0.7183 </r>
       <r>     0.9966     0.1951     0.7365 </r>
       <r>     1.0899     0.3054     0.7650 </r>
       <r>     1.1832     0.3154     0.7945 </r>
       <r>     1.2765     0.3487     0.8270 </r>
       <r>     1.3698     0.2008     0.8457 </r>
       <r>     1.4632     0.4932     0.8918 </r>
       <r>     1.5565     0.2767     0.9176 </r>
       <r>     1.6498     0.1642     0.9329 </r>
       <r>     1.7431     0.0571     0.9382 </r>
       <r>     1.8364     0.2743     0.9638 </r>
       <r>     1.9298     0.3659     0.9980 </r>
       <r>     2.0231     0.3957     1.0349 </r>
       <r>     2.1164     0.3528     1.0678 </r>
       <r>     2.2097     0.1734     1.0840 </r>
       <r>     2.3030     0.3871     1.1201 </r>
       <r>     2.3964     0.3753     1.1552 </r>
       <r>     2.4897     0.3366     1.1866 </r>
       <r>     2.5830     0.1824     1.2036 </r>
       <r>     2.6763     0.4336     1.2441 </r>
       <r>     2.7696     0.2925     1.2714 </r>
       <r>     2.8630     0.2307     1.2929 </r>
       <r>     2.9563     0.2271     1.3141 </r>
       <r>     3.0496     0.1899     1.3318 </r>
       <r>     3.1429     0.4460     1.3734 </r>
       <r>     3.2362     0.4685     1.4172 </r>
       <r>     3.3296     0.4617     1.4602 </r>
       <r>     3.4229     0.1622     1.4754 </r>
       <r>     3.5162     0.4509     1.5175 </r>
       <r>     3.6095     0.4229     1.5569 </r>
       <r>     3.7028     0.2589     1.5811 </r>
       <r>     3.7962     0.2107     1.6007 </r>
       <r>     3.8895     0.4816     1.6457 </r>
       <r>     3.9828     0.4138     1.6843 </r>
       <r>     4.0761     0.2439     1.7071 </r>
       <r>     4.1694     0.2350     1.7290 </r>
       <r>     4.2628     0.2190     1.7494 </r>
       <r>     4.3561     0.4088     1.7876 </r>
       <r>     4.4494     0.5959     1.8432 </r>
       <r>     4.5427     0.5171     1.8914 </r>
       <r>     4.6360     0.3688     1.9259 </r>
       <r>     4.7294     0.4084     1.9640 </r>
       <r>     4.8227     0.4446     2.0055 </r>
       <r>     4.9160     0.3384     2.0370 </r>
       <r>     5.0093     0.3171     2.0666 </r>
       <r>     5.1026     0.3843     2.1025 </r>
       <r>     5.1960     0.3887     2.1388 </r>
       <r>     5.2893     0.1778     2.1554 </r>
       <r>     5.3826     0.4432     2.1967 </r>
       <r>     5.4759     0.4143     2.2354 </r>
       <r>     5.5692     0.3758     2.2705 </r>
       <r>     5.6626     0.4230     2.3099 </r>
       <r>     5.7559     0.2878     2.3368 </r>
       <r>     5.8492     0.1629     2.3520 </r>
       <r>     5.9425     0.6151     2.4094 </r>
       <r>     6.0358     0.6651     2.4715 </r>
       <r>     6.1292     0.3190     2.5012 </r>
       <r>     6.2225     0.1739     2.5175 </r>
       <r>     6.3158     0.3918     2.5540 </r>
       <r>     6.4091     0.6078     2.6107 </r>
       <r>     6.5024     0.2970     2.6385 </r>
       <r>     6.5958     0.2189     2.6589 </r>
       <r>     6.6891     0.2960     2.6865 </r>
       <r>     6.7824     0.3555     2.7197 </r>
       <r>     6.8757     0.5395     2.7700 </r>
       <r>     6.9690     0.4189     2.8091 </r>
       <r>     7.0624     0.3098     2.8380 </r>
       <r>     7.1557     0.5352     2.8880 </r>
       <r>     7.2490     0.5741     2.9416 </r>
       <r>     7.3423     0.3102     2.9705 </r>
       <r>     7.4356     0.4774     3.0150 </r>
       <r>     7.5290     0.5465     3.0660 </r>
       <r>     7.6223     0.4224     3.1055 </r>
       <r>     7.7156     0.3902     3.1419 </r>
       <r>     7.8089     0.4788     3.1866 </r>
       <r>     7.9022     0.3958     3.2235 </r>
       <r>     7.9956     0.2320     3.2451 </r>
       <r>     8.0889     0.2254     3.2662 </r>
       <r>     8.1822     0.3386     3.2978 </r>
       <r>     8.2755     0.4232     3.3373 </r>
       <r>     8.3688     0.5263     3.3864 </r>
       <r>     8.4621     0.6880     3.4506 </r>
       <r>     8.5555     0.6013     3.5067 </r>
       <r>     8.6488     0.6230     3.5648 </r>
       <r>     8.7421     0.5157     3.6130 </r>
       <r>     8.8354     0.2431     3.6357 </r>
       <r>     8.9287     0.3194     3.6655 </r>
       <r>     9.0221     0.5662     3.7183 </r>
       <r>     9.1154     0.4451     3.7598 </r>
       <r>     9.2087     0.4322     3.8002 </r>
       <r>     9.3020     0.3682     3.8345 </r>
       <r>     9.3953     0.2793     3.8606 </r>
       <r>     9.4887     0.3851     3.8965 </r>
       <r>     9.5820     0.5682     3.9495 </r>
       <r>     9.6753     0.4416     3.9908 </r>
       <r>     9.7686     0.5030     4.0377 </r>
       <r>     9.8619     0.8060     4.1129 </r>
       <r>     9.9553     0.6814     4.1765 </r>
       <r>    10.0486     0.4362     4.2172 </r>
       <r>    10.1419     0.3355     4.2485 </r>
       <r>    10.2352     0.3501     4.2812 </r>
       <r>    10.3285     0.3190     4.3110 </r>
       <r>    10.4219     0.7340     4.3794 </r>
       <r>    10.5152     0.4310     4.4197 </r>
       <r>    10.6085     0.2211     4.4403 </r>
       <r>    10.7018     0.7284     4.5083 </r>
       <r>    10.7951     0.5603     4.5606 </r>
       <r>    10.8885     0.4146     4.5992 </r>
       <r>    10.9818     0.6082     4.6560 </r>
       <r>    11.0751     0.5975     4.7118 </r>
       <r>    11.1684     0.4109     4.7501 </r>
       <r>    11.2617     0.2222     4.7708 </r>
       <r>    11.3551     0.8185     4.8472 </r>
       <r>    11.4484     0.7510     4.9173 </r>
       <r>    11.5417     0.4046     4.9551 </r>
       <r>    11.6350     0.2158     4.9752 </r>
       <r>    11.7283     0.3358     5.0065 </r>
       <r>    11.8217     0.8193     5.0830 </r>
       <r>    11.9150     0.7296     5.1511 </r>
       <r>    12.0083     0.5084     5.1985 </r>
       <r>    12.1016     0.4876     5.2440 </r>
       <r>    12.1949     0.4986     5.2906 </r>
       <r>    12.2883     0.4352     5.3312 </r>
       <r>    12.3816     0.3759     5.3663 </r>
       <r>    12.4749     0.8125     5.4421 </r>
       <r>    12.5682     0.8971     5.5258 </r>
       <r>    12.6615     0.6037     5.5821 </r>
       <r>    12.7549     0.4334     5.6226 </r>
       <r>    12.8482     0.3424     5.6545 </r>
       <r>    12.9415     0.6843     5.7184 </r>
       <r>    13.0348     0.7140     5.7850 </r>
       <r>    13.1281     0.3238     5.8152 </r>
       <r>    13.2215     0.5775     5.8691 </r>
       <r>    13.3148     0.8057     5.9443 </r>
       <r>    13.4081     0.6982     6.0095 </r>
       <r>    13.5014     0.4854     6.0548 </r>
       <r>    13.5947     0.7836     6.1279 </r>
       <r>    13.6881     0.6235     6.1861 </r>
       <r>    13.7814     0.4668     6.2297 </r>
       <r>    13.8747     0.3175     6.2593 </r>
       <r>    13.9680     0.4648     6.3027 </r>
       <r>    14.0613     0.5834     6.3571 </r>
       <r>    14.1547     0.4072     6.3951 </r>
       <r>    14.2480     0.4590     6.4379 </r>
       <r>    14.3413     0.8209     6.5145 </r>
       <r>    14.4346     0.8523     6.5941 </r>
       <r>    14.5279     0.5540     6.6458 </r>
       <r>    14.6213     0.4945     6.6919 </r>
       <r>    14.7146     0.6277     6.7505 </r>
       <r>    14.8079     0.4752     6.7948 </r>
       <r>    14.9012     0.3780     6.8301 </r>
       <r>    14.9945     0.4888     6.8757 </r>
       <r>    15.0879     0.4511     6.9178 </r>
       <r>    15.1812     0.3171     6.9474 </r>
       <r>    15.2745     0.7398     7.0164 </r>
       <r>    15.3678     0.7520     7.0866 </r>
       <r>    15.4611     0.4931     7.1326 </r>
       <r>    15.5545     0.5973     7.1884 </r>
       <r>    15.6478     0.5722     7.2418 </r>
       <r>    15.7411     0.2725     7.2672 </r>
       <r>    15.8344     0.6733     7.3300 </r>
       <r>    15.9277     0.9288     7.4167 </r>
       <r>    16.0211     0.5691     7.4698 </r>
       <r>    16.1144     0.2370     7.4919 </r>
       <r>    16.2077     0.6129     7.5491 </r>
       <r>    16.3010     0.5702     7.6023 </r>
       <r>    16.3943     0.3087     7.6311 </r>
       <r>    16.4876     0.3616     7.6649 </r>
       <r>    16.5810     0.5790     7.7189 </r>
       <r>    16.6743     0.6828     7.7826 </r>
       <r>    16.7676     0.8755     7.8643 </r>
       <r>    16.8609     0.6707     7.9269 </r>
       <r>    16.9542     0.3571     7.9602 </r>
       <r>    17.0476     0.4850     8.0055 </r>
       <r>    17.1409     0.6225     8.0636 </r>
       <r>    17.2342     0.2296     8.0850 </r>
       <r>    17.3275     0.3455     8.1173 </r>
       <r>    17.4208     0.6697     8.1798 </r>
       <r>    17.5142     0.8354     8.2577 </r>
       <r>    17.6075     0.6301     8.3165 </r>
       <r>    17.7008     0.3648     8.3506 </r>
       <r>    17.7941     0.4836     8.3957 </r>
       <r>    17.8874     0.4295     8.4358 </r>
       <r>    17.9808     0.3908     8.4723 </r>
       <r>    18.0741     0.6759     8.5353 </r>
       <r>    18.1674     0.8263     8.6124 </r>
       <r>    18.2607     0.6671     8.6747 </r>
       <r>    18.3540     0.7028     8.7403 </r>
       <r>    18.4474     0.5556     8.7921 </r>
       <r>    18.5407     0.3694     8.8266 </r>
       <r>    18.6340     0.5176     8.8749 </r>
       <r>    18.7273     0.6748     8.9379 </r>
       <r>    18.8206     0.4057     8.9757 </r>
       <r>    18.9140     0.5646     9.0284 </r>
       <r>    19.0073     0.6542     9.0895 </r>
       <r>    19.1006     0.7241     9.1571 </r>
       <r>    19.1939     0.6716     9.2197 </r>
       <r>    19.2872     0.3754     9.2548 </r>
       <r>    19.3806     0.5440     9.3055 </r>
       <r>    19.4739     0.6569     9.3668 </r>
       <r>    19.5672     0.4599     9.4097 </r>
       <r>    19.6605     0.3182     9.4394 </r>
       <r>    19.7538     0.4470     9.4812 </r>
       <r>    19.8472     0.5751     9.5348 </r>
       <r>    19.9405     0.4477     9.5766 </r>
       <r>    20.0338     0.2904     9.6037 </r>
       <r>    20.1271     0.3366     9.6351 </r>
       <r>    20.2204     0.2706     9.6604 </r>
       <r>    20.3138     0.2400     9.6828 </r>
       <r>    20.4071     0.5838     9.7372 </r>
       <r>    20.5004     0.5435     9.7880 </r>
       <r>    20.5937     0.2352     9.8099 </r>
       <r>    20.6870     0.2227     9.8307 </r>
       <r>    20.7804     0.2328     9.8524 </r>
       <r>    20.8737     0.3204     9.8823 </r>
       <r>    20.9670     0.3250     9.9126 </r>
       <r>    21.0603     0.0926     9.9213 </r>
       <r>    21.1536    -0.0004     9.9212 </r>
       <r>    21.2470     0.0746     9.9282 </r>
       <r>    21.3403     0.1294     9.9403 </r>
       <r>    21.4336     0.1589     9.9551 </r>
       <r>    21.5269     0.2116     9.9749 </r>
       <r>    21.6202     0.1045     9.9846 </r>
       <r>    21.7136     0.0603     9.9902 </r>
       <r>    21.8069     0.0195     9.9921 </r>
       <r>    21.9002    -0.0032     9.9918 </r>
       <r>    21.9935    -0.0031     9.9915 </r>
       <r>    22.0868     0.0234     9.9937 </r>
       <r>    22.1802     0.0606     9.9993 </r>
       <r>    22.2735     0.0096    10.0002 </r>
       <r>    22.3668    -0.0022    10.0000 </r>
       <r>    22.4601    -0.0001    10.0000 </r>
       <r>    22.5534    -0.0000    10.0000 </r>
       <r>    22.6468    -0.0000    10.0000 </r>
       <r>    22.7401    -0.0000    10.0000 </r>
       <r>    22.8334     0.0000    10.0000 </r>
       <r>    22.9267     0.0000    10.0000 </r>
       <r>    23.0200     0.0000    10.0000 </r>
       <r>    23.1134     0.0000    10.0000 </r>
       <r>    23.2067     0.0000    10.0000 </r>
       <r>    23.3000     0.0000    10.0000 </r>
       <r>    23.3933     0.0000    10.0000 </r>
      </set>
     </set>
    </array>
   </total>
  </dos>
 </calculation>
 <structure name="finalpos" >
  <crystal>
   <varray name="basis" >
    <v>       2.52279558       0.00000000       1.45653654 </v>
    <v>       0.84093186       2.37851454       1.45653654 </v>
    <v>       0.00000000       0.00000000       2.91307410 </v>
   </varray>
   <i name="volume">     17.47991852 </i>
   <varray name="rec_basis" >
    <v>       0.39638566      -0.14014349       0.00000000 </v>
    <v>       0.00000000       0.42043048       0.00000000 </v>
    <v>      -0.19819276      -0.14014344       0.34327997 </v>
   </varray>
  </crystal>
  <varray name="positions" >
   <v>       0.00000000       0.00000000       0.00000000 </v>
  </varray>
 </structure>
</modeling>
