    1    1    1    1
  0.1944353E+02  0.3018307E-09  0.3018307E-09  0.3018306E-09  0.5000000E-15
   1.0000000000000000E-004
  CAR 
 Ag FCC EOS static calculation           
     11    165      9
 
  0.1262379E-14  0.1262379E-14  0.1262379E-14  0.2035416E-03
      1         -0.118713   1.000000
      2          2.362350   1.000000
      3          2.362356   1.000000
      4          2.362357   1.000000
      5          3.179995   1.000000
      6          3.179997   1.000000
      7         22.418272   0.000000
      8         25.220727   0.000000
      9         25.220731   0.000000
 
  0.5882353E-01  0.1260395E-14  0.1262379E-14  0.1628333E-02
      1         -0.021187   1.000000
      2          2.343565   1.000000
      3          2.386665   1.000000
      4          2.386668   1.000000
      5          3.171317   1.000000
      6          3.171319   1.000000
      7         22.381563   0.000000
      8         24.305218   0.000000
      9         25.216594   0.000000
 
  0.1176471E+00  0.1266336E-14  0.1262379E-14  0.1628333E-02
      1          0.259567   1.000000
      2          2.303444   1.000000
      3          2.448551   1.000000
      4          2.448555   1.000000
      5          3.156068   1.000000
      6          3.156070   1.000000
      7         21.612740   0.000000
      8         23.235528   0.000000
      9         25.185342   0.000000
 
  0.1764706E+00  0.1282292E-14  0.1262379E-14  0.1628333E-02
      1          0.670388   1.000000
      2          2.306755   1.000000
      3          2.512090   1.000000
      4          2.512094   1.000000
      5          3.168513   1.000000
      6          3.168516   1.000000
      7         19.644626   0.000000
      8         23.085861   0.000000
      9         25.074895   0.000000
 
  0.2352941E+00  0.1276460E-14  0.1262379E-14  0.1628333E-02
      1          1.050031   1.000000
      2          2.528692   1.000000
      3          2.529486   1.000000
      4          2.529489   1.000000
      5          3.251611   1.000000
      6          3.251613   1.000000
      7         17.461619   0.000000
      8         22.901246   0.000000
      9         24.822404   0.000000
 
  0.2941176E+00  0.1266765E-14  0.1262379E-14  0.1628333E-02
      1          1.198467   1.000000
      2          2.493176   1.000000
      3          2.493179   1.000000
      4          3.179286   1.000000
      5          3.402846   1.000000
      6          3.402848   1.000000
      7         15.296866   0.000000
      8         22.543621   0.000000
      9         24.413501   0.000000
 
  0.3529412E+00  0.1253501E-14  0.1262379E-14  0.1628333E-02
      1          1.184612   1.000000
      2          2.434842   1.000000
      3          2.434844   1.000000
      4          3.574705   1.000000
      5          3.574708   1.000000
      6          4.186096   1.000000
      7         13.231599   0.000000
      8         22.146868   0.000000
      9         23.934023   0.000000
 
  0.4117647E+00  0.1260906E-14  0.1262379E-14  0.1628333E-02
      1          1.134147   1.000000
      2          2.382777   1.000000
      3          2.382779   1.000000
      4          3.719038   1.000000
      5          3.719041   1.000000
      6          5.379319   1.000000
      7         11.353086   0.000000
      8         21.832385   0.000000
      9         23.522120   0.000000
 
  0.4705882E+00  0.1261520E-14  0.1262379E-14  0.1628333E-02
      1          1.099944   1.000000
      2          2.353153   1.000000
      3          2.353155   1.000000
      4          3.800705   1.000000
      5          3.800707   1.000000
      6          6.469548   1.000006
      7          9.923227   0.000000
      8         21.662891   0.000000
      9         23.288363   0.000000
 
  0.5882353E-01  0.5882353E-01  0.1262379E-14  0.1221250E-02
      1          0.011428   1.000000
      2          2.318069   1.000000
      3          2.404864   1.000000
      4          2.404865   1.000000
      5          3.136412   1.000000
      6          3.199487   1.000000
      7         22.412040   0.000000
      8         24.715106   0.000000
      9         24.762963   0.000000
 
  0.1176471E+00  0.5882353E-01  0.1262379E-14  0.4884999E-02
      1          0.232063   1.000000
      2          2.267701   1.000000
      3          2.462873   1.000000
      4          2.464700   1.000000
      5          3.092595   1.000000
      6          3.214715   1.000000
      7         22.124174   0.000000
      8         23.323625   0.000000
      9         24.340043   0.000000
 
  0.1764706E+00  0.5882353E-01  0.1262379E-14  0.4884999E-02
      1          0.606453   1.000000
      2          2.227391   1.000000
      3          2.535355   1.000000
      4          2.536634   1.000000
      5          3.076203   1.000000
      6          3.242116   1.000000
      7         20.425871   0.000000
      8         22.934087   0.000000
      9         23.941341   0.000000
 
  0.2352941E+00  0.5882353E-01  0.1262379E-14  0.4884999E-02
      1          1.018801   1.000000
      2          2.299166   1.000000
      3          2.570250   1.000000
      4          2.571886   1.000000
      5          3.170687   1.000000
      6          3.318738   1.000000
      7         18.260192   0.000000
      8         22.782796   0.000000
      9         23.557142   0.000000
 
  0.2941176E+00  0.5882353E-01  0.1262379E-14  0.4884999E-02
      1          1.240591   1.000000
      2          2.480985   1.000000
      3          2.553979   1.000000
      4          2.709186   1.000000
      5          3.453475   1.000000
      6          3.467989   1.000000
      7         16.075609   0.000000
      8         22.497217   0.000000
      9         23.195829   0.000000
 
  0.3529412E+00  0.5882353E-01  0.1262379E-14  0.4884999E-02
      1          1.252725   1.000000
      2          2.427682   1.000000
      3          2.502295   1.000000
      4          3.138997   1.000000
      5          3.609900   1.000000
      6          4.137617   1.000000
      7         13.967669   0.000000
      8         22.137587   0.000000
      9         22.896044   0.000000
 
  0.4117647E+00  0.5882353E-01  0.1262379E-14  0.4884999E-02
      1          1.201756   1.000000
      2          2.366139   1.000000
      3          2.445599   1.000000
      4          3.425841   1.000000
      5          3.740875   1.000000
      6          5.198872   1.000000
      7         12.008747   0.000000
      8         21.807444   0.000000
      9         22.720654   0.000000
 
  0.4705882E+00  0.5882353E-01  0.1262379E-14  0.4884999E-02
      1          1.158273   1.000000
      2          2.328038   1.000000
      3          2.403851   1.000000
      4          3.600260   1.000000
      5          3.809881   1.000000
      6          6.372070   1.000000
      7         10.353034   0.000000
      8         21.570569   0.000000
      9         22.736736   0.000000
 
 -0.4705882E+00  0.5882353E-01  0.1262379E-14  0.4884999E-02
      1          1.146733   1.000000
      2          2.321864   1.000000
      3          2.388350   1.000000
      4          3.673661   1.000000
      5          3.797069   1.000000
      6          6.884810   0.043640
      7          9.723942   0.000000
      8         21.447243   0.000000
      9         22.610425   0.000000
 
 -0.4117647E+00  0.5882353E-01  0.1262379E-14  0.4884999E-02
      1          1.172014   1.000000
      2          2.347794   1.000000
      3          2.403309   1.000000
      4          3.638154   1.000000
      5          3.701818   1.000000
      6          6.000380   1.000000
      7         10.852831   0.000000
      8         21.437031   0.000000
      9         22.617869   0.000000
 
 -0.3529412E+00  0.5882353E-01  0.1262379E-14  0.4884999E-02
      1          1.223796   1.000000
      2          2.398628   1.000000
      3          2.446170   1.000000
      4          3.477589   1.000000
      5          3.542081   1.000000
      6          4.842210   1.000000
      7         12.642827   0.000000
      8         21.538122   0.000000
      9         22.907341   0.000000
 
 -0.2941176E+00  0.5882353E-01  0.1262379E-14  0.4884999E-02
      1          1.266588   1.000000
      2          2.456741   1.000000
      3          2.505936   1.000000
      4          3.119715   1.000000
      5          3.350860   1.000000
      6          3.960158   1.000000
      7         14.660840   0.000000
      8         21.735342   0.000000
      9         23.412061   0.000000
 
 -0.2352941E+00  0.5882353E-01  0.1262379E-14  0.4884999E-02
      1          1.201423   1.000000
      2          2.448158   1.000000
      3          2.557406   1.000000
      4          2.649790   1.000000
      5          3.175535   1.000000
      6          3.529527   1.000000
      7         16.800989   0.000000
      8         21.990237   0.000000
      9         24.007014   0.000000
 
 -0.1764706E+00  0.5882353E-01  0.1262379E-14  0.4884999E-02
      1          0.891894   1.000000
      2          2.263365   1.000000
      3          2.556436   1.000000
      4          2.568006   1.000000
      5          3.077561   1.000000
      6          3.323891   1.000000
      7         18.992338   0.000000
      8         22.254734   0.000000
      9         24.421199   0.000000
 
 -0.1176471E+00  0.5882353E-01  0.1262379E-14  0.4884999E-02
      1          0.468397   1.000000
      2          2.250823   1.000000
      3          2.491212   1.000000
      4          2.516290   1.000000
      5          3.079047   1.000000
      6          3.229146   1.000000
      7         21.097873   0.000000
      8         22.525011   0.000000
      9         24.481451   0.000000
 
 -0.5882353E-01  0.5882353E-01  0.1262379E-14  0.2442499E-02
      1          0.138072   1.000000
      2          2.303771   1.000000
      3          2.419626   1.000000
      4          2.441515   1.000000
      5          3.125710   1.000000
      6          3.194392   1.000000
      7         22.252852   0.000000
      8         23.414000   0.000000
      9         24.589222   0.000000
 
  0.1176471E+00  0.1176471E+00  0.1262379E-14  0.1221250E-02
      1          0.387511   1.000000
      2          2.193036   1.000000
      3          2.529973   1.000000
      4          2.529974   1.000000
      5          3.025522   1.000000
      6          3.255653   1.000000
      7         22.398516   0.000000
      8         23.594349   0.000000
      9         23.594360   0.000000
 
  0.1764706E+00  0.1176471E+00  0.1262379E-14  0.4884999E-02
      1          0.703392   1.000000
      2          2.115199   1.000000
      3          2.611056   1.000000
      4          2.616267   1.000000
      5          2.995704   1.000000
      6          3.296438   1.000000
      7         21.333155   0.000000
      8         22.744855   0.000000
      9         22.952454   0.000000
 
  0.2352941E+00  0.1176471E+00  0.1262379E-14  0.4884999E-02
      1          1.101919   1.000000
      2          2.082180   1.000000
      3          2.608650   1.000000
      4          2.678436   1.000000
      5          3.147862   1.000000
      6          3.370143   1.000000
      7         19.187526   0.000000
      8         22.414919   0.000000
      9         22.597879   0.000000
 
  0.2941176E+00  0.1176471E+00  0.1262379E-14  0.4884999E-02
      1          1.372413   1.000000
      2          2.239719   1.000000
      3          2.517877   1.000000
      4          2.684234   1.000000
      5          3.494468   1.000000
      6          3.564722   1.000000
      7         16.985908   0.000000
      8         21.991347   0.000000
      9         22.341642   0.000000
 
  0.3529412E+00  0.1176471E+00  0.1262379E-14  0.4884999E-02
      1          1.400914   1.000000
      2          2.411255   1.000000
      3          2.598046   1.000000
      4          2.644401   1.000000
      5          3.641253   1.000000
      6          4.277762   1.000000
      7         14.841864   0.000000
      8         21.706763   0.000000
      9         21.941751   0.000000
 
  0.4117647E+00  0.1176471E+00  0.1262379E-14  0.4884999E-02
      1          1.348662   1.000000
      2          2.321253   1.000000
      3          2.587590   1.000000
      4          2.938827   1.000000
      5          3.763455   1.000000
      6          5.289298   1.000000
      7         12.818268   0.000000
      8         21.412662   0.000000
      9         21.599839   0.000000
 
  0.4705882E+00  0.1176471E+00  0.1262379E-14  0.4884999E-02
      1          1.301280   1.000000
      2          2.262887   1.000000
      3          2.536635   1.000000
      4          3.189170   1.000000
      5          3.823160   1.000000
      6          6.494276   1.000027
      7         11.003625   0.000000
      8         20.830201   0.000000
      9         21.713519   0.000000
 
 -0.4705882E+00  0.1176471E+00  0.1262379E-14  0.4884999E-02
      1          1.284734   1.000000
      2          2.243336   1.000000
      3          2.506182   1.000000
      4          3.331898   1.000000
      5          3.799861   1.000000
      6          7.466006  -0.000000
      7          9.801853   0.000000
      8         20.323846   0.000000
      9         22.082245   0.000000
 
 -0.4117647E+00  0.1176471E+00  0.1262379E-14  0.4884999E-02
      1          1.306155   1.000000
      2          2.262609   1.000000
      3          2.504230   1.000000
      4          3.348691   1.000000
      5          3.692727   1.000000
      6          6.908569  -0.015900
      7         10.504802   0.000000
      8         19.976849   0.000000
      9         22.306843   0.000000
 
 -0.3529412E+00  0.1176471E+00  0.1262379E-14  0.4884999E-02
      1          1.361584   1.000000
      2          2.312528   1.000000
      3          2.532825   1.000000
      4          3.219838   1.000000
      5          3.518753   1.000000
      6          5.740697   1.000000
      7         12.209425   0.000000
      8         19.815291   0.000000
      9         22.652972   0.000000
 
 -0.2941176E+00  0.1176471E+00  0.1262379E-14  0.4884999E-02
      1          1.431560   1.000000
      2          2.369786   1.000000
      3          2.587371   1.000000
      4          2.935439   1.000000
      5          3.307997   1.000000
      6          4.738619   1.000000
      7         14.177609   0.000000
      8         19.829586   0.000000
      9         23.223792   0.000000
 
 -0.2352941E+00  0.1176471E+00  0.1262379E-14  0.4884999E-02
      1          1.450394   1.000000
      2          2.326169   1.000000
      3          2.635917   1.000000
      4          2.651094   1.000000
      5          3.102363   1.000000
      6          4.044127   1.000000
      7         16.283256   0.000000
      8         19.992207   0.000000
      9         24.001847   0.000000
 
 -0.1764706E+00  0.1176471E+00  0.1262379E-14  0.4884999E-02
      1          1.241237   1.000000
      2          2.154545   1.000000
      3          2.598573   1.000000
      4          2.667754   1.000000
      5          2.977678   1.000000
      6          3.614936   1.000000
      7         18.462267   0.000000
      8         20.272982   0.000000
      9         24.840769   0.000000
 
 -0.1176471E+00  0.1176471E+00  0.1262379E-14  0.2442499E-02
      1          0.829911   1.000000
      2          2.170714   1.000000
      3          2.582540   1.000000
      4          2.583071   1.000000
      5          2.999979   1.000000
      6          3.361580   1.000000
      7         20.593308   0.000000
      8         20.683802   0.000000
      9         24.771127   0.000000
 
  0.1764706E+00  0.1764706E+00  0.1262379E-14  0.1221250E-02
      1          0.940019   1.000000
      2          2.008493   1.000000
      3          2.729974   1.000000
      4          2.729974   1.000000
      5          2.932732   1.000000
      6          3.341767   1.000000
      7         22.111036   0.000000
      8         22.111044   0.000000
      9         22.388027   0.000000
 
  0.2352941E+00  0.1764706E+00  0.1262379E-14  0.4884999E-02
      1          1.257049   1.000000
      2          1.917969   1.000000
      3          2.730816   1.000000
      4          2.830791   1.000000
      5          3.118910   1.000000
      6          3.406932   1.000000
      7         20.184530   0.000000
      8         21.422241   0.000000
      9         22.422748   0.000000
 
  0.2941176E+00  0.1764706E+00  0.1262379E-14  0.4884999E-02
      1          1.507825   1.000000
      2          1.920471   1.000000
      3          2.628255   1.000000
      4          2.870858   1.000000
      5          3.520708   1.000000
      6          3.626752   1.000000
      7         17.997461   0.000000
      8         20.898222   0.000000
      9         21.984041   0.000000
 
  0.3529412E+00  0.1764706E+00  0.1262379E-14  0.4884999E-02
      1          1.532663   1.000000
      2          2.102520   1.000000
      3          2.551376   1.000000
      4          2.849315   1.000000
      5          3.663130   1.000000
      6          4.408287   1.000000
      7         15.835557   0.000000
      8         20.560645   0.000000
      9         21.134896   0.000000
 
  0.4117647E+00  0.1764706E+00  0.1262379E-14  0.4884999E-02
      1          1.484442   1.000000
      2          2.206755   1.000000
      3          2.616499   1.000000
      4          2.797041   1.000000
      5          3.782899   1.000000
      6          5.443150   1.000000
      7         13.770156   0.000000
      8         20.199214   0.000000
      9         20.438757   0.000000
 
  0.4705882E+00  0.1764706E+00  0.1262379E-14  0.4884999E-02
      1          1.451568   1.000000
      2          2.181615   1.000000
      3          2.740250   1.000000
      4          2.799189   1.000000
      5          3.838728   1.000000
      6          6.681373   1.033596
      7         11.860212   0.000000
      8         19.356534   0.000000
      9         20.562432   0.000000
 
 -0.4705882E+00  0.1764706E+00  0.1262379E-14  0.4884999E-02
      1          1.452177   1.000000
      2          2.153595   1.000000
      3          2.696083   1.000000
      4          2.949091   1.000000
      5          3.809432   1.000000
      6          7.967910  -0.000000
      7         10.261928   0.000000
      8         18.665514   0.000000
      9         20.952344   0.000000
 
 -0.4117647E+00  0.1764706E+00  0.1262379E-14  0.4884999E-02
      1          1.489354   1.000000
      2          2.159313   1.000000
      3          2.675244   1.000000
      4          3.003258   1.000000
      5          3.694660   1.000000
      6          7.975920  -0.000000
      7         10.305492   0.000000
      8         18.159301   0.000000
      9         21.612083   0.000000
 
 -0.3529412E+00  0.1764706E+00  0.1262379E-14  0.4884999E-02
      1          1.560300   1.000000
      2          2.199716   1.000000
      3          2.683423   1.000000
      4          2.931550   1.000000
      5          3.511587   1.000000
      6          6.762998   0.885111
      7         11.939707   0.000000
      8         17.856197   0.000000
      9         22.543804   0.000000
 
 -0.2941176E+00  0.1764706E+00  0.1262379E-14  0.4884999E-02
      1          1.656566   1.000000
      2          2.247969   1.000000
      3          2.721783   1.000000
      4          2.738681   1.000000
      5          3.288197   1.000000
      6          5.639041   1.000000
      7         13.860846   0.000000
      8         17.757424   0.000000
      9         23.019859   0.000000
 
 -0.2352941E+00  0.1764706E+00  0.1262379E-14  0.4884999E-02
      1          1.747057   1.000000
      2          2.181539   1.000000
      3          2.564246   1.000000
      4          2.786883   1.000000
      5          3.056274   1.000000
      6          4.742862   1.000000
      7         15.918533   0.000000
      8         17.851088   0.000000
      9         23.697194   0.000000
 
 -0.1764706E+00  0.1764706E+00  0.1262379E-14  0.2442499E-02
      1          1.626530   1.000000
      2          2.063356   1.000000
      3          2.571700   1.000000
      4          2.828697   1.000000
      5          2.888284   1.000000
      6          4.079132   1.000000
      7         17.916114   0.000000
      8         18.256010   0.000000
      9         24.533524   0.000000
 
  0.2352941E+00  0.2352941E+00  0.1262379E-14  0.1221250E-02
      1          1.416808   1.000000
      2          1.793518   1.000000
      3          2.989888   1.000000
      4          2.989889   1.000000
      5          3.133602   1.000000
      6          3.447112   1.000000
      7         20.597229   0.000000
      8         20.597237   0.000000
      9         21.867164   0.000000
 
  0.2941176E+00  0.2352941E+00  0.1262379E-14  0.4884999E-02
      1          1.535701   1.000000
      2          1.707655   1.000000
      3          2.959106   1.000000
      4          3.088721   1.000000
      5          3.533711   1.000000
      6          3.686148   1.000000
      7         18.977438   0.000000
      8         19.960524   0.000000
      9         20.913924   0.000000
 
  0.3529412E+00  0.2352941E+00  0.1262379E-14  0.4884999E-02
      1          1.540363   1.000000
      2          1.749032   1.000000
      3          2.875199   1.000000
      4          3.096718   1.000000
      5          3.671385   1.000000
      6          4.537929   1.000000
      7         16.895705   0.000000
      8         19.537606   0.000000
      9         19.770025   0.000000
 
  0.4117647E+00  0.2352941E+00  0.1262379E-14  0.4884999E-02
      1          1.496307   1.000000
      2          1.867028   1.000000
      3          2.802103   1.000000
      4          3.053936   1.000000
      5          3.795720   1.000000
      6          5.611019   1.000000
      7         14.833183   0.000000
      8         18.706316   0.000000
      9         19.356864   0.000000
 
  0.4705882E+00  0.2352941E+00  0.1262379E-14  0.4884999E-02
      1          1.484158   1.000000
      2          1.974699   1.000000
      3          2.759398   1.000000
      4          2.995155   1.000000
      5          3.854696   1.000000
      6          6.875263   0.082423
      7         12.887815   0.000000
      8         17.767485   0.000000
      9         19.443087   0.000000
 
 -0.4705882E+00  0.2352941E+00  0.1262379E-14  0.4884999E-02
      1          1.516790   1.000000
      2          2.050379   1.000000
      3          2.744879   1.000000
      4          2.939331   1.000000
      5          3.825663   1.000000
      6          8.288919  -0.000000
      7         11.122974   0.000000
      8         16.976128   0.000000
      9         19.808802   0.000000
 
 -0.4117647E+00  0.2352941E+00  0.1262379E-14  0.4884999E-02
      1          1.593692   1.000000
      2          2.102222   1.000000
      3          2.724081   1.000000
      4          2.897898   1.000000
      5          3.710055   1.000000
      6          9.136567  -0.000000
      7         10.262564   0.000000
      8         16.358029   0.000000
      9         20.447869   0.000000
 
 -0.3529412E+00  0.2352941E+00  0.1262379E-14  0.4884999E-02
      1          1.707428   1.000000
      2          2.147087   1.000000
      3          2.654920   1.000000
      4          2.877018   1.000000
      5          3.528339   1.000000
      6          7.892819  -0.000000
      7         11.832877   0.000000
      8         15.937556   0.000000
      9         21.334396   0.000000
 
 -0.2941176E+00  0.2352941E+00  0.1262379E-14  0.4884999E-02
      1          1.844963   1.000000
      2          2.167811   1.000000
      3          2.541468   1.000000
      4          2.876128   1.000000
      5          3.314064   1.000000
      6          6.664034   1.026856
      7         13.719365   0.000000
      8         15.728931   0.000000
      9         22.425139   0.000000
 
 -0.2352941E+00  0.2352941E+00  0.1262379E-14  0.2442499E-02
      1          1.958055   1.000000
      2          2.086074   1.000000
      3          2.501336   1.000000
      4          2.874016   1.000000
      5          3.120292   1.000000
      6          5.613470   1.000000
      7         15.680923   0.000000
      8         15.786471   0.000000
      9         23.201469   0.000000
 
  0.2941176E+00  0.2941176E+00  0.1262379E-14  0.1221250E-02
      1          1.490208   1.000000
      2          1.578861   1.000000
      3          3.284815   1.000000
      4          3.284816   1.000000
      5          3.558089   1.000000
      6          3.979535   1.000000
      7         19.212970   0.000000
      8         19.212978   0.000000
      9         19.617062   0.000000
 
  0.3529412E+00  0.2941176E+00  0.1262379E-14  0.4884999E-02
      1          1.453357   1.000000
      2          1.511708   1.000000
      3          3.304374   1.000000
      4          3.357080   1.000000
      5          3.664560   1.000000
      6          4.765248   1.000000
      7         17.822272   0.000000
      8         18.390332   0.000000
      9         18.689986   0.000000
 
  0.4117647E+00  0.2941176E+00  0.1262379E-14  0.4884999E-02
      1          1.408657   1.000000
      2          1.550950   1.000000
      3          3.211118   1.000000
      4          3.329203   1.000000
      5          3.799347   1.000000
      6          5.828564   1.000000
      7         15.911430   0.000000
      8         17.277429   0.000000
      9         18.425037   0.000000
 
  0.4705882E+00  0.2941176E+00  0.1262379E-14  0.4884999E-02
      1          1.397981   1.000000
      2          1.657747   1.000000
      3          3.079504   1.000000
      4          3.272127   1.000000
      5          3.869768   1.000000
      6          7.085374  -0.000462
      7         14.016274   0.000000
      8         16.277611   0.000000
      9         18.444230   0.000000
 
 -0.4705882E+00  0.2941176E+00  0.1262379E-14  0.4884999E-02
      1          1.437252   1.000000
      2          1.805350   1.000000
      3          2.924698   1.000000
      4          3.207697   1.000000
      5          3.848495   1.000000
      6          8.508692  -0.000000
      7         12.242668   0.000000
      8         15.412815   0.000000
      9         18.757482   0.000000
 
 -0.4117647E+00  0.2941176E+00  0.1262379E-14  0.4884999E-02
      1          1.525826   1.000000
      2          1.976251   1.000000
      3          2.746812   1.000000
      4          3.144095   1.000000
      5          3.741511   1.000000
      6         10.038093   0.000000
      7         10.666184   0.000000
      8         14.710728   0.000000
      9         19.352974   0.000000
 
 -0.3529412E+00  0.2941176E+00  0.1262379E-14  0.4884999E-02
      1          1.653781   1.000000
      2          2.158464   1.000000
      3          2.541496   1.000000
      4          3.080652   1.000000
      5          3.579411   1.000000
      6          9.126129  -0.000000
      7         11.821906   0.000000
      8         14.208836   0.000000
      9         20.197903   0.000000
 
 -0.2941176E+00  0.2941176E+00  0.1262379E-14  0.2442499E-02
      1          1.795761   1.000000
      2          2.310321   1.000000
      3          2.352873   1.000000
      4          3.000793   1.000000
      5          3.415643   1.000000
      6          7.823437  -0.000000
      7         13.473277   0.000000
      8         14.099150   0.000000
      9         21.243096   0.000000
 
  0.3529412E+00  0.3529412E+00  0.1262379E-14  0.1221250E-02
      1          1.343000   1.000000
      2          1.392210   1.000000
      3          3.577453   1.000000
      4          3.577455   1.000000
      5          3.659569   1.000000
      6          5.296936   1.000000
      7         17.024099   0.000000
      8         18.063626   0.000000
      9         18.063634   0.000000
 
  0.4117647E+00  0.3529412E+00  0.1262379E-14  0.4884999E-02
      1          1.287362   1.000000
      2          1.346227   1.000000
      3          3.583965   1.000000
      4          3.604897   1.000000
      5          3.793829   1.000000
      6          6.197428   1.000000
      7         15.794467   0.000000
      8         17.004049   0.000000
      9         17.700605   0.000000
 
  0.4705882E+00  0.3529412E+00  0.1262379E-14  0.4884999E-02
      1          1.275155   1.000000
      2          1.394298   1.000000
      3          3.485523   1.000000
      4          3.530818   1.000000
      5          3.885083   1.000000
      6          7.354444  -0.000000
      7         14.615388   0.000000
      8         15.512316   0.000000
      9         17.632998   0.000000
 
 -0.4705882E+00  0.3529412E+00  0.1262379E-14  0.4884999E-02
      1          1.309726   1.000000
      2          1.526999   1.000000
      3          3.284641   1.000000
      4          3.462224   1.000000
      5          3.879247   1.000000
      6          8.686214  -0.000000
      7         13.326133   0.000000
      8         14.250747   0.000000
      9         17.873221   0.000000
 
 -0.4117647E+00  0.3529412E+00  0.1262379E-14  0.4884999E-02
      1          1.394189   1.000000
      2          1.722643   1.000000
      3          3.032196   1.000000
      4          3.375092   1.000000
      5          3.792816   1.000000
      6         10.120149   0.000000
      7         11.882442   0.000000
      8         13.448243   0.000000
      9         18.407992   0.000000
 
 -0.3529412E+00  0.3529412E+00  0.1262379E-14  0.2442499E-02
      1          1.518430   1.000000
      2          1.956399   1.000000
      3          2.755644   1.000000
      4          3.253216   1.000000
      5          3.674054   1.000000
      6         10.460255   0.000000
      7         11.407127   0.000000
      8         13.212912   0.000000
      9         19.200607   0.000000
 
  0.4117647E+00  0.4117647E+00  0.1262379E-14  0.1221250E-02
      1          1.183950   1.000000
      2          1.255418   1.000000
      3          3.737046   1.000000
      4          3.818765   1.000000
      5          3.818767   1.000000
      6          6.831223   0.371209
      7         14.632413   0.000000
      8         17.234864   0.000000
      9         17.234872   0.000000
 
  0.4705882E+00  0.4117647E+00  0.1262379E-14  0.4884999E-02
      1          1.156758   1.000000
      2          1.240069   1.000000
      3          3.715991   1.000000
      4          3.812639   1.000000
      5          3.911478   1.000000
      6          7.730550  -0.000000
      7         13.631252   0.000000
      8         16.399328   0.000000
      9         17.068294   0.000000
 
 -0.4705882E+00  0.4117647E+00  0.1262379E-14  0.4884999E-02
      1          1.192193   1.000000
      2          1.315502   1.000000
      3          3.639693   1.000000
      4          3.655100   1.000000
      5          3.921373   1.000000
      6          8.772635  -0.000000
      7         12.890524   0.000000
      8         15.025913   0.000000
      9         17.219678   0.000000
 
 -0.4117647E+00  0.4117647E+00  0.1262379E-14  0.2442499E-02
      1          1.274231   1.000000
      2          1.484356   1.000000
      3          3.360387   1.000000
      4          3.549281   1.000000
      5          3.863238   1.000000
      6          9.702060   0.000000
      7         12.555215   0.000000
      8         13.624036   0.000000
      9         17.678645   0.000000
 
  0.4705882E+00  0.4705882E+00  0.1262379E-14  0.1221250E-02
      1          1.090607   1.000000
      2          1.183300   1.000000
      3          3.778977   1.000000
      4          3.956995   1.000000
      5          3.956997   1.000000
      6          8.202984  -0.000000
      7         12.832150   0.000000
      8         16.798399   0.000000
      9         16.798407   0.000000
 
 -0.4705882E+00  0.4705882E+00  0.1262379E-14  0.2442499E-02
      1          1.108642   1.000000
      2          1.203803   1.000000
      3          3.755192   1.000000
      4          3.887768   1.000000
      5          3.962586   1.000000
      6          8.619578  -0.000000
      7         12.530283   0.000000
      8         16.190971   0.000000
      9         16.850181   0.000000
 
  0.1764706E+00  0.1176471E+00  0.5882353E-01  0.4884999E-02
      1          0.502812   1.000000
      2          2.198758   1.000000
      3          2.531014   1.000000
      4          2.542910   1.000000
      5          3.039251   1.000000
      6          3.257719   1.000000
      7         21.749994   0.000000
      8         22.074380   0.000000
      9         24.133624   0.000000
 
  0.2352941E+00  0.1176471E+00  0.5882353E-01  0.9769998E-02
      1          0.900872   1.000000
      2          2.146280   1.000000
      3          2.590312   1.000000
      4          2.616032   1.000000
      5          3.033108   1.000000
      6          3.356280   1.000000
      7         19.855423   0.000000
      8         21.533439   0.000000
      9         24.182146   0.000000
 
  0.2941176E+00  0.1176471E+00  0.5882353E-01  0.9769998E-02
      1          1.266118   1.000000
      2          2.229764   1.000000
      3          2.565997   1.000000
      4          2.650365   1.000000
      5          3.156644   1.000000
      6          3.579268   1.000000
      7         17.660699   0.000000
      8         21.213956   0.000000
      9         23.831427   0.000000
 
  0.3529412E+00  0.1176471E+00  0.5882353E-01  0.9769998E-02
      1          1.380716   1.000000
      2          2.426206   1.000000
      3          2.582556   1.000000
      4          2.679421   1.000000
      5          3.375911   1.000000
      6          4.032885   1.000000
      7         15.493371   0.000000
      8         20.962751   0.000000
      9         23.191972   0.000000
 
  0.4117647E+00  0.1176471E+00  0.5882353E-01  0.9769998E-02
      1          1.342717   1.000000
      2          2.368677   1.000000
      3          2.549742   1.000000
      4          3.013651   1.000000
      5          3.580507   1.000000
      6          4.844091   1.000000
      7         13.424384   0.000000
      8         20.815165   0.000000
      9         22.526786   0.000000
 
  0.4705882E+00  0.1176471E+00  0.5882353E-01  0.9769998E-02
      1          1.283424   1.000000
      2          2.304988   1.000000
      3          2.500842   1.000000
      4          3.278867   1.000000
      5          3.719732   1.000000
      6          5.954580   1.000000
      7         11.527538   0.000000
      8         20.803005   0.000000
      9         21.946097   0.000000
 
 -0.4705882E+00  0.1176471E+00  0.5882353E-01  0.9769998E-02
      1          1.246905   1.000000
      2          2.269551   1.000000
      3          2.472137   1.000000
      4          3.420425   1.000000
      5          3.785542   1.000000
      6          7.075257  -0.000751
      7         10.028492   0.000000
      8         20.912819   0.000000
      9         21.522043   0.000000
 
  0.2352941E+00  0.1764706E+00  0.5882353E-01  0.4884999E-02
      1          1.035649   1.000000
      2          2.026358   1.000000
      3          2.640891   1.000000
      4          2.727955   1.000000
      5          3.027780   1.000000
      6          3.377213   1.000000
      7         20.791423   0.000000
      8         20.868201   0.000000
      9         23.653243   0.000000
 
  0.2941176E+00  0.1764706E+00  0.5882353E-01  0.9769998E-02
      1          1.395876   1.000000
      2          1.989550   1.000000
      3          2.568492   1.000000
      4          2.809216   1.000000
      5          3.203058   1.000000
      6          3.601751   1.000000
      7         18.634725   0.000000
      8         20.413008   0.000000
      9         23.271027   0.000000
 
  0.3529412E+00  0.1764706E+00  0.5882353E-01  0.9769998E-02
      1          1.542827   1.000000
      2          2.171486   1.000000
      3          2.458660   1.000000
      4          2.809050   1.000000
      5          3.432364   1.000000
      6          4.112583   1.000000
      7         16.450254   0.000000
      8         20.100943   0.000000
      9         22.370450   0.000000
 
  0.4117647E+00  0.1764706E+00  0.5882353E-01  0.9769998E-02
      1          1.504005   1.000000
      2          2.321783   1.000000
      3          2.508504   1.000000
      4          2.778450   1.000000
      5          3.622648   1.000000
      6          4.954637   1.000000
      7         14.343475   0.000000
      8         19.934102   0.000000
      9         21.433260   0.000000
 
  0.4705882E+00  0.1764706E+00  0.5882353E-01  0.9769998E-02
      1          1.446114   1.000000
      2          2.238460   1.000000
      3          2.652566   1.000000
      4          2.860693   1.000000
      5          3.747805   1.000000
      6          6.066045   1.000000
      7         12.372083   0.000000
      8         19.944271   0.000000
      9         20.582242   0.000000
 
 -0.4705882E+00  0.1764706E+00  0.5882353E-01  0.9769998E-02
      1          1.412056   1.000000
      2          2.183455   1.000000
      3          2.634012   1.000000
      4          3.035886   1.000000
      5          3.794087   1.000000
      6          7.321627  -0.000000
      7         10.640118   0.000000
      8         19.862231   0.000000
      9         20.160442   0.000000
 
 -0.4117647E+00  0.1764706E+00  0.5882353E-01  0.9769998E-02
      1          1.412774   1.000000
      2          2.170767   1.000000
      3          2.618872   1.000000
      4          3.112112   1.000000
      5          3.762329   1.000000
      6          7.958352  -0.000000
      7          9.900073   0.000000
      8         19.322751   0.000000
      9         20.568994   0.000000
 
 -0.3529412E+00  0.1764706E+00  0.5882353E-01  0.9769998E-02
      1          1.449739   1.000000
      2          2.201095   1.000000
      3          2.625285   1.000000
      4          3.052504   1.000000
      5          3.663963   1.000000
      6          6.925754  -0.032611
      7         11.203269   0.000000
      8         18.976751   0.000000
      9         21.154879   0.000000
 
 -0.2941176E+00  0.1764706E+00  0.5882353E-01  0.9769998E-02
      1          1.517504   1.000000
      2          2.265342   1.000000
      3          2.636043   1.000000
      4          2.876680   1.000000
      5          3.505322   1.000000
      6          5.740953   1.000000
      7         13.043509   0.000000
      8         18.831503   0.000000
      9         21.878820   0.000000
 
 -0.2352941E+00  0.1764706E+00  0.5882353E-01  0.9769998E-02
      1          1.596202   1.000000
      2          2.315230   1.000000
      3          2.509283   1.000000
      4          2.779849   1.000000
      5          3.296012   1.000000
      6          4.773088   1.000000
      7         15.065965   0.000000
      8         18.873888   0.000000
      9         22.720108   0.000000
 
 -0.1764706E+00  0.1764706E+00  0.5882353E-01  0.9769998E-02
      1          1.593319   1.000000
      2          2.112201   1.000000
      3          2.504208   1.000000
      4          2.803583   1.000000
      5          3.084407   1.000000
      6          4.077677   1.000000
      7         17.196065   0.000000
      8         19.081373   0.000000
      9         23.679699   0.000000
 
 -0.1176471E+00  0.1764706E+00  0.5882353E-01  0.4884999E-02
      1          1.294825   1.000000
      2          2.061138   1.000000
      3          2.574611   1.000000
      4          2.742801   1.000000
      5          2.998660   1.000000
      6          3.622316   1.000000
      7         19.264735   0.000000
      8         19.537883   0.000000
      9         24.717766   0.000000
 
  0.2941176E+00  0.2352941E+00  0.5882353E-01  0.4884999E-02
      1          1.498674   1.000000
      2          1.822560   1.000000
      3          2.711504   1.000000
      4          2.987026   1.000000
      5          3.304292   1.000000
      6          3.598784   1.000000
      7         19.558065   0.000000
      8         19.725747   0.000000
      9         22.170271   0.000000
 
  0.3529412E+00  0.2352941E+00  0.5882353E-01  0.9769998E-02
      1          1.626454   1.000000
      2          1.833852   1.000000
      3          2.632434   1.000000
      4          3.052945   1.000000
      5          3.476486   1.000000
      6          4.187819   1.000000
      7         17.490382   0.000000
      8         19.247667   0.000000
      9         21.072390   0.000000
 
  0.4117647E+00  0.2352941E+00  0.5882353E-01  0.9769998E-02
      1          1.582180   1.000000
      2          1.993083   1.000000
      3          2.569047   1.000000
      4          3.022927   1.000000
      5          3.649555   1.000000
      6          5.088675   1.000000
      7         15.376771   0.000000
      8         19.016299   0.000000
      9         20.001339   0.000000
 
  0.4705882E+00  0.2352941E+00  0.5882353E-01  0.9769998E-02
      1          1.541597   1.000000
      2          2.088909   1.000000
      3          2.585091   1.000000
      4          2.965512   1.000000
      5          3.770114   1.000000
      6          6.226378   1.000000
      7         13.367844   0.000000
      8         18.933619   0.000000
      9         19.102180   0.000000
 
 -0.4705882E+00  0.2352941E+00  0.5882353E-01  0.9769998E-02
      1          1.536917   1.000000
      2          2.094648   1.000000
      3          2.680497   1.000000
      4          2.905453   1.000000
      5          3.810151   1.000000
      6          7.546448  -0.000000
      7         11.522630   0.000000
      8         18.200888   0.000000
      9         19.218449   0.000000
 
 -0.4117647E+00  0.2352941E+00  0.5882353E-01  0.9769998E-02
      1          1.571105   1.000000
      2          2.081871   1.000000
      3          2.773838   1.000000
      4          2.844617   1.000000
      5          3.764616   1.000000
      6          8.787998  -0.000000
      7         10.105582   0.000000
      8         17.545727   0.000000
      9         19.644660   0.000000
 
 -0.3529412E+00  0.2352941E+00  0.5882353E-01  0.9769998E-02
      1          1.639106   1.000000
      2          2.095203   1.000000
      3          2.752305   1.000000
      4          2.836351   1.000000
      5          3.644570   1.000000
      6          8.033692  -0.000000
      7         11.036736   0.000000
      8         17.078703   0.000000
      9         20.265336   0.000000
 
 -0.2941176E+00  0.2352941E+00  0.5882353E-01  0.9769998E-02
      1          1.732775   1.000000
      2          2.142906   1.000000
      3          2.597555   1.000000
      4          2.881686   1.000000
      5          3.466297   1.000000
      6          6.762342   0.888510
      7         12.837235   0.000000
      8         16.818657   0.000000
      9         21.028025   0.000000
 
 -0.2352941E+00  0.2352941E+00  0.5882353E-01  0.9769998E-02
      1          1.844351   1.000000
      2          2.171400   1.000000
      3          2.408289   1.000000
      4          2.937066   1.000000
      5          3.247041   1.000000
      6          5.661095   1.000000
      7         14.810652   0.000000
      8         16.769174   0.000000
      9         21.882588   0.000000
 
 -0.1764706E+00  0.2352941E+00  0.5882353E-01  0.4884999E-02
      1          1.914122   1.000000
      2          2.004218   1.000000
      3          2.415512   1.000000
      4          3.002893   1.000000
      5          3.017521   1.000000
      6          4.768047   1.000000
      7         16.765813   0.000000
      8         17.044713   0.000000
      9         22.796903   0.000000
 
  0.3529412E+00  0.2941176E+00  0.5882353E-01  0.4884999E-02
      1          1.566733   1.000000
      2          1.618002   1.000000
      3          2.976752   1.000000
      4          3.282086   1.000000
      5          3.549119   1.000000
      6          4.330928   1.000000
      7         18.387664   0.000000
      8         18.547575   0.000000
      9         19.696508   0.000000
 
  0.4117647E+00  0.2941176E+00  0.5882353E-01  0.9769998E-02
      1          1.529953   1.000000
      2          1.657296   1.000000
      3          2.905652   1.000000
      4          3.321200   1.000000
      5          3.661364   1.000000
      6          5.267021   1.000000
      7         16.457255   0.000000
      8         18.137082   0.000000
      9         18.579909   0.000000
 
  0.4705882E+00  0.2941176E+00  0.5882353E-01  0.9769998E-02
      1          1.496164   1.000000
      2          1.764587   1.000000
      3          2.821192   1.000000
      4          3.254586   1.000000
      5          3.785407   1.000000
      6          6.419514   1.000000
      7         14.470955   0.000000
      8         17.475507   0.000000
      9         18.134650   0.000000
 
 -0.4705882E+00  0.2941176E+00  0.5882353E-01  0.9769998E-02
      1          1.508884   1.000000
      2          1.884786   1.000000
      3          2.742407   1.000000
      4          3.166113   1.000000
      5          3.831503   1.000000
      6          7.755659  -0.000000
      7         12.603095   0.000000
      8         16.594763   0.000000
      9         18.289750   0.000000
 
 -0.4117647E+00  0.2941176E+00  0.5882353E-01  0.9769998E-02
      1          1.571308   1.000000
      2          1.995067   1.000000
      3          2.668902   1.000000
      4          3.079831   1.000000
      5          3.787676   1.000000
      6          9.233358  -0.000000
      7         10.914987   0.000000
      8         15.850278   0.000000
      9         18.703920   0.000000
 
 -0.3529412E+00  0.2941176E+00  0.5882353E-01  0.9769998E-02
      1          1.678875   1.000000
      2          2.084712   1.000000
      3          2.571459   1.000000
      4          3.022987   1.000000
      5          3.666593   1.000000
      6          9.251478  -0.000000
      7         11.010611   0.000000
      8         15.280634   0.000000
      9         19.332761   0.000000
 
 -0.2941176E+00  0.2941176E+00  0.5882353E-01  0.9769998E-02
      1          1.819971   1.000000
      2          2.150493   1.000000
      3          2.425438   1.000000
      4          3.013477   1.000000
      5          3.493892   1.000000
      6          7.903255  -0.000000
      7         12.788726   0.000000
      8         14.913525   0.000000
      9         20.117690   0.000000
 
 -0.2352941E+00  0.2941176E+00  0.5882353E-01  0.4884999E-02
      1          1.964072   1.000000
      2          2.116127   1.000000
      3          2.339365   1.000000
      4          3.019171   1.000000
      5          3.316195   1.000000
      6          6.701665   1.034261
      7         14.651499   0.000000
      8         14.829915   0.000000
      9         20.989119   0.000000
 
  0.4117647E+00  0.3529412E+00  0.5882353E-01  0.4884999E-02
      1          1.412132   1.000000
      2          1.439588   1.000000
      3          3.285353   1.000000
      4          3.575507   1.000000
      5          3.683445   1.000000
      6          5.591357   1.000000
      7         16.961407   0.000000
      8         17.512509   0.000000
      9         17.564771   0.000000
 
  0.4705882E+00  0.3529412E+00  0.5882353E-01  0.9769998E-02
      1          1.383419   1.000000
      2          1.476613   1.000000
      3          3.196135   1.000000
      4          3.552269   1.000000
      5          3.793131   1.000000
      6          6.687785   1.035019
      7         15.462438   0.000000
      8         16.220068   0.000000
      9         17.343989   0.000000
 
 -0.4705882E+00  0.3529412E+00  0.5882353E-01  0.9769998E-02
      1          1.392224   1.000000
      2          1.594258   1.000000
      3          3.068476   1.000000
      4          3.439374   1.000000
      5          3.859668   1.000000
      6          7.980836  -0.000000
      7         13.752160   0.000000
      8         15.199269   0.000000
      9         17.449816   0.000000
 
 -0.4117647E+00  0.3529412E+00  0.5882353E-01  0.9769998E-02
      1          1.452777   1.000000
      2          1.762408   1.000000
      3          2.897294   1.000000
      4          3.322575   1.000000
      5          3.831527   1.000000
      6          9.433989  -0.000000
      7         12.099722   0.000000
      8         14.372111   0.000000
      9         17.827331   0.000000
 
 -0.3529412E+00  0.3529412E+00  0.5882353E-01  0.9769998E-02
      1          1.560146   1.000000
      2          1.960153   1.000000
      3          2.680425   1.000000
      4          3.220249   1.000000
      5          3.729443   1.000000
      6         10.558929   0.000000
      7         11.016895   0.000000
      8         13.758061   0.000000
      9         18.439701   0.000000
 
 -0.2941176E+00  0.3529412E+00  0.5882353E-01  0.4884999E-02
      1          1.698781   1.000000
      2          2.158395   1.000000
      3          2.442117   1.000000
      4          3.126216   1.000000
      5          3.596359   1.000000
      6          9.168446  -0.000000
      7         12.470266   0.000000
      8         13.596039   0.000000
      9         19.228106   0.000000
 
  0.4705882E+00  0.4117647E+00  0.5882353E-01  0.4884999E-02
      1          1.248882   1.000000
      2          1.308574   1.000000
      3          3.536529   1.000000
      4          3.765842   1.000000
      5          3.817909   1.000000
      6          7.107630  -0.000146
      7         14.673233   0.000000
      8         16.745176   0.000000
      9         16.747335   0.000000
 
 -0.4705882E+00  0.4117647E+00  0.5882353E-01  0.9769998E-02
      1          1.264413   1.000000
      2          1.363115   1.000000
      3          3.431884   1.000000
      4          3.656672   1.000000
      5          3.903297   1.000000
      6          8.240564  -0.000000
      7         13.700327   0.000000
      8         15.275250   0.000000
      9         16.778105   0.000000
 
 -0.4117647E+00  0.4117647E+00  0.5882353E-01  0.9769998E-02
      1          1.322503   1.000000
      2          1.511023   1.000000
      3          3.239516   1.000000
      4          3.517348   1.000000
      5          3.895467   1.000000
      6          9.487070   0.000000
      7         12.884544   0.000000
      8         13.812016   0.000000
      9         17.096655   0.000000
 
 -0.3529412E+00  0.4117647E+00  0.5882353E-01  0.4884999E-02
      1          1.425869   1.000000
      2          1.724019   1.000000
      3          2.964416   1.000000
      4          3.382187   1.000000
      5          3.819963   1.000000
      6         10.592306   0.000000
      7         11.890461   0.000000
      8         13.063715   0.000000
      9         17.669637   0.000000
 
 -0.4705882E+00  0.4705882E+00  0.5882353E-01  0.4884999E-02
      1          1.153807   1.000000
      2          1.239430   1.000000
      3          3.697321   1.000000
      4          3.787544   1.000000
      5          3.956969   1.000000
      6          8.498230  -0.000000
      7         12.865127   0.000000
      8         16.335660   0.000000
      9         16.348640   0.000000
 
 -0.4117647E+00  0.4705882E+00  0.5882353E-01  0.4884999E-02
      1          1.218495   1.000000
      2          1.326336   1.000000
      3          3.554504   1.000000
      4          3.644147   1.000000
      5          3.954864   1.000000
      6          9.187291  -0.000000
      7         12.574653   0.000000
      8         15.059518   0.000000
      9         16.583605   0.000000
 
  0.3529412E+00  0.2352941E+00  0.1176471E+00  0.4884999E-02
      1          1.710993   1.000000
      2          1.901701   1.000000
      3          2.471760   1.000000
      4          2.987052   1.000000
      5          3.196439   1.000000
      6          4.107862   1.000000
      7         18.080977   0.000000
      8         18.381199   0.000000
      9         22.436965   0.000000
 
  0.4117647E+00  0.2352941E+00  0.1176471E+00  0.9769998E-02
      1          1.749307   1.000000
      2          2.081998   1.000000
      3          2.355720   1.000000
      4          3.021126   1.000000
      5          3.339803   1.000000
      6          4.851868   1.000000
      7         16.069799   0.000000
      8         17.981463   0.000000
      9         21.380778   0.000000
 
  0.4705882E+00  0.2352941E+00  0.1176471E+00  0.9769998E-02
      1          1.673710   1.000000
      2          2.204840   1.000000
      3          2.393183   1.000000
      4          2.967190   1.000000
      5          3.537092   1.000000
      6          5.838018   1.000000
      7         14.016915   0.000000
      8         17.888857   0.000000
      9         20.416216   0.000000
 
 -0.4705882E+00  0.2352941E+00  0.1176471E+00  0.9769998E-02
      1          1.620563   1.000000
      2          2.117218   1.000000
      3          2.610156   1.000000
      4          2.909047   1.000000
      5          3.678684   1.000000
      6          7.039963  -0.003395
      7         12.099576   0.000000
      8         17.996159   0.000000
      9         19.576325   0.000000
 
 -0.4117647E+00  0.2352941E+00  0.1176471E+00  0.9769998E-02
      1          1.595002   1.000000
      2          2.063090   1.000000
      3          2.761048   1.000000
      4          2.850996   1.000000
      5          3.747988   1.000000
      6          8.343562  -0.000000
      7         10.438294   0.000000
      8         18.290793   0.000000
      9         18.905303   0.000000
 
  0.4117647E+00  0.2941176E+00  0.1176471E+00  0.4884999E-02
      1          1.731762   1.000000
      2          1.779053   1.000000
      3          2.565719   1.000000
      4          3.277185   1.000000
      5          3.421782   1.000000
      6          4.984861   1.000000
      7         17.034295   0.000000
      8         17.285856   0.000000
      9         19.938481   0.000000
 
  0.4705882E+00  0.2941176E+00  0.1176471E+00  0.9769998E-02
      1          1.685310   1.000000
      2          1.902248   1.000000
      3          2.494841   1.000000
      4          3.262950   1.000000
      5          3.560594   1.000000
      6          5.998009   1.000000
      7         15.100118   0.000000
      8         17.010412   0.000000
      9         18.909325   0.000000
 
 -0.4705882E+00  0.2941176E+00  0.1176471E+00  0.9769998E-02
      1          1.667499   1.000000
      2          1.986121   1.000000
      3          2.480573   1.000000
      4          3.161858   1.000000
      5          3.704194   1.000000
      6          7.211194  -0.000000
      7         13.158236   0.000000
      8         17.035574   0.000000
      9         18.030877   0.000000
 
 -0.4117647E+00  0.2941176E+00  0.1176471E+00  0.9769998E-02
      1          1.693574   1.000000
      2          1.989698   1.000000
      3          2.539658   1.000000
      4          3.057419   1.000000
      5          3.766538   1.000000
      6          8.594745  -0.000000
      7         11.371120   0.000000
      8         16.979401   0.000000
      9         17.596350   0.000000
 
 -0.3529412E+00  0.2941176E+00  0.1176471E+00  0.9769998E-02
      1          1.758022   1.000000
      2          1.966921   1.000000
      3          2.569366   1.000000
      4          2.997106   1.000000
      5          3.746488   1.000000
      6          9.488936   0.000000
      7         10.406964   0.000000
      8         16.483445   0.000000
      9         17.974213   0.000000
 
 -0.2941176E+00  0.2941176E+00  0.1176471E+00  0.9769998E-02
      1          1.834861   1.000000
      2          1.982992   1.000000
      3          2.465847   1.000000
      4          3.037160   1.000000
      5          3.650801   1.000000
      6          8.153418  -0.000000
      7         12.006225   0.000000
      8         16.078177   0.000000
      9         18.630874   0.000000
 
 -0.2352941E+00  0.2941176E+00  0.1176471E+00  0.9769998E-02
      1          1.887491   1.000000
      2          2.074287   1.000000
      3          2.276153   1.000000
      4          3.130158   1.000000
      5          3.486805   1.000000
      6          6.872528   0.095221
      7         13.877439   0.000000
      8         15.870859   0.000000
      9         19.442354   0.000000
 
 -0.1764706E+00  0.2941176E+00  0.1176471E+00  0.4884999E-02
      1          1.907204   1.000000
      2          2.068439   1.000000
      3          2.227837   1.000000
      4          3.220114   1.000000
      5          3.281162   1.000000
      6          5.770156   1.000000
      7         15.810995   0.000000
      8         15.943503   0.000000
      9         20.367769   0.000000
 
  0.4705882E+00  0.3529412E+00  0.1176471E+00  0.4884999E-02
      1          1.579911   1.000000
      2          1.602926   1.000000
      3          2.830793   1.000000
      4          3.563313   1.000000
      5          3.570690   1.000000
      6          6.255558   1.000000
      7         16.091733   0.000000
      8         16.339688   0.000000
      9         17.520017   0.000000
 
 -0.4705882E+00  0.3529412E+00  0.1176471E+00  0.9769998E-02
      1          1.570417   1.000000
      2          1.702261   1.000000
      3          2.733860   1.000000
      4          3.432475   1.000000
      5          3.740199   1.000000
      6          7.447881  -0.000000
      7         14.312148   0.000000
      8         16.048935   0.000000
      9         16.723691   0.000000
 
 -0.4117647E+00  0.3529412E+00  0.1176471E+00  0.9769998E-02
      1          1.600236   1.000000
      2          1.835221   1.000000
      3          2.630231   1.000000
      4          3.290174   1.000000
      5          3.816440   1.000000
      6          8.818955  -0.000000
      7         12.530614   0.000000
      8         15.482750   0.000000
      9         16.683773   0.000000
 
 -0.3529412E+00  0.3529412E+00  0.1176471E+00  0.9769998E-02
      1          1.677514   1.000000
      2          1.963013   1.000000
      3          2.510138   1.000000
      4          3.176949   1.000000
      5          3.800338   1.000000
      6         10.335232   0.000000
      7         10.905687   0.000000
      8         14.830634   0.000000
      9         17.108572   0.000000
 
 -0.2941176E+00  0.3529412E+00  0.1176471E+00  0.9769998E-02
      1          1.793394   1.000000
      2          2.068284   1.000000
      3          2.345543   1.000000
      4          3.137436   1.000000
      5          3.707050   1.000000
      6          9.387386  -0.000000
      7         12.040960   0.000000
      8         14.335092   0.000000
      9         17.752541   0.000000
 
 -0.2352941E+00  0.3529412E+00  0.1176471E+00  0.4884999E-02
      1          1.931852   1.000000
      2          2.104802   1.000000
      3          2.188717   1.000000
      4          3.159376   1.000000
      5          3.569895   1.000000
      6          8.054564  -0.000000
      7         13.694913   0.000000
      8         14.198251   0.000000
      9         18.545396   0.000000
 
 -0.4705882E+00  0.4117647E+00  0.1176471E+00  0.4884999E-02
      1          1.426829   1.000000
      2          1.467057   1.000000
      3          3.095134   1.000000
      4          3.609319   1.000000
      5          3.815555   1.000000
      6          7.783273  -0.000000
      7         14.712765   0.000000
      8         15.635896   0.000000
      9         15.936527   0.000000
 
 -0.4117647E+00  0.4117647E+00  0.1176471E+00  0.9769998E-02
      1          1.461634   1.000000
      2          1.589384   1.000000
      3          2.950201   1.000000
      4          3.469282   1.000000
      5          3.892594   1.000000
      6          9.060110  -0.000000
      7         13.580259   0.000000
      8         14.389405   0.000000
      9         15.942741   0.000000
 
 -0.3529412E+00  0.4117647E+00  0.1176471E+00  0.9769998E-02
      1          1.535993   1.000000
      2          1.772023   1.000000
      3          2.750345   1.000000
      4          3.325360   1.000000
      5          3.886756   1.000000
      6         10.455877   0.000000
      7         12.165464   0.000000
      8         13.549648   0.000000
      9         16.351290   0.000000
 
 -0.2941176E+00  0.4117647E+00  0.1176471E+00  0.4884999E-02
      1          1.651784   1.000000
      2          1.971922   1.000000
      3          2.506600   1.000000
      4          3.219077   1.000000
      5          3.809393   1.000000
      6         10.731935   0.000000
      7         11.719036   0.000000
      8         13.289312   0.000000
      9         16.975602   0.000000
 
 -0.4117647E+00  0.4705882E+00  0.1176471E+00  0.4884999E-02
      1          1.326508   1.000000
      2          1.407131   1.000000
      3          3.291718   1.000000
      4          3.578460   1.000000
      5          3.956888   1.000000
      6          9.251728  -0.000000
      7         12.967384   0.000000
      8         15.257961   0.000000
      9         15.481083   0.000000
 
 -0.3529412E+00  0.4705882E+00  0.1176471E+00  0.4884999E-02
      1          1.416432   1.000000
      2          1.555963   1.000000
      3          3.051082   1.000000
      4          3.451380   1.000000
      5          3.954780   1.000000
      6         10.137111   0.000000
      7         12.645447   0.000000
      8         13.896813   0.000000
      9         15.759963   0.000000
 
 -0.4705882E+00  0.3529412E+00  0.1764706E+00  0.4884999E-02
      1          1.806672   1.000000
      2          1.855516   1.000000
      3          2.403705   1.000000
      4          3.357784   1.000000
      5          3.566383   1.000000
      6          7.090208  -0.000363
      7         15.011553   0.000000
      8         15.040643   0.000000
      9         17.929563   0.000000
 
 -0.4117647E+00  0.3529412E+00  0.1764706E+00  0.9769998E-02
      1          1.818662   1.000000
      2          1.927779   1.000000
      3          2.352701   1.000000
      4          3.245773   1.000000
      5          3.711302   1.000000
      6          8.355419  -0.000000
      7         13.142808   0.000000
      8         15.162217   0.000000
      9         17.080677   0.000000
 
 -0.3529412E+00  0.3529412E+00  0.1764706E+00  0.9769998E-02
      1          1.824848   1.000000
      2          1.954231   1.000000
      3          2.367101   1.000000
      4          3.150251   1.000000
      5          3.795659   1.000000
      6          9.783536   0.000000
      7         11.401895   0.000000
      8         15.430166   0.000000
      9         16.451258   0.000000
 
 -0.4117647E+00  0.4117647E+00  0.1764706E+00  0.4884999E-02
      1          1.657747   1.000000
      2          1.727167   1.000000
      3          2.614971   1.000000
      4          3.390141   1.000000
      5          3.812230   1.000000
      6          8.658263  -0.000000
      7         14.322936   0.000000
      8         14.345036   0.000000
      9         15.771727   0.000000
 
 -0.3529412E+00  0.4117647E+00  0.1764706E+00  0.9769998E-02
      1          1.684475   1.000000
      2          1.883570   1.000000
      3          2.472392   1.000000
      4          3.267253   1.000000
      5          3.887255   1.000000
      6         10.030707   0.000000
      7         12.648983   0.000000
      8         14.308330   0.000000
      9         15.305186   0.000000
 
 -0.2941176E+00  0.4117647E+00  0.1764706E+00  0.9769998E-02
      1          1.732364   1.000000
      2          2.049732   1.000000
      3          2.298824   1.000000
      4          3.196680   1.000000
      5          3.885220   1.000000
      6         11.077577   0.000000
      7         11.543977   0.000000
      8         13.924009   0.000000
      9         15.593353   0.000000
 
 -0.2352941E+00  0.4117647E+00  0.1764706E+00  0.4884999E-02
      1          1.795187   1.000000
      2          2.080125   1.000000
      3          2.218258   1.000000
      4          3.210862   1.000000
      5          3.809236   1.000000
      6          9.646287   0.000000
      7         12.987289   0.000000
      8         13.745171   0.000000
      9         16.250109   0.000000
 
 -0.3529412E+00  0.4705882E+00  0.1764706E+00  0.4884999E-02
      1          1.549632   1.000000
      2          1.683784   1.000000
      3          2.768657   1.000000
      4          3.361429   1.000000
      5          3.956616   1.000000
      6         10.254170   0.000000
      7         13.124844   0.000000
      8         13.953240   0.000000
      9         14.746543   0.000000
 
 -0.2941176E+00  0.4705882E+00  0.1764706E+00  0.4884999E-02
      1          1.632330   1.000000
      2          1.869853   1.000000
      3          2.529600   1.000000
      4          3.258428   1.000000
      5          3.955436   1.000000
      6         11.308986   0.000000
      7         12.378652   0.000000
      8         13.171741   0.000000
      9         14.940839   0.000000
 
 -0.2941176E+00  0.4705882E+00  0.2352941E+00  0.4884999E-02
      1          1.698175   1.000000
      2          2.062889   1.000000
      3          2.277119   1.000000
      4          3.210995   1.000000
      5          3.956121   1.000000
      6         11.356597   0.000000
      7         12.605847   0.000000
      8         13.201788   0.000000
      9         14.505378   0.000000
