   4   4   0   0
  0.1184929E+02  0.3237351E-09  0.3237351E-09  0.5222061E-09  0.5000000E-15
   1.0000000000000000E-004
  CAR 
 ZnO HSE06 Band Gap Calculation (restart 
     20.27470214    -21.45936167  301      0.25104611      1.00000000
    -21.459  0.0000E+00  0.0000E+00
    -21.320  0.0000E+00  0.0000E+00
    -21.181  0.0000E+00  0.0000E+00
    -21.042  0.0000E+00  0.0000E+00
    -20.903  0.0000E+00  0.0000E+00
    -20.764  0.0000E+00  0.0000E+00
    -20.625  0.0000E+00  0.0000E+00
    -20.486  0.0000E+00  0.0000E+00
    -20.346  0.0000E+00  0.0000E+00
    -20.207  0.0000E+00  0.0000E+00
    -20.068  0.0000E+00  0.0000E+00
    -19.929  0.0000E+00  0.0000E+00
    -19.790  0.8625E-12  0.1200E-12
    -19.651  0.1057E-03  0.1471E-04
    -19.512  0.1299E+00  0.1808E-01
    -19.373  0.7305E+00  0.1197E+00
    -19.234  0.1262E+01  0.2952E+00
    -19.094  0.1915E+01  0.5617E+00
    -18.955  0.3006E+01  0.9798E+00
    -18.816  0.5722E+01  0.1776E+01
    -18.677  0.9484E+01  0.3095E+01
    -18.538  0.6477E+01  0.3996E+01
    -18.399  0.2694E-01  0.4000E+01
    -18.260  0.5156E-09  0.4000E+01
    -18.121  0.0000E+00  0.4000E+01
    -17.982  0.0000E+00  0.4000E+01
    -17.842  0.0000E+00  0.4000E+01
    -17.703  0.0000E+00  0.4000E+01
    -17.564  0.0000E+00  0.4000E+01
    -17.425  0.0000E+00  0.4000E+01
    -17.286  0.0000E+00  0.4000E+01
    -17.147  0.0000E+00  0.4000E+01
    -17.008  0.0000E+00  0.4000E+01
    -16.869  0.0000E+00  0.4000E+01
    -16.730  0.0000E+00  0.4000E+01
    -16.590  0.0000E+00  0.4000E+01
    -16.451  0.0000E+00  0.4000E+01
    -16.312  0.0000E+00  0.4000E+01
    -16.173  0.0000E+00  0.4000E+01
    -16.034  0.0000E+00  0.4000E+01
    -15.895  0.0000E+00  0.4000E+01
    -15.756  0.0000E+00  0.4000E+01
    -15.617  0.0000E+00  0.4000E+01
    -15.477  0.0000E+00  0.4000E+01
    -15.338  0.0000E+00  0.4000E+01
    -15.199  0.0000E+00  0.4000E+01
    -15.060  0.0000E+00  0.4000E+01
    -14.921  0.0000E+00  0.4000E+01
    -14.782  0.0000E+00  0.4000E+01
    -14.643  0.0000E+00  0.4000E+01
    -14.504  0.0000E+00  0.4000E+01
    -14.365  0.0000E+00  0.4000E+01
    -14.225  0.0000E+00  0.4000E+01
    -14.086  0.0000E+00  0.4000E+01
    -13.947  0.0000E+00  0.4000E+01
    -13.808  0.0000E+00  0.4000E+01
    -13.669  0.0000E+00  0.4000E+01
    -13.530  0.0000E+00  0.4000E+01
    -13.391  0.0000E+00  0.4000E+01
    -13.252  0.0000E+00  0.4000E+01
    -13.113  0.0000E+00  0.4000E+01
    -12.973  0.0000E+00  0.4000E+01
    -12.834  0.0000E+00  0.4000E+01
    -12.695  0.0000E+00  0.4000E+01
    -12.556  0.0000E+00  0.4000E+01
    -12.417  0.0000E+00  0.4000E+01
    -12.278  0.0000E+00  0.4000E+01
    -12.139  0.0000E+00  0.4000E+01
    -12.000  0.0000E+00  0.4000E+01
    -11.861  0.0000E+00  0.4000E+01
    -11.721  0.0000E+00  0.4000E+01
    -11.582  0.0000E+00  0.4000E+01
    -11.443  0.0000E+00  0.4000E+01
    -11.304  0.0000E+00  0.4000E+01
    -11.165  0.0000E+00  0.4000E+01
    -11.026  0.0000E+00  0.4000E+01
    -10.887  0.0000E+00  0.4000E+01
    -10.748  0.0000E+00  0.4000E+01
    -10.609  0.0000E+00  0.4000E+01
    -10.469  0.0000E+00  0.4000E+01
    -10.330  0.0000E+00  0.4000E+01
    -10.191  0.0000E+00  0.4000E+01
    -10.052  0.0000E+00  0.4000E+01
     -9.913  0.0000E+00  0.4000E+01
     -9.774  0.0000E+00  0.4000E+01
     -9.635  0.0000E+00  0.4000E+01
     -9.496  0.0000E+00  0.4000E+01
     -9.356  0.0000E+00  0.4000E+01
     -9.217  0.0000E+00  0.4000E+01
     -9.078  0.0000E+00  0.4000E+01
     -8.939  0.0000E+00  0.4000E+01
     -8.800  0.0000E+00  0.4000E+01
     -8.661  0.0000E+00  0.4000E+01
     -8.522  0.0000E+00  0.4000E+01
     -8.383  0.0000E+00  0.4000E+01
     -8.244  0.0000E+00  0.4000E+01
     -8.104  0.0000E+00  0.4000E+01
     -7.965  0.0000E+00  0.4000E+01
     -7.826  0.0000E+00  0.4000E+01
     -7.687  0.0000E+00  0.4000E+01
     -7.548  0.0000E+00  0.4000E+01
     -7.409  0.0000E+00  0.4000E+01
     -7.270  0.0000E+00  0.4000E+01
     -7.131  0.3154E-14  0.4000E+01
     -6.992  0.5188E-04  0.4000E+01
     -6.852  0.1310E+01  0.4182E+01
     -6.713  0.1213E+02  0.5870E+01
     -6.574  0.1157E+02  0.7480E+01
     -6.435  0.1305E+02  0.9295E+01
     -6.296  0.1377E+02  0.1121E+02
     -6.157  0.1098E+02  0.1274E+02
     -6.018  0.1027E+02  0.1417E+02
     -5.879  0.9803E+01  0.1553E+02
     -5.740  0.3530E+01  0.1602E+02
     -5.600  0.8334E+01  0.1718E+02
     -5.461  0.2041E+02  0.2002E+02
     -5.322  0.1587E+02  0.2223E+02
     -5.183  0.8308E+01  0.2339E+02
     -5.044  0.4317E+01  0.2399E+02
     -4.905  0.3191E+00  0.2403E+02
     -4.766  0.1421E+00  0.2405E+02
     -4.627  0.1613E+00  0.2407E+02
     -4.488  0.7043E+00  0.2417E+02
     -4.348  0.2766E+01  0.2456E+02
     -4.209  0.3917E+01  0.2510E+02
     -4.070  0.2947E+01  0.2551E+02
     -3.931  0.2312E+01  0.2583E+02
     -3.792  0.2343E+01  0.2616E+02
     -3.653  0.3516E+01  0.2665E+02
     -3.514  0.1662E+01  0.2688E+02
     -3.375  0.1231E+01  0.2705E+02
     -3.235  0.1422E+01  0.2725E+02
     -3.096  0.1128E+01  0.2740E+02
     -2.957  0.2530E+01  0.2776E+02
     -2.818  0.2335E+01  0.2808E+02
     -2.679  0.1632E+01  0.2831E+02
     -2.540  0.2002E+01  0.2859E+02
     -2.401  0.3240E+01  0.2904E+02
     -2.262  0.3191E+01  0.2948E+02
     -2.123  0.2271E+01  0.2980E+02
     -1.983  0.2516E+01  0.3015E+02
     -1.844  0.3209E+01  0.3059E+02
     -1.705  0.3403E+01  0.3107E+02
     -1.566  0.3533E+01  0.3156E+02
     -1.427  0.3345E+01  0.3202E+02
     -1.288  0.5096E+01  0.3273E+02
     -1.149  0.5926E+01  0.3356E+02
     -1.010  0.3728E+01  0.3408E+02
     -0.871  0.3808E+01  0.3461E+02
     -0.731  0.2905E+01  0.3501E+02
     -0.592  0.2352E+01  0.3534E+02
     -0.453  0.1808E+01  0.3559E+02
     -0.314  0.1405E+01  0.3578E+02
     -0.175  0.1066E+01  0.3593E+02
     -0.036  0.4511E+00  0.3600E+02
      0.103  0.3530E-01  0.3600E+02
      0.242  0.2811E-05  0.3600E+02
      0.381  0.0000E+00  0.3600E+02
      0.521  0.0000E+00  0.3600E+02
      0.660  0.0000E+00  0.3600E+02
      0.799  0.0000E+00  0.3600E+02
      0.938  0.0000E+00  0.3600E+02
      1.077  0.0000E+00  0.3600E+02
      1.216  0.0000E+00  0.3600E+02
      1.355  0.0000E+00  0.3600E+02
      1.494  0.0000E+00  0.3600E+02
      1.633  0.0000E+00  0.3600E+02
      1.773  0.0000E+00  0.3600E+02
      1.912  0.0000E+00  0.3600E+02
      2.051  0.0000E+00  0.3600E+02
      2.190  0.4434E-16  0.3600E+02
      2.329  0.7958E-06  0.3600E+02
      2.468  0.7533E-02  0.3600E+02
      2.607  0.6728E-02  0.3600E+02
      2.746  0.2749E-05  0.3600E+02
      2.886  0.2466E-01  0.3601E+02
      3.025  0.8910E-01  0.3602E+02
      3.164  0.7856E-03  0.3602E+02
      3.303  0.1489E+00  0.3604E+02
      3.442  0.2177E-01  0.3604E+02
      3.581  0.1135E-01  0.3604E+02
      3.720  0.7816E-01  0.3605E+02
      3.859  0.1010E+00  0.3607E+02
      3.998  0.1992E+00  0.3610E+02
      4.138  0.2695E+00  0.3613E+02
      4.277  0.5396E-01  0.3614E+02
      4.416  0.2270E-03  0.3614E+02
      4.555  0.1444E+00  0.3616E+02
      4.694  0.2309E+00  0.3619E+02
      4.833  0.4625E+00  0.3626E+02
      4.972  0.1296E+00  0.3628E+02
      5.111  0.2168E+00  0.3631E+02
      5.250  0.1953E+00  0.3633E+02
      5.390  0.3617E+00  0.3638E+02
      5.529  0.1680E+00  0.3641E+02
      5.668  0.3515E+00  0.3646E+02
      5.807  0.4681E+00  0.3652E+02
      5.946  0.3734E+00  0.3657E+02
      6.085  0.5340E+00  0.3665E+02
      6.224  0.6958E+00  0.3674E+02
      6.363  0.3363E+00  0.3679E+02
      6.502  0.2544E+00  0.3683E+02
      6.642  0.1256E+00  0.3684E+02
      6.781  0.9729E+00  0.3698E+02
      6.920  0.1311E+01  0.3716E+02
      7.059  0.8490E+00  0.3728E+02
      7.198  0.5869E+00  0.3736E+02
      7.337  0.7925E+00  0.3747E+02
      7.476  0.1258E+01  0.3765E+02
      7.615  0.8776E+00  0.3777E+02
      7.754  0.8533E+00  0.3789E+02
      7.894  0.1853E+01  0.3814E+02
      8.033  0.1428E+01  0.3834E+02
      8.172  0.4868E+00  0.3841E+02
      8.311  0.1068E+01  0.3856E+02
      8.450  0.1097E+01  0.3871E+02
      8.589  0.9640E+00  0.3885E+02
      8.728  0.5644E+00  0.3892E+02
      8.867  0.1449E+01  0.3913E+02
      9.007  0.1223E+01  0.3930E+02
      9.146  0.1489E+01  0.3950E+02
      9.285  0.8526E+00  0.3962E+02
      9.424  0.1658E+01  0.3985E+02
      9.563  0.8696E+00  0.3997E+02
      9.702  0.6587E+00  0.4007E+02
      9.841  0.5636E+00  0.4014E+02
      9.980  0.7262E+00  0.4024E+02
     10.119  0.1412E+01  0.4044E+02
     10.259  0.1694E+01  0.4068E+02
     10.398  0.1298E+01  0.4086E+02
     10.537  0.1748E+01  0.4110E+02
     10.676  0.1707E+01  0.4134E+02
     10.815  0.1761E+01  0.4158E+02
     10.954  0.6654E+01  0.4251E+02
     11.093  0.3107E+01  0.4294E+02
     11.232  0.1443E+01  0.4314E+02
     11.371  0.9080E+00  0.4327E+02
     11.511  0.1111E+01  0.4342E+02
     11.650  0.1092E+01  0.4357E+02
     11.789  0.8389E+00  0.4369E+02
     11.928  0.5331E+00  0.4377E+02
     12.067  0.5588E+00  0.4384E+02
     12.206  0.9099E+00  0.4397E+02
     12.345  0.1380E+01  0.4416E+02
     12.484  0.7724E+00  0.4427E+02
     12.623  0.6359E+00  0.4436E+02
     12.763  0.1304E+01  0.4454E+02
     12.902  0.1317E+01  0.4472E+02
     13.041  0.2226E+01  0.4503E+02
     13.180  0.9201E+00  0.4516E+02
     13.319  0.2361E+01  0.4549E+02
     13.458  0.1560E+01  0.4571E+02
     13.597  0.1198E+01  0.4587E+02
     13.736  0.7350E+00  0.4597E+02
     13.875  0.9257E+00  0.4610E+02
     14.015  0.1582E+01  0.4632E+02
     14.154  0.2455E+01  0.4666E+02
     14.293  0.1575E+01  0.4688E+02
     14.432  0.1812E+01  0.4714E+02
     14.571  0.1663E+01  0.4737E+02
     14.710  0.7655E+00  0.4747E+02
     14.849  0.5270E+00  0.4755E+02
     14.988  0.5132E+00  0.4762E+02
     15.128  0.8571E+00  0.4774E+02
     15.267  0.5822E+00  0.4782E+02
     15.406  0.2431E+00  0.4785E+02
     15.545  0.4059E+00  0.4791E+02
     15.684  0.2267E+00  0.4794E+02
     15.823  0.5393E-01  0.4795E+02
     15.962  0.4784E-01  0.4795E+02
     16.101  0.2462E-03  0.4795E+02
     16.240  0.7787E-01  0.4797E+02
     16.380  0.1760E+00  0.4799E+02
     16.519  0.1688E-01  0.4799E+02
     16.658  0.1713E-07  0.4799E+02
     16.797  0.0000E+00  0.4799E+02
     16.936  0.0000E+00  0.4799E+02
     17.075  0.0000E+00  0.4799E+02
     17.214  0.0000E+00  0.4799E+02
     17.353  0.0000E+00  0.4799E+02
     17.492  0.5796E-15  0.4799E+02
     17.632  0.4136E-05  0.4799E+02
     17.771  0.1774E-01  0.4799E+02
     17.910  0.1078E-01  0.4800E+02
     18.049  0.3113E-06  0.4800E+02
     18.188  0.1151E-08  0.4800E+02
     18.327  0.2175E-02  0.4800E+02
     18.466  0.2618E-01  0.4800E+02
     18.605  0.1752E-03  0.4800E+02
     18.744  0.1719E-11  0.4800E+02
     18.884  0.0000E+00  0.4800E+02
     19.023  0.0000E+00  0.4800E+02
     19.162  0.0000E+00  0.4800E+02
     19.301  0.0000E+00  0.4800E+02
     19.440  0.0000E+00  0.4800E+02
     19.579  0.0000E+00  0.4800E+02
     19.718  0.0000E+00  0.4800E+02
     19.857  0.0000E+00  0.4800E+02
     19.996  0.0000E+00  0.4800E+02
     20.136  0.0000E+00  0.4800E+02
     20.275  0.0000E+00  0.4800E+02
