<?xml version="1.0" encoding="ISO-8859-1"?>
<modeling>
 <generator>
  <i name="program" type="string">vasp </i>
  <i name="version" type="string">6.4.2  </i>
  <i name="subversion" type="string">20Jul23 (build Mar  2 2025 11:04:54) complex                          parallel </i>
  <i name="platform" type="string">LinuxNV </i>
  <i name="date" type="string">2026 04 06 </i>
  <i name="time" type="string">21:56:47 </i>
 </generator>
 <incar>
  <i type="string" name="PREC">Accurate</i>
  <i name="EDIFF">      0.00000100</i>
  <i type="int" name="NSW">     0</i>
  <i type="int" name="ISIF">     2</i>
  <i name="ENCUT">    400.00000000</i>
  <i type="int" name="ISMEAR">     0</i>
  <i name="SIGMA">      0.05000000</i>
  <i name="PSTRESS">      0.00000000</i>
  <i type="logical" name="LWAVE"> F  </i>
  <i type="logical" name="LCHARG"> F  </i>
 </incar>
 <primitive_cell>
  <structure name="primitive_cell" >
   <crystal>
    <varray name="basis" >
     <v>       2.11500000       2.11500000      -2.11500000 </v>
     <v>      -2.11500000       2.11500000       2.11500000 </v>
     <v>       2.11500000      -2.11500000       2.11500000 </v>
    </varray>
    <i name="volume">     37.84348350 </i>
    <varray name="rec_basis" >
     <v>       0.23640662       0.23640662      -0.00000000 </v>
     <v>      -0.00000000       0.23640662       0.23640662 </v>
     <v>       0.23640662      -0.00000000       0.23640662 </v>
    </varray>
   </crystal>
   <varray name="positions" >
    <v>       0.00000000       0.00000000       0.00000000 </v>
   </varray>
  </structure>
  <varray name="primitive_index" >
   <v type="int" >        1 </v>
  </varray>
 </primitive_cell>
 <kpoints>
  <generation param="Gamma">
   <v type="int" name="divisions">       7        7        7 </v>
   <v name="usershift">      0.00000000       0.00000000       0.00000000 </v>
   <v name="genvec1">      0.14285714       0.00000000       0.00000000 </v>
   <v name="genvec2">      0.00000000       0.14285714       0.00000000 </v>
   <v name="genvec3">      0.00000000       0.00000000       0.14285714 </v>
   <v name="shift">      0.00000000       0.00000000       0.00000000 </v>
  </generation>
  <varray name="kpointlist" >
   <v>       0.00000000       0.00000000       0.00000000 </v>
   <v>       0.14285714       0.00000000       0.00000000 </v>
   <v>       0.28571429       0.00000000       0.00000000 </v>
   <v>       0.42857143       0.00000000       0.00000000 </v>
   <v>       0.14285714       0.14285714       0.00000000 </v>
   <v>       0.28571429       0.14285714       0.00000000 </v>
   <v>       0.42857143       0.14285714       0.00000000 </v>
   <v>       0.28571429       0.28571429       0.00000000 </v>
   <v>       0.42857143       0.28571429       0.00000000 </v>
   <v>       0.42857143       0.42857143       0.00000000 </v>
   <v>       0.14285714       0.14285714       0.14285714 </v>
   <v>       0.28571429       0.14285714       0.14285714 </v>
   <v>       0.42857143       0.14285714       0.14285714 </v>
   <v>       0.28571429       0.28571429       0.14285714 </v>
   <v>       0.42857143       0.28571429       0.14285714 </v>
   <v>       0.42857143       0.42857143       0.14285714 </v>
   <v>       0.28571429       0.28571429       0.28571429 </v>
   <v>       0.42857143       0.28571429       0.28571429 </v>
   <v>       0.42857143       0.42857143       0.28571429 </v>
   <v>       0.42857143       0.42857143       0.42857143 </v>
  </varray>
  <varray name="weights" >
   <v>       0.00291545 </v>
   <v>       0.01749271 </v>
   <v>       0.01749271 </v>
   <v>       0.01749271 </v>
   <v>       0.03498542 </v>
   <v>       0.06997085 </v>
   <v>       0.06997085 </v>
   <v>       0.03498542 </v>
   <v>       0.06997085 </v>
   <v>       0.03498542 </v>
   <v>       0.02332362 </v>
   <v>       0.06997085 </v>
   <v>       0.06997085 </v>
   <v>       0.06997085 </v>
   <v>       0.13994169 </v>
   <v>       0.06997085 </v>
   <v>       0.02332362 </v>
   <v>       0.06997085 </v>
   <v>       0.06997085 </v>
   <v>       0.02332362 </v>
  </varray>
 </kpoints>
 <parameters>
  <separator name="general" >
   <i type="string" name="SYSTEM">unknown system</i>
   <i type="logical" name="LCOMPAT"> F  </i>
  </separator>
  <separator name="electronic" >
   <i type="string" name="PREC">accura</i>
   <i name="ENMAX">    400.00000000</i>
   <i name="ENAUG">    250.69500000</i>
   <i name="EDIFF">      0.00000100</i>
   <i type="int" name="IALGO">    38</i>
   <i type="int" name="IWAVPR">    10</i>
   <i type="int" name="NBANDS">     5</i>
   <i type="int" name="NBANDSLOW">    -1</i>
   <i type="int" name="NBANDSHIGH">    -1</i>
   <i name="NELECT">      2.00000000</i>
   <i type="int" name="TURBO">     0</i>
   <i type="int" name="IRESTART">     0</i>
   <i type="int" name="NREBOOT">     0</i>
   <i type="int" name="NMIN">     0</i>
   <i name="EREF">      0.00000000</i>
   <separator name="electronic smearing" >
    <i type="int" name="ISMEAR">     0</i>
    <i name="SIGMA">      0.05000000</i>
    <i name="KSPACING">      0.50000000</i>
    <i type="logical" name="KGAMMA"> T  </i>
    <i type="logical" name="KBLOWUP"> T  </i>
   </separator>
   <separator name="electronic projectors" >
    <i type="logical" name="LREAL"> F  </i>
    <v name="ROPT">      0.00000000</v>
    <i type="int" name="LMAXPAW">  -100</i>
    <i type="int" name="LMAXMIX">     2</i>
    <i type="logical" name="NLSPLINE"> F  </i>
   </separator>
   <separator name="electronic startup" >
    <i type="int" name="ISTART">     0</i>
    <i type="int" name="ICHARG">     2</i>
    <i type="int" name="INIWAV">     1</i>
   </separator>
   <separator name="electronic spin" >
    <i type="int" name="ISPIN">     1</i>
    <i type="logical" name="LNONCOLLINEAR"> F  </i>
    <v name="MAGMOM">      1.00000000      1.00000000</v>
    <i name="NUPDOWN">     -1.00000000</i>
    <i type="logical" name="LSORBIT"> F  </i>
    <v name="SAXIS">      0.00000000      0.00000000      1.00000000</v>
    <i type="logical" name="LSPIRAL"> F  </i>
    <v name="QSPIRAL">      0.00000000      0.00000000      0.00000000</v>
    <i type="logical" name="LZEROZ"> F  </i>
   </separator>
   <separator name="electronic exchange-correlation" >
    <i type="logical" name="LASPH"> F  </i>
    <i type="logical" name="LMETAGGA"> F  </i>
   </separator>
   <separator name="electronic convergence" >
    <i type="int" name="NELM">    60</i>
    <i type="int" name="NELMDL">    -5</i>
    <i type="int" name="NELMIN">     2</i>
    <i name="ENINI">    400.00000000</i>
    <separator name="electronic convergence detail" >
     <i type="logical" name="LDIAG"> T  </i>
     <i type="logical" name="LSUBROT"> F  </i>
     <i name="WEIMIN">      0.00000000</i>
     <i name="EBREAK">      0.00000005</i>
     <i name="DEPER">      0.30000000</i>
     <i type="int" name="NRMM">     4</i>
     <i name="TIME">      0.40000000</i>
    </separator>
   </separator>
   <separator name="electronic mixer" >
    <i name="AMIX">      0.40000000</i>
    <i name="BMIX">      1.00000000</i>
    <i name="AMIN">      0.10000000</i>
    <i name="AMIX_MAG">      1.60000000</i>
    <i name="BMIX_MAG">      1.00000000</i>
    <separator name="electronic mixer details" >
     <i type="int" name="IMIX">     4</i>
     <i type="logical" name="MIXFIRST"> F  </i>
     <i type="int" name="MAXMIX">   -45</i>
     <i name="WC">    100.00000000</i>
     <i type="int" name="INIMIX">     1</i>
     <i type="int" name="MIXPRE">     1</i>
     <i type="int" name="MREMOVE">     5</i>
    </separator>
   </separator>
   <separator name="electronic dipolcorrection" >
    <i type="logical" name="LDIPOL"> F  </i>
    <i type="logical" name="LMONO"> F  </i>
    <i type="int" name="IDIPOL">     0</i>
    <i name="EPSILON">      1.00000000</i>
    <v name="DIPOL">   -100.00000000   -100.00000000   -100.00000000</v>
    <i name="EFIELD">      0.00000000</i>
   </separator>
  </separator>
  <separator name="grids" >
   <i type="int" name="NGX">    28</i>
   <i type="int" name="NGY">    28</i>
   <i type="int" name="NGZ">    28</i>
   <i type="int" name="NGXF">    56</i>
   <i type="int" name="NGYF">    56</i>
   <i type="int" name="NGZF">    56</i>
   <i type="logical" name="ADDGRID"> F  </i>
  </separator>
  <separator name="ionic" >
   <i type="int" name="NSW">     0</i>
   <i type="int" name="IBRION">    -1</i>
   <i type="int" name="MDALGO">     0</i>
   <i type="int" name="ISIF">     2</i>
   <i name="PSTRESS">      0.00000000</i>
   <i name="EDIFFG">      0.00001000</i>
   <i type="int" name="NFREE">     0</i>
   <i name="POTIM">      0.50000000</i>
   <i name="SMASS">     -3.00000000</i>
   <i name="SCALEE">      1.00000000</i>
  </separator>
  <separator name="ionic md" >
   <i name="TEBEG">      0.00010000</i>
   <i name="TEEND">      0.00010000</i>
   <i type="int" name="NBLOCK">     1</i>
   <i type="int" name="KBLOCK">     1</i>
   <i type="int" name="NPACO">   256</i>
   <i name="APACO">     10.00000000</i>
  </separator>
  <separator name="symmetry" >
   <i type="int" name="ISYM">     2</i>
   <i name="SYMPREC">      0.00001000</i>
  </separator>
  <separator name="dos" >
   <i type="int" name="LORBIT">     0</i>
   <v name="RWIGS">     -1.00000000</v>
   <i type="int" name="NEDOS">   301</i>
   <i name="EMIN">     10.00000000</i>
   <i name="EMAX">    -10.00000000</i>
   <i name="EFERMI">      0.00000000</i>
  </separator>
  <separator name="writing" >
   <i type="int" name="NWRITE">     2</i>
   <i type="logical" name="LWAVE"> F  </i>
   <i type="logical" name="LDOWNSAMPLE"> F  </i>
   <i type="logical" name="LCHARG"> F  </i>
   <i type="logical" name="LPARD"> F  </i>
   <i type="logical" name="LVTOT"> F  </i>
   <i type="logical" name="LVHAR"> F  </i>
   <i type="logical" name="LELF"> F  </i>
   <i type="logical" name="LOPTICS"> F  </i>
   <v name="STM">      0.00000000      0.00000000      0.00000000      0.00000000      0.00000000      0.00000000      0.00000000</v>
  </separator>
  <separator name="performance" >
   <i type="int" name="NPAR">     1</i>
   <i type="int" name="NSIM">     4</i>
   <i type="int" name="NBLK">    -1</i>
   <i type="logical" name="LPLANE"> T  </i>
   <i type="logical" name="LSCALAPACK"> T  </i>
   <i type="logical" name="LSCAAWARE"> F  </i>
   <i type="logical" name="LSCALU"> F  </i>
   <i type="logical" name="LASYNC"> F  </i>
   <i type="logical" name="LORBITALREAL"> F  </i>
  </separator>
  <separator name="miscellaneous" >
   <i type="int" name="IDIOT">     3</i>
   <i type="int" name="PHON_NSTRUCT">    -1</i>
   <i type="logical" name="LMUSIC"> F  </i>
   <v name="POMASS">     22.99000000</v>
   <v name="DARWINR">      0.00000000</v>
   <v name="DARWINV">      1.00000000</v>
   <i type="logical" name="LCORR"> T  </i>
  </separator>
  <i type="logical" name="GGA_COMPAT"> T  </i>
  <i type="logical" name="LBERRY"> F  </i>
  <i type="int" name="ICORELEVEL">     0</i>
  <i type="logical" name="LDAU"> F  </i>
  <i type="int" name="I_CONSTRAINED_M">     0</i>
  <separator name="electronic exchange-correlation" >
   <i type="string" name="GGA">--</i>
   <i type="int" name="VOSKOWN">     0</i>
   <i type="logical" name="LHFCALC"> F  </i>
   <i type="string" name="PRECFOCK"></i>
   <i type="logical" name="LSYMGRAD"> F  </i>
   <i type="logical" name="LHFONE"> F  </i>
   <i type="logical" name="LRHFCALC"> F  </i>
   <i type="logical" name="LTHOMAS"> F  </i>
   <i type="logical" name="LMODELHF"> F  </i>
   <i type="logical" name="LFOCKACE"> F  </i>
   <i name="ENCUT4O">     -1.00000000</i>
   <i type="int" name="EXXOEP">     0</i>
   <i type="int" name="FOURORBIT">     0</i>
   <i name="AEXX">      0.00000000</i>
   <i name="HFALPHA">      0.00000000</i>
   <i name="MCALPHA">      0.00000000</i>
   <i name="ALDAX">      1.00000000</i>
   <i name="AGGAX">      1.00000000</i>
   <i name="ALDAC">      1.00000000</i>
   <i name="AGGAC">      1.00000000</i>
   <i type="int" name="NKREDX">     1</i>
   <i type="int" name="NKREDY">     1</i>
   <i type="int" name="NKREDZ">     1</i>
   <i type="logical" name="SHIFTRED"> F  </i>
   <i type="logical" name="ODDONLY"> F  </i>
   <i type="logical" name="EVENONLY"> F  </i>
   <i type="int" name="LMAXFOCK">     0</i>
   <i type="int" name="NMAXFOCKAE">     0</i>
   <i type="logical" name="LFOCKAEDFT"> F  </i>
   <i name="HFSCREEN">      0.00000000</i>
   <i name="HFSCREENC">      0.00000000</i>
   <i type="int" name="NBANDSGWLOW">     0</i>
  </separator>
  <separator name="vdW DFT" >
   <i type="logical" name="LUSE_VDW"> F  </i>
   <i type="int" name="IVDW_NL">     1</i>
   <i type="logical" name="LSPIN_VDW"> F  </i>
   <i name="Zab_VDW">     -0.84910000</i>
   <i name="PARAM1">      0.12340000</i>
   <i name="PARAM2">      1.00000000</i>
   <i name="PARAM3">      0.00000000</i>
  </separator>
  <separator name="model GW" >
   <i type="int" name="MODEL_GW">     0</i>
   <i name="MODEL_EPS0">     22.70609010</i>
   <i name="MODEL_ALPHA">      1.00000000</i>
  </separator>
  <separator name="linear response parameters" >
   <i type="logical" name="LEPSILON"> F  </i>
   <i type="logical" name="LRPA"> F  </i>
   <i type="logical" name="LNABLA"> F  </i>
   <i type="logical" name="LVEL"> F  </i>
   <i name="CSHIFT">      0.10000000</i>
   <i name="OMEGAMAX">     -1.00000000</i>
   <i name="DEG_THRESHOLD">      0.00200000</i>
   <i name="RTIME">     -0.10000000</i>
   <i name="WPLASMAI">      0.00000000</i>
   <v name="DFIELD">      0.00000000      0.00000000      0.00000000</v>
   <v name="WPLASMA">      0.00000000      0.00000000      0.00000000      0.00000000      0.00000000      0.00000000      0.00000000      0.00000000      0.00000000</v>
  </separator>
  <separator name="orbital magnetization" >
   <i type="logical" name="NUCIND"> F  </i>
   <v name="MAGPOS">      0.00000000      0.00000000      0.00000000</v>
   <i type="logical" name="LNICSALL"> T  </i>
   <i type="logical" name="ORBITALMAG"> F  </i>
   <i type="logical" name="LMAGBLOCH"> F  </i>
   <i type="logical" name="LCHIMAG"> F  </i>
   <i type="logical" name="LGAUGE"> T  </i>
   <i type="int" name="MAGATOM">     0</i>
   <v name="MAGDIPOL">      0.00000000      0.00000000      0.00000000</v>
   <v name="AVECCONST">      0.00000000      0.00000000      0.00000000</v>
  </separator>
  <separator name="response functions" >
   <i type="logical" name="LALL_IN_ONE"> F  </i>
   <i type="int" name="IALL_IN_ONE">    -1</i>
   <i type="int" name="NBANDS_WAVE">    -1</i>
   <i type="logical" name="LFINITE_TEMPERATURE"> F  </i>
   <i type="logical" name="LADDER"> F  </i>
   <i type="logical" name="LRPAFORCE"> F  </i>
   <i type="logical" name="LFXC"> F  </i>
   <i type="logical" name="LHARTREE"> T  </i>
   <i type="int" name="IBSE">     0</i>
   <v type="int" name="KPOINT">    -1     0     0     0</v>
   <i type="logical" name="LTCTC"> F  </i>
   <i type="logical" name="LTCTE"> F  </i>
   <i type="logical" name="LTETE"> F  </i>
   <i type="logical" name="LTRIPLET"> F  </i>
   <i type="logical" name="LFXCEPS"> F  </i>
   <i type="logical" name="LFXHEG"> F  </i>
   <i type="int" name="NATURALO">     2</i>
   <i type="logical" name="LHOLEGF"> F  </i>
   <i type="logical" name="L2ORDER"> F  </i>
   <i type="logical" name="LDMP1"> F  </i>
   <i type="logical" name="LMP2LT"> F  </i>
   <i type="logical" name="LSMP2LT"> F  </i>
   <i type="logical" name="LGWLF"> F  </i>
   <i name="ENCUTGW">     -1.60000002</i>
   <i name="ENCUTGWSOFT">     -1.60000002</i>
   <i name="ENCUTLF">     -1.00000000</i>
   <i type="logical" name="LESF_SPLINES"> F  </i>
   <i type="int" name="LMAXMP2">    -1</i>
   <i name="SCISSOR">      0.00000000</i>
   <i type="int" name="NOMEGA">     0</i>
   <i type="int" name="NOMEGAR">     0</i>
   <i type="int" name="NBANDSGW">    -1</i>
   <i type="int" name="NBANDSO">    -1</i>
   <i type="int" name="NBANDSV">    -1</i>
   <i type="int" name="NELMGW">     1</i>
   <i type="int" name="NELMHF">     1</i>
   <i type="int" name="DIM">     3</i>
   <i type="int" name="IESPILON">     4</i>
   <i type="int" name="ANTIRES">     0</i>
   <i name="OMEGAMAX">    -30.00000000</i>
   <i name="OMEGAMIN">    -30.00000000</i>
   <i name="OMEGATL">   -200.00000000</i>
   <i type="int" name="OMEGAGRID">     0</i>
   <i name="CSHIFT">     -0.10000000</i>
   <i type="logical" name="LSELFENERGY"> F  </i>
   <i type="logical" name="LSPECTRAL"> F  </i>
   <i type="logical" name="LSPECTRALGW"> F  </i>
   <i type="logical" name="LSINGLES"> F  </i>
   <i type="logical" name="LFERMIGW"> F  </i>
   <i type="logical" name="ODDONLYGW"> F  </i>
   <i type="logical" name="EVENONLYGW"> F  </i>
   <i type="int" name="NKREDLFX">     1</i>
   <i type="int" name="NKREDLFY">     1</i>
   <i type="int" name="NKREDLFZ">     1</i>
   <i type="int" name="MAXMEM">  2800</i>
   <i type="int" name="TELESCOPE">     0</i>
   <i type="int" name="NTAUPAR">    -1</i>
   <i type="int" name="NOMEGAPAR">    -1</i>
   <i name="DAMP_NEWTON">      0.80000001</i>
   <i name="LAMBDA">      1.00000000</i>
  </separator>
  <separator name="External order field" >
   <i name="OFIELD_KAPPA">      0.00000000</i>
   <v name="OFIELD_K">      0.00000000      0.00000000      0.00000000</v>
   <i name="OFIELD_Q6_NEAR">      0.00000000</i>
   <i name="OFIELD_Q6_FAR">      0.00000000</i>
   <i name="OFIELD_A">      0.00000000</i>
  </separator>
  <separator name="optional k-points parameters" >
   <i type="int" name="KPOINTS_OPT_MODE">     1</i>
   <i type="logical" name="LKPOINTS_OPT"> F  </i>
  </separator>
 </parameters>
 <atominfo>
  <atoms>       2 </atoms>
  <types>       1 </types>
  <array name="atoms" >
   <dimension dim="1">ion</dimension>
   <field type="string">element</field>
   <field type="int">atomtype</field>
   <set>
    <rc><c>Na</c><c>   1</c></rc>
    <rc><c>Na</c><c>   1</c></rc>
   </set>
  </array>
  <array name="atomtypes" >
   <dimension dim="1">type</dimension>
   <field type="int">atomspertype</field>
   <field type="string">element</field>
   <field>mass</field>
   <field>valence</field>
   <field type="string">pseudopotential</field>
   <set>
    <rc><c>   2</c><c>Na</c><c>     22.99000000</c><c>      1.00000000</c><c>  PAW_PBE Na 08Apr2002                  </c></rc>
   </set>
  </array>
 </atominfo>
 <structure name="initialpos" >
  <crystal>
   <varray name="basis" >
    <v>       4.23000000       0.00000000       0.00000000 </v>
    <v>       0.00000000       4.23000000       0.00000000 </v>
    <v>       0.00000000       0.00000000       4.23000000 </v>
   </varray>
   <i name="volume">     75.68696700 </i>
   <varray name="rec_basis" >
    <v>       0.23640662       0.00000000       0.00000000 </v>
    <v>       0.00000000       0.23640662       0.00000000 </v>
    <v>       0.00000000       0.00000000       0.23640662 </v>
   </varray>
  </crystal>
  <varray name="positions" >
   <v>       0.00000000       0.00000000       0.00000000 </v>
   <v>       0.50000000       0.50000000       0.50000000 </v>
  </varray>
 </structure>
 <calculation>
  <scstep>
   <time name="dav">    0.23    0.23</time>
   <time name="total">    0.25    0.25</time>
   <energy>
    <i name="alphaZ">     -0.96798943 </i>
    <i name="ewald">    -12.38869679 </i>
    <i name="hartreedc">     -0.00626525 </i>
    <i name="XCdc">    -73.15260009 </i>
    <i name="pawpsdc">     79.75229217 </i>
    <i name="pawaedc">     -4.73530507 </i>
    <i name="eentropy">     -0.00088144 </i>
    <i name="bandstr">     -0.59156275 </i>
    <i name="atom">     10.31609890 </i>
    <i name="e_fr_energy">     -1.77490974 </i>
    <i name="e_wo_entrp">     -1.77402831 </i>
    <i name="e_0_energy">     -1.77446903 </i>
   </energy>
  </scstep>
  <scstep>
   <time name="dav">    0.16    0.16</time>
   <time name="total">    0.16    0.16</time>
   <energy>
    <i name="e_fr_energy">     -2.59436020 </i>
    <i name="e_wo_entrp">     -2.59357487 </i>
    <i name="e_0_energy">     -2.59396753 </i>
   </energy>
  </scstep>
  <scstep>
   <time name="dav">    0.18    0.18</time>
   <time name="total">    0.18    0.18</time>
   <energy>
    <i name="e_fr_energy">     -2.60496254 </i>
    <i name="e_wo_entrp">     -2.60418416 </i>
    <i name="e_0_energy">     -2.60457335 </i>
   </energy>
  </scstep>
  <scstep>
   <time name="dav">    0.17    0.17</time>
   <time name="total">    0.17    0.17</time>
   <energy>
    <i name="e_fr_energy">     -2.60502769 </i>
    <i name="e_wo_entrp">     -2.60424943 </i>
    <i name="e_0_energy">     -2.60463856 </i>
   </energy>
  </scstep>
  <scstep>
   <time name="dav">    0.18    0.18</time>
   <time name="total">    0.20    0.20</time>
   <energy>
    <i name="e_fr_energy">     -2.60502822 </i>
    <i name="e_wo_entrp">     -2.60424995 </i>
    <i name="e_0_energy">     -2.60463908 </i>
   </energy>
  </scstep>
  <scstep>
   <time name="dav">    0.15    0.14</time>
   <time name="total">    0.18    0.17</time>
   <energy>
    <i name="e_fr_energy">     -2.60501934 </i>
    <i name="e_wo_entrp">     -2.60424096 </i>
    <i name="e_0_energy">     -2.60463015 </i>
   </energy>
  </scstep>
  <scstep>
   <time name="dav">    0.13    0.13</time>
   <time name="total">    0.16    0.15</time>
   <energy>
    <i name="e_fr_energy">     -2.60460987 </i>
    <i name="e_wo_entrp">     -2.60383131 </i>
    <i name="e_0_energy">     -2.60422059 </i>
   </energy>
  </scstep>
  <scstep>
   <time name="dav">    0.16    0.16</time>
   <time name="total">    0.19    0.19</time>
   <energy>
    <i name="e_fr_energy">     -2.60460187 </i>
    <i name="e_wo_entrp">     -2.60382332 </i>
    <i name="e_0_energy">     -2.60421259 </i>
   </energy>
  </scstep>
  <scstep>
   <time name="dav">    0.12    0.12</time>
   <time name="total">    0.13    0.13</time>
   <energy>
    <i name="alphaZ">     -0.96798943 </i>
    <i name="ewald">    -12.38869679 </i>
    <i name="hartreedc">     -0.02915517 </i>
    <i name="XCdc">    -73.03046850 </i>
    <i name="pawpsdc">     78.78706853 </i>
    <i name="pawaedc">     -3.77451738 </i>
    <i name="eentropy">     -0.00077855 </i>
    <i name="bandstr">     -1.51616315 </i>
    <i name="atom">     10.31609890 </i>
    <i name="e_fr_energy">     -2.60460156 </i>
    <i name="e_wo_entrp">     -2.60382300 </i>
    <i name="e_0_energy">     -2.60421228 </i>
   </energy>
  </scstep>
  <structure>
   <crystal>
    <varray name="basis" >
     <v>       4.23000000       0.00000000       0.00000000 </v>
     <v>       0.00000000       4.23000000       0.00000000 </v>
     <v>       0.00000000       0.00000000       4.23000000 </v>
    </varray>
    <i name="volume">     75.68696700 </i>
    <varray name="rec_basis" >
     <v>       0.23640662       0.00000000       0.00000000 </v>
     <v>       0.00000000       0.23640662       0.00000000 </v>
     <v>       0.00000000       0.00000000       0.23640662 </v>
    </varray>
   </crystal>
   <varray name="positions" >
    <v>       0.00000000       0.00000000       0.00000000 </v>
    <v>       0.50000000       0.50000000       0.50000000 </v>
   </varray>
  </structure>
  <varray name="forces" >
   <v>       0.00000000       0.00000000       0.00000000 </v>
   <v>      -0.00000000      -0.00000000       0.00000000 </v>
  </varray>
  <varray name="stress" >
   <v>      -1.87047565      -0.00000000       0.00000000 </v>
   <v>      -0.00000000      -1.87047565      -0.00000000 </v>
   <v>       0.00000000       0.00000000      -1.87047565 </v>
  </varray>
  <energy>
   <i name="e_fr_energy">     -2.60460156 </i>
   <i name="e_wo_entrp">     -2.60382300 </i>
   <i name="e_0_energy">     -2.60421228 </i>
  </energy>
  <time name="totalsc">    2.05    1.98</time>
  <eigenvalues>
   <array>
    <dimension dim="1">band</dimension>
    <dimension dim="2">kpoint</dimension>
    <dimension dim="3">spin</dimension>
    <field>eigene</field>
    <field>occ</field>
    <set>
     <set comment="spin 1">
      <set comment="kpoint 1">
       <r>   -2.7204    1.0000 </r>
       <r>    4.9991    0.0000 </r>
       <r>    4.9991    0.0000 </r>
       <r>    5.3284    0.0000 </r>
       <r>    5.3284    0.0000 </r>
      </set>
      <set comment="kpoint 2">
       <r>   -2.5446    1.0000 </r>
       <r>    3.2883    0.0000 </r>
       <r>    5.1701    0.0000 </r>
       <r>    5.4758    0.0000 </r>
       <r>    5.4758    0.0000 </r>
      </set>
      <set comment="kpoint 3">
       <r>   -2.0196    1.0000 </r>
       <r>    1.5369    0.0000 </r>
       <r>    5.6830    0.0000 </r>
       <r>    5.9191    0.0000 </r>
       <r>    5.9191    0.0000 </r>
      </set>
      <set comment="kpoint 4">
       <r>   -1.1534    1.0000 </r>
       <r>    0.0400    1.0000 </r>
       <r>    6.5376    0.0000 </r>
       <r>    6.6611    0.0000 </r>
       <r>    6.6611    0.0000 </r>
      </set>
      <set comment="kpoint 5">
       <r>   -2.3692    1.0000 </r>
       <r>    3.2425    0.0000 </r>
       <r>    3.7263    0.0000 </r>
       <r>    5.6232    0.0000 </r>
       <r>    6.1223    0.0000 </r>
      </set>
      <set comment="kpoint 6">
       <r>   -1.8455    1.0000 </r>
       <r>    1.6945    0.0000 </r>
       <r>    4.0075    0.0000 </r>
       <r>    6.0663    0.0000 </r>
       <r>    6.6834    0.0000 </r>
      </set>
      <set comment="kpoint 7">
       <r>   -0.9816    1.0000 </r>
       <r>    0.2080    1.0000 </r>
       <r>    4.8029    0.0000 </r>
       <r>    5.9203    0.0000 </r>
       <r>    6.8075    0.0000 </r>
      </set>
      <set comment="kpoint 8">
       <r>   -1.3258    1.0000 </r>
       <r>    1.9736    0.0000 </r>
       <r>    2.4738    0.0000 </r>
       <r>    5.6363    0.0000 </r>
       <r>    6.5082    0.0000 </r>
      </set>
      <set comment="kpoint 9">
       <r>   -0.4691    1.0000 </r>
       <r>    0.7056    0.0000 </r>
       <r>    3.0721    0.0000 </r>
       <r>    4.1990    0.0000 </r>
       <r>    7.2457    0.0000 </r>
      </set>
      <set comment="kpoint 10">
       <r>    0.3719    0.9996 </r>
       <r>    1.3403    0.0000 </r>
       <r>    1.7965    0.0000 </r>
       <r>    2.7483    0.0000 </r>
       <r>    7.9641    0.0000 </r>
      </set>
      <set comment="kpoint 11">
       <r>   -2.1942    1.0000 </r>
       <r>    3.4017    0.0000 </r>
       <r>    3.4017    0.0000 </r>
       <r>    4.3673    0.0000 </r>
       <r>    7.8932    0.0000 </r>
      </set>
      <set comment="kpoint 12">
       <r>   -1.6719    1.0000 </r>
       <r>    1.8515    0.0000 </r>
       <r>    3.8796    0.0000 </r>
       <r>    4.6354    0.0000 </r>
       <r>    7.2281    0.0000 </r>
      </set>
      <set comment="kpoint 13">
       <r>   -0.8102    1.0000 </r>
       <r>    0.3754    0.9994 </r>
       <r>    4.6766    0.0000 </r>
       <r>    5.4178    0.0000 </r>
       <r>    5.7929    0.0000 </r>
      </set>
      <set comment="kpoint 14">
       <r>   -1.1535    1.0000 </r>
       <r>    2.1320    0.0000 </r>
       <r>    2.6135    0.0000 </r>
       <r>    4.8231    0.0000 </r>
       <r>    5.7610    0.0000 </r>
      </set>
      <set comment="kpoint 15">
       <r>   -0.2993    1.0000 </r>
       <r>    0.8707    0.0000 </r>
       <r>    3.2179    0.0000 </r>
       <r>    4.3385    0.0000 </r>
       <r>    5.5958    0.0000 </r>
      </set>
      <set comment="kpoint 16">
       <r>    0.5385    0.0842 </r>
       <r>    1.4983    0.0000 </r>
       <r>    1.9637    0.0000 </r>
       <r>    2.9063    0.0000 </r>
       <r>    6.3284    0.0000 </r>
      </set>
      <set comment="kpoint 17">
       <r>   -0.6395    1.0000 </r>
       <r>    2.6073    0.0000 </r>
       <r>    2.6073    0.0000 </r>
       <r>    3.5601    0.0000 </r>
       <r>    5.9455    0.0000 </r>
      </set>
      <set comment="kpoint 18">
       <r>    0.2065    1.0000 </r>
       <r>    1.3590    0.0000 </r>
       <r>    3.4006    0.0000 </r>
       <r>    4.1425    0.0000 </r>
       <r>    4.5133    0.0000 </r>
      </set>
      <set comment="kpoint 19">
       <r>    1.0341    0.0000 </r>
       <r>    1.9725    0.0000 </r>
       <r>    2.4370    0.0000 </r>
       <r>    3.3578    0.0000 </r>
       <r>    4.6089    0.0000 </r>
      </set>
      <set comment="kpoint 20">
       <r>    1.8402    0.0000 </r>
       <r>    2.7643    0.0000 </r>
       <r>    2.7643    0.0000 </r>
       <r>    3.5962    0.0000 </r>
       <r>    3.8752    0.0000 </r>
      </set>
     </set>
    </set>
   </array>
  </eigenvalues>
  <separator name="orbital magnetization" >
   <v name="MAGDIPOLOUT">      0.00000000      0.00000000      0.00000000</v>
  </separator>
  <dos>
   <i name="efermi">      0.48975112 </i>
   <total>
    <array>
     <dimension dim="1">gridpoints</dimension>
     <dimension dim="2">spin</dimension>
     <field>energy</field>
     <field>total</field>
     <field>integrated</field>
     <set>
      <set comment="spin 1">
       <r>    -3.2547     0.0000     0.0000 </r>
       <r>    -3.2155     0.0000     0.0000 </r>
       <r>    -3.1763     0.0000     0.0000 </r>
       <r>    -3.1371     0.0000     0.0000 </r>
       <r>    -3.0980     0.0000     0.0000 </r>
       <r>    -3.0588     0.0000     0.0000 </r>
       <r>    -3.0196     0.0000     0.0000 </r>
       <r>    -2.9804     0.0000     0.0000 </r>
       <r>    -2.9413     0.0000     0.0000 </r>
       <r>    -2.9021     0.0000     0.0000 </r>
       <r>    -2.8629     0.0000     0.0000 </r>
       <r>    -2.8237     0.0003     0.0000 </r>
       <r>    -2.7846     0.0049     0.0002 </r>
       <r>    -2.7454     0.0306     0.0014 </r>
       <r>    -2.7062     0.0619     0.0038 </r>
       <r>    -2.6670     0.0416     0.0055 </r>
       <r>    -2.6278     0.0171     0.0061 </r>
       <r>    -2.5887     0.0873     0.0096 </r>
       <r>    -2.5495     0.3025     0.0214 </r>
       <r>    -2.5103     0.3474     0.0350 </r>
       <r>    -2.4711     0.1349     0.0403 </r>
       <r>    -2.4320     0.0804     0.0434 </r>
       <r>    -2.3928     0.3835     0.0585 </r>
       <r>    -2.3536     0.7466     0.0877 </r>
       <r>    -2.3144     0.4808     0.1066 </r>
       <r>    -2.2753     0.1140     0.1110 </r>
       <r>    -2.2361     0.1345     0.1163 </r>
       <r>    -2.1969     0.4186     0.1327 </r>
       <r>    -2.1577     0.4517     0.1504 </r>
       <r>    -2.1186     0.1629     0.1568 </r>
       <r>    -2.0794     0.0570     0.1590 </r>
       <r>    -2.0402     0.2105     0.1672 </r>
       <r>    -2.0010     0.3754     0.1820 </r>
       <r>    -1.9618     0.2233     0.1907 </r>
       <r>    -1.9227     0.0931     0.1944 </r>
       <r>    -1.8835     0.4560     0.2122 </r>
       <r>    -1.8443     1.3297     0.2643 </r>
       <r>    -1.8051     1.2850     0.3147 </r>
       <r>    -1.7660     0.4223     0.3312 </r>
       <r>    -1.7268     0.2431     0.3407 </r>
       <r>    -1.6876     0.9581     0.3783 </r>
       <r>    -1.6484     1.4939     0.4368 </r>
       <r>    -1.6093     0.7698     0.4669 </r>
       <r>    -1.5701     0.1297     0.4720 </r>
       <r>    -1.5309     0.0070     0.4723 </r>
       <r>    -1.4917     0.0001     0.4723 </r>
       <r>    -1.4525     0.0003     0.4723 </r>
       <r>    -1.4134     0.0116     0.4728 </r>
       <r>    -1.3742     0.1411     0.4783 </r>
       <r>    -1.3350     0.5569     0.5001 </r>
       <r>    -1.2958     0.7223     0.5284 </r>
       <r>    -1.2567     0.3166     0.5408 </r>
       <r>    -1.2175     0.1923     0.5484 </r>
       <r>    -1.1783     0.9232     0.5845 </r>
       <r>    -1.1391     1.8591     0.6574 </r>
       <r>    -1.1000     1.2392     0.7059 </r>
       <r>    -1.0608     0.3137     0.7182 </r>
       <r>    -1.0216     0.4339     0.7352 </r>
       <r>    -0.9824     1.2917     0.7858 </r>
       <r>    -0.9433     1.3239     0.8377 </r>
       <r>    -0.9041     0.4607     0.8557 </r>
       <r>    -0.8649     0.2526     0.8656 </r>
       <r>    -0.8257     0.9642     0.9034 </r>
       <r>    -0.7865     1.4929     0.9619 </r>
       <r>    -0.7474     0.7654     0.9919 </r>
       <r>    -0.7082     0.1576     0.9980 </r>
       <r>    -0.6690     0.2166     1.0065 </r>
       <r>    -0.6298     0.4834     1.0255 </r>
       <r>    -0.5907     0.3683     1.0399 </r>
       <r>    -0.5515     0.1259     1.0448 </r>
       <r>    -0.5123     0.3671     1.0592 </r>
       <r>    -0.4731     1.2271     1.1073 </r>
       <r>    -0.4340     1.3776     1.1612 </r>
       <r>    -0.3948     0.5337     1.1821 </r>
       <r>    -0.3556     0.4340     1.1991 </r>
       <r>    -0.3164     1.8482     1.2716 </r>
       <r>    -0.2772     2.9972     1.3890 </r>
       <r>    -0.2381     1.6060     1.4519 </r>
       <r>    -0.1989     0.2816     1.4629 </r>
       <r>    -0.1597     0.0158     1.4635 </r>
       <r>    -0.1205     0.0003     1.4636 </r>
       <r>    -0.0814     0.0003     1.4636 </r>
       <r>    -0.0422     0.0087     1.4639 </r>
       <r>    -0.0030     0.0908     1.4675 </r>
       <r>     0.0362     0.3079     1.4795 </r>
       <r>     0.0753     0.3441     1.4930 </r>
       <r>     0.1145     0.1567     1.4991 </r>
       <r>     0.1537     0.4471     1.5167 </r>
       <r>     0.1929     1.9790     1.5942 </r>
       <r>     0.2320     2.9745     1.7107 </r>
       <r>     0.2712     1.4856     1.7689 </r>
       <r>     0.3104     0.4209     1.7854 </r>
       <r>     0.3496     1.1234     1.8294 </r>
       <r>     0.3888     2.2301     1.9168 </r>
       <r>     0.4279     1.4832     1.9749 </r>
       <r>     0.4671     0.3977     1.9905 </r>
       <r>     0.5063     0.5929     2.0137 </r>
       <r>     0.5455     1.4190     2.0693 </r>
       <r>     0.5846     1.1647     2.1149 </r>
       <r>     0.6238     0.3497     2.1286 </r>
       <r>     0.6630     0.3976     2.1442 </r>
       <r>     0.7022     1.2409     2.1928 </r>
       <r>     0.7413     1.3680     2.2464 </r>
       <r>     0.7805     0.5341     2.2673 </r>
       <r>     0.8197     0.5521     2.2890 </r>
       <r>     0.8589     2.1040     2.3714 </r>
       <r>     0.8980     2.9400     2.4866 </r>
       <r>     0.9372     1.3673     2.5401 </r>
       <r>     0.9764     0.3771     2.5549 </r>
       <r>     1.0156     0.8994     2.5901 </r>
       <r>     1.0548     1.5014     2.6490 </r>
       <r>     1.0939     0.8361     2.6817 </r>
       <r>     1.1331     0.1525     2.6877 </r>
       <r>     1.1723     0.0089     2.6880 </r>
       <r>     1.2115     0.0005     2.6881 </r>
       <r>     1.2506     0.0136     2.6886 </r>
       <r>     1.2898     0.2127     2.6969 </r>
       <r>     1.3290     1.1484     2.7419 </r>
       <r>     1.3682     2.1767     2.8272 </r>
       <r>     1.4073     1.4659     2.8846 </r>
       <r>     1.4465     0.5752     2.9072 </r>
       <r>     1.4857     1.1212     2.9511 </r>
       <r>     1.5249     1.7380     3.0192 </r>
       <r>     1.5641     1.0624     3.0608 </r>
       <r>     1.6032     0.2941     3.0723 </r>
       <r>     1.6424     0.2645     3.0827 </r>
       <r>     1.6816     1.0278     3.1229 </r>
       <r>     1.7208     1.5065     3.1820 </r>
       <r>     1.7599     0.9731     3.2201 </r>
       <r>     1.7991     1.1478     3.2651 </r>
       <r>     1.8383     2.0763     3.3464 </r>
       <r>     1.8775     2.1635     3.4312 </r>
       <r>     1.9166     1.4657     3.4886 </r>
       <r>     1.9558     2.6588     3.5927 </r>
       <r>     1.9950     3.6836     3.7370 </r>
       <r>     2.0342     1.8026     3.8077 </r>
       <r>     2.0733     0.4537     3.8254 </r>
       <r>     2.1125     0.8815     3.8600 </r>
       <r>     2.1517     1.5021     3.9188 </r>
       <r>     2.1909     0.8593     3.9525 </r>
       <r>     2.2301     0.1610     3.9588 </r>
       <r>     2.2692     0.0097     3.9592 </r>
       <r>     2.3084     0.0007     3.9592 </r>
       <r>     2.3476     0.0203     3.9600 </r>
       <r>     2.3868     0.2691     3.9705 </r>
       <r>     2.4259     1.2149     4.0181 </r>
       <r>     2.4651     2.0262     4.0975 </r>
       <r>     2.5043     1.3868     4.1518 </r>
       <r>     2.5435     0.5618     4.1739 </r>
       <r>     2.5826     1.1384     4.2185 </r>
       <r>     2.6218     2.4288     4.3136 </r>
       <r>     2.6610     1.8076     4.3844 </r>
       <r>     2.7002     0.6591     4.4102 </r>
       <r>     2.7393     1.0827     4.4527 </r>
       <r>     2.7785     1.7131     4.5198 </r>
       <r>     2.8177     0.9909     4.5586 </r>
       <r>     2.8569     0.4556     4.5764 </r>
       <r>     2.8961     1.1008     4.6196 </r>
       <r>     2.9352     1.4560     4.6766 </r>
       <r>     2.9744     0.6519     4.7022 </r>
       <r>     3.0136     0.2566     4.7122 </r>
       <r>     3.0528     0.8721     4.7464 </r>
       <r>     3.0919     1.5032     4.8053 </r>
       <r>     3.1311     0.9082     4.8408 </r>
       <r>     3.1703     0.7824     4.8715 </r>
       <r>     3.2095     2.5602     4.9718 </r>
       <r>     3.2486     3.6844     5.1161 </r>
       <r>     3.2878     2.2029     5.2024 </r>
       <r>     3.3270     1.3595     5.2557 </r>
       <r>     3.3662     2.4225     5.3506 </r>
       <r>     3.4054     3.4453     5.4856 </r>
       <r>     3.4445     2.3330     5.5770 </r>
       <r>     3.4837     0.6375     5.6020 </r>
       <r>     3.5229     0.2344     5.6111 </r>
       <r>     3.5621     0.6256     5.6356 </r>
       <r>     3.6012     0.8879     5.6704 </r>
       <r>     3.6404     0.5471     5.6919 </r>
       <r>     3.6796     0.2807     5.7029 </r>
       <r>     3.7188     0.5866     5.7258 </r>
       <r>     3.7579     0.7146     5.7538 </r>
       <r>     3.7971     0.3407     5.7672 </r>
       <r>     3.8363     0.5426     5.7884 </r>
       <r>     3.8755     1.6650     5.8537 </r>
       <r>     3.9146     1.8274     5.9253 </r>
       <r>     3.9538     0.8677     5.9593 </r>
       <r>     3.9930     1.0639     6.0009 </r>
       <r>     4.0322     1.4940     6.0595 </r>
       <r>     4.0714     0.8162     6.0914 </r>
       <r>     4.1105     0.7159     6.1195 </r>
       <r>     4.1497     1.6963     6.1859 </r>
       <r>     4.1889     2.2512     6.2741 </r>
       <r>     4.2281     1.7717     6.3435 </r>
       <r>     4.2672     0.8186     6.3756 </r>
       <r>     4.3064     1.2825     6.4259 </r>
       <r>     4.3456     3.1128     6.5478 </r>
       <r>     4.3848     2.8255     6.6585 </r>
       <r>     4.4239     0.9512     6.6958 </r>
       <r>     4.4631     0.3734     6.7104 </r>
       <r>     4.5023     1.0817     6.7528 </r>
       <r>     4.5415     1.5725     6.8144 </r>
       <r>     4.5807     1.5284     6.8743 </r>
       <r>     4.6198     2.7003     6.9800 </r>
       <r>     4.6590     3.4844     7.1166 </r>
       <r>     4.6982     2.5315     7.2157 </r>
       <r>     4.7374     1.0975     7.2587 </r>
       <r>     4.7765     1.1606     7.3042 </r>
       <r>     4.8157     2.6406     7.4076 </r>
       <r>     4.8549     2.4512     7.5037 </r>
       <r>     4.8941     0.8135     7.5356 </r>
       <r>     4.9332     0.1027     7.5396 </r>
       <r>     4.9724     0.0613     7.5420 </r>
       <r>     5.0116     0.1229     7.5468 </r>
       <r>     5.0508     0.0867     7.5502 </r>
       <r>     5.0899     0.0300     7.5514 </r>
       <r>     5.1291     0.1010     7.5553 </r>
       <r>     5.1683     0.3183     7.5678 </r>
       <r>     5.2075     0.3351     7.5809 </r>
       <r>     5.2467     0.1192     7.5856 </r>
       <r>     5.2858     0.0444     7.5873 </r>
       <r>     5.3250     0.1191     7.5920 </r>
       <r>     5.3642     0.3307     7.6050 </r>
       <r>     5.4034     1.0644     7.6467 </r>
       <r>     5.4425     1.7659     7.7158 </r>
       <r>     5.4817     1.4452     7.7725 </r>
       <r>     5.5209     0.8358     7.8052 </r>
       <r>     5.5601     1.2554     7.8544 </r>
       <r>     5.5992     3.3709     7.9864 </r>
       <r>     5.6384     3.9836     8.1425 </r>
       <r>     5.6776     2.1922     8.2284 </r>
       <r>     5.7168     1.1186     8.2722 </r>
       <r>     5.7559     1.8412     8.3443 </r>
       <r>     5.7951     2.7569     8.4524 </r>
       <r>     5.8343     1.8372     8.5243 </r>
       <r>     5.8735     0.9461     8.5614 </r>
       <r>     5.9127     1.9635     8.6383 </r>
       <r>     5.9518     2.6057     8.7404 </r>
       <r>     5.9910     1.3142     8.7919 </r>
       <r>     6.0302     0.7196     8.8201 </r>
       <r>     6.0694     1.4872     8.8783 </r>
       <r>     6.1085     1.7503     8.9469 </r>
       <r>     6.1477     1.1183     8.9907 </r>
       <r>     6.1869     0.3985     9.0063 </r>
       <r>     6.2261     0.0654     9.0089 </r>
       <r>     6.2652     0.1283     9.0139 </r>
       <r>     6.3044     0.7563     9.0436 </r>
       <r>     6.3436     1.4914     9.1020 </r>
       <r>     6.3828     0.9709     9.1400 </r>
       <r>     6.4220     0.2204     9.1486 </r>
       <r>     6.4611     0.1775     9.1556 </r>
       <r>     6.5003     0.6882     9.1826 </r>
       <r>     6.5395     1.0511     9.2237 </r>
       <r>     6.5787     0.6354     9.2486 </r>
       <r>     6.6178     0.4271     9.2654 </r>
       <r>     6.6570     1.3251     9.3173 </r>
       <r>     6.6962     2.1686     9.4022 </r>
       <r>     6.7354     1.3539     9.4553 </r>
       <r>     6.7745     0.8185     9.4874 </r>
       <r>     6.8137     1.4261     9.5432 </r>
       <r>     6.8529     1.1823     9.5895 </r>
       <r>     6.8921     0.3264     9.6023 </r>
       <r>     6.9312     0.0292     9.6035 </r>
       <r>     6.9704     0.0008     9.6035 </r>
       <r>     7.0096     0.0000     9.6035 </r>
       <r>     7.0488     0.0000     9.6035 </r>
       <r>     7.0880     0.0001     9.6035 </r>
       <r>     7.1271     0.0090     9.6039 </r>
       <r>     7.1663     0.1790     9.6109 </r>
       <r>     7.2055     1.2013     9.6579 </r>
       <r>     7.2447     2.7846     9.7670 </r>
       <r>     7.2838     2.2632     9.8557 </r>
       <r>     7.3230     0.6425     9.8809 </r>
       <r>     7.3622     0.0624     9.8833 </r>
       <r>     7.4014     0.0020     9.8834 </r>
       <r>     7.4405     0.0000     9.8834 </r>
       <r>     7.4797     0.0000     9.8834 </r>
       <r>     7.5189     0.0000     9.8834 </r>
       <r>     7.5581     0.0000     9.8834 </r>
       <r>     7.5973     0.0000     9.8834 </r>
       <r>     7.6364     0.0000     9.8834 </r>
       <r>     7.6756     0.0000     9.8834 </r>
       <r>     7.7148     0.0000     9.8834 </r>
       <r>     7.7540     0.0000     9.8834 </r>
       <r>     7.7931     0.0027     9.8835 </r>
       <r>     7.8323     0.0479     9.8854 </r>
       <r>     7.8715     0.2778     9.8963 </r>
       <r>     7.9107     0.6087     9.9201 </r>
       <r>     7.9498     0.8019     9.9515 </r>
       <r>     7.9890     0.8043     9.9830 </r>
       <r>     8.0282     0.3709     9.9976 </r>
       <r>     8.0674     0.0593     9.9999 </r>
       <r>     8.1065     0.0031    10.0000 </r>
       <r>     8.1457     0.0000    10.0000 </r>
       <r>     8.1849     0.0000    10.0000 </r>
       <r>     8.2241     0.0000    10.0000 </r>
       <r>     8.2633     0.0000    10.0000 </r>
       <r>     8.3024     0.0000    10.0000 </r>
       <r>     8.3416     0.0000    10.0000 </r>
       <r>     8.3808     0.0000    10.0000 </r>
       <r>     8.4200     0.0000    10.0000 </r>
       <r>     8.4591     0.0000    10.0000 </r>
       <r>     8.4983     0.0000    10.0000 </r>
      </set>
     </set>
    </array>
   </total>
  </dos>
 </calculation>
 <structure name="finalpos" >
  <crystal>
   <varray name="basis" >
    <v>       4.23000000       0.00000000       0.00000000 </v>
    <v>       0.00000000       4.23000000       0.00000000 </v>
    <v>       0.00000000       0.00000000       4.23000000 </v>
   </varray>
   <i name="volume">     75.68696700 </i>
   <varray name="rec_basis" >
    <v>       0.23640662       0.00000000       0.00000000 </v>
    <v>       0.00000000       0.23640662       0.00000000 </v>
    <v>       0.00000000       0.00000000       0.23640662 </v>
   </varray>
  </crystal>
  <varray name="positions" >
   <v>       0.00000000       0.00000000       0.00000000 </v>
   <v>       0.50000000       0.50000000       0.50000000 </v>
  </varray>
 </structure>
</modeling>
