       N       E                     dE             d eps       ncg     rms          rms(c)
DAV:   1    -0.186455008683E+01   -0.18646E+01   -0.35179E+02   840   0.167E+02
DAV:   2    -0.260221735758E+01   -0.73767E+00   -0.68208E+00   995   0.125E+01
DAV:   3    -0.261221247350E+01   -0.99951E-02   -0.99606E-02  1205   0.192E+00
DAV:   4    -0.261229868681E+01   -0.86213E-04   -0.86212E-04  1200   0.132E-01
DAV:   5    -0.261229914657E+01   -0.45975E-06   -0.45976E-06  1230   0.824E-03    0.291E-01
DAV:   6    -0.261229284260E+01    0.63040E-05   -0.99921E-05  1090   0.832E-02    0.195E-01
DAV:   7    -0.261188388812E+01    0.40895E-03   -0.26391E-04   930   0.150E-01    0.113E-02
DAV:   8    -0.261187589750E+01    0.79906E-05   -0.32652E-06  1110   0.113E-02    0.239E-03
DAV:   9    -0.261187558856E+01    0.30894E-06   -0.33091E-07   885   0.395E-03
   1 F= -.26118756E+01 E0= -.26108871E+01  d E =-.197695E-02
