    1    1    1    1
  0.1037426E+03  0.5126957E-09  0.5126957E-09  0.5126957E-09  0.5000000E-15
   1.0000000000000000E-004
  CAR 
 BCC Rb EOS Scale 1.060                  
      9     84      8
 
  0.1262379E-14  0.1262379E-14  0.1262379E-14  0.4551661E-03
      1        -29.242225   1.000000
      2        -13.294107   1.000000
      3        -13.294107   1.000000
      4        -13.294107   1.000000
      5         -2.063519   1.000000
      6          3.290949   0.000000
      7          3.290950   0.000000
      8          3.290950   0.000000
 
  0.7692308E-01  0.1264672E-14  0.1261085E-14  0.5461994E-02
      1        -29.242103   1.000000
      2        -13.297583   1.000000
      3        -13.295284   1.000000
      4        -13.294096   1.000000
      5         -2.001229   1.000000
      6          3.190011   0.000000
      7          3.198969   0.000000
      8          3.345229   0.000000
 
  0.1538462E+00  0.1265552E-14  0.1246327E-14  0.5461994E-02
      1        -29.241761   1.000000
      2        -13.307165   1.000000
      3        -13.298554   1.000000
      4        -13.294066   1.000000
      5         -1.817016   1.000000
      6          2.812489   0.000000
      7          2.983314   0.000000
      8          3.506442   0.000000
 
  0.2307692E+00  0.1260108E-14  0.1265649E-14  0.5461994E-02
      1        -29.241279   1.000000
      2        -13.320582   1.000000
      3        -13.303151   1.000000
      4        -13.294015   1.000000
      5         -1.518907   1.000000
      6          2.270608  -0.000000
      7          2.740334   0.000000
      8          3.769497   0.000000
 
  0.3076923E+00  0.1278196E-14  0.1219805E-14  0.5461994E-02
      1        -29.240766   1.000000
      2        -13.334697   1.000000
      3        -13.308009   1.000000
      4        -13.293961   1.000000
      5         -1.120734   1.000000
      6          1.698543  -0.000000
      7          2.529154   0.000000
      8          3.971023   0.000000
 
  0.3846154E+00  0.1269699E-14  0.1256059E-14  0.5461994E-02
      1        -29.240339   1.000000
      2        -13.346301   1.000000
      3        -13.312036   1.000000
      4        -13.293920   1.000000
      5         -0.644552   1.000000
      6          1.126255  -0.000000
      7          2.378092  -0.000000
      8          3.860929   0.000000
 
  0.4615385E+00  0.1307772E-14  0.1217985E-14  0.5461994E-02
      1        -29.240099   1.000000
      2        -13.352818   1.000000
      3        -13.314312   1.000000
      4        -13.293903   1.000000
      5         -0.143767  -0.018451
      6          0.584972  -0.000000
      7          2.300031  -0.000000
      8          3.732033   0.000000
 
  0.7692308E-01  0.7692308E-01  0.1259590E-14  0.1092399E-01
      1        -29.241871   1.000000
      2        -13.304231   1.000000
      3        -13.296519   1.000000
      4        -13.294950   1.000000
      5         -1.877952   1.000000
      6          2.972894   0.000000
      7          3.019684   0.000000
      8          3.448832   0.000000
 
  0.1538462E+00  0.7692308E-01  0.1251772E-14  0.2184797E-01
      1        -29.241459   1.000000
      2        -13.315423   1.000000
      3        -13.300383   1.000000
      4        -13.295270   1.000000
      5         -1.636581   1.000000
      6          2.529083   0.000000
      7          2.766992   0.000000
      8          3.643436   0.000000
 
  0.2307692E+00  0.7692308E-01  0.1239730E-14  0.2184797E-01
      1        -29.240962   1.000000
      2        -13.328603   1.000000
      3        -13.305615   1.000000
      4        -13.295304   1.000000
      5         -1.287652   1.000000
      6          1.987614  -0.000000
      7          2.537505   0.000000
      8          3.804341   0.000000
 
  0.3076923E+00  0.7692308E-01  0.1242735E-14  0.2184797E-01
      1        -29.240491   1.000000
      2        -13.340842   1.000000
      3        -13.310637   1.000000
      4        -13.295298   1.000000
      5         -0.848086   1.000000
      6          1.428325  -0.000000
      7          2.359826  -0.000000
      8          3.770911   0.000000
 
  0.3846154E+00  0.7692308E-01  0.1237910E-14  0.2184797E-01
      1        -29.240159   1.000000
      2        -13.349445   1.000000
      3        -13.314209   1.000000
      4        -13.295286   1.000000
      5         -0.347015   1.031980
      6          0.868798  -0.000000
      7          2.248545  -0.000000
      8          3.637723   0.000000
 
  0.4615385E+00  0.7692308E-01  0.1254239E-14  0.1092399E-01
      1        -29.240040   1.000000
      2        -13.352539   1.000000
      3        -13.315498   1.000000
      4        -13.295281   1.000000
      5          0.048119  -0.000196
      6          0.456583  -0.000000
      7          2.210724  -0.000000
      8          3.566076   0.000000
 
  0.1538462E+00  0.1538462E+00  0.1268101E-14  0.1092399E-01
      1        -29.241030   1.000000
      2        -13.326001   1.000000
      3        -13.303823   1.000000
      4        -13.297113   1.000000
      5         -1.343833   1.000000
      6          2.174827  -0.000000
      7          2.451815   0.000000
      8          3.776620   0.000000
 
  0.2307692E+00  0.1538462E+00  0.1283814E-14  0.2184797E-01
      1        -29.240578   1.000000
      2        -13.336298   1.000000
      3        -13.309486   1.000000
      4        -13.297898   1.000000
      5         -0.951281   1.000000
      6          1.720677  -0.000000
      7          2.203721  -0.000000
      8          3.760515   0.000000
 
  0.3076923E+00  0.1538462E+00  0.1259064E-14  0.2184797E-01
      1        -29.240201   1.000000
      2        -13.344321   1.000000
      3        -13.314984   1.000000
      4        -13.298185   1.000000
      5         -0.478654   1.001761
      6          1.206498  -0.000000
      7          2.041940  -0.000000
      8          3.585197   0.000000
 
  0.3846154E+00  0.1538462E+00  0.1213160E-14  0.2184797E-01
      1        -29.239989   1.000000
      2        -13.348689   1.000000
      3        -13.318285   1.000000
      4        -13.298287   1.000000
      5          0.032160  -0.000443
      6          0.677400  -0.000000
      7          1.959878  -0.000000
      8          3.429053   0.000000
 
  0.2307692E+00  0.2307692E+00  0.1278989E-14  0.1092399E-01
      1        -29.240216   1.000000
      2        -13.341574   1.000000
      3        -13.315713   1.000000
      4        -13.299687   1.000000
      5         -0.523581   1.000207
      6          1.445914  -0.000000
      7          1.835198  -0.000000
      8          3.652954   0.000000
 
  0.3076923E+00  0.2307692E+00  0.1295318E-14  0.2184797E-01
      1        -29.239960   1.000000
      2        -13.343813   1.000000
      3        -13.322091   1.000000
      4        -13.300477   1.000000
      5         -0.026751  -0.005413
      6          1.047152  -0.000000
      7          1.595485  -0.000000
      8          3.439573   0.000000
 
  0.3846154E+00  0.2307692E+00  0.1234981E-14  0.1092399E-01
      1        -29.239866   1.000000
      2        -13.344131   1.000000
      3        -13.324941   1.000000
      4        -13.300691   1.000000
      5          0.433770  -0.000000
      6          0.604147  -0.000000
      7          1.527536  -0.000000
      8          3.356702   0.000000
 
  0.3076923E+00  0.3076923E+00  0.1215056E-14  0.1092399E-01
      1        -29.239822   1.000000
      2        -13.339521   1.000000
      3        -13.330375   1.000000
      4        -13.301496   1.000000
      5          0.482705  -0.000000
      6          0.923663  -0.000000
      7          1.113971  -0.000000
      8          3.352023   0.000000
 
  0.7692308E-01  0.7692308E-01  0.7692308E-01  0.3641329E-02
      1        -29.241564   1.000000
      2        -13.314001   1.000000
      3        -13.296629   1.000000
      4        -13.296629   1.000000
      5         -1.696327   1.000000
      6          2.692158   0.000000
      7          2.692158   0.000000
      8          3.597799   0.000000
 
  0.1538462E+00  0.7692308E-01  0.7692308E-01  0.1092399E-01
      1        -29.241132   1.000000
      2        -13.325394   1.000000
      3        -13.301315   1.000000
      4        -13.296785   1.000000
      5         -1.401724   1.000000
      6          2.229951  -0.000000
      7          2.437014   0.000000
      8          3.759654   0.000000
 
  0.2307692E+00  0.7692308E-01  0.7692308E-01  0.1092399E-01
      1        -29.240672   1.000000
      2        -13.336323   1.000000
      3        -13.307348   1.000000
      4        -13.296954   1.000000
      5         -1.006931   1.000000
      6          1.715701  -0.000000
      7          2.235929  -0.000000
      8          3.807581   0.000000
 
  0.3076923E+00  0.7692308E-01  0.7692308E-01  0.1092399E-01
      1        -29.240290   1.000000
      2        -13.344851   1.000000
      3        -13.312807   1.000000
      4        -13.297093   1.000000
      5         -0.532440   1.000129
      6          1.179273  -0.000000
      7          2.098557  -0.000000
      8          3.634001   0.000000
 
  0.3846154E+00  0.7692308E-01  0.7692308E-01  0.1092399E-01
      1        -29.240074   1.000000
      2        -13.349505   1.000000
      3        -13.316029   1.000000
      4        -13.297171   1.000000
      5         -0.024280  -0.004956
      6          0.646841  -0.000000
      7          2.029039  -0.000000
      8          3.470086   0.000000
 
 -0.7692308E-01  0.7692308E-01  0.7692308E-01  0.2730997E-02
      1        -29.241984   1.000000
      2        -13.298562   1.000000
      3        -13.296482   1.000000
      4        -13.296481   1.000000
      5         -1.939297   1.000000
      6          3.145323   0.000000
      7          3.145324   0.000000
      8          3.370516   0.000000
 
  0.1538462E+00  0.1538462E+00  0.7692308E-01  0.1092399E-01
      1        -29.240739   1.000000
      2        -13.334503   1.000000
      3        -13.304551   1.000000
      4        -13.299359   1.000000
      5         -1.060421   1.000000
      6          1.915508  -0.000000
      7          2.099829  -0.000000
      8          3.729208   0.000000
 
  0.2307692E+00  0.1538462E+00  0.7692308E-01  0.2184797E-01
      1        -29.240364   1.000000
      2        -13.341123   1.000000
      3        -13.310905   1.000000
      4        -13.300378   1.000000
      5         -0.627366   1.000000
      6          1.488520  -0.000000
      7          1.892890  -0.000000
      8          3.492064   0.000000
 
  0.3076923E+00  0.1538462E+00  0.7692308E-01  0.2184797E-01
      1        -29.240100   1.000000
      2        -13.344669   1.000000
      3        -13.316826   1.000000
      4        -13.300809   1.000000
      5         -0.127267  -0.033103
      6          0.991821  -0.000000
      7          1.780773  -0.000000
      8          3.231788   0.000000
 
  0.3846154E+00  0.1538462E+00  0.7692308E-01  0.1092399E-01
      1        -29.240008   1.000000
      2        -13.345677   1.000000
      3        -13.319260   1.000000
      4        -13.300946   1.000000
      5          0.309396  -0.000000
      6          0.557006  -0.000000
      7          1.743902  -0.000000
      8          3.129043   0.000000
 
 -0.1538462E+00  0.1538462E+00  0.7692308E-01  0.1092399E-01
      1        -29.241642   1.000000
      2        -13.307288   1.000000
      3        -13.299766   1.000000
      4        -13.296994   1.000000
      5         -1.756125   1.000000
      6          2.830968   0.000000
      7          2.963304   0.000000
      8          3.463890   0.000000
 
  0.2307692E+00  0.2307692E+00  0.7692308E-01  0.1092399E-01
      1        -29.240112   1.000000
      2        -13.342059   1.000000
      3        -13.317340   1.000000
      4        -13.302777   1.000000
      5         -0.165591   0.031099
      6          1.267274  -0.000000
      7          1.545598  -0.000000
      8          3.133782   0.000000
 
  0.3076923E+00  0.2307692E+00  0.7692308E-01  0.2184797E-01
      1        -29.239969   1.000000
      2        -13.340177   1.000000
      3        -13.323786   1.000000
      4        -13.303727   1.000000
      5          0.348174  -0.000000
      6          0.875275  -0.000000
      7          1.370408  -0.000000
      8          2.922881   0.000000
 
 -0.2307692E+00  0.2307692E+00  0.7692308E-01  0.1092399E-01
      1        -29.241166   1.000000
      2        -13.320378   1.000000
      3        -13.304395   1.000000
      4        -13.296873   1.000000
      5         -1.459652   1.000000
      6          2.290790  -0.000000
      7          2.740076   0.000000
      8          3.465116   0.000000
 
 -0.1538462E+00  0.2307692E+00  0.7692308E-01  0.1092399E-01
      1        -29.241239   1.000000
      2        -13.316282   1.000000
      3        -13.303310   1.000000
      4        -13.299210   1.000000
      5         -1.517558   1.000000
      6          2.501314   0.000000
      7          2.743630   0.000000
      8          3.323053   0.000000
 
  0.3076923E+00  0.3076923E+00  0.7692308E-01  0.3641329E-02
      1        -29.239919   1.000000
      2        -13.332476   1.000000
      3        -13.332476   1.000000
      4        -13.304665   1.000000
      5          0.818125  -0.000000
      6          0.818126  -0.000000
      7          0.936619  -0.000000
      8          2.816437   0.000000
 
 -0.3076923E+00  0.3076923E+00  0.7692308E-01  0.1092399E-01
      1        -29.240657   1.000000
      2        -13.334186   1.000000
      3        -13.309297   1.000000
      4        -13.296696   1.000000
      5         -1.063460   1.000000
      6          1.723085  -0.000000
      7          2.541145   0.000000
      8          3.481512   0.000000
 
 -0.2307692E+00  0.3076923E+00  0.7692308E-01  0.2184797E-01
      1        -29.240754   1.000000
      2        -13.328312   1.000000
      3        -13.308443   1.000000
      4        -13.299710   1.000000
      5         -1.172521   1.000000
      6          2.010489  -0.000000
      7          2.514493   0.000000
      8          3.347319   0.000000
 
 -0.3846154E+00  0.3846154E+00  0.7692308E-01  0.1092399E-01
      1        -29.240238   1.000000
      2        -13.345544   1.000000
      3        -13.313354   1.000000
      4        -13.296546   1.000000
      5         -0.588819   1.000004
      6          1.156261  -0.000000
      7          2.397234  -0.000000
      8          3.424221   0.000000
 
 -0.3076923E+00  0.3846154E+00  0.7692308E-01  0.2184797E-01
      1        -29.240293   1.000000
      2        -13.339767   1.000000
      3        -13.313562   1.000000
      4        -13.299675   1.000000
      5         -0.737167   1.000000
      6          1.477509  -0.000000
      7          2.335547  -0.000000
      8          3.335696   0.000000
 
 -0.2307692E+00  0.3846154E+00  0.7692308E-01  0.1092399E-01
      1        -29.240313   1.000000
      2        -13.336590   1.000000
      3        -13.314178   1.000000
      4        -13.301352   1.000000
      5         -0.787092   1.000000
      6          1.688203  -0.000000
      7          2.174341  -0.000000
      8          3.422916   0.000000
 
 -0.4615385E+00  0.4615385E+00  0.7692308E-01  0.1092399E-01
      1        -29.239999   1.000000
      2        -13.351925   1.000000
      3        -13.315641   1.000000
      4        -13.296458   1.000000
      5         -0.084575  -0.025975
      6          0.613839  -0.000000
      7          2.322474  -0.000000
      8          3.335752   0.000000
 
 -0.3846154E+00  0.4615385E+00  0.7692308E-01  0.2184797E-01
      1        -29.239966   1.000000
      2        -13.347874   1.000000
      3        -13.317222   1.000000
      4        -13.299560   1.000000
      5         -0.237622   0.494463
      6          0.930965  -0.000000
      7          2.219272  -0.000000
      8          3.234838   0.000000
 
 -0.3076923E+00  0.4615385E+00  0.7692308E-01  0.2184797E-01
      1        -29.239951   1.000000
      2        -13.343025   1.000000
      3        -13.320147   1.000000
      4        -13.301874   1.000000
      5         -0.321407   0.997629
      6          1.273436  -0.000000
      7          1.906922  -0.000000
      8          3.444366   0.000000
 
 -0.4615385E+00 -0.4615385E+00  0.7692308E-01  0.1092399E-01
      1        -29.239850   1.000000
      2        -13.350797   1.000000
      3        -13.318551   1.000000
      4        -13.299513   1.000000
      5          0.179021  -0.000000
      6          0.500591  -0.000000
      7          2.178631  -0.000000
      8          3.177002   0.000000
 
 -0.3846154E+00 -0.4615385E+00  0.7692308E-01  0.2184797E-01
      1        -29.239745   1.000000
      2        -13.346443   1.000000
      3        -13.323880   1.000000
      4        -13.301994   1.000000
      5          0.192610  -0.000000
      6          0.771378  -0.000000
      7          1.777391  -0.000000
      8          3.349742   0.000000
 
 -0.3076923E+00 -0.4615385E+00  0.7692308E-01  0.1092399E-01
      1        -29.239707   1.000000
      2        -13.342937   1.000000
      3        -13.327838   1.000000
      4        -13.302792   1.000000
      5          0.164495  -0.000000
      6          1.083869  -0.000000
      7          1.434060  -0.000000
      8          3.704230   0.000000
 
 -0.3846154E+00 -0.3846154E+00  0.7692308E-01  0.1092399E-01
      1        -29.239616   1.000000
      2        -13.341400   1.000000
      3        -13.332216   1.000000
      4        -13.303014   1.000000
      5          0.668038  -0.000000
      6          0.698922  -0.000000
      7          1.250220  -0.000000
      8          3.638081   0.000000
 
  0.1538462E+00  0.1538462E+00  0.1538462E+00  0.3641329E-02
      1        -29.240425   1.000000
      2        -13.339937   1.000000
      3        -13.305318   1.000000
      4        -13.305318   1.000000
      5         -0.677601   1.000000
      6          1.723988  -0.000000
      7          1.723988  -0.000000
      8          3.384821   0.000000
 
  0.2307692E+00  0.1538462E+00  0.1538462E+00  0.1092399E-01
      1        -29.240166   1.000000
      2        -13.341594   1.000000
      3        -13.313106   1.000000
      4        -13.305960   1.000000
      5         -0.212935   0.292986
      6          1.313530  -0.000000
      7          1.598400  -0.000000
      8          2.970642   0.000000
 
  0.3076923E+00  0.1538462E+00  0.1538462E+00  0.1092399E-01
      1        -29.240020   1.000000
      2        -13.340640   1.000000
      3        -13.319381   1.000000
      4        -13.306318   1.000000
      5          0.300844  -0.000000
      6          0.842706  -0.000000
      7          1.536375  -0.000000
      8          2.714040   0.000000
 
 -0.1538462E+00  0.1538462E+00  0.1538462E+00  0.2730997E-02
      1        -29.241318   1.000000
      2        -13.309615   1.000000
      3        -13.303126   1.000000
      4        -13.303126   1.000000
      5         -1.576055   1.000000
      6          2.874249   0.000000
      7          2.874250   0.000000
      8          2.904910   0.000000
 
  0.2307692E+00  0.2307692E+00  0.1538462E+00  0.1092399E-01
      1        -29.240025   1.000000
      2        -13.337875   1.000000
      3        -13.318690   1.000000
      4        -13.309959   1.000000
      5          0.268478  -0.000000
      6          1.150985  -0.000000
      7          1.316471  -0.000000
      8          2.530878   0.000000
 
  0.3076923E+00  0.2307692E+00  0.1538462E+00  0.1092399E-01
      1        -29.239975   1.000000
      2        -13.333671   1.000000
      3        -13.324169   1.000000
      4        -13.310811   1.000000
      5          0.766041  -0.000000
      6          0.766106  -0.000000
      7          1.227716  -0.000000
      8          2.365233  -0.000000
 
 -0.2307692E+00  0.2307692E+00  0.1538462E+00  0.1092399E-01
      1        -29.240852   1.000000
      2        -13.320062   1.000000
      3        -13.307848   1.000000
      4        -13.304494   1.000000
      5         -1.284587   1.000000
      6          2.329513  -0.000000
      7          2.723138   0.000000
      8          2.952145   0.000000
 
 -0.3076923E+00  0.3076923E+00  0.1538462E+00  0.1092399E-01
      1        -29.240360   1.000000
      2        -13.332806   1.000000
      3        -13.312848   1.000000
      4        -13.304190   1.000000
      5         -0.894837   1.000000
      6          1.782856  -0.000000
      7          2.567524   0.000000
      8          2.980274   0.000000
 
 -0.2307692E+00  0.3076923E+00  0.1538462E+00  0.1092399E-01
      1        -29.240381   1.000000
      2        -13.328499   1.000000
      3        -13.313095   1.000000
      4        -13.307120   1.000000
      5         -0.947789   1.000000
      6          1.983812  -0.000000
      7          2.505145   0.000000
      8          2.951179   0.000000
 
 -0.3846154E+00  0.3846154E+00  0.1538462E+00  0.1092399E-01
      1        -29.239950   1.000000
      2        -13.343454   1.000000
      3        -13.316984   1.000000
      4        -13.303777   1.000000
      5         -0.426367   1.011521
      6          1.240782  -0.000000
      7          2.447949   0.000000
      8          2.899745   0.000000
 
 -0.3076923E+00  0.3846154E+00  0.1538462E+00  0.2184797E-01
      1        -29.239941   1.000000
      2        -13.338056   1.000000
      3        -13.318531   1.000000
      4        -13.307394   1.000000
      5         -0.522599   1.000218
      6          1.543680  -0.000000
      7          2.277768  -0.000000
      8          3.001676   0.000000
 
 -0.4615385E+00  0.4615385E+00  0.1538462E+00  0.1092399E-01
      1        -29.239719   1.000000
      2        -13.349453   1.000000
      3        -13.319323   1.000000
      4        -13.303518   1.000000
      5          0.083796  -0.000026
      6          0.702870  -0.000000
      7          2.384208  -0.000000
      8          2.795513   0.000000
 
 -0.3846154E+00  0.4615385E+00  0.1538462E+00  0.2184797E-01
      1        -29.239629   1.000000
      2        -13.345131   1.000000
      3        -13.322433   1.000000
      4        -13.307188   1.000000
      5         -0.031522  -0.006388
      6          1.048359  -0.000000
      7          2.116767  -0.000000
      8          2.944319   0.000000
 
 -0.3076923E+00  0.4615385E+00  0.1538462E+00  0.1092399E-01
      1        -29.239595   1.000000
      2        -13.341875   1.000000
      3        -13.325450   1.000000
      4        -13.308328   1.000000
      5         -0.073102  -0.020694
      6          1.294284  -0.000000
      7          1.840174  -0.000000
      8          3.206617   0.000000
 
 -0.4615385E+00 -0.4615385E+00  0.1538462E+00  0.1092399E-01
      1        -29.239515   1.000000
      2        -13.347714   1.000000
      3        -13.323843   1.000000
      4        -13.307074   1.000000
      5          0.426914  -0.000000
      6          0.588419  -0.000000
      7          2.057811  -0.000000
      8          2.902065   0.000000
 
 -0.3846154E+00 -0.4615385E+00  0.1538462E+00  0.2184797E-01
      1        -29.239401   1.000000
      2        -13.343393   1.000000
      3        -13.330375   1.000000
      4        -13.308449   1.000000
      5          0.426913  -0.000000
      6          0.923314  -0.000000
      7          1.572728  -0.000000
      8          3.270940   0.000000
 
 -0.3846154E+00 -0.3846154E+00  0.1538462E+00  0.3641329E-02
      1        -29.239314   1.000000
      2        -13.338102   1.000000
      3        -13.338102   1.000000
      4        -13.308684   1.000000
      5          0.840013  -0.000000
      6          0.840014  -0.000000
      7          1.165613  -0.000000
      8          3.606407   0.000000
 
  0.2307692E+00  0.2307692E+00  0.2307692E+00  0.3641329E-02
      1        -29.239978   1.000000
      2        -13.330099   1.000000
      3        -13.319450   1.000000
      4        -13.319450   1.000000
      5          0.728393  -0.000000
      6          1.093921  -0.000000
      7          1.093921  -0.000000
      8          2.070869  -0.000000
 
 -0.2307692E+00  0.2307692E+00  0.2307692E+00  0.2730997E-02
      1        -29.240410   1.000000
      2        -13.322083   1.000000
      3        -13.312702   1.000000
      4        -13.312702   1.000000
      5         -1.001744   1.000000
      6          2.204573  -0.000000
      7          2.667897   0.000000
      8          2.667898   0.000000
 
 -0.3076923E+00  0.3076923E+00  0.2307692E+00  0.1092399E-01
      1        -29.239936   1.000000
      2        -13.331132   1.000000
      3        -13.317845   1.000000
      4        -13.314420   1.000000
      5         -0.624415   1.000000
      6          1.804716  -0.000000
      7          2.586865   0.000000
      8          2.649497   0.000000
 
 -0.3846154E+00  0.3846154E+00  0.2307692E+00  0.1092399E-01
      1        -29.239546   1.000000
      2        -13.340521   1.000000
      3        -13.322104   1.000000
      4        -13.313882   1.000000
      5         -0.171528   0.051995
      6          1.348450  -0.000000
      7          2.512507   0.000000
      8          2.518409   0.000000
 
 -0.3076923E+00  0.3846154E+00  0.2307692E+00  0.1092399E-01
      1        -29.239518   1.000000
      2        -13.336754   1.000000
      3        -13.323757   1.000000
      4        -13.316635   1.000000
      5         -0.218895   0.339344
      6          1.526328  -0.000000
      7          2.289920  -0.000000
      8          2.782432   0.000000
 
 -0.4615385E+00  0.4615385E+00  0.2307692E+00  0.1092399E-01
      1        -29.239327   1.000000
      2        -13.345966   1.000000
      3        -13.324505   1.000000
      4        -13.313409   1.000000
      5          0.329813  -0.000000
      6          0.854929  -0.000000
      7          2.368667  -0.000000
      8          2.469582   0.000000
 
 -0.3846154E+00  0.4615385E+00  0.2307692E+00  0.2184797E-01
      1        -29.239219   1.000000
      2        -13.341966   1.000000
      3        -13.328320   1.000000
      4        -13.316559   1.000000
      5          0.245189  -0.000000
      6          1.176192  -0.000000
      7          1.997120  -0.000000
      8          2.834568   0.000000
 
 -0.4615385E+00 -0.4615385E+00  0.2307692E+00  0.1092399E-01
      1        -29.239111   1.000000
      2        -13.343989   1.000000
      3        -13.329949   1.000000
      4        -13.316401   1.000000
      5          0.717263  -0.000000
      6          0.745168  -0.000000
      7          1.885046  -0.000000
      8          2.822491   0.000000
 
 -0.3846154E+00 -0.4615385E+00  0.2307692E+00  0.1092399E-01
      1        -29.239035   1.000000
      2        -13.340813   1.000000
      3        -13.334999   1.000000
      4        -13.316850   1.000000
      5          0.683858  -0.000000
      6          1.017826  -0.000000
      7          1.564015  -0.000000
      8          3.135192   0.000000
 
 -0.3076923E+00  0.3076923E+00  0.3076923E+00  0.2730997E-02
      1        -29.239486   1.000000
      2        -13.331406   1.000000
      3        -13.323141   1.000000
      4        -13.323141   1.000000
      5         -0.267982   0.739513
      6          1.656110  -0.000000
      7          2.585596   0.000000
      8          2.585598   0.000000
 
 -0.3846154E+00  0.3846154E+00  0.3076923E+00  0.1092399E-01
      1        -29.239119   1.000000
      2        -13.337517   1.000000
      3        -13.327524   1.000000
      4        -13.324429   1.000000
      5          0.151637  -0.000000
      6          1.382804  -0.000000
      7          2.405908  -0.000000
      8          2.570234   0.000000
 
 -0.4615385E+00  0.4615385E+00  0.3076923E+00  0.1092399E-01
      1        -29.238910   1.000000
      2        -13.342260   1.000000
      3        -13.329993   1.000000
      4        -13.323839   1.000000
      5          0.598746  -0.000000
      6          1.036239  -0.000000
      7          2.154009  -0.000000
      8          2.556990   0.000000
 
 -0.3846154E+00  0.4615385E+00  0.3076923E+00  0.1092399E-01
      1        -29.238836   1.000000
      2        -13.339595   1.000000
      3        -13.332798   1.000000
      4        -13.325772   1.000000
      5          0.553738  -0.000000
      6          1.196767  -0.000000
      7          2.079269  -0.000000
      8          2.762312   0.000000
 
 -0.4615385E+00 -0.4615385E+00  0.3076923E+00  0.1092399E-01
      1        -29.238736   1.000000
      2        -13.340483   1.000000
      3        -13.335173   1.000000
      4        -13.325646   1.000000
      5          0.875207  -0.000000
      6          0.987942  -0.000000
      7          1.897699  -0.000000
      8          2.821368   0.000000
 
 -0.3846154E+00  0.3846154E+00  0.3846154E+00  0.2730997E-02
      1        -29.238765   1.000000
      2        -13.336146   1.000000
      3        -13.332007   1.000000
      4        -13.332007   1.000000
      5          0.508052  -0.000000
      6          1.283274  -0.000000
      7          2.599019   0.000000
      8          2.608426   0.000000
 
 -0.4615385E+00  0.4615385E+00  0.3846154E+00  0.1092399E-01
      1        -29.238566   1.000000
      2        -13.339189   1.000000
      3        -13.334534   1.000000
      4        -13.332434   1.000000
      5          0.840063  -0.000000
      6          1.120548  -0.000000
      7          2.279323  -0.000000
      8          2.625895   0.000000
 
 -0.4615385E+00 -0.4615385E+00  0.3846154E+00  0.3641329E-02
      1        -29.238469   1.000000
      2        -13.337993   1.000000
      3        -13.337993   1.000000
      4        -13.333052   1.000000
      5          1.026378  -0.000000
      6          1.026378  -0.000000
      7          2.237440  -0.000000
      8          2.798515   0.000000
 
 -0.4615385E+00  0.4615385E+00  0.4615385E+00  0.2730997E-02
      1        -29.238373   1.000000
      2        -13.337627   1.000000
      3        -13.337091   1.000000
      4        -13.337091   1.000000
      5          1.012680  -0.000000
      6          1.095170  -0.000000
      7          2.592857   0.000000
      8          2.663010   0.000000
