    1    1    1    1
  0.8332458E+02  0.4765754E-09  0.4765755E-09  0.4765755E-09  0.5000000E-15
   1.0000000000000000E-004
  CAR 
 K EOS production                        
      9     68      8
 
  0.4166667E-01  0.4166667E-01  0.4166667E-01  0.4629630E-02
      1        -32.591137   1.000000
      2        -16.051550   1.000000
      3        -16.047350   1.000000
      4        -16.047348   1.000000
      5         -2.242237   1.000000
      6          3.600882   0.000000
      7          3.600883   0.000000
      8          3.877211   0.000000
 
  0.1250000E+00  0.4166667E-01  0.4166667E-01  0.1388889E-01
      1        -32.590745   1.000000
      2        -16.059284   1.000000
      3        -16.049871   1.000000
      4        -16.047344   1.000000
      5         -2.011270   1.000000
      6          3.138246   0.000000
      7          3.320597   0.000000
      8          4.033205   0.000000
 
  0.2083333E+00  0.4166667E-01  0.4166667E-01  0.1388889E-01
      1        -32.590206   1.000000
      2        -16.069263   1.000000
      3        -16.053833   1.000000
      4        -16.047335   1.000000
      5         -1.635526   1.000000
      6          2.461755   0.000000
      7          3.038401   0.000000
      8          4.261230   0.000000
 
  0.2916667E+00  0.4166667E-01  0.4166667E-01  0.1388889E-01
      1        -32.589672   1.000000
      2        -16.079063   1.000000
      3        -16.057923   1.000000
      4        -16.047332   1.000000
      5         -1.129062   1.000000
      6          1.716453  -0.000000
      7          2.813209   0.000000
      8          4.353970   0.000000
 
  0.3750000E+00  0.4166667E-01  0.4166667E-01  0.1388889E-01
      1        -32.589283   1.000000
      2        -16.086164   1.000000
      3        -16.060936   1.000000
      4        -16.047326   1.000000
      5         -0.513052   1.020451
      6          0.952873  -0.000000
      7          2.670623   0.000000
      8          4.211060   0.000000
 
  0.4583333E+00  0.4166667E-01  0.4166667E-01  0.6944444E-02
      1        -32.589142   1.000000
      2        -16.088753   1.000000
      3        -16.062039   1.000000
      4        -16.047330   1.000000
      5          0.108096  -0.000000
      6          0.281607  -0.000000
      7          2.621996   0.000000
      8          4.130766   0.000000
 
 -0.4166667E-01  0.4166667E-01  0.4166667E-01  0.3472222E-02
      1        -32.591278   1.000000
      2        -16.047780   1.000000
      3        -16.047354   1.000000
      4        -16.047353   1.000000
      5         -2.320145   1.000000
      6          3.738852   0.000000
      7          3.738853   0.000000
      8          3.813058   0.000000
 
  0.1250000E+00  0.1250000E+00  0.4166667E-01  0.1388889E-01
      1        -32.590310   1.000000
      2        -16.067556   1.000000
      3        -16.051587   1.000000
      4        -16.048723   1.000000
      5         -1.709533   1.000000
      6          2.718373   0.000000
      7          2.915089   0.000000
      8          4.161017   0.000000
 
  0.2083333E+00  0.1250000E+00  0.4166667E-01  0.2777778E-01
      1        -32.589809   1.000000
      2        -16.075813   1.000000
      3        -16.055854   1.000000
      4        -16.049265   1.000000
      5         -1.270256   1.000000
      6          2.109745  -0.000000
      7          2.611266   0.000000
      8          4.201806   0.000000
 
  0.2916667E+00  0.1250000E+00  0.4166667E-01  0.2777778E-01
      1        -32.589378   1.000000
      2        -16.082331   1.000000
      3        -16.060418   1.000000
      4        -16.049463   1.000000
      5         -0.710367   1.000002
      6          1.404891  -0.000000
      7          2.416810   0.000000
      8          4.033527   0.000000
 
  0.3750000E+00  0.1250000E+00  0.4166667E-01  0.2777778E-01
      1        -32.589126   1.000000
      2        -16.085884   1.000000
      3        -16.063274   1.000000
      4        -16.049551   1.000000
      5         -0.056166  -0.000152
      6          0.671229  -0.000000
      7          2.318690   0.000000
      8          3.865703   0.000000
 
 -0.1250000E+00  0.1250000E+00  0.4166667E-01  0.1388889E-01
      1        -32.590993   1.000000
      2        -16.053188   1.000000
      3        -16.049272   1.000000
      4        -16.047450   1.000000
      5         -2.164759   1.000000
      6          3.461343   0.000000
      7          3.555126   0.000000
      8          3.924352   0.000000
 
  0.2083333E+00  0.2083333E+00  0.4166667E-01  0.1388889E-01
      1        -32.589411   1.000000
      2        -16.080342   1.000000
      3        -16.060073   1.000000
      4        -16.050988   1.000000
      5         -0.776876   1.000000
      6          1.740764  -0.000000
      7          2.144293  -0.000000
      8          3.951310   0.000000
 
  0.2916667E+00  0.2083333E+00  0.4166667E-01  0.2777778E-01
      1        -32.589121   1.000000
      2        -16.082176   1.000000
      3        -16.065148   1.000000
      4        -16.051740   1.000000
      5         -0.176447  -0.018160
      6          1.179280  -0.000000
      7          1.872593  -0.000000
      8          3.692504   0.000000
 
  0.3750000E+00  0.2083333E+00  0.4166667E-01  0.1388889E-01
      1        -32.589013   1.000000
      2        -16.082357   1.000000
      3        -16.067559   1.000000
      4        -16.051941   1.000000
      5          0.494035  -0.000000
      6          0.498848  -0.000000
      7          1.798130  -0.000000
      8          3.593840   0.000000
 
 -0.2083333E+00  0.2083333E+00  0.4166667E-01  0.1388889E-01
      1        -32.590504   1.000000
      2        -16.062756   1.000000
      3        -16.052604   1.000000
      4        -16.047385   1.000000
      5         -1.859589   1.000000
      6          2.837010   0.000000
      7          3.288381   0.000000
      8          4.155753   0.000000
 
 -0.1250000E+00  0.2083333E+00  0.4166667E-01  0.1388889E-01
      1        -32.590608   1.000000
      2        -16.059777   1.000000
      3        -16.051323   1.000000
      4        -16.048810   1.000000
      5         -1.935071   1.000000
      6          3.100748   0.000000
      7          3.286681   0.000000
      8          4.053407   0.000000
 
  0.2916667E+00  0.2916667E+00  0.4166667E-01  0.1388889E-01
      1        -32.588975   1.000000
      2        -16.078746   1.000000
      3        -16.071437   1.000000
      4        -16.052829   1.000000
      5          0.437843  -0.000000
      6          0.984171  -0.000000
      7          1.307203  -0.000000
      8          3.505945   0.000000
 
 -0.2916667E+00  0.2916667E+00  0.4166667E-01  0.1388889E-01
      1        -32.589931   1.000000
      2        -16.073731   1.000000
      3        -16.056440   1.000000
      4        -16.047298   1.000000
      5         -1.415847   1.000000
      6          2.095632  -0.000000
      7          3.036129   0.000000
      8          4.224457   0.000000
 
 -0.2083333E+00  0.2916667E+00  0.4166667E-01  0.2777778E-01
      1        -32.590079   1.000000
      2        -16.069232   1.000000
      3        -16.055101   1.000000
      4        -16.049177   1.000000
      5         -1.561397   1.000000
      6          2.478252   0.000000
      7          2.994017   0.000000
      8          4.044949   0.000000
 
 -0.3750000E+00  0.3750000E+00  0.4166667E-01  0.1388889E-01
      1        -32.589439   1.000000
      2        -16.083178   1.000000
      3        -16.059761   1.000000
      4        -16.047225   1.000000
      5         -0.850873   1.000000
      6          1.326023  -0.000000
      7          2.849218   0.000000
      8          4.178205   0.000000
 
 -0.2916667E+00  0.3750000E+00  0.4166667E-01  0.2777778E-01
      1        -32.589554   1.000000
      2        -16.078659   1.000000
      3        -16.059220   1.000000
      4        -16.049182   1.000000
      5         -1.057671   1.000000
      6          1.755701  -0.000000
      7          2.766762   0.000000
      8          4.027308   0.000000
 
 -0.2083333E+00  0.3750000E+00  0.4166667E-01  0.1388889E-01
      1        -32.589593   1.000000
      2        -16.076236   1.000000
      3        -16.059085   1.000000
      4        -16.050603   1.000000
      5         -1.127248   1.000000
      6          2.058370  -0.000000
      7          2.548740   0.000000
      8          4.091951   0.000000
 
 -0.4583333E+00  0.4583333E+00  0.4166667E-01  0.1388889E-01
      1        -32.589153   1.000000
      2        -16.088606   1.000000
      3        -16.061681   1.000000
      4        -16.047182   1.000000
      5         -0.192748  -0.025566
      6          0.564206  -0.000000
      7          2.751157   0.000000
      8          4.083290   0.000000
 
 -0.3750000E+00  0.4583333E+00  0.4166667E-01  0.2777778E-01
      1        -32.589166   1.000000
      2        -16.085512   1.000000
      3        -16.062276   1.000000
      4        -16.049133   1.000000
      5         -0.444619   1.022067
      6          1.004345  -0.000000
      7          2.621489   0.000000
      8          3.916321   0.000000
 
 -0.2916667E+00  0.4583333E+00  0.4166667E-01  0.2777778E-01
      1        -32.589174   1.000000
      2        -16.081714   1.000000
      3        -16.063787   1.000000
      4        -16.051115   1.000000
      5         -0.573801   1.003105
      6          1.475372  -0.000000
      7          2.229758  -0.000000
      8          4.052742   0.000000
 
 -0.4583333E+00 -0.4583333E+00  0.4166667E-01  0.1388889E-01
      1        -32.589025   1.000000
      2        -16.088015   1.000000
      3        -16.063401   1.000000
      4        -16.049110   1.000000
      5          0.188465  -0.000000
      6          0.323742  -0.000000
      7          2.571487   0.000000
      8          3.850509   0.000000
 
 -0.3750000E+00 -0.4583333E+00  0.4166667E-01  0.2777778E-01
      1        -32.588931   1.000000
      2        -16.084625   1.000000
      3        -16.066895   1.000000
      4        -16.051260   1.000000
      5          0.073746  -0.000000
      6          0.778819  -0.000000
      7          2.086361  -0.000000
      8          3.908367   0.000000
 
 -0.2916667E+00 -0.4583333E+00  0.4166667E-01  0.1388889E-01
      1        -32.588895   1.000000
      2        -16.081849   1.000000
      3        -16.069707   1.000000
      4        -16.052047   1.000000
      5          0.014259  -0.000002
      6          1.205297  -0.000000
      7          1.643719  -0.000000
      8          4.089787   0.000000
 
 -0.3750000E+00 -0.3750000E+00  0.4166667E-01  0.1388889E-01
      1        -32.588796   1.000000
      2        -16.080618   1.000000
      3        -16.073250   1.000000
      4        -16.052294   1.000000
      5          0.627560  -0.000000
      6          0.702105  -0.000000
      7          1.433680  -0.000000
      8          4.040680   0.000000
 
  0.1250000E+00  0.1250000E+00  0.1250000E+00  0.4629630E-02
      1        -32.589904   1.000000
      2        -16.074800   1.000000
      3        -16.051944   1.000000
      4        -16.051943   1.000000
      5         -1.341919   1.000000
      6          2.407697   0.000000
      7          2.407697   0.000000
      8          4.087704   0.000000
 
  0.2083333E+00  0.1250000E+00  0.1250000E+00  0.1388889E-01
      1        -32.589499   1.000000
      2        -16.079963   1.000000
      3        -16.057238   1.000000
      4        -16.052307   1.000000
      5         -0.845512   1.000000
      6          1.810241  -0.000000
      7          2.181978  -0.000000
      8          3.790178   0.000000
 
  0.2916667E+00  0.1250000E+00  0.1250000E+00  0.1388889E-01
      1        -32.589204   1.000000
      2        -16.082443   1.000000
      3        -16.062383   1.000000
      4        -16.052571   1.000000
      5         -0.241516  -0.030164
      6          1.140961  -0.000000
      7          2.045631  -0.000000
      8          3.483755   0.000000
 
  0.3750000E+00  0.1250000E+00  0.1250000E+00  0.6944444E-02
      1        -32.589097   1.000000
      2        -16.082997   1.000000
      3        -16.064621   1.000000
      4        -16.052671   1.000000
      5          0.418825  -0.000000
      6          0.455869  -0.000000
      7          2.000076  -0.000000
      8          3.365758   0.000000
 
 -0.1250000E+00  0.1250000E+00  0.1250000E+00  0.3472222E-02
      1        -32.590719   1.000000
      2        -16.054548   1.000000
      3        -16.051233   1.000000
      4        -16.051231   1.000000
      5         -2.011060   1.000000
      6          3.437013   0.000000
      7          3.437014   0.000000
      8          3.696915   0.000000
 
  0.2083333E+00  0.2083333E+00  0.1250000E+00  0.1388889E-01
      1        -32.589231   1.000000
      2        -16.080710   1.000000
      3        -16.061071   1.000000
      4        -16.055136   1.000000
      5         -0.304479   0.171587
      6          1.514120  -0.000000
      7          1.768332  -0.000000
      8          3.294509   0.000000
 
  0.2916667E+00  0.2083333E+00  0.1250000E+00  0.2777778E-01
      1        -32.589074   1.000000
      2        -16.078854   1.000000
      3        -16.066346   1.000000
      4        -16.055992   1.000000
      5          0.321173  -0.000000
      6          0.975552  -0.000000
      7          1.595461  -0.000000
      8          3.003828   0.000000
 
 -0.2083333E+00  0.2083333E+00  0.1250000E+00  0.1388889E-01
      1        -32.590233   1.000000
      2        -16.062647   1.000000
      3        -16.054608   1.000000
      4        -16.051966   1.000000
      5         -1.709207   1.000000
      6          2.887918   0.000000
      7          3.227942   0.000000
      8          3.599079   0.000000
 
  0.2916667E+00  0.2916667E+00  0.1250000E+00  0.4629630E-02
      1        -32.589025   1.000000
      2        -16.072702   1.000000
      3        -16.072700   1.000000
      4        -16.057170   1.000000
      5          0.851513  -0.000000
      6          0.851513  -0.000000
      7          1.170284  -0.000000
      8          2.833237   0.000000
 
 -0.2916667E+00  0.2916667E+00  0.1250000E+00  0.1388889E-01
      1        -32.589681   1.000000
      2        -16.073019   1.000000
      3        -16.058511   1.000000
      4        -16.051750   1.000000
      5         -1.270342   1.000000
      6          2.165394  -0.000000
      7          3.012807   0.000000
      8          3.622038   0.000000
 
 -0.2083333E+00  0.2916667E+00  0.1250000E+00  0.1388889E-01
      1        -32.589727   1.000000
      2        -16.069592   1.000000
      3        -16.058357   1.000000
      4        -16.053954   1.000000
      5         -1.341902   1.000000
      6          2.460114   0.000000
      7          2.926988   0.000000
      8          3.536491   0.000000
 
 -0.3750000E+00  0.3750000E+00  0.1250000E+00  0.1388889E-01
      1        -32.589202   1.000000
      2        -16.082011   1.000000
      3        -16.061890   1.000000
      4        -16.051491   1.000000
      5         -0.711481   1.000002
      6          1.419682  -0.000000
      7          2.847645   0.000000
      8          3.560736   0.000000
 
 -0.2916667E+00  0.3750000E+00  0.1250000E+00  0.2777778E-01
      1        -32.589220   1.000000
      2        -16.077668   1.000000
      3        -16.062632   1.000000
      4        -16.054222   1.000000
      5         -0.846995   1.000000
      6          1.849487  -0.000000
      7          2.644662   0.000000
      8          3.581120   0.000000
 
 -0.4583333E+00  0.4583333E+00  0.1250000E+00  0.1388889E-01
      1        -32.588924   1.000000
      2        -16.087193   1.000000
      3        -16.063843   1.000000
      4        -16.051332   1.000000
      5         -0.057852  -0.000166
      6          0.671854  -0.000000
      7          2.759628   0.000000
      8          3.465840   0.000000
 
 -0.3750000E+00  0.4583333E+00  0.1250000E+00  0.2777778E-01
      1        -32.588850   1.000000
      2        -16.083760   1.000000
      3        -16.065855   1.000000
      4        -16.054107   1.000000
      5         -0.244918  -0.027462
      6          1.151951  -0.000000
      7          2.467502   0.000000
      8          3.523456   0.000000
 
 -0.2916667E+00  0.4583333E+00  0.1250000E+00  0.1388889E-01
      1        -32.588819   1.000000
      2        -16.081128   1.000000
      3        -16.067970   1.000000
      4        -16.055119   1.000000
      5         -0.308487   0.197096
      6          1.510694  -0.000000
      7          2.095032  -0.000000
      8          3.773123   0.000000
 
 -0.4583333E+00 -0.4583333E+00  0.1250000E+00  0.1388889E-01
      1        -32.588712   1.000000
      2        -16.086004   1.000000
      3        -16.067040   1.000000
      4        -16.054032   1.000000
      5          0.421178  -0.000000
      6          0.449565  -0.000000
      7          2.406032   0.000000
      8          3.475311   0.000000
 
 -0.3750000E+00 -0.4583333E+00  0.1250000E+00  0.2777778E-01
      1        -32.588593   1.000000
      2        -16.082532   1.000000
      3        -16.071983   1.000000
      4        -16.055294   1.000000
      5          0.316547  -0.000000
      6          0.978529  -0.000000
      7          1.795512  -0.000000
      8          3.833904   0.000000
 
 -0.3750000E+00 -0.3750000E+00  0.1250000E+00  0.4629630E-02
      1        -32.588492   1.000000
      2        -16.078237   1.000000
      3        -16.078234   1.000000
      4        -16.055546   1.000000
      5          0.840045  -0.000000
      6          0.840046  -0.000000
      7          1.301520  -0.000000
      8          4.192063   0.000000
 
  0.2083333E+00  0.2083333E+00  0.2083333E+00  0.4629630E-02
      1        -32.589096   1.000000
      2        -16.077346   1.000000
      3        -16.061803   1.000000
      4        -16.061802   1.000000
      5          0.261649  -0.000000
      6          1.378816  -0.000000
      7          1.378817  -0.000000
      8          2.696372   0.000000
 
  0.2916667E+00  0.2083333E+00  0.2083333E+00  0.6944444E-02
      1        -32.589044   1.000000
      2        -16.073169   1.000000
      3        -16.067187   1.000000
      4        -16.062063   1.000000
      5          0.807387  -0.000000
      6          0.919671  -0.000000
      7          1.333884  -0.000000
      8          2.458091   0.000000
 
 -0.2083333E+00  0.2083333E+00  0.2083333E+00  0.3472222E-02
      1        -32.589772   1.000000
      2        -16.064253   1.000000
      3        -16.058086   1.000000
      4        -16.058085   1.000000
      5         -1.414132   1.000000
      6          2.831368   0.000000
      7          3.106591   0.000000
      8          3.106592   0.000000
 
 -0.2916667E+00  0.2916667E+00  0.2083333E+00  0.1388889E-01
      1        -32.589245   1.000000
      2        -16.071958   1.000000
      3        -16.062099   1.000000
      4        -16.059257   1.000000
      5         -0.985712   1.000000
      6          2.248169  -0.000000
      7          2.961341   0.000000
      8          3.110847   0.000000
 
 -0.3750000E+00  0.3750000E+00  0.2083333E+00  0.1388889E-01
      1        -32.588789   1.000000
      2        -16.080008   1.000000
      3        -16.065570   1.000000
      4        -16.058840   1.000000
      5         -0.441396   1.017808
      6          1.582118  -0.000000
      7          2.839501   0.000000
      8          3.032211   0.000000
 
 -0.2916667E+00  0.3750000E+00  0.2083333E+00  0.1388889E-01
      1        -32.588768   1.000000
      2        -16.076905   1.000000
      3        -16.066702   1.000000
      4        -16.061074   1.000000
      5         -0.507670   1.022914
      6          1.875272  -0.000000
      7          2.592881   0.000000
      8          3.208138   0.000000
 
 -0.4583333E+00  0.4583333E+00  0.2083333E+00  0.1388889E-01
      1        -32.588527   1.000000
      2        -16.084742   1.000000
      3        -16.067576   1.000000
      4        -16.058498   1.000000
      5          0.193588  -0.000000
      6          0.884278  -0.000000
      7          2.771790   0.000000
      8          2.907792   0.000000
 
 -0.3750000E+00  0.4583333E+00  0.2083333E+00  0.2777778E-01
      1        -32.588417   1.000000
      2        -16.081477   1.000000
      3        -16.070434   1.000000
      4        -16.061060   1.000000
      5          0.069154  -0.000000
      6          1.352280  -0.000000
      7          2.277490  -0.000000
      8          3.270968   0.000000
 
 -0.4583333E+00 -0.4583333E+00  0.2083333E+00  0.1388889E-01
      1        -32.588286   1.000000
      2        -16.083253   1.000000
      3        -16.071792   1.000000
      4        -16.060951   1.000000
      5          0.655798  -0.000000
      6          0.770155  -0.000000
      7          2.172316  -0.000000
      8          3.257341   0.000000
 
 -0.3750000E+00 -0.4583333E+00  0.2083333E+00  0.1388889E-01
      1        -32.588203   1.000000
      2        -16.080650   1.000000
      3        -16.075864   1.000000
      4        -16.061376   1.000000
      5          0.638712  -0.000000
      6          1.126780  -0.000000
      7          1.718002  -0.000000
      8          3.599918   0.000000
 
 -0.2916667E+00  0.2916667E+00  0.2916667E+00  0.3472222E-02
      1        -32.588744   1.000000
      2        -16.072377   1.000000
      3        -16.066238   1.000000
      4        -16.066236   1.000000
      5         -0.574853   1.002979
      6          2.120697  -0.000000
      7          2.889958   0.000000
      8          2.889959   0.000000
 
 -0.3750000E+00  0.3750000E+00  0.2916667E+00  0.1388889E-01
      1        -32.588314   1.000000
      2        -16.077776   1.000000
      3        -16.069815   1.000000
      4        -16.067202   1.000000
      5         -0.058386  -0.000171
      6          1.710218  -0.000000
      7          2.752900   0.000000
      8          2.822261   0.000000
 
 -0.4583333E+00  0.4583333E+00  0.2916667E+00  0.1388889E-01
      1        -32.588066   1.000000
      2        -16.081913   1.000000
      3        -16.071880   1.000000
      4        -16.066728   1.000000
      5          0.527139  -0.000000
      6          1.165706  -0.000000
      7          2.544754   0.000000
      8          2.781870   0.000000
 
 -0.3750000E+00  0.4583333E+00  0.2916667E+00  0.1388889E-01
      1        -32.587985   1.000000
      2        -16.079696   1.000000
      3        -16.074124   1.000000
      4        -16.068353   1.000000
      5          0.468030  -0.000000
      6          1.447168  -0.000000
      7          2.299123  -0.000000
      8          3.061683   0.000000
 
 -0.4583333E+00 -0.4583333E+00  0.2916667E+00  0.1388889E-01
      1        -32.587864   1.000000
      2        -16.080507   1.000000
      3        -16.076102   1.000000
      4        -16.068261   1.000000
      5          0.929693  -0.000000
      6          1.110555  -0.000000
      7          2.078967  -0.000000
      8          3.138523   0.000000
 
 -0.3750000E+00  0.3750000E+00  0.3750000E+00  0.3472222E-02
      1        -32.587907   1.000000
      2        -16.076764   1.000000
      3        -16.073495   1.000000
      4        -16.073493   1.000000
      5          0.407862  -0.000000
      6          1.629419  -0.000000
      7          2.801409   0.000000
      8          2.801410   0.000000
 
 -0.4583333E+00  0.4583333E+00  0.3750000E+00  0.1388889E-01
      1        -32.587665   1.000000
      2        -16.079460   1.000000
      3        -16.075606   1.000000
      4        -16.073815   1.000000
      5          0.896804  -0.000000
      6          1.370347  -0.000000
      7          2.517699   0.000000
      8          2.787224   0.000000
 
 -0.4583333E+00 -0.4583333E+00  0.3750000E+00  0.4629630E-02
      1        -32.587553   1.000000
      2        -16.078497   1.000000
      3        -16.078495   1.000000
      4        -16.074355   1.000000
      5          1.224057  -0.000000
      6          1.224057  -0.000000
      7          2.363154   0.000000
      8          3.024784   0.000000
 
 -0.4583333E+00  0.4583333E+00  0.4583333E+00  0.3472222E-02
      1        -32.587445   1.000000
      2        -16.078197   1.000000
      3        -16.077761   1.000000
      4        -16.077759   1.000000
      5          1.220374  -0.000000
      6          1.379895  -0.000000
      7          2.784955   0.000000
      8          2.788924   0.000000
