[1776442077.301489] [d01:1948995:f]        vfs_fuse.c:281  UCX  ERROR inotify_add_watch(/tmp) failed: No space left on device
 running    1 mpi-ranks, with    1 threads/rank, on    1 nodes
 distrk:  each k-point on    1 cores,    1 groups
 distr:  one band on    1 cores,    1 groups
 OpenACC runtime initialized ...    1 GPUs detected
 vasp.6.4.2 20Jul23 (build Mar  2 2025 11:04:54) complex                         
 POSCAR found type information on POSCAR Ag
 POSCAR found :  1 types and       1 ions
 scaLAPACK will be used selectively (only on CPU)
 LDA part: xc-table for Pade appr. of Perdew
 -----------------------------------------------------------------------------
|                                                                             |
|           W    W    AA    RRRRR   N    N  II  N    N   GGGG   !!!           |
|           W    W   A  A   R    R  NN   N  II  NN   N  G    G  !!!           |
|           W    W  A    A  R    R  N N  N  II  N N  N  G       !!!           |
|           W WW W  AAAAAA  RRRRR   N  N N  II  N  N N  G  GGG   !            |
|           WW  WW  A    A  R   R   N   NN  II  N   NN  G    G                |
|           W    W  A    A  R    R  N    N  II  N    N   GGGG   !!!           |
|                                                                             |
|     The requested file  could not be found or opened for reading            |
|     k-point information. Automatic k-point generation is used as a          |
|     fallback, which may lead to unwanted results.                           |
|                                                                             |
 -----------------------------------------------------------------------------

 POSCAR, INCAR and KPOINTS ok, starting setup
 FFT: planning ... GRIDC
 FFT: planning ... GRID_SOFT
 FFT: planning ... GRID
 WAVECAR not read
 entering main loop
       N       E                     dE             d eps       ncg     rms          rms(c)
DAV:   1     0.405778656595E+02    0.40578E+02   -0.53487E+03  4080   0.992E+02
DAV:   2    -0.253526877697E+01   -0.43113E+02   -0.41140E+02  4074   0.199E+02
DAV:   3    -0.285688739167E+01   -0.32162E+00   -0.32154E+00  4581   0.209E+01
DAV:   4    -0.285750525732E+01   -0.61787E-03   -0.61785E-03  4462   0.867E-01
DAV:   5    -0.285750896535E+01   -0.37080E-05   -0.37087E-05  4409   0.611E-02    0.710E+00
DAV:   6    -0.258879504526E+01    0.26871E+00   -0.11118E+00  4029   0.118E+01    0.436E+00
DAV:   7    -0.257405126899E+01    0.14744E-01   -0.23566E-02  4242   0.169E+00    0.227E+00
DAV:   8    -0.256996754959E+01    0.40837E-02   -0.78594E-04  4098   0.263E-01    0.110E-01
DAV:   9    -0.256997472342E+01   -0.71738E-05   -0.58878E-06  4563   0.250E-02    0.145E-02
DAV:  10    -0.256998095883E+01   -0.62354E-05   -0.31252E-06  4360   0.206E-02    0.734E-03
DAV:  11    -0.256998051942E+01    0.43941E-06   -0.77505E-08  2030   0.313E-03
   1 F= -.25699805E+01 E0= -.25698163E+01  d E =-.492709E-03
Warning: ieee_invalid is signaling
Warning: ieee_divide_by_zero is signaling
Warning: ieee_underflow is signaling
Warning: ieee_inexact is signaling
FORTRAN STOP
