   2   2   0   0
  0.2916000E+04  0.1800000E-08  0.1800000E-08  0.1800000E-08  0.5000000E-15
   1.0000000000000000E-004
  CAR 
 CO gas phase geometry optimization      
      1.73447032    -30.73910200  301     -8.75178741      1.00000000
    -30.739  0.0000E+00  0.0000E+00
    -30.631  0.0000E+00  0.0000E+00
    -30.523  0.0000E+00  0.0000E+00
    -30.414  0.0000E+00  0.0000E+00
    -30.306  0.0000E+00  0.0000E+00
    -30.198  0.0000E+00  0.0000E+00
    -30.090  0.0000E+00  0.0000E+00
    -29.981  0.0000E+00  0.0000E+00
    -29.873  0.0000E+00  0.0000E+00
    -29.765  0.0000E+00  0.0000E+00
    -29.657  0.0000E+00  0.0000E+00
    -29.548  0.3077E-16  0.3331E-17
    -29.440  0.2488E-07  0.2694E-08
    -29.332  0.2362E-02  0.2557E-03
    -29.224  0.7771E-01  0.8668E-02
    -29.115  0.1231E-01  0.1000E-01
    -29.007  0.1389E-05  0.1000E-01
    -28.899  0.2157E-13  0.1000E-01
    -28.791  0.0000E+00  0.1000E-01
    -28.682  0.0000E+00  0.1000E-01
    -28.574  0.0000E+00  0.1000E-01
    -28.466  0.0000E+00  0.1000E-01
    -28.358  0.0000E+00  0.1000E-01
    -28.249  0.0000E+00  0.1000E-01
    -28.141  0.0000E+00  0.1000E-01
    -28.033  0.0000E+00  0.1000E-01
    -27.925  0.0000E+00  0.1000E-01
    -27.816  0.0000E+00  0.1000E-01
    -27.708  0.0000E+00  0.1000E-01
    -27.600  0.0000E+00  0.1000E-01
    -27.492  0.0000E+00  0.1000E-01
    -27.383  0.0000E+00  0.1000E-01
    -27.275  0.0000E+00  0.1000E-01
    -27.167  0.0000E+00  0.1000E-01
    -27.059  0.0000E+00  0.1000E-01
    -26.951  0.0000E+00  0.1000E-01
    -26.842  0.0000E+00  0.1000E-01
    -26.734  0.0000E+00  0.1000E-01
    -26.626  0.0000E+00  0.1000E-01
    -26.518  0.0000E+00  0.1000E-01
    -26.409  0.0000E+00  0.1000E-01
    -26.301  0.0000E+00  0.1000E-01
    -26.193  0.0000E+00  0.1000E-01
    -26.085  0.0000E+00  0.1000E-01
    -25.976  0.0000E+00  0.1000E-01
    -25.868  0.0000E+00  0.1000E-01
    -25.760  0.0000E+00  0.1000E-01
    -25.652  0.0000E+00  0.1000E-01
    -25.543  0.0000E+00  0.1000E-01
    -25.435  0.0000E+00  0.1000E-01
    -25.327  0.0000E+00  0.1000E-01
    -25.219  0.0000E+00  0.1000E-01
    -25.110  0.0000E+00  0.1000E-01
    -25.002  0.0000E+00  0.1000E-01
    -24.894  0.0000E+00  0.1000E-01
    -24.786  0.0000E+00  0.1000E-01
    -24.677  0.0000E+00  0.1000E-01
    -24.569  0.0000E+00  0.1000E-01
    -24.461  0.0000E+00  0.1000E-01
    -24.353  0.0000E+00  0.1000E-01
    -24.244  0.0000E+00  0.1000E-01
    -24.136  0.0000E+00  0.1000E-01
    -24.028  0.0000E+00  0.1000E-01
    -23.920  0.0000E+00  0.1000E-01
    -23.811  0.0000E+00  0.1000E-01
    -23.703  0.0000E+00  0.1000E-01
    -23.595  0.0000E+00  0.1000E-01
    -23.487  0.0000E+00  0.1000E-01
    -23.378  0.0000E+00  0.1000E-01
    -23.270  0.0000E+00  0.1000E-01
    -23.162  0.0000E+00  0.1000E-01
    -23.054  0.0000E+00  0.1000E-01
    -22.945  0.0000E+00  0.1000E-01
    -22.837  0.0000E+00  0.1000E-01
    -22.729  0.0000E+00  0.1000E-01
    -22.621  0.0000E+00  0.1000E-01
    -22.512  0.0000E+00  0.1000E-01
    -22.404  0.0000E+00  0.1000E-01
    -22.296  0.0000E+00  0.1000E-01
    -22.188  0.0000E+00  0.1000E-01
    -22.079  0.0000E+00  0.1000E-01
    -21.971  0.0000E+00  0.1000E-01
    -21.863  0.0000E+00  0.1000E-01
    -21.755  0.0000E+00  0.1000E-01
    -21.647  0.0000E+00  0.1000E-01
    -21.538  0.0000E+00  0.1000E-01
    -21.430  0.0000E+00  0.1000E-01
    -21.322  0.0000E+00  0.1000E-01
    -21.214  0.0000E+00  0.1000E-01
    -21.105  0.0000E+00  0.1000E-01
    -20.997  0.0000E+00  0.1000E-01
    -20.889  0.0000E+00  0.1000E-01
    -20.781  0.0000E+00  0.1000E-01
    -20.672  0.0000E+00  0.1000E-01
    -20.564  0.0000E+00  0.1000E-01
    -20.456  0.0000E+00  0.1000E-01
    -20.348  0.0000E+00  0.1000E-01
    -20.239  0.0000E+00  0.1000E-01
    -20.131  0.0000E+00  0.1000E-01
    -20.023  0.0000E+00  0.1000E-01
    -19.915  0.0000E+00  0.1000E-01
    -19.806  0.0000E+00  0.1000E-01
    -19.698  0.0000E+00  0.1000E-01
    -19.590  0.0000E+00  0.1000E-01
    -19.482  0.0000E+00  0.1000E-01
    -19.373  0.0000E+00  0.1000E-01
    -19.265  0.0000E+00  0.1000E-01
    -19.157  0.0000E+00  0.1000E-01
    -19.049  0.0000E+00  0.1000E-01
    -18.940  0.0000E+00  0.1000E-01
    -18.832  0.0000E+00  0.1000E-01
    -18.724  0.0000E+00  0.1000E-01
    -18.616  0.0000E+00  0.1000E-01
    -18.507  0.0000E+00  0.1000E-01
    -18.399  0.0000E+00  0.1000E-01
    -18.291  0.0000E+00  0.1000E-01
    -18.183  0.0000E+00  0.1000E-01
    -18.074  0.0000E+00  0.1000E-01
    -17.966  0.0000E+00  0.1000E-01
    -17.858  0.0000E+00  0.1000E-01
    -17.750  0.0000E+00  0.1000E-01
    -17.641  0.0000E+00  0.1000E-01
    -17.533  0.0000E+00  0.1000E-01
    -17.425  0.0000E+00  0.1000E-01
    -17.317  0.0000E+00  0.1000E-01
    -17.208  0.0000E+00  0.1000E-01
    -17.100  0.0000E+00  0.1000E-01
    -16.992  0.0000E+00  0.1000E-01
    -16.884  0.0000E+00  0.1000E-01
    -16.775  0.0000E+00  0.1000E-01
    -16.667  0.0000E+00  0.1000E-01
    -16.559  0.0000E+00  0.1000E-01
    -16.451  0.0000E+00  0.1000E-01
    -16.342  0.0000E+00  0.1000E-01
    -16.234  0.0000E+00  0.1000E-01
    -16.126  0.0000E+00  0.1000E-01
    -16.018  0.0000E+00  0.1000E-01
    -15.910  0.0000E+00  0.1000E-01
    -15.801  0.0000E+00  0.1000E-01
    -15.693  0.0000E+00  0.1000E-01
    -15.585  0.0000E+00  0.1000E-01
    -15.477  0.0000E+00  0.1000E-01
    -15.368  0.0000E+00  0.1000E-01
    -15.260  0.0000E+00  0.1000E-01
    -15.152  0.0000E+00  0.1000E-01
    -15.044  0.0000E+00  0.1000E-01
    -14.935  0.0000E+00  0.1000E-01
    -14.827  0.0000E+00  0.1000E-01
    -14.719  0.0000E+00  0.1000E-01
    -14.611  0.0000E+00  0.1000E-01
    -14.502  0.0000E+00  0.1000E-01
    -14.394  0.0000E+00  0.1000E-01
    -14.286  0.1802E-11  0.1000E-01
    -14.178  0.1806E-04  0.1000E-01
    -14.069  0.2899E-01  0.1314E-01
    -13.961  0.6291E-01  0.1995E-01
    -13.853  0.4602E-03  0.2000E-01
    -13.745  0.7911E-09  0.2000E-01
    -13.636  0.0000E+00  0.2000E-01
    -13.528  0.0000E+00  0.2000E-01
    -13.420  0.0000E+00  0.2000E-01
    -13.312  0.0000E+00  0.2000E-01
    -13.203  0.0000E+00  0.2000E-01
    -13.095  0.0000E+00  0.2000E-01
    -12.987  0.0000E+00  0.2000E-01
    -12.879  0.0000E+00  0.2000E-01
    -12.770  0.0000E+00  0.2000E-01
    -12.662  0.0000E+00  0.2000E-01
    -12.554  0.0000E+00  0.2000E-01
    -12.446  0.0000E+00  0.2000E-01
    -12.337  0.0000E+00  0.2000E-01
    -12.229  0.0000E+00  0.2000E-01
    -12.121  0.0000E+00  0.2000E-01
    -12.013  0.6815E-14  0.2000E-01
    -11.904  0.9146E-06  0.2000E-01
    -11.796  0.1613E-01  0.2175E-01
    -11.688  0.1605E+00  0.3912E-01
    -11.580  0.8166E-02  0.4000E-01
    -11.471  0.1740E-06  0.4000E-01
    -11.363  0.4590E-15  0.4000E-01
    -11.255  0.0000E+00  0.4000E-01
    -11.147  0.0000E+00  0.4000E-01
    -11.038  0.0000E+00  0.4000E-01
    -10.930  0.0000E+00  0.4000E-01
    -10.822  0.0000E+00  0.4000E-01
    -10.714  0.0000E+00  0.4000E-01
    -10.605  0.0000E+00  0.4000E-01
    -10.497  0.0000E+00  0.4000E-01
    -10.389  0.0000E+00  0.4000E-01
    -10.281  0.0000E+00  0.4000E-01
    -10.173  0.0000E+00  0.4000E-01
    -10.064  0.0000E+00  0.4000E-01
     -9.956  0.0000E+00  0.4000E-01
     -9.848  0.0000E+00  0.4000E-01
     -9.740  0.0000E+00  0.4000E-01
     -9.631  0.0000E+00  0.4000E-01
     -9.523  0.0000E+00  0.4000E-01
     -9.415  0.0000E+00  0.4000E-01
     -9.307  0.1578E-13  0.4000E-01
     -9.198  0.1152E-05  0.4000E-01
     -9.090  0.1148E-01  0.4124E-01
     -8.982  0.7829E-01  0.4972E-01
     -8.874  0.2605E-02  0.5000E-01
     -8.765  0.3099E-07  0.5000E-01
     -8.657  0.4103E-16  0.5000E-01
     -8.549  0.0000E+00  0.5000E-01
     -8.441  0.0000E+00  0.5000E-01
     -8.332  0.0000E+00  0.5000E-01
     -8.224  0.0000E+00  0.5000E-01
     -8.116  0.0000E+00  0.5000E-01
     -8.008  0.0000E+00  0.5000E-01
     -7.899  0.0000E+00  0.5000E-01
     -7.791  0.0000E+00  0.5000E-01
     -7.683  0.0000E+00  0.5000E-01
     -7.575  0.0000E+00  0.5000E-01
     -7.466  0.0000E+00  0.5000E-01
     -7.358  0.0000E+00  0.5000E-01
     -7.250  0.0000E+00  0.5000E-01
     -7.142  0.0000E+00  0.5000E-01
     -7.033  0.0000E+00  0.5000E-01
     -6.925  0.0000E+00  0.5000E-01
     -6.817  0.0000E+00  0.5000E-01
     -6.709  0.0000E+00  0.5000E-01
     -6.600  0.0000E+00  0.5000E-01
     -6.492  0.0000E+00  0.5000E-01
     -6.384  0.0000E+00  0.5000E-01
     -6.276  0.0000E+00  0.5000E-01
     -6.167  0.0000E+00  0.5000E-01
     -6.059  0.0000E+00  0.5000E-01
     -5.951  0.0000E+00  0.5000E-01
     -5.843  0.0000E+00  0.5000E-01
     -5.734  0.0000E+00  0.5000E-01
     -5.626  0.0000E+00  0.5000E-01
     -5.518  0.0000E+00  0.5000E-01
     -5.410  0.0000E+00  0.5000E-01
     -5.301  0.0000E+00  0.5000E-01
     -5.193  0.0000E+00  0.5000E-01
     -5.085  0.0000E+00  0.5000E-01
     -4.977  0.0000E+00  0.5000E-01
     -4.868  0.0000E+00  0.5000E-01
     -4.760  0.0000E+00  0.5000E-01
     -4.652  0.0000E+00  0.5000E-01
     -4.544  0.0000E+00  0.5000E-01
     -4.436  0.0000E+00  0.5000E-01
     -4.327  0.0000E+00  0.5000E-01
     -4.219  0.0000E+00  0.5000E-01
     -4.111  0.0000E+00  0.5000E-01
     -4.003  0.0000E+00  0.5000E-01
     -3.894  0.0000E+00  0.5000E-01
     -3.786  0.0000E+00  0.5000E-01
     -3.678  0.0000E+00  0.5000E-01
     -3.570  0.0000E+00  0.5000E-01
     -3.461  0.0000E+00  0.5000E-01
     -3.353  0.0000E+00  0.5000E-01
     -3.245  0.0000E+00  0.5000E-01
     -3.137  0.0000E+00  0.5000E-01
     -3.028  0.0000E+00  0.5000E-01
     -2.920  0.0000E+00  0.5000E-01
     -2.812  0.0000E+00  0.5000E-01
     -2.704  0.0000E+00  0.5000E-01
     -2.595  0.0000E+00  0.5000E-01
     -2.487  0.0000E+00  0.5000E-01
     -2.379  0.1388E-10  0.5000E-01
     -2.271  0.7643E-04  0.5001E-01
     -2.162  0.7180E-01  0.5778E-01
     -2.054  0.1124E+00  0.6995E-01
     -1.946  0.5027E-03  0.7000E-01
     -1.838  0.4785E-09  0.7000E-01
     -1.729  0.0000E+00  0.7000E-01
     -1.621  0.0000E+00  0.7000E-01
     -1.513  0.0000E+00  0.7000E-01
     -1.405  0.0000E+00  0.7000E-01
     -1.296  0.0000E+00  0.7000E-01
     -1.188  0.0000E+00  0.7000E-01
     -1.080  0.0000E+00  0.7000E-01
     -0.972  0.0000E+00  0.7000E-01
     -0.863  0.0000E+00  0.7000E-01
     -0.755  0.0000E+00  0.7000E-01
     -0.647  0.0000E+00  0.7000E-01
     -0.539  0.0000E+00  0.7000E-01
     -0.430  0.1923E-17  0.7000E-01
     -0.322  0.2155E-08  0.7000E-01
     -0.214  0.2629E-03  0.7003E-01
     -0.106  0.2578E-01  0.7282E-01
      0.003  0.6331E-01  0.7967E-01
      0.111  0.3357E-01  0.8331E-01
      0.219  0.4316E-01  0.8798E-01
      0.327  0.1837E-01  0.8997E-01
      0.436  0.3041E-03  0.9000E-01
      0.544  0.3145E-08  0.9000E-01
      0.652  0.3846E-17  0.9000E-01
      0.760  0.0000E+00  0.9000E-01
      0.869  0.0000E+00  0.9000E-01
      0.977  0.0000E+00  0.9000E-01
      1.085  0.0000E+00  0.9000E-01
      1.193  0.0000E+00  0.9000E-01
      1.301  0.0000E+00  0.9000E-01
      1.410  0.0000E+00  0.9000E-01
      1.518  0.0000E+00  0.9000E-01
      1.626  0.0000E+00  0.9000E-01
      1.734  0.0000E+00  0.9000E-01
