    2    2  200    1
  0.2916000E+04  0.1800000E-08  0.1800000E-08  0.1800000E-08  0.5000000E-15
   1.0000000000000000E-004
  CAR 
 CO gas phase geometry optimization      
     10      6      9
 
  0.1262379E-14  0.1262379E-14  0.1262379E-14  0.1250000E+00
      1        -29.263031   1.000000
      2        -14.052271   1.000000
      3        -11.748338   1.000000
      4        -11.748338   1.000000
      5         -9.049342   1.000000
      6         -2.152524   0.000000
      7         -2.152524   0.000000
      8         -0.142504   0.000000
      9          0.213048   0.000000
 
  0.5000000E+00  0.1262379E-14  0.1262379E-14  0.2500000E+00
      1        -29.262891   1.000000
      2        -14.052133   1.000000
      3        -11.748096   1.000000
      4        -11.747983   1.000000
      5         -9.049180   1.000000
      6         -2.152292   0.000000
      7         -2.152147   0.000000
      8         -0.093944   0.000000
      9          0.077529   0.000000
 
  0.1262379E-14  0.1262379E-14  0.5000000E+00  0.1250000E+00
      1        -29.262915   1.000000
      2        -14.052118   1.000000
      3        -11.748167   1.000000
      4        -11.748167   1.000000
      5         -9.049177   1.000000
      6         -2.152088   0.000000
      7         -2.152088   0.000000
      8         -0.095402   0.000000
      9          0.068360   0.000000
 
  0.5000000E+00  0.5000000E+00  0.1262379E-14  0.1250000E+00
      1        -29.262975   1.000000
      2        -14.052244   1.000000
      3        -11.748226   1.000000
      4        -11.748226   1.000000
      5         -9.049236   1.000000
      6         -2.152463   0.000000
      7         -2.152463   0.000000
      8         -0.056671   0.000000
      9          0.174011   0.000000
 
  0.1262379E-14  0.5000000E+00  0.5000000E+00  0.2500000E+00
      1        -29.262982   1.000000
      2        -14.052266   1.000000
      3        -11.748206   1.000000
      4        -11.748171   1.000000
      5         -9.049357   1.000000
      6         -2.152641   0.000000
      7         -2.152474   0.000000
      8         -0.058491   0.000000
      9          0.175300   0.000000
 
  0.5000000E+00  0.5000000E+00  0.5000000E+00  0.1250000E+00
      1        -29.263003   1.000000
      2        -14.052215   1.000000
      3        -11.748272   1.000000
      4        -11.748272   1.000000
      5         -9.049304   1.000000
      6         -2.152502   0.000000
      7         -2.152502   0.000000
      8         -0.028942   0.000000
      9          0.258399   0.000000
