Fe35                                    
    1.000000000000000     
     6.9171559494547807    0.0053157605111243   -2.4482539720722936
    -3.4542769470103525    5.9925887308889312   -2.4490219116545107
     2.3061689566802683    3.9957366778278920    6.5245227225275535
   Fe
    35
Direct
     0.1666666733333315    0.1666666933333332    0.7499999950000031
     0.1668770159295002    0.4883122201147753    0.2499999949917680
     0.1676283596655643    0.4998150782588413    0.7499999949985569
     0.1664563307371628    0.8450211665518911    0.2499999950082383
     0.1657049870010988    0.8335183084078251    0.7499999950014494
     0.4883122001914282    0.1668770359574376    0.2499999949126767
     0.4998150582641428    0.1676283796667916    0.7499999949931605
     0.5040951998278091    0.5040952198431365    0.2499999950377244
     0.4995574649371158    0.4995574849434390    0.7499999950114368
     0.4982922538082770    0.8350411128621784    0.2499999949975992
     0.4998650017622676    0.8334683649086944    0.7499999949967294
     0.8450211464752420    0.1664563507092288    0.2499999950873295
     0.8335182884025273    0.1657050069998748    0.7499999950068458
     0.8350410928583932    0.4982922738044879    0.2499999950024071
     0.8334683449044026    0.4998650217579720    0.7499999950032769
     0.8292381468388610    0.8292381668235298    0.2499999949622819
     0.8337758817295545    0.8337759017232272    0.7499999949885695
     0.3274880513799072    0.3274880313080610    0.0082513566128717
     0.3274880511935614    0.3274880312231573    0.4917486533011908
     0.3323109367188521    0.6647261409315437    0.0017433804930229
     0.3323109366921982    0.6647261409176334    0.4982566294953567
     0.3355232249658459    0.9978100749690899    0.9971543797793365
     0.3355232250323557    0.9978100750006785    0.5028456302491769
     0.6647261609398327    0.3323109167103778    0.0017433804940031
     0.6647261609131787    0.3323109166964675    0.4982566294963369
     0.6666666600048907    0.6666666400018504    0.9997166950836497
     0.6666666599951034    0.6666666399981547    0.5002833149163440
     0.6686071590868155    0.0010223633035306    0.0017433805036568
     0.6686071590601614    0.0010223632896202    0.4982566295059907
     0.9978100949676457    0.3355232049993194    0.9971543797508168
     0.9978100950341553    0.3355232050309081    0.5028456302206572
     0.0010223833078031    0.6686071390823717    0.0017433805046369
     0.0010223832811492    0.6686071390684614    0.4982566295069707
     0.0058452688064397    0.0058452487768407    0.0082513566988029
     0.0058452686200940    0.0058452486919368    0.4917486533871219
 
  0.00000000E+00  0.00000000E+00  0.00000000E+00
  0.00000000E+00  0.00000000E+00  0.00000000E+00
  0.00000000E+00  0.00000000E+00  0.00000000E+00
  0.00000000E+00  0.00000000E+00  0.00000000E+00
  0.00000000E+00  0.00000000E+00  0.00000000E+00
  0.00000000E+00  0.00000000E+00  0.00000000E+00
  0.00000000E+00  0.00000000E+00  0.00000000E+00
  0.00000000E+00  0.00000000E+00  0.00000000E+00
  0.00000000E+00  0.00000000E+00  0.00000000E+00
  0.00000000E+00  0.00000000E+00  0.00000000E+00
  0.00000000E+00  0.00000000E+00  0.00000000E+00
  0.00000000E+00  0.00000000E+00  0.00000000E+00
  0.00000000E+00  0.00000000E+00  0.00000000E+00
  0.00000000E+00  0.00000000E+00  0.00000000E+00
  0.00000000E+00  0.00000000E+00  0.00000000E+00
  0.00000000E+00  0.00000000E+00  0.00000000E+00
  0.00000000E+00  0.00000000E+00  0.00000000E+00
  0.00000000E+00  0.00000000E+00  0.00000000E+00
  0.00000000E+00  0.00000000E+00  0.00000000E+00
  0.00000000E+00  0.00000000E+00  0.00000000E+00
  0.00000000E+00  0.00000000E+00  0.00000000E+00
  0.00000000E+00  0.00000000E+00  0.00000000E+00
  0.00000000E+00  0.00000000E+00  0.00000000E+00
  0.00000000E+00  0.00000000E+00  0.00000000E+00
  0.00000000E+00  0.00000000E+00  0.00000000E+00
  0.00000000E+00  0.00000000E+00  0.00000000E+00
  0.00000000E+00  0.00000000E+00  0.00000000E+00
  0.00000000E+00  0.00000000E+00  0.00000000E+00
  0.00000000E+00  0.00000000E+00  0.00000000E+00
  0.00000000E+00  0.00000000E+00  0.00000000E+00
  0.00000000E+00  0.00000000E+00  0.00000000E+00
  0.00000000E+00  0.00000000E+00  0.00000000E+00
  0.00000000E+00  0.00000000E+00  0.00000000E+00
  0.00000000E+00  0.00000000E+00  0.00000000E+00
  0.00000000E+00  0.00000000E+00  0.00000000E+00
