   6   6   0   0
  0.1276448E+02  0.4246699E-09  0.4246699E-09  0.4246699E-09  0.5000000E-15
   1.0000000000000000E-004
  CAR 
 HSE06 Band Gap Calculation for Cu2O (res
     15.62833388    -19.56565031  301      4.13896446      1.00000000
    -19.566  0.0000E+00  0.0000E+00
    -19.448  0.0000E+00  0.0000E+00
    -19.331  0.0000E+00  0.0000E+00
    -19.214  0.0000E+00  0.0000E+00
    -19.096  0.0000E+00  0.0000E+00
    -18.979  0.0000E+00  0.0000E+00
    -18.862  0.0000E+00  0.0000E+00
    -18.744  0.0000E+00  0.0000E+00
    -18.627  0.0000E+00  0.0000E+00
    -18.510  0.0000E+00  0.0000E+00
    -18.393  0.0000E+00  0.0000E+00
    -18.275  0.0000E+00  0.0000E+00
    -18.158  0.9704E-09  0.1138E-09
    -18.041  0.8970E-03  0.1052E-03
    -17.923  0.3176E+00  0.3737E-01
    -17.806  0.1839E+01  0.2531E+00
    -17.689  0.6381E+01  0.1002E+01
    -17.571  0.7700E+01  0.1905E+01
    -17.454  0.5432E+01  0.2542E+01
    -17.337  0.8596E+01  0.3551E+01
    -17.219  0.3385E+01  0.3948E+01
    -17.102  0.4428E+00  0.4000E+01
    -16.985  0.1839E-02  0.4000E+01
    -16.867  0.3906E-08  0.4000E+01
    -16.750  0.0000E+00  0.4000E+01
    -16.633  0.0000E+00  0.4000E+01
    -16.516  0.0000E+00  0.4000E+01
    -16.398  0.0000E+00  0.4000E+01
    -16.281  0.0000E+00  0.4000E+01
    -16.164  0.0000E+00  0.4000E+01
    -16.046  0.0000E+00  0.4000E+01
    -15.929  0.0000E+00  0.4000E+01
    -15.812  0.0000E+00  0.4000E+01
    -15.694  0.0000E+00  0.4000E+01
    -15.577  0.0000E+00  0.4000E+01
    -15.460  0.0000E+00  0.4000E+01
    -15.342  0.0000E+00  0.4000E+01
    -15.225  0.0000E+00  0.4000E+01
    -15.108  0.0000E+00  0.4000E+01
    -14.990  0.0000E+00  0.4000E+01
    -14.873  0.0000E+00  0.4000E+01
    -14.756  0.0000E+00  0.4000E+01
    -14.638  0.0000E+00  0.4000E+01
    -14.521  0.0000E+00  0.4000E+01
    -14.404  0.0000E+00  0.4000E+01
    -14.287  0.0000E+00  0.4000E+01
    -14.169  0.0000E+00  0.4000E+01
    -14.052  0.0000E+00  0.4000E+01
    -13.935  0.0000E+00  0.4000E+01
    -13.817  0.0000E+00  0.4000E+01
    -13.700  0.0000E+00  0.4000E+01
    -13.583  0.0000E+00  0.4000E+01
    -13.465  0.0000E+00  0.4000E+01
    -13.348  0.0000E+00  0.4000E+01
    -13.231  0.0000E+00  0.4000E+01
    -13.113  0.0000E+00  0.4000E+01
    -12.996  0.0000E+00  0.4000E+01
    -12.879  0.0000E+00  0.4000E+01
    -12.761  0.0000E+00  0.4000E+01
    -12.644  0.0000E+00  0.4000E+01
    -12.527  0.0000E+00  0.4000E+01
    -12.410  0.0000E+00  0.4000E+01
    -12.292  0.0000E+00  0.4000E+01
    -12.175  0.0000E+00  0.4000E+01
    -12.058  0.0000E+00  0.4000E+01
    -11.940  0.0000E+00  0.4000E+01
    -11.823  0.0000E+00  0.4000E+01
    -11.706  0.0000E+00  0.4000E+01
    -11.588  0.0000E+00  0.4000E+01
    -11.471  0.0000E+00  0.4000E+01
    -11.354  0.0000E+00  0.4000E+01
    -11.236  0.0000E+00  0.4000E+01
    -11.119  0.0000E+00  0.4000E+01
    -11.002  0.0000E+00  0.4000E+01
    -10.884  0.0000E+00  0.4000E+01
    -10.767  0.0000E+00  0.4000E+01
    -10.650  0.0000E+00  0.4000E+01
    -10.533  0.0000E+00  0.4000E+01
    -10.415  0.0000E+00  0.4000E+01
    -10.298  0.0000E+00  0.4000E+01
    -10.181  0.0000E+00  0.4000E+01
    -10.063  0.0000E+00  0.4000E+01
     -9.946  0.0000E+00  0.4000E+01
     -9.829  0.0000E+00  0.4000E+01
     -9.711  0.0000E+00  0.4000E+01
     -9.594  0.0000E+00  0.4000E+01
     -9.477  0.0000E+00  0.4000E+01
     -9.359  0.0000E+00  0.4000E+01
     -9.242  0.0000E+00  0.4000E+01
     -9.125  0.0000E+00  0.4000E+01
     -9.007  0.0000E+00  0.4000E+01
     -8.890  0.0000E+00  0.4000E+01
     -8.773  0.0000E+00  0.4000E+01
     -8.656  0.0000E+00  0.4000E+01
     -8.538  0.0000E+00  0.4000E+01
     -8.421  0.0000E+00  0.4000E+01
     -8.304  0.0000E+00  0.4000E+01
     -8.186  0.0000E+00  0.4000E+01
     -8.069  0.0000E+00  0.4000E+01
     -7.952  0.0000E+00  0.4000E+01
     -7.834  0.0000E+00  0.4000E+01
     -7.717  0.0000E+00  0.4000E+01
     -7.600  0.0000E+00  0.4000E+01
     -7.482  0.0000E+00  0.4000E+01
     -7.365  0.0000E+00  0.4000E+01
     -7.248  0.0000E+00  0.4000E+01
     -7.130  0.0000E+00  0.4000E+01
     -7.013  0.0000E+00  0.4000E+01
     -6.896  0.0000E+00  0.4000E+01
     -6.779  0.0000E+00  0.4000E+01
     -6.661  0.0000E+00  0.4000E+01
     -6.544  0.0000E+00  0.4000E+01
     -6.427  0.0000E+00  0.4000E+01
     -6.309  0.0000E+00  0.4000E+01
     -6.192  0.0000E+00  0.4000E+01
     -6.075  0.0000E+00  0.4000E+01
     -5.957  0.0000E+00  0.4000E+01
     -5.840  0.0000E+00  0.4000E+01
     -5.723  0.0000E+00  0.4000E+01
     -5.605  0.0000E+00  0.4000E+01
     -5.488  0.0000E+00  0.4000E+01
     -5.371  0.0000E+00  0.4000E+01
     -5.253  0.0000E+00  0.4000E+01
     -5.136  0.0000E+00  0.4000E+01
     -5.019  0.0000E+00  0.4000E+01
     -4.901  0.0000E+00  0.4000E+01
     -4.784  0.0000E+00  0.4000E+01
     -4.667  0.0000E+00  0.4000E+01
     -4.550  0.0000E+00  0.4000E+01
     -4.432  0.0000E+00  0.4000E+01
     -4.315  0.0000E+00  0.4000E+01
     -4.198  0.6044E-15  0.4000E+01
     -4.080  0.1110E-05  0.4000E+01
     -3.963  0.9337E-01  0.4011E+01
     -3.846  0.6185E+01  0.4736E+01
     -3.728  0.1161E+02  0.6098E+01
     -3.611  0.8783E+01  0.7129E+01
     -3.494  0.5374E+01  0.7759E+01
     -3.376  0.6807E+01  0.8558E+01
     -3.259  0.1762E+01  0.8764E+01
     -3.142  0.4277E+01  0.9266E+01
     -3.024  0.3541E+01  0.9682E+01
     -2.907  0.2137E+01  0.9932E+01
     -2.790  0.4422E+01  0.1045E+02
     -2.673  0.2544E+01  0.1075E+02
     -2.555  0.2579E+01  0.1105E+02
     -2.438  0.4465E+01  0.1158E+02
     -2.321  0.6555E+01  0.1234E+02
     -2.203  0.8393E+01  0.1333E+02
     -2.086  0.1006E+02  0.1451E+02
     -1.969  0.5409E+01  0.1514E+02
     -1.851  0.2248E+01  0.1541E+02
     -1.734  0.2046E+01  0.1565E+02
     -1.617  0.1024E+01  0.1577E+02
     -1.499  0.8806E+00  0.1587E+02
     -1.382  0.4811E+00  0.1593E+02
     -1.265  0.5221E+00  0.1599E+02
     -1.147  0.7168E-01  0.1600E+02
     -1.030  0.5704E-01  0.1600E+02
     -0.913  0.1322E+00  0.1602E+02
     -0.796  0.4824E+00  0.1608E+02
     -0.678  0.2801E+00  0.1611E+02
     -0.561  0.7961E+00  0.1620E+02
     -0.444  0.9596E+00  0.1631E+02
     -0.326  0.6946E+00  0.1640E+02
     -0.209  0.1250E+01  0.1654E+02
     -0.092  0.1532E+01  0.1672E+02
      0.026  0.3531E+01  0.1714E+02
      0.143  0.6512E+01  0.1790E+02
      0.260  0.9193E+01  0.1898E+02
      0.378  0.1537E+02  0.2078E+02
      0.495  0.1240E+02  0.2224E+02
      0.612  0.1313E+02  0.2378E+02
      0.730  0.1933E+02  0.2605E+02
      0.847  0.2912E+02  0.2946E+02
      0.964  0.2218E+02  0.3206E+02
      1.081  0.2130E+02  0.3456E+02
      1.199  0.2184E+02  0.3713E+02
      1.316  0.3172E+02  0.4085E+02
      1.433  0.2752E+02  0.4408E+02
      1.551  0.1500E+02  0.4583E+02
      1.668  0.9749E+01  0.4698E+02
      1.785  0.7885E+01  0.4790E+02
      1.903  0.5104E+01  0.4850E+02
      2.020  0.6451E+01  0.4926E+02
      2.137  0.6434E+01  0.5001E+02
      2.255  0.5195E+01  0.5062E+02
      2.372  0.2586E+01  0.5093E+02
      2.489  0.2918E+01  0.5127E+02
      2.607  0.2906E+01  0.5161E+02
      2.724  0.6699E+00  0.5169E+02
      2.841  0.1178E+01  0.5183E+02
      2.958  0.8540E+00  0.5193E+02
      3.076  0.3100E+01  0.5229E+02
      3.193  0.8757E+01  0.5332E+02
      3.310  0.6709E+01  0.5410E+02
      3.428  0.5224E+01  0.5472E+02
      3.545  0.5419E+01  0.5535E+02
      3.662  0.2991E+01  0.5570E+02
      3.780  0.1676E+01  0.5590E+02
      3.897  0.8097E+00  0.5600E+02
      4.014  0.3669E-01  0.5600E+02
      4.132  0.2046E-05  0.5600E+02
      4.249  0.5545E-14  0.5600E+02
      4.366  0.0000E+00  0.5600E+02
      4.484  0.0000E+00  0.5600E+02
      4.601  0.0000E+00  0.5600E+02
      4.718  0.0000E+00  0.5600E+02
      4.836  0.0000E+00  0.5600E+02
      4.953  0.0000E+00  0.5600E+02
      5.070  0.0000E+00  0.5600E+02
      5.187  0.0000E+00  0.5600E+02
      5.305  0.0000E+00  0.5600E+02
      5.422  0.0000E+00  0.5600E+02
      5.539  0.0000E+00  0.5600E+02
      5.657  0.4804E-14  0.5600E+02
      5.774  0.1140E-05  0.5600E+02
      5.891  0.8441E-02  0.5600E+02
      6.009  0.3549E-01  0.5601E+02
      6.126  0.1844E+00  0.5603E+02
      6.243  0.3410E+00  0.5607E+02
      6.361  0.2888E+00  0.5610E+02
      6.478  0.1850E+00  0.5612E+02
      6.595  0.5632E+00  0.5619E+02
      6.713  0.8908E+00  0.5629E+02
      6.830  0.4773E+00  0.5635E+02
      6.947  0.7902E+00  0.5644E+02
      7.064  0.1323E+01  0.5660E+02
      7.182  0.1661E+01  0.5679E+02
      7.299  0.3357E+01  0.5719E+02
      7.416  0.4010E+01  0.5766E+02
      7.534  0.2038E+01  0.5790E+02
      7.651  0.2700E+01  0.5821E+02
      7.768  0.2559E+01  0.5851E+02
      7.886  0.2612E+01  0.5882E+02
      8.003  0.1991E+01  0.5905E+02
      8.120  0.6150E+01  0.5977E+02
      8.238  0.1809E+01  0.5999E+02
      8.355  0.1452E+01  0.6016E+02
      8.472  0.3636E+01  0.6058E+02
      8.590  0.3265E+01  0.6097E+02
      8.707  0.1569E+01  0.6115E+02
      8.824  0.1508E+01  0.6133E+02
      8.941  0.1571E+01  0.6151E+02
      9.059  0.8624E+00  0.6161E+02
      9.176  0.1594E+01  0.6180E+02
      9.293  0.8635E+00  0.6190E+02
      9.411  0.3097E+01  0.6226E+02
      9.528  0.2468E+01  0.6255E+02
      9.645  0.7776E+00  0.6264E+02
      9.763  0.1054E+01  0.6277E+02
      9.880  0.3009E+00  0.6280E+02
      9.997  0.7865E+00  0.6290E+02
     10.115  0.3044E+01  0.6325E+02
     10.232  0.8847E+00  0.6336E+02
     10.349  0.5170E+00  0.6342E+02
     10.467  0.5882E+00  0.6349E+02
     10.584  0.1171E+01  0.6362E+02
     10.701  0.1931E+01  0.6385E+02
     10.818  0.1102E+01  0.6398E+02
     10.936  0.9887E+00  0.6410E+02
     11.053  0.4931E+00  0.6415E+02
     11.170  0.5396E+00  0.6422E+02
     11.288  0.2015E+01  0.6445E+02
     11.405  0.1279E+01  0.6460E+02
     11.522  0.4731E+00  0.6466E+02
     11.640  0.7269E+00  0.6474E+02
     11.757  0.2313E+01  0.6502E+02
     11.874  0.7797E+00  0.6511E+02
     11.992  0.1013E+01  0.6523E+02
     12.109  0.8294E-02  0.6523E+02
     12.226  0.1466E+00  0.6524E+02
     12.344  0.9177E+00  0.6535E+02
     12.461  0.7865E+00  0.6544E+02
     12.578  0.8608E+00  0.6554E+02
     12.696  0.6188E+00  0.6562E+02
     12.813  0.4096E+00  0.6567E+02
     12.930  0.6209E+00  0.6574E+02
     13.047  0.2576E+00  0.6577E+02
     13.165  0.3053E+00  0.6580E+02
     13.282  0.8031E+00  0.6590E+02
     13.399  0.1083E+00  0.6591E+02
     13.517  0.2054E+00  0.6594E+02
     13.634  0.2702E+00  0.6597E+02
     13.751  0.1582E-01  0.6597E+02
     13.869  0.8760E-02  0.6597E+02
     13.986  0.1879E+00  0.6599E+02
     14.103  0.6858E-01  0.6600E+02
     14.221  0.1156E-02  0.6600E+02
     14.338  0.1880E-08  0.6600E+02
     14.455  0.0000E+00  0.6600E+02
     14.573  0.0000E+00  0.6600E+02
     14.690  0.0000E+00  0.6600E+02
     14.807  0.0000E+00  0.6600E+02
     14.924  0.0000E+00  0.6600E+02
     15.042  0.0000E+00  0.6600E+02
     15.159  0.0000E+00  0.6600E+02
     15.276  0.0000E+00  0.6600E+02
     15.394  0.0000E+00  0.6600E+02
     15.511  0.0000E+00  0.6600E+02
     15.628  0.0000E+00  0.6600E+02
