 running    8 mpi-ranks, with    2 threads/rank, on    1 nodes
 distrk:  each k-point on    1 cores,    8 groups
 distr:  one band on    1 cores,    1 groups
 OpenACC runtime initialized ...    8 GPUs detected
 vasp.6.4.2 20Jul23 (build Mar  2 2025 11:04:54) complex                         
 POSCAR found type information on POSCAR CuO 
 POSCAR found :  2 types and       6 ions
 scaLAPACK will be used selectively (only on CPU)
 LDA part: xc-table for Pade appr. of Perdew
 -----------------------------------------------------------------------------
|                                                                             |
|           W    W    AA    RRRRR   N    N  II  N    N   GGGG   !!!           |
|           W    W   A  A   R    R  NN   N  II  NN   N  G    G  !!!           |
|           W    W  A    A  R    R  N N  N  II  N N  N  G       !!!           |
|           W WW W  AAAAAA  RRRRR   N  N N  II  N  N N  G  GGG   !            |
|           WW  WW  A    A  R   R   N   NN  II  N   NN  G    G                |
|           W    W  A    A  R    R  N    N  II  N    N   GGGG   !!!           |
|                                                                             |
|     The requested file  could not be found or opened for reading            |
|     k-point information. Automatic k-point generation is used as a          |
|     fallback, which may lead to unwanted results.                           |
|                                                                             |
 -----------------------------------------------------------------------------

 found WAVECAR, reading the header
 POSCAR, INCAR and KPOINTS ok, starting setup
 FFT: planning ... GRIDC
 FFT: planning ... GRID_SOFT
 FFT: planning ... GRID
 reading WAVECAR
 the WAVECAR file was read successfully
 initial charge from wavefunction
 entering main loop
       N       E                     dE             d eps       ncg     rms          ort
 gam= 0.000 g(H,U,f)=  0.122E+01 0.555E+00 0.443E-16 ort(H,U,f) = 0.000E+00 0.000E+00 0.000E+00
SDA:   1    -0.311753400611E+02   -0.31175E+02   -0.71049E+00  1155   0.178E+01 0.000E+00
 gam= 0.382 g(H,U,f)=  0.401E+01 0.144E+00 0.854E-13 ort(H,U,f) =-0.158E+01-0.129E-01 0.114E-11
DMP:   2    -0.312000211128E+02   -0.24681E-01   -0.14179E+01  1155   0.415E+01-0.160E+01
 gam= 0.382 g(H,U,f)=  0.680E+01 0.659E+00 0.173E-12 ort(H,U,f) =-0.436E+01 0.830E-01 0.716E-13
DMP:   3    -0.310640932483E+02    0.13593E+00   -0.23304E+01  1155   0.746E+01-0.427E+01
 gam= 0.382 g(H,U,f)=  0.864E+01 0.457E+00 0.170E-11 ort(H,U,f) =-0.593E+01-0.409E+00-0.372E-11
DMP:   4    -0.309282281370E+02    0.13587E+00   -0.26687E+01  1155   0.909E+01-0.634E+01
 gam= 0.382 g(H,U,f)=  0.691E+01 0.473E+00 0.663E-11 ort(H,U,f) =-0.580E+01-0.230E+00-0.767E-12
DMP:   5    -0.310751442901E+02   -0.14692E+00   -0.20301E+01  1155   0.738E+01-0.603E+01
 gam= 0.382 g(H,U,f)=  0.377E+01 0.214E+00 0.536E-11 ort(H,U,f) =-0.350E+01-0.219E+00-0.975E-11
DMP:   6    -0.313314848178E+02   -0.25634E+00   -0.10242E+01  1155   0.398E+01-0.371E+01
 gam= 0.382 g(H,U,f)=  0.118E+01 0.813E-01 0.689E-17 ort(H,U,f) =-0.140E+01-0.676E-01-0.937E-17
DMP:   7    -0.315522656006E+02   -0.22078E+00   -0.27916E+00  1155   0.126E+01-0.147E+01
 gam= 0.382 g(H,U,f)=  0.104E+00 0.636E-02 0.371E-19 ort(H,U,f) =-0.182E+00-0.104E-01-0.200E-18
DMP:   8    -0.316528653573E+02   -0.10060E+00   -0.14629E-01  1155   0.110E+00-0.193E+00
 gam= 0.382 g(H,U,f)=  0.568E-02 0.701E-03 0.226E-16 ort(H,U,f) = 0.749E-02 0.133E-02 0.262E-16
DMP:   9    -0.316619094755E+02   -0.90441E-02   -0.38999E-02  1155   0.638E-02 0.881E-02
 gam= 0.382 g(H,U,f)=  0.484E-01 0.254E-02 0.125E-12 ort(H,U,f) =-0.259E-01-0.458E-03 0.346E-13
DMP:  10    -0.316585881603E+02    0.33213E-02   -0.16333E-01  1155   0.509E-01-0.264E-01
 gam= 0.382 g(H,U,f)=  0.506E-01 0.301E-02 0.334E-14 ort(H,U,f) =-0.376E-01-0.195E-02-0.413E-14
DMP:  11    -0.316588353322E+02   -0.24717E-03   -0.15422E-01  1155   0.536E-01-0.395E-01
 gam= 0.382 g(H,U,f)=  0.412E-01 0.198E-02 0.401E-14 ort(H,U,f) =-0.344E-01-0.159E-02-0.227E-14
DMP:  12    -0.316593590787E+02   -0.52375E-03   -0.11789E-01  1155   0.432E-01-0.360E-01
 gam= 0.382 g(H,U,f)=  0.204E-01 0.128E-02 0.118E-15 ort(H,U,f) =-0.189E-01-0.989E-03-0.126E-15
DMP:  13    -0.316612732508E+02   -0.19142E-02   -0.56307E-02  1155   0.217E-01-0.199E-01
 gam= 0.382 g(H,U,f)=  0.104E-01 0.456E-03 0.873E-16 ort(H,U,f) =-0.988E-02-0.492E-03-0.812E-16
DMP:  14    -0.316620176203E+02   -0.74437E-03   -0.27414E-02  1155   0.108E-01-0.104E-01
 gam= 0.382 g(H,U,f)=  0.323E-02 0.237E-03 0.115E-16 ort(H,U,f) =-0.351E-02-0.170E-03-0.110E-16
DMP:  15    -0.316626504607E+02   -0.63284E-03   -0.82538E-03  1155   0.347E-02-0.368E-02
 gam= 0.382 g(H,U,f)=  0.101E-02 0.340E-04 0.254E-17 ort(H,U,f) =-0.111E-02-0.561E-04-0.395E-17
DMP:  16    -0.316628303208E+02   -0.17986E-03   -0.23897E-03  1155   0.104E-02-0.117E-02
 gam= 0.382 g(H,U,f)=  0.138E-03 0.172E-04 0.720E-18 ort(H,U,f) =-0.206E-03-0.402E-05-0.465E-18
DMP:  17    -0.316629073785E+02   -0.77058E-04   -0.30103E-04  1155   0.156E-03-0.210E-03
 gam= 0.382 g(H,U,f)=  0.712E-05 0.443E-06 0.476E-21 ort(H,U,f) =-0.140E-04 0.225E-05 0.143E-19
DMP:  18    -0.316629203229E+02   -0.12944E-04   -0.12280E-05  1155   0.756E-05-0.118E-04
 gam= 0.382 g(H,U,f)=  0.390E-05 0.178E-06 0.246E-21 ort(H,U,f) = 0.135E-05 0.740E-06-0.427E-20
DMP:  19    -0.316629214232E+02   -0.11003E-05   -0.19498E-05  1155   0.407E-05 0.209E-05
 final diagonalization
   1 F= -.31662921E+02 E0= -.31662921E+02  d E =-.404121E-16
Warning: ieee_invalid is signaling
Warning: ieee_divide_by_zero is signaling
Warning: ieee_underflow is signaling
Warning: ieee_inexact is signaling
FORTRAN STOP
Warning: ieee_invalid is signaling
Warning: ieee_divide_by_zero is signaling
Warning: ieee_underflow is signaling
Warning: ieee_inexact is signaling
FORTRAN STOP
Warning: ieee_invalid is signaling
Warning: ieee_divide_by_zero is signaling
Warning: ieee_underflow is signaling
Warning: ieee_inexact is signaling
FORTRAN STOP
Warning: ieee_invalid is signaling
Warning: ieee_divide_by_zero is signaling
Warning: ieee_underflow is signaling
Warning: ieee_inexact is signaling
FORTRAN STOP
Warning: ieee_invalid is signaling
Warning: ieee_divide_by_zero is signaling
Warning: ieee_underflow is signaling
Warning: ieee_inexact is signaling
FORTRAN STOP
Warning: ieee_invalid is signaling
Warning: ieee_divide_by_zero is signaling
Warning: ieee_underflow is signaling
Warning: ieee_inexact is signaling
FORTRAN STOP
Warning: ieee_invalid is signaling
Warning: ieee_divide_by_zero is signaling
Warning: ieee_underflow is signaling
Warning: ieee_inexact is signaling
FORTRAN STOP
Warning: ieee_invalid is signaling
Warning: ieee_divide_by_zero is signaling
Warning: ieee_underflow is signaling
Warning: ieee_inexact is signaling
FORTRAN STOP
