  39  39   0   0
  0.1320398E+02  0.1133282E-08  0.1133282E-08  0.5668374E-09  0.5000000E-15
   1.0000000000000000E-004
  CAR 
 BaTiO3 Full Structural Relaxation (atoms
      7.01075114    -24.58481451  301      1.57610992      1.00000000
    -24.585  0.0000E+00  0.0000E+00
    -24.479  0.0000E+00  0.0000E+00
    -24.374  0.0000E+00  0.0000E+00
    -24.269  0.0000E+00  0.0000E+00
    -24.164  0.0000E+00  0.0000E+00
    -24.058  0.0000E+00  0.0000E+00
    -23.953  0.0000E+00  0.0000E+00
    -23.848  0.0000E+00  0.0000E+00
    -23.742  0.0000E+00  0.0000E+00
    -23.637  0.0000E+00  0.0000E+00
    -23.532  0.0000E+00  0.0000E+00
    -23.426  0.4694E-17  0.4944E-18
    -23.321  0.2601E-08  0.2739E-09
    -23.216  0.4326E-03  0.4556E-04
    -23.110  0.1073E+00  0.1135E-01
    -23.005  0.3427E+00  0.4744E-01
    -22.900  0.2063E+00  0.6918E-01
    -22.794  0.7824E-02  0.7000E-01
    -22.689  0.4116E-06  0.7000E-01
    -22.584  0.7579E-14  0.7000E-01
    -22.478  0.0000E+00  0.7000E-01
    -22.373  0.0000E+00  0.7000E-01
    -22.268  0.0000E+00  0.7000E-01
    -22.162  0.0000E+00  0.7000E-01
    -22.057  0.0000E+00  0.7000E-01
    -21.952  0.0000E+00  0.7000E-01
    -21.847  0.0000E+00  0.7000E-01
    -21.741  0.0000E+00  0.7000E-01
    -21.636  0.0000E+00  0.7000E-01
    -21.531  0.0000E+00  0.7000E-01
    -21.425  0.0000E+00  0.7000E-01
    -21.320  0.0000E+00  0.7000E-01
    -21.215  0.0000E+00  0.7000E-01
    -21.109  0.0000E+00  0.7000E-01
    -21.004  0.0000E+00  0.7000E-01
    -20.899  0.0000E+00  0.7000E-01
    -20.793  0.0000E+00  0.7000E-01
    -20.688  0.0000E+00  0.7000E-01
    -20.583  0.0000E+00  0.7000E-01
    -20.477  0.0000E+00  0.7000E-01
    -20.372  0.0000E+00  0.7000E-01
    -20.267  0.0000E+00  0.7000E-01
    -20.161  0.0000E+00  0.7000E-01
    -20.056  0.0000E+00  0.7000E-01
    -19.951  0.0000E+00  0.7000E-01
    -19.845  0.0000E+00  0.7000E-01
    -19.740  0.0000E+00  0.7000E-01
    -19.635  0.0000E+00  0.7000E-01
    -19.530  0.0000E+00  0.7000E-01
    -19.424  0.0000E+00  0.7000E-01
    -19.319  0.0000E+00  0.7000E-01
    -19.214  0.0000E+00  0.7000E-01
    -19.108  0.0000E+00  0.7000E-01
    -19.003  0.0000E+00  0.7000E-01
    -18.898  0.0000E+00  0.7000E-01
    -18.792  0.0000E+00  0.7000E-01
    -18.687  0.0000E+00  0.7000E-01
    -18.582  0.0000E+00  0.7000E-01
    -18.476  0.0000E+00  0.7000E-01
    -18.371  0.0000E+00  0.7000E-01
    -18.266  0.0000E+00  0.7000E-01
    -18.160  0.0000E+00  0.7000E-01
    -18.055  0.0000E+00  0.7000E-01
    -17.950  0.0000E+00  0.7000E-01
    -17.844  0.0000E+00  0.7000E-01
    -17.739  0.0000E+00  0.7000E-01
    -17.634  0.0000E+00  0.7000E-01
    -17.528  0.0000E+00  0.7000E-01
    -17.423  0.0000E+00  0.7000E-01
    -17.318  0.0000E+00  0.7000E-01
    -17.213  0.0000E+00  0.7000E-01
    -17.107  0.0000E+00  0.7000E-01
    -17.002  0.0000E+00  0.7000E-01
    -16.897  0.0000E+00  0.7000E-01
    -16.791  0.0000E+00  0.7000E-01
    -16.686  0.0000E+00  0.7000E-01
    -16.581  0.0000E+00  0.7000E-01
    -16.475  0.0000E+00  0.7000E-01
    -16.370  0.0000E+00  0.7000E-01
    -16.265  0.0000E+00  0.7000E-01
    -16.159  0.0000E+00  0.7000E-01
    -16.054  0.0000E+00  0.7000E-01
    -15.949  0.0000E+00  0.7000E-01
    -15.843  0.0000E+00  0.7000E-01
    -15.738  0.0000E+00  0.7000E-01
    -15.633  0.0000E+00  0.7000E-01
    -15.527  0.9643E-15  0.7000E-01
    -15.422  0.3582E-07  0.7000E-01
    -15.317  0.6617E-03  0.7007E-01
    -15.211  0.5132E-01  0.7548E-01
    -15.106  0.1918E+00  0.9567E-01
    -15.001  0.1570E+00  0.1122E+00
    -14.896  0.1133E+00  0.1241E+00
    -14.790  0.9945E-01  0.1346E+00
    -14.685  0.6897E-01  0.1419E+00
    -14.580  0.4934E-01  0.1471E+00
    -14.474  0.2971E+00  0.1784E+00
    -14.369  0.7884E+00  0.2614E+00
    -14.264  0.4569E+00  0.3095E+00
    -14.158  0.4589E-02  0.3100E+00
    -14.053  0.1117E-06  0.3100E+00
    -13.948  0.2040E-14  0.3100E+00
    -13.842  0.0000E+00  0.3100E+00
    -13.737  0.0000E+00  0.3100E+00
    -13.632  0.0000E+00  0.3100E+00
    -13.526  0.0000E+00  0.3100E+00
    -13.421  0.0000E+00  0.3100E+00
    -13.316  0.0000E+00  0.3100E+00
    -13.210  0.0000E+00  0.3100E+00
    -13.105  0.0000E+00  0.3100E+00
    -13.000  0.0000E+00  0.3100E+00
    -12.894  0.0000E+00  0.3100E+00
    -12.789  0.0000E+00  0.3100E+00
    -12.684  0.0000E+00  0.3100E+00
    -12.578  0.0000E+00  0.3100E+00
    -12.473  0.0000E+00  0.3100E+00
    -12.368  0.0000E+00  0.3100E+00
    -12.263  0.0000E+00  0.3100E+00
    -12.157  0.0000E+00  0.3100E+00
    -12.052  0.0000E+00  0.3100E+00
    -11.947  0.0000E+00  0.3100E+00
    -11.841  0.0000E+00  0.3100E+00
    -11.736  0.0000E+00  0.3100E+00
    -11.631  0.0000E+00  0.3100E+00
    -11.525  0.0000E+00  0.3100E+00
    -11.420  0.0000E+00  0.3100E+00
    -11.315  0.0000E+00  0.3100E+00
    -11.209  0.0000E+00  0.3100E+00
    -11.104  0.0000E+00  0.3100E+00
    -10.999  0.0000E+00  0.3100E+00
    -10.893  0.0000E+00  0.3100E+00
    -10.788  0.0000E+00  0.3100E+00
    -10.683  0.0000E+00  0.3100E+00
    -10.577  0.0000E+00  0.3100E+00
    -10.472  0.0000E+00  0.3100E+00
    -10.367  0.0000E+00  0.3100E+00
    -10.261  0.0000E+00  0.3100E+00
    -10.156  0.0000E+00  0.3100E+00
    -10.051  0.0000E+00  0.3100E+00
     -9.946  0.0000E+00  0.3100E+00
     -9.840  0.0000E+00  0.3100E+00
     -9.735  0.0000E+00  0.3100E+00
     -9.630  0.0000E+00  0.3100E+00
     -9.524  0.0000E+00  0.3100E+00
     -9.419  0.0000E+00  0.3100E+00
     -9.314  0.0000E+00  0.3100E+00
     -9.208  0.0000E+00  0.3100E+00
     -9.103  0.3503E-14  0.3100E+00
     -8.998  0.5808E-07  0.3100E+00
     -8.892  0.4527E-03  0.3100E+00
     -8.787  0.2017E-01  0.3122E+00
     -8.682  0.6903E-01  0.3194E+00
     -8.576  0.9792E-01  0.3298E+00
     -8.471  0.1882E+00  0.3496E+00
     -8.366  0.2952E+00  0.3807E+00
     -8.260  0.4372E+00  0.4267E+00
     -8.155  0.3782E+00  0.4665E+00
     -8.050  0.3708E+00  0.5056E+00
     -7.944  0.1341E+00  0.5197E+00
     -7.839  0.2816E-02  0.5200E+00
     -7.734  0.2642E-06  0.5200E+00
     -7.629  0.1861E-13  0.5200E+00
     -7.523  0.0000E+00  0.5200E+00
     -7.418  0.0000E+00  0.5200E+00
     -7.313  0.0000E+00  0.5200E+00
     -7.207  0.0000E+00  0.5200E+00
     -7.102  0.0000E+00  0.5200E+00
     -6.997  0.0000E+00  0.5200E+00
     -6.891  0.0000E+00  0.5200E+00
     -6.786  0.0000E+00  0.5200E+00
     -6.681  0.0000E+00  0.5200E+00
     -6.575  0.0000E+00  0.5200E+00
     -6.470  0.0000E+00  0.5200E+00
     -6.365  0.0000E+00  0.5200E+00
     -6.259  0.0000E+00  0.5200E+00
     -6.154  0.0000E+00  0.5200E+00
     -6.049  0.0000E+00  0.5200E+00
     -5.943  0.0000E+00  0.5200E+00
     -5.838  0.0000E+00  0.5200E+00
     -5.733  0.0000E+00  0.5200E+00
     -5.627  0.0000E+00  0.5200E+00
     -5.522  0.0000E+00  0.5200E+00
     -5.417  0.0000E+00  0.5200E+00
     -5.312  0.0000E+00  0.5200E+00
     -5.206  0.0000E+00  0.5200E+00
     -5.101  0.0000E+00  0.5200E+00
     -4.996  0.0000E+00  0.5200E+00
     -4.890  0.0000E+00  0.5200E+00
     -4.785  0.0000E+00  0.5200E+00
     -4.680  0.0000E+00  0.5200E+00
     -4.574  0.0000E+00  0.5200E+00
     -4.469  0.0000E+00  0.5200E+00
     -4.364  0.0000E+00  0.5200E+00
     -4.258  0.0000E+00  0.5200E+00
     -4.153  0.0000E+00  0.5200E+00
     -4.048  0.0000E+00  0.5200E+00
     -3.942  0.0000E+00  0.5200E+00
     -3.837  0.0000E+00  0.5200E+00
     -3.732  0.0000E+00  0.5200E+00
     -3.626  0.0000E+00  0.5200E+00
     -3.521  0.0000E+00  0.5200E+00
     -3.416  0.0000E+00  0.5200E+00
     -3.310  0.0000E+00  0.5200E+00
     -3.205  0.0000E+00  0.5200E+00
     -3.100  0.4831E-15  0.5200E+00
     -2.995  0.1435E-07  0.5200E+00
     -2.889  0.9577E-04  0.5200E+00
     -2.784  0.2853E-02  0.5203E+00
     -2.679  0.1128E-01  0.5215E+00
     -2.573  0.4477E-01  0.5262E+00
     -2.468  0.8057E-01  0.5347E+00
     -2.363  0.1286E+00  0.5482E+00
     -2.257  0.1180E+00  0.5607E+00
     -2.152  0.9840E-01  0.5710E+00
     -2.047  0.1040E+00  0.5820E+00
     -1.941  0.1381E+00  0.5965E+00
     -1.836  0.1344E+00  0.6107E+00
     -1.731  0.1129E+00  0.6226E+00
     -1.625  0.1460E+00  0.6380E+00
     -1.520  0.1602E+00  0.6548E+00
     -1.415  0.1316E+00  0.6687E+00
     -1.309  0.1884E+00  0.6885E+00
     -1.204  0.1761E+00  0.7071E+00
     -1.099  0.2326E+00  0.7316E+00
     -0.993  0.2665E+00  0.7596E+00
     -0.888  0.2602E+00  0.7870E+00
     -0.783  0.1731E+00  0.8053E+00
     -0.678  0.1410E+00  0.8201E+00
     -0.572  0.2000E+00  0.8412E+00
     -0.467  0.2666E+00  0.8693E+00
     -0.362  0.1651E+00  0.8867E+00
     -0.256  0.1298E+00  0.9003E+00
     -0.151  0.1772E+00  0.9190E+00
     -0.046  0.1306E+00  0.9327E+00
      0.060  0.1297E+00  0.9464E+00
      0.165  0.1162E+00  0.9586E+00
      0.270  0.1185E+00  0.9711E+00
      0.376  0.1516E+00  0.9871E+00
      0.481  0.1225E+00  0.1000E+01
      0.586  0.1492E+00  0.1016E+01
      0.692  0.2189E+00  0.1039E+01
      0.797  0.3302E+00  0.1074E+01
      0.902  0.2994E+00  0.1105E+01
      1.008  0.2400E+00  0.1130E+01
      1.113  0.2728E+00  0.1159E+01
      1.218  0.1976E+00  0.1180E+01
      1.324  0.1783E+00  0.1199E+01
      1.429  0.1489E+00  0.1214E+01
      1.534  0.1080E+00  0.1226E+01
      1.640  0.1036E+00  0.1237E+01
      1.745  0.3155E-01  0.1240E+01
      1.850  0.5802E-03  0.1240E+01
      1.955  0.3230E-07  0.1240E+01
      2.061  0.5759E-15  0.1240E+01
      2.166  0.0000E+00  0.1240E+01
      2.271  0.0000E+00  0.1240E+01
      2.377  0.0000E+00  0.1240E+01
      2.482  0.0000E+00  0.1240E+01
      2.587  0.0000E+00  0.1240E+01
      2.693  0.0000E+00  0.1240E+01
      2.798  0.0000E+00  0.1240E+01
      2.903  0.0000E+00  0.1240E+01
      3.009  0.0000E+00  0.1240E+01
      3.114  0.0000E+00  0.1240E+01
      3.219  0.0000E+00  0.1240E+01
      3.325  0.0000E+00  0.1240E+01
      3.430  0.0000E+00  0.1240E+01
      3.535  0.0000E+00  0.1240E+01
      3.641  0.1885E-14  0.1240E+01
      3.746  0.5631E-07  0.1240E+01
      3.851  0.5434E-03  0.1240E+01
      3.957  0.1111E-01  0.1241E+01
      4.062  0.4630E-01  0.1246E+01
      4.167  0.6464E-01  0.1253E+01
      4.272  0.4924E-01  0.1258E+01
      4.378  0.7105E-01  0.1266E+01
      4.483  0.9251E-01  0.1275E+01
      4.588  0.5980E-01  0.1282E+01
      4.694  0.9590E-01  0.1292E+01
      4.799  0.1445E+00  0.1307E+01
      4.904  0.1350E+00  0.1321E+01
      5.010  0.1731E+00  0.1339E+01
      5.115  0.2386E+00  0.1365E+01
      5.220  0.2309E+00  0.1389E+01
      5.326  0.3538E+00  0.1426E+01
      5.431  0.2975E+00  0.1457E+01
      5.536  0.1077E+00  0.1469E+01
      5.642  0.1162E-01  0.1470E+01
      5.747  0.9591E-04  0.1470E+01
      5.852  0.1623E-08  0.1470E+01
      5.958  0.5930E-17  0.1470E+01
      6.063  0.0000E+00  0.1470E+01
      6.168  0.0000E+00  0.1470E+01
      6.274  0.0000E+00  0.1470E+01
      6.379  0.0000E+00  0.1470E+01
      6.484  0.0000E+00  0.1470E+01
      6.589  0.0000E+00  0.1470E+01
      6.695  0.0000E+00  0.1470E+01
      6.800  0.0000E+00  0.1470E+01
      6.905  0.0000E+00  0.1470E+01
      7.011  0.0000E+00  0.1470E+01
