    1    1    1    1
  0.1686432E+02  0.2798102E-09  0.2798103E-09  0.2798103E-09  0.5000000E-15
   1.0000000000000000E-004
  CAR 
 Mo_EOS_scale_1.020                      
      6    220      7
 
  0.1262379E-14  0.1262379E-14  0.1262379E-14  0.1457938E-03
      1         -0.886518   1.000000
      2          4.779731   1.000000
      3          4.779736   1.000000
      4          4.779738   1.000000
      5          7.499939  -0.000000
      6          7.499940  -0.000000
      7         22.161647   0.000000
 
  0.5263158E-01  0.1251862E-14  0.1262379E-14  0.1749526E-02
      1         -0.776659   1.000000
      2          4.719867   1.000000
      3          4.772261   1.000000
      4          4.884655   1.000000
      5          7.415653  -0.000000
      6          7.503469  -0.000000
      7         22.232704   0.000000
 
  0.1052632E+00  0.1243515E-14  0.1262379E-14  0.1749526E-02
      1         -0.458680   1.000000
      2          4.551229   1.000000
      3          4.736921   1.000000
      4          5.195343   1.000000
      5          7.218886  -0.000000
      6          7.516751  -0.000000
      7         22.386886   0.000000
 
  0.1578947E+00  0.1249727E-14  0.1262379E-14  0.1749526E-02
      1          0.027529   1.000000
      2          4.302583   1.000000
      3          4.653234   1.000000
      4          5.699129   1.021325
      5          7.039461  -0.000000
      6          7.546396  -0.000000
      7         22.426409   0.000000
 
  0.2105263E+00  0.1247331E-14  0.1262379E-14  0.1749526E-02
      1          0.595782   1.000000
      2          4.011050   1.000000
      3          4.561191   1.000000
      4          6.373267  -0.017140
      5          6.984680  -0.000000
      6          7.599329  -0.000000
      7         22.082292   0.000000
 
  0.2631579E+00  0.1278616E-14  0.1262379E-14  0.1749526E-02
      1          1.087767   1.000000
      2          3.713268   1.000000
      3          4.629013   1.000000
      4          7.067478  -0.000000
      5          7.181549  -0.000000
      6          7.678462  -0.000000
      7         21.345051   0.000000
 
  0.3157895E+00  0.1278196E-14  0.1262379E-14  0.1749526E-02
      1          1.331486   1.000000
      2          3.440418   1.000000
      3          5.054454   1.000000
      4          7.234819  -0.000000
      5          7.779176  -0.000000
      6          8.068025  -0.000000
      7         20.093798   0.000000
 
  0.3684211E+00  0.1218314E-14  0.1262379E-14  0.1749526E-02
      1          1.335252   1.000000
      2          3.216480   1.000000
      3          5.809116   1.032010
      4          7.419985  -0.000000
      5          7.887461  -0.000000
      6          8.946303  -0.000000
      7         18.626634   0.000000
 
  0.4210526E+00  0.1219562E-14  0.1262379E-14  0.1749526E-02
      1          1.247899   1.000000
      2          3.058363   1.000000
      3          6.645742  -0.000054
      4          7.556092  -0.000000
      5          7.981241  -0.000000
      6          9.687164  -0.000000
      7         17.377009   0.000000
 
  0.4736842E+00  0.1242947E-14  0.1262379E-14  0.1749526E-02
      1          1.180866   1.000000
      2          2.976744   1.000000
      3          7.279177  -0.000000
      4          7.559006  -0.000000
      5          8.036305  -0.000000
      6         10.125033  -0.000000
      7         16.625357   0.000000
 
  0.5263158E-01  0.5263158E-01  0.1262379E-14  0.3499052E-02
      1         -0.562373   1.000000
      2          4.641523   1.000000
      3          4.699670   1.000000
      4          5.108289   1.000000
      5          7.265359  -0.000000
      6          7.521311  -0.000000
      7         22.367388   0.000000
 
  0.1052632E+00  0.5263158E-01  0.1262379E-14  0.6998105E-02
      1         -0.157040   1.000000
      2          4.440139   1.000000
      3          4.616927   1.000000
      4          5.532402   1.001314
      5          7.055985  -0.000000
      6          7.563421  -0.000000
      7         22.524828   0.000000
 
  0.1578947E+00  0.5263158E-01  0.1262379E-14  0.6998105E-02
      1          0.382209   1.000000
      2          4.165863   1.000000
      3          4.508568   1.000000
      4          6.137069   0.102767
      5          6.922430  -0.000000
      6          7.625707  -0.000000
      7         22.414098   0.000000
 
  0.2105263E+00  0.5263158E-01  0.1262379E-14  0.6998105E-02
      1          0.938489   1.000000
      2          3.868389   1.000000
      3          4.454404   1.000000
      4          6.863309  -0.000000
      5          6.966735  -0.000000
      6          7.706824  -0.000000
      7         21.807013   0.000000
 
  0.2631579E+00  0.5263158E-01  0.1262379E-14  0.6998105E-02
      1          1.325712   1.000000
      2          3.582912   1.000000
      3          4.657926   1.000000
      4          7.060530  -0.000000
      5          7.760280  -0.000000
      6          7.819538  -0.000000
      7         20.727952   0.000000
 
  0.3157895E+00  0.5263158E-01  0.1262379E-14  0.6998105E-02
      1          1.434940   1.000000
      2          3.336453   1.000000
      3          5.228925   1.000000
      4          7.262148  -0.000000
      5          7.909193  -0.000000
      6          8.691382  -0.000000
      7         19.306973   0.000000
 
  0.3684211E+00  0.5263158E-01  0.1262379E-14  0.6998105E-02
      1          1.372034   1.000000
      2          3.148005   1.000000
      3          5.995975   0.628322
      4          7.442372  -0.000000
      5          8.044448  -0.000000
      6          9.540688  -0.000000
      7         17.923861   0.000000
 
  0.4210526E+00  0.5263158E-01  0.1262379E-14  0.6998105E-02
      1          1.283336   1.000000
      2          3.030137   1.000000
      3          6.669217  -0.000027
      4          7.500867  -0.000000
      5          8.221074  -0.000000
      6         10.173917  -0.000000
      7         16.876177   0.000000
 
  0.4736842E+00  0.5263158E-01  0.1262379E-14  0.3499052E-02
      1          1.246464   1.000000
      2          2.990063   1.000000
      3          6.967894  -0.000000
      4          7.464641  -0.000000
      5          8.321422  -0.000000
      6         10.414849  -0.000000
      7         16.471760   0.000000
 
  0.1052632E+00  0.1052632E+00  0.1262379E-14  0.3499052E-02
      1          0.310051   1.000000
      2          4.288274   1.000000
      3          4.401290   1.000000
      4          6.087948   0.253822
      5          6.870504  -0.000000
      6          7.660577  -0.000000
      7         22.644918   0.000000
 
  0.1578947E+00  0.1052632E+00  0.1262379E-14  0.6998105E-02
      1          0.870113   1.000000
      2          4.035821   1.000000
      3          4.237375   1.000000
      4          6.768417  -0.000001
      5          6.836048  -0.000000
      6          7.775292  -0.000000
      7         22.319525   0.000000
 
  0.2105263E+00  0.1052632E+00  0.1262379E-14  0.6998105E-02
      1          1.376594   1.000000
      2          3.743687   1.000000
      3          4.238095   1.000000
      4          6.841486  -0.000000
      5          7.668717  -0.000000
      6          7.911926  -0.000000
      7         21.244157   0.000000
 
  0.2631579E+00  0.1052632E+00  0.1262379E-14  0.6998105E-02
      1          1.637285   1.000000
      2          3.482669   1.000000
      3          4.555161   1.000000
      4          7.015965  -0.000000
      5          7.971939  -0.000000
      6          8.671876  -0.000000
      7         19.918099   0.000000
 
  0.3157895E+00  0.1052632E+00  0.1262379E-14  0.6998105E-02
      1          1.638406   1.000000
      2          3.277206   1.000000
      3          5.159974   1.000000
      4          7.236492  -0.000000
      5          8.094278  -0.000000
      6          9.629448  -0.000000
      7         18.501163   0.000000
 
  0.3684211E+00  0.1052632E+00  0.1262379E-14  0.6998105E-02
      1          1.542890   1.000000
      2          3.135701   1.000000
      3          5.794158   1.034813
      4          7.386138  -0.000000
      5          8.278277  -0.000000
      6         10.468168  -0.000000
      7         17.232299   0.000000
 
  0.4210526E+00  0.1052632E+00  0.1262379E-14  0.6998105E-02
      1          1.471224   1.000000
      2          3.063447   1.000000
      3          6.201263  -0.006402
      4          7.409738  -0.000000
      5          8.472557  -0.000000
      6         10.992763  -0.000000
      7         16.436229   0.000000
 
  0.1578947E+00  0.1578947E+00  0.1262379E-14  0.3499052E-02
      1          1.408778   1.000000
      2          3.896015   1.000000
      3          3.979701   1.000000
      4          6.748461  -0.000002
      5          7.646827  -0.000000
      6          7.958134  -0.000000
      7         21.510924   0.000000
 
  0.2105263E+00  0.1578947E+00  0.1262379E-14  0.6998105E-02
      1          1.832040   1.000000
      2          3.616205   1.000000
      3          4.059419   1.000000
      4          6.836084  -0.000000
      5          8.003667  -0.000000
      6          8.715651  -0.000000
      7         20.364025   0.000000
 
  0.2631579E+00  0.1578947E+00  0.1262379E-14  0.6998105E-02
      1          1.975293   1.000000
      2          3.399726   1.000000
      3          4.434714   1.000000
      4          7.024204  -0.000000
      5          8.108177  -0.000000
      6          9.765310  -0.000000
      7         19.045127   0.000000
 
  0.3157895E+00  0.1578947E+00  0.1262379E-14  0.6998105E-02
      1          1.915581   1.000000
      2          3.255501   1.000000
      3          4.964698   1.000000
      4          7.234660  -0.000000
      5          8.223925  -0.000000
      6         10.791492  -0.000000
      7         17.685038   0.000000
 
  0.3684211E+00  0.1578947E+00  0.1262379E-14  0.6998105E-02
      1          1.822554   1.000000
      2          3.171688   1.000000
      3          5.398905   1.000042
      4          7.353342  -0.000000
      5          8.395475  -0.000000
      6         11.627321   0.000000
      7         16.570423   0.000000
 
  0.4210526E+00  0.1578947E+00  0.1262379E-14  0.3499052E-02
      1          1.783807   1.000000
      2          3.143956   1.000000
      3          5.564808   1.002599
      4          7.376494  -0.000000
      5          8.494883  -0.000000
      6         11.981886   0.000000
      7         16.106628   0.000000
 
  0.2105263E+00  0.2105263E+00  0.1262379E-14  0.3499052E-02
      1          2.162865   1.000000
      2          3.454234   1.000000
      3          4.108836   1.000000
      4          6.934148  -0.000000
      5          8.111154  -0.000000
      6          9.822752  -0.000000
      7         19.313324   0.000000
 
  0.2631579E+00  0.2105263E+00  0.1262379E-14  0.6998105E-02
      1          2.261372   1.000000
      2          3.333227   1.000000
      3          4.385539   1.000000
      4          7.120204  -0.000000
      5          8.178669  -0.000000
      6         10.984118  -0.000000
      7         18.102471   0.000000
 
  0.3157895E+00  0.2105263E+00  0.1262379E-14  0.6998105E-02
      1          2.213632   1.000000
      2          3.277587   1.000000
      3          4.710109   1.000000
      4          7.316769  -0.000000
      5          8.260877  -0.000000
      6         12.086678   0.000000
      7         16.884135   0.000000
 
  0.3684211E+00  0.2105263E+00  0.1262379E-14  0.6998105E-02
      1          2.158046   1.000000
      2          3.257432   1.000000
      3          4.911581   1.000000
      4          7.421793  -0.000000
      5          8.359392  -0.000000
      6         12.897075   0.000000
      7         15.998945   0.000000
 
  0.2631579E+00  0.2631579E+00  0.1262379E-14  0.3499052E-02
      1          2.416311   1.000000
      2          3.331479   1.000000
      3          4.393720   1.000000
      4          7.305625  -0.000000
      5          8.198869  -0.000000
      6         12.249767   0.000000
      7         17.119988   0.000000
 
  0.3157895E+00  0.2631579E+00  0.1262379E-14  0.6998105E-02
      1          2.448452   1.000000
      2          3.395420   1.000000
      3          4.402457   1.000000
      4          7.509820  -0.000000
      5          8.199665  -0.000000
      6         13.448328   0.000000
      7         16.199874   0.000000
 
  0.3684211E+00  0.2631579E+00  0.1262379E-14  0.3499052E-02
      1          2.445434   1.000000
      2          3.433876   1.000000
      3          4.401357   1.000000
      4          7.600797  -0.000000
      5          8.200176  -0.000000
      6         14.140221   0.000000
      7         15.647801   0.000000
 
  0.3157895E+00  0.3157895E+00  0.1262379E-14  0.3499052E-02
      1          2.555721   1.000000
      2          3.641086   1.000000
      3          4.066458   1.000000
      4          7.760248  -0.000000
      5          8.049297  -0.000000
      6         14.802616   0.000000
      7         15.760282   0.000000
 
  0.5263158E-01  0.5263158E-01  0.5263158E-01  0.1166351E-02
      1         -0.255594   1.000000
      2          4.508470   1.000000
      3          4.508472   1.000000
      4          5.523938   1.001088
      5          7.340857  -0.000000
      6          7.340859  -0.000000
      7         22.637057   0.000000
 
  0.1052632E+00  0.5263158E-01  0.5263158E-01  0.3499052E-02
      1          0.219690   1.000000
      2          4.241607   1.000000
      3          4.366866   1.000000
      4          6.104003   0.198419
      5          7.165589  -0.000000
      6          7.441029  -0.000000
      7         22.722706   0.000000
 
  0.1578947E+00  0.5263158E-01  0.5263158E-01  0.3499052E-02
      1          0.788958   1.000000
      2          3.944529   1.000000
      3          4.236166   1.000000
      4          6.835340  -0.000000
      5          7.096453  -0.000000
      6          7.552004  -0.000000
      7         22.266105   0.000000
 
  0.2105263E+00  0.5263158E-01  0.5263158E-01  0.3499052E-02
      1          1.299706   1.000000
      2          3.653116   1.000000
      3          4.259762   1.000000
      4          7.129038  -0.000000
      5          7.668973  -0.000000
      6          7.716249  -0.000000
      7         21.461892   0.000000
 
  0.2631579E+00  0.5263158E-01  0.5263158E-01  0.3499052E-02
      1          1.556602   1.000000
      2          3.393605   1.000000
      3          4.642499   1.000000
      4          7.261699  -0.000000
      5          7.788616  -0.000000
      6          8.657016  -0.000000
      7         20.044478   0.000000
 
  0.3157895E+00  0.5263158E-01  0.5263158E-01  0.3499052E-02
      1          1.555233   1.000000
      2          3.184555   1.000000
      3          5.364612   1.000015
      4          7.415379  -0.000000
      5          7.902376  -0.000000
      6          9.591862  -0.000000
      7         18.538348   0.000000
 
  0.3684211E+00  0.5263158E-01  0.5263158E-01  0.3499052E-02
      1          1.460698   1.000000
      2          3.038649   1.000000
      3          6.164531   0.043971
      4          7.528189  -0.000000
      5          7.994762  -0.000000
      6         10.391851  -0.000000
      7         17.247178   0.000000
 
  0.4210526E+00  0.5263158E-01  0.5263158E-01  0.3499052E-02
      1          1.390280   1.000000
      2          2.963790   1.000000
      3          6.728786  -0.000004
      4          7.555967  -0.000000
      5          8.047369  -0.000000
      6         10.878117  -0.000000
      7         16.465783   0.000000
 
 -0.5263158E-01  0.5263158E-01  0.5263158E-01  0.8747631E-03
      1         -0.667793   1.000000
      2          4.770185   1.000000
      3          4.770192   1.000000
      4          4.880667   1.000000
      5          7.236272  -0.000000
      6          7.597233  -0.000000
      7         22.286381   0.000000
 
  0.1052632E+00  0.1052632E+00  0.5263158E-01  0.3499052E-02
      1          0.739445   1.000000
      2          4.027538   1.000000
      3          4.089350   1.000000
      4          6.839802  -0.000000
      5          7.145293  -0.000000
      6          7.501562  -0.000000
      7         22.627093   0.000000
 
  0.1578947E+00  0.1052632E+00  0.5263158E-01  0.6998105E-02
      1          1.311661   1.000000
      2          3.752641   1.000000
      3          3.933099   1.000000
      4          7.130187  -0.000000
      5          7.645202  -0.000000
      6          7.718937  -0.000000
      7         21.867657   0.000000
 
  0.2105263E+00  0.1052632E+00  0.5263158E-01  0.6998105E-02
      1          1.743009   1.000000
      2          3.484127   1.000000
      3          4.044581   1.000000
      4          7.204870  -0.000000
      5          7.787624  -0.000000
      6          8.694528  -0.000000
      7         20.677186   0.000000
 
  0.2631579E+00  0.1052632E+00  0.5263158E-01  0.6998105E-02
      1          1.861509   1.000000
      2          3.263904   1.000000
      3          4.556722   1.000000
      4          7.341781  -0.000000
      5          7.909540  -0.000000
      6          9.707268  -0.000000
      7         19.183798   0.000000
 
  0.3157895E+00  0.1052632E+00  0.5263158E-01  0.6998105E-02
      1          1.784495   1.000000
      2          3.102271   1.000000
      3          5.288779   1.000001
      4          7.484974  -0.000000
      5          8.012066  -0.000000
      6         10.656398  -0.000000
      7         17.720222   0.000000
 
  0.3684211E+00  0.1052632E+00  0.5263158E-01  0.6998105E-02
      1          1.686385   1.000000
      2          3.003590   1.000000
      3          5.925608   0.873084
      4          7.573137  -0.000000
      5          8.098277  -0.000000
      6         11.388487   0.000000
      7         16.603245   0.000000
 
  0.4210526E+00  0.1052632E+00  0.5263158E-01  0.3499052E-02
      1          1.646809   1.000000
      2          2.970404   1.000000
      3          6.183982   0.013512
      4          7.593527  -0.000000
      5          8.138942  -0.000000
      6         11.680962   0.000000
      7         16.165372   0.000000
 
 -0.1052632E+00  0.1052632E+00  0.5263158E-01  0.3499052E-02
      1         -0.352694   1.000000
      2          4.636238   1.000000
      3          4.749371   1.000000
      4          5.160250   1.000000
      5          6.957190  -0.000000
      6          7.678885  -0.000000
      7         22.445248   0.000000
 
  0.1578947E+00  0.1578947E+00  0.5263158E-01  0.3499052E-02
      1          1.846942   1.000000
      2          3.608536   1.000000
      3          3.702193   1.000000
      4          7.162872  -0.000000
      5          7.806756  -0.000000
      6          8.717453  -0.000000
      7         20.967283   0.000000
 
  0.2105263E+00  0.1578947E+00  0.5263158E-01  0.6998105E-02
      1          2.168287   1.000000
      2          3.382172   1.000000
      3          3.901897   1.000000
      4          7.258804  -0.000000
      5          7.943749  -0.000000
      6          9.793180  -0.000000
      7         19.724105   0.000000
 
  0.2631579E+00  0.1578947E+00  0.5263158E-01  0.6998105E-02
      1          2.179943   1.000000
      2          3.210681   1.000000
      3          4.456727   1.000000
      4          7.404010  -0.000000
      5          8.042886  -0.000000
      6         10.869087  -0.000000
      7         18.257017   0.000000
 
  0.3157895E+00  0.1578947E+00  0.5263158E-01  0.6998105E-02
      1          2.080331   1.000000
      2          3.101946   1.000000
      3          5.066466   1.000000
      4          7.544378  -0.000000
      5          8.120447  -0.000000
      6         11.832231   0.000000
      7         16.914766   0.000000
 
  0.3684211E+00  0.1578947E+00  0.5263158E-01  0.6998105E-02
      1          2.007408   1.000000
      2          3.049170   1.000000
      3          5.454414   1.000198
      4          7.618822  -0.000000
      5          8.183940  -0.000000
      6         12.478970   0.000000
      7         16.047411   0.000000
 
 -0.1578947E+00  0.1578947E+00  0.5263158E-01  0.3499052E-02
      1          0.129143   1.000000
      2          4.394711   1.000000
      3          4.677478   1.000000
      4          5.662172   1.013576
      5          6.721385  -0.000005
      6          7.751019  -0.000000
      7         22.540935   0.000000
 
 -0.1052632E+00  0.1578947E+00  0.5263158E-01  0.3499052E-02
      1          0.043645   1.000000
      2          4.563447   1.000000
      3          4.663233   1.000000
      4          5.497907   1.000594
      5          6.630760  -0.000083
      6          7.806274  -0.000000
      7         22.610716   0.000000
 
  0.2105263E+00  0.2105263E+00  0.5263158E-01  0.3499052E-02
      1          2.396964   1.000000
      2          3.325956   1.000000
      3          4.014249   1.000000
      4          7.363139  -0.000000
      5          8.055547  -0.000000
      6         10.949482  -0.000000
      7         18.575863   0.000000
 
  0.2631579E+00  0.2105263E+00  0.5263158E-01  0.6998105E-02
      1          2.406300   1.000000
      2          3.267764   1.000000
      3          4.389733   1.000000
      4          7.509681  -0.000000
      5          8.117491  -0.000000
      6         12.087012   0.000000
      7         17.305939   0.000000
 
  0.3157895E+00  0.2105263E+00  0.5263158E-01  0.6998105E-02
      1          2.351160   1.000000
      2          3.228291   1.000000
      3          4.749509   1.000000
      4          7.644063  -0.000000
      5          8.153793  -0.000000
      6         13.081002   0.000000
      7         16.199950   0.000000
 
  0.3684211E+00  0.2105263E+00  0.5263158E-01  0.3499052E-02
      1          2.324647   1.000000
      2          3.215405   1.000000
      3          4.891278   1.000000
      4          7.697061  -0.000000
      5          8.171422  -0.000000
      6         13.573840   0.000000
      7         15.675551   0.000000
 
 -0.2105263E+00  0.2105263E+00  0.5263158E-01  0.3499052E-02
      1          0.693313   1.000000
      2          4.108467   1.000000
      3          4.569950   1.000000
      4          6.337162  -0.025272
      5          6.647795  -0.000051
      6          7.829541  -0.000000
      7         22.242033   0.000000
 
 -0.1578947E+00  0.2105263E+00  0.5263158E-01  0.6998105E-02
      1          0.571249   1.000000
      2          4.342146   1.000000
      3          4.542145   1.000000
      4          6.081779   0.276455
      5          6.426631  -0.008004
      6          7.921134  -0.000000
      7         22.639531   0.000000
 
  0.2631579E+00  0.2631579E+00  0.5263158E-01  0.3499052E-02
      1          2.488788   1.000000
      2          3.414030   1.000000
      3          4.365758   1.000000
      4          7.658196  -0.000000
      5          8.127726  -0.000000
      6         13.299702   0.000000
      7         16.423903   0.000000
 
  0.3157895E+00  0.2631579E+00  0.5263158E-01  0.6998105E-02
      1          2.499513   1.000000
      2          3.528343   1.000000
      3          4.363800   1.000000
      4          7.793888  -0.000000
      5          8.096201  -0.000000
      6         14.373885   0.000000
      7         15.692801   0.000000
 
 -0.2631579E+00  0.2631579E+00  0.5263158E-01  0.3499052E-02
      1          1.184778   1.000000
      2          3.815252   1.000000
      3          4.579124   1.000000
      4          6.759433  -0.000001
      5          7.147528  -0.000000
      6          7.919381  -0.000000
      7         21.267370   0.000000
 
 -0.2105263E+00  0.2631579E+00  0.5263158E-01  0.6998105E-02
      1          1.119343   1.000000
      2          4.056346   1.000000
      3          4.435954   1.000000
      4          6.432222  -0.007305
      5          6.842281  -0.000000
      6          8.033364  -0.000000
      7         21.845693   0.000000
 
 -0.1578947E+00  0.2631579E+00  0.5263158E-01  0.3499052E-02
      1          1.102180   1.000000
      2          4.243867   1.000000
      3          4.286031   1.000000
      4          6.286408  -0.034700
      5          6.759248  -0.000001
      6          8.079345  -0.000000
      7         22.179370   0.000000
 
  0.3157895E+00  0.3157895E+00  0.5263158E-01  0.1166351E-02
      1          2.538288   1.000000
      2          3.938317   1.000000
      3          3.938319   1.000000
      4          7.962418  -0.000000
      5          7.962420  -0.000000
      6         15.481772   0.000000
      7         15.706355   0.000000
 
 -0.3157895E+00  0.3157895E+00  0.5263158E-01  0.3499052E-02
      1          1.429767   1.000000
      2          3.546169   1.000000
      3          4.896873   1.000000
      4          6.999504  -0.000000
      5          8.030148  -0.000000
      6          8.037123  -0.000000
      7         19.969630   0.000000
 
 -0.2631579E+00  0.3157895E+00  0.5263158E-01  0.6998105E-02
      1          1.508575   1.000000
      2          3.775224   1.000000
      3          4.507714   1.000000
      4          6.638172  -0.000068
      5          7.691368  -0.000000
      6          8.175318  -0.000000
      7         20.569049   0.000000
 
 -0.2105263E+00  0.3157895E+00  0.5263158E-01  0.6998105E-02
      1          1.593883   1.000000
      2          3.926490   1.000000
      3          4.259411   1.000000
      4          6.354280  -0.021323
      5          7.565075  -0.000000
      6          8.267943  -0.000000
      7         21.028361   0.000000
 
 -0.3684211E+00  0.3684211E+00  0.5263158E-01  0.3499052E-02
      1          1.430847   1.000000
      2          3.325084   1.000000
      3          5.482079   1.000404
      4          7.258937  -0.000000
      5          8.217012  -0.000000
      6          8.919416  -0.000000
      7         18.592510   0.000000
 
 -0.3157895E+00  0.3684211E+00  0.5263158E-01  0.6998105E-02
      1          1.619177   1.000000
      2          3.536425   1.000000
      3          4.865684   1.000000
      4          6.940098  -0.000000
      5          8.223483  -0.000000
      6          8.736685  -0.000000
      7         19.231207   0.000000
 
 -0.2631579E+00  0.3684211E+00  0.5263158E-01  0.6998105E-02
      1          1.867743   1.000000
      2          3.673586   1.000000
      3          4.396053   1.000000
      4          6.593340  -0.000230
      5          8.101904  -0.000000
      6          8.836567  -0.000000
      7         19.788819   0.000000
 
 -0.2105263E+00  0.3684211E+00  0.5263158E-01  0.3499052E-02
      1          2.001714   1.000000
      2          3.656654   1.000000
      3          4.271715   1.000000
      4          6.437799  -0.006655
      5          8.058173  -0.000000
      6          8.888132  -0.000000
      7         20.045471   0.000000
 
 -0.4210526E+00  0.4210526E+00  0.5263158E-01  0.3499052E-02
      1          1.339119   1.000000
      2          3.168883   1.000000
      3          6.088280   0.252624
      4          7.374310  -0.000000
      5          8.563505  -0.000000
      6          9.664671  -0.000000
      7         17.362291   0.000000
 
 -0.3684211E+00  0.4210526E+00  0.5263158E-01  0.6998105E-02
      1          1.549724   1.000000
      2          3.355760   1.000000
      3          5.364823   1.000015
      4          7.159879  -0.000000
      5          8.564210  -0.000000
      6          9.599048  -0.000000
      7         17.907824   0.000000
 
 -0.3157895E+00  0.4210526E+00  0.5263158E-01  0.6998105E-02
      1          1.877989   1.000000
      2          3.505153   1.000000
      3          4.720845   1.000000
      4          6.883460  -0.000000
      5          8.345959  -0.000000
      6          9.804890  -0.000000
      7         18.477398   0.000000
 
 -0.2631579E+00  0.4210526E+00  0.5263158E-01  0.6998105E-02
      1          2.201581   1.000000
      2          3.463421   1.000000
      3          4.398779   1.000000
      4          6.667215  -0.000029
      5          8.215906  -0.000000
      6          9.947172  -0.000000
      7         18.924199   0.000000
 
 -0.4736842E+00  0.4736842E+00  0.5263158E-01  0.3499052E-02
      1          1.269365   1.000000
      2          3.088218   1.000000
      3          6.493208  -0.002368
      4          7.336606  -0.000000
      5          8.903008  -0.000000
      6         10.105735  -0.000000
      7         16.593950   0.000000
 
 -0.4210526E+00  0.4736842E+00  0.5263158E-01  0.6998105E-02
      1          1.454104   1.000000
      2          3.242993   1.000000
      3          5.788908   1.035251
      4          7.189674  -0.000000
      5          8.998869  -0.000000
      6         10.282832  -0.000000
      7         16.838172   0.000000
 
 -0.3684211E+00  0.4736842E+00  0.5263158E-01  0.6998105E-02
      1          1.777915   1.000000
      2          3.396089   1.000000
      3          5.081829   1.000000
      4          7.044030  -0.000000
      5          8.682361  -0.000000
      6         10.747430  -0.000000
      7         17.217887   0.000000
 
 -0.3157895E+00  0.4736842E+00  0.5263158E-01  0.6998105E-02
      1          2.180098   1.000000
      2          3.409976   1.000000
      3          4.570374   1.000000
      4          6.929519  -0.000000
      5          8.386052  -0.000000
      6         11.085916  -0.000000
      7         17.678382   0.000000
 
 -0.2631579E+00  0.4736842E+00  0.5263158E-01  0.3499052E-02
      1          2.430728   1.000000
      2          3.294650   1.000000
      3          4.415805   1.000000
      4          6.883847  -0.000000
      5          8.270843  -0.000000
      6         11.203620  -0.000000
      7         17.941171   0.000000
 
 -0.4736842E+00 -0.4736842E+00  0.5263158E-01  0.3499052E-02
      1          1.414590   1.000000
      2          3.204645   1.000000
      3          5.963798   0.752128
      4          7.159915  -0.000000
      5          9.212255  -0.000000
      6         10.556141  -0.000000
      7         16.403564   0.000000
 
 -0.4210526E+00 -0.4736842E+00  0.5263158E-01  0.6998105E-02
      1          1.701080   1.000000
      2          3.340417   1.000000
      3          5.315459   1.000003
      4          7.062141  -0.000000
      5          8.991072  -0.000000
      6         11.392545   0.000000
      7         16.358689   0.000000
 
 -0.3684211E+00 -0.4736842E+00  0.5263158E-01  0.6998105E-02
      1          2.092340   1.000000
      2          3.410839   1.000000
      3          4.714088   1.000000
      4          7.073946  -0.000000
      5          8.635095  -0.000000
      6         12.097658   0.000000
      7         16.538033   0.000000
 
 -0.3157895E+00 -0.4736842E+00  0.5263158E-01  0.6998105E-02
      1          2.484190   1.000000
      2          3.309846   1.000000
      3          4.361026   1.000000
      4          7.153076  -0.000000
      5          8.348224  -0.000000
      6         12.475722   0.000000
      7         16.881552   0.000000
 
 -0.4210526E+00 -0.4210526E+00  0.5263158E-01  0.3499052E-02
      1          2.052733   1.000000
      2          3.414040   1.000000
      3          4.769948   1.000000
      4          7.106213  -0.000000
      5          8.768914  -0.000000
      6         12.573892   0.000000
      7         16.006988   0.000000
 
 -0.3684211E+00 -0.4210526E+00  0.5263158E-01  0.6998105E-02
      1          2.452678   1.000000
      2          3.411997   1.000000
      3          4.279074   1.000000
      4          7.314751  -0.000000
      5          8.446448  -0.000000
      6         13.525469   0.000000
      7         15.965721   0.000000
 
 -0.3157895E+00 -0.4210526E+00  0.5263158E-01  0.3499052E-02
      1          2.694424   1.000000
      2          3.345217   1.000000
      3          4.068133   1.000000
      4          7.483684  -0.000000
      5          8.240453  -0.000000
      6         13.884439   0.000000
      7         16.205646   0.000000
 
 -0.3684211E+00 -0.3684211E+00  0.5263158E-01  0.3499052E-02
      1          2.747203   1.000000
      2          3.484469   1.000000
      3          3.850512   1.000000
      4          7.684491  -0.000000
      5          8.141546  -0.000000
      6         14.906651   0.000000
      7         15.670625   0.000000
 
  0.1052632E+00  0.1052632E+00  0.1052632E+00  0.1166351E-02
      1          1.294582   1.000000
      2          3.784964   1.000000
      3          3.784966   1.000000
      4          7.401167  -0.000000
      5          7.401169  -0.000000
      6          7.733166  -0.000000
      7         22.180672   0.000000
 
  0.1578947E+00  0.1052632E+00  0.1052632E+00  0.3499052E-02
      1          1.865995   1.000000
      2          3.515457   1.000000
      3          3.649050   1.000000
      4          7.392012  -0.000000
      5          7.618831  -0.000000
      6          8.736037  -0.000000
      7         21.356461   0.000000
 
  0.2105263E+00  0.1052632E+00  0.1052632E+00  0.3499052E-02
      1          2.187216   1.000000
      2          3.293629   1.000000
      3          3.872957   1.000000
      4          7.460708  -0.000000
      5          7.795162  -0.000000
      6          9.797013  -0.000000
      7         19.944118   0.000000
 
  0.2631579E+00  0.1052632E+00  0.1052632E+00  0.3499052E-02
      1          2.165524   1.000000
      2          3.125205   1.000000
      3          4.511862   1.000000
      4          7.566269  -0.000000
      5          7.931321  -0.000000
      6         10.839231  -0.000000
      7         18.329078   0.000000
 
  0.3157895E+00  0.1052632E+00  0.1052632E+00  0.3499052E-02
      1          2.046363   1.000000
      2          3.012430   1.000000
      3          5.221546   1.000000
      4          7.661243  -0.000000
      5          8.026222  -0.000000
      6         11.747912   0.000000
      7         16.933053   0.000000
 
  0.3684211E+00  0.1052632E+00  0.1052632E+00  0.3499052E-02
      1          1.966272   1.000000
      2          2.955978   1.000000
      3          5.687795   1.018787
      4          7.711801  -0.000000
      5          8.075634  -0.000000
      6         12.335212   0.000000
      7         16.068691   0.000000
 
 -0.1052632E+00  0.1052632E+00  0.1052632E+00  0.8747631E-03
      1         -0.046299   1.000000
      2          4.773677   1.000000
      3          4.773682   1.000000
      4          5.178470   1.000000
      5          6.527564  -0.001136
      6          7.865144  -0.000000
      7         22.615780   0.000000
 
  0.1578947E+00  0.1578947E+00  0.1052632E+00  0.3499052E-02
      1          2.407022   1.000000
      2          3.386434   1.000000
      3          3.441168   1.000000
      4          7.504688  -0.000000
      5          7.754278  -0.000000
      6          9.835934  -0.000000
      7         20.475114   0.000000
 
  0.2105263E+00  0.1578947E+00  0.1052632E+00  0.6998105E-02
      1          2.580561   1.000000
      2          3.215743   1.000000
      3          3.786916   1.000000
      4          7.593719  -0.000000
      5          7.911002  -0.000000
      6         10.955552  -0.000000
      7         18.985802   0.000000
 
  0.2631579E+00  0.1578947E+00  0.1052632E+00  0.6998105E-02
      1          2.476222   1.000000
      2          3.095435   1.000000
      3          4.436327   1.000000
      4          7.695694  -0.000000
      5          8.021914  -0.000000
      6         12.012307   0.000000
      7         17.423829   0.000000
 
  0.3157895E+00  0.1578947E+00  0.1052632E+00  0.6998105E-02
      1          2.367094   1.000000
      2          3.027382   1.000000
      3          4.984242   1.000000
      4          7.776706  -0.000000
      5          8.087333  -0.000000
      6         12.880072   0.000000
      7         16.216185   0.000000
 
  0.3684211E+00  0.1578947E+00  0.1052632E+00  0.3499052E-02
      1          2.325788   1.000000
      2          3.005404   1.000000
      3          5.199156   1.000000
      4          7.806556  -0.000000
      5          8.110039  -0.000000
      6         13.275074   0.000000
      7         15.703842   0.000000
 
 -0.1578947E+00  0.1578947E+00  0.1052632E+00  0.3499052E-02
      1          0.421645   1.000000
      2          4.642092   1.000000
      3          4.753828   1.000000
      4          5.585059   1.003855
      5          6.151699   0.069085
      6          8.016681  -0.000000
      7         22.792377   0.000000
 
  0.2105263E+00  0.2105263E+00  0.1052632E+00  0.3499052E-02
      1          2.690367   1.000000
      2          3.260254   1.000000
      3          3.959903   1.000000
      4          7.698509  -0.000000
      5          8.025578  -0.000000
      6         12.110017   0.000000
      7         17.783538   0.000000
 
  0.2631579E+00  0.2105263E+00  0.1052632E+00  0.6998105E-02
      1          2.641939   1.000000
      2          3.257605   1.000000
      3          4.345182   1.000000
      4          7.804490  -0.000000
      5          8.090051  -0.000000
      6         13.187033   0.000000
      7         16.571659   0.000000
 
  0.3157895E+00  0.2105263E+00  0.1052632E+00  0.6998105E-02
      1          2.597164   1.000000
      2          3.242462   1.000000
      3          4.621945   1.000000
      4          7.878986  -0.000000
      5          8.112817  -0.000000
      6         14.044503   0.000000
      7         15.660154   0.000000
 
 -0.2105263E+00  0.2105263E+00  0.1052632E+00  0.3499052E-02
      1          0.971162   1.000000
      2          4.388416   1.000000
      3          4.608445   1.000000
      4          6.037721   0.453446
      5          6.244881  -0.032171
      6          8.147706  -0.000000
      7         22.544021   0.000000
 
 -0.1578947E+00  0.2105263E+00  0.1052632E+00  0.3499052E-02
      1          0.923303   1.000000
      2          4.623905   1.000000
      3          4.629574   1.000000
      4          5.826615   1.025171
      5          6.028625   0.491858
      6          8.192219  -0.000000
      7         22.964690   0.000000
 
  0.2631579E+00  0.2631579E+00  0.1052632E+00  0.3499052E-02
      1          2.669435   1.000000
      2          3.520122   1.000000
      3          4.246858   1.000000
      4          7.913761  -0.000000
      5          8.100078  -0.000000
      6         14.318044   0.000000
      7         15.898131   0.000000
 
  0.3157895E+00  0.2631579E+00  0.1052632E+00  0.3499052E-02
      1          2.669284   1.000000
      2          3.652673   1.000000
      3          4.188467   1.000000
      4          7.978779  -0.000000
      5          8.078428  -0.000000
      6         15.202220   0.000000
      7         15.365931   0.000000
 
 -0.2631579E+00  0.2631579E+00  0.1052632E+00  0.3499052E-02
      1          1.457997   1.000000
      2          4.114105   1.000000
      3          4.446004   1.000000
      4          6.227355  -0.025463
      5          7.055080  -0.000000
      6          8.277518  -0.000000
      7         21.227764   0.000000
 
 -0.2105263E+00  0.2631579E+00  0.1052632E+00  0.6998105E-02
      1          1.448786   1.000000
      2          4.309893   1.000000
      3          4.509642   1.000000
      4          5.850871   1.007618
      5          6.740412  -0.000003
      6          8.352154  -0.000000
      7         21.776555   0.000000
 
 -0.3157895E+00  0.3157895E+00  0.1052632E+00  0.3499052E-02
      1          1.706196   1.000000
      2          3.858435   1.000000
      3          4.507032   1.000000
      4          6.578258  -0.000339
      5          7.950663  -0.000000
      6          8.464994  -0.000000
      7         19.921352   0.000000
 
 -0.2631579E+00  0.3157895E+00  0.1052632E+00  0.6998105E-02
      1          1.837753   1.000000
      2          4.021108   1.000000
      3          4.382461   1.000000
      4          6.152548   0.067298
      5          7.568006  -0.000000
      6          8.565997  -0.000000
      7         20.534644   0.000000
 
 -0.2105263E+00  0.3157895E+00  0.1052632E+00  0.3499052E-02
      1          1.905227   1.000000
      2          3.935027   1.000000
      3          4.532952   1.000000
      4          5.913102   0.905132
      5          7.451027  -0.000000
      6          8.607296  -0.000000
      7         20.821583   0.000000
 
 -0.3684211E+00  0.3684211E+00  0.1052632E+00  0.3499052E-02
      1          1.698309   1.000000
      2          3.646927   1.000000
      3          4.814607   1.000000
      4          6.877281  -0.000000
      5          8.842996  -0.000000
      6          8.850215  -0.000000
      7         18.601273   0.000000
 
 -0.3157895E+00  0.3684211E+00  0.1052632E+00  0.6998105E-02
      1          1.951921   1.000000
      2          3.852866   1.000000
      3          4.405411   1.000000
      4          6.522858  -0.001261
      5          8.303969  -0.000000
      6          9.064457  -0.000000
      7         19.273627   0.000000
 
 -0.2631579E+00  0.3684211E+00  0.1052632E+00  0.6998105E-02
      1          2.200891   1.000000
      2          3.640027   1.000000
      3          4.512419   1.000000
      4          6.198939  -0.004089
      5          8.039402  -0.000000
      6          9.178760  -0.000000
      7         19.772275   0.000000
 
 -0.4210526E+00  0.4210526E+00  0.1052632E+00  0.3499052E-02
      1          1.591736   1.000000
      2          3.496958   1.000000
      3          5.188284   1.000000
      4          6.958816  -0.000000
      5          9.479814  -0.000000
      6          9.600218  -0.000000
      7         17.352563   0.000000
 
 -0.3684211E+00  0.4210526E+00  0.1052632E+00  0.6998105E-02
      1          1.866348   1.000000
      2          3.732148   1.000000
      3          4.615493   1.000000
      4          6.731762  -0.000004
      5          8.907974  -0.000000
      6          9.915912  -0.000000
      7         17.954792   0.000000
 
 -0.3157895E+00  0.4210526E+00  0.1052632E+00  0.6998105E-02
      1          2.231868   1.000000
      2          3.581347   1.000000
      3          4.464718   1.000000
      4          6.531851  -0.001031
      5          8.432345  -0.000000
      6         10.159062  -0.000000
      7         18.554650   0.000000
 
 -0.2631579E+00  0.4210526E+00  0.1052632E+00  0.3499052E-02
      1          2.480470   1.000000
      2          3.312584   1.000000
      3          4.542198   1.000000
      4          6.439164  -0.006503
      5          8.255982  -0.000000
      6         10.240554  -0.000000
      7         18.860123   0.000000
 
 -0.4736842E+00  0.4736842E+00  0.1052632E+00  0.3499052E-02
      1          1.512813   1.000000
      2          3.419372   1.000000
      3          5.449128   1.000172
      4          6.911181  -0.000000
      5         10.029786  -0.000000
      6         10.050297  -0.000000
      7         16.510167   0.000000
 
 -0.4210526E+00  0.4736842E+00  0.1052632E+00  0.6998105E-02
      1          1.753534   1.000000
      2          3.647553   1.000000
      3          4.852334   1.000000
      4          6.744502  -0.000002
      5          9.460051  -0.000000
      6         10.746570  -0.000000
      7         16.791366   0.000000
 
 -0.3684211E+00  0.4736842E+00  0.1052632E+00  0.6998105E-02
      1          2.115847   1.000000
      2          3.660336   1.000000
      3          4.436900   1.000000
      4          6.706971  -0.000008
      5          8.876014  -0.000000
      6         11.242118  -0.000000
      7         17.251177   0.000000
 
 -0.3157895E+00  0.4736842E+00  0.1052632E+00  0.6998105E-02
      1          2.542293   1.000000
      2          3.267634   1.000000
      3          4.403699   1.000000
      4          6.768067  -0.000001
      5          8.459756  -0.000000
      6         11.488246   0.000000
      7         17.733840   0.000000
 
 -0.4736842E+00 -0.4736842E+00  0.1052632E+00  0.3499052E-02
      1          1.707585   1.000000
      2          3.617280   1.000000
      3          4.955530   1.000000
      4          6.717757  -0.000006
      5          9.696981  -0.000000
      6         11.128734  -0.000000
      7         16.279438   0.000000
 
 -0.4210526E+00 -0.4736842E+00  0.1052632E+00  0.6998105E-02
      1          2.024165   1.000000
      2          3.722387   1.000000
      3          4.436910   1.000000
      4          6.741604  -0.000003
      5          9.231751  -0.000000
      6         12.081520   0.000000
      7         16.257293   0.000000
 
 -0.3684211E+00 -0.4736842E+00  0.1052632E+00  0.6998105E-02
      1          2.442426   1.000000
      2          3.486277   1.000000
      3          4.165496   1.000000
      4          6.978786  -0.000000
      5          8.726384  -0.000000
      6         12.703682   0.000000
      7         16.551442   0.000000
 
 -0.3157895E+00 -0.4736842E+00  0.1052632E+00  0.3499052E-02
      1          2.838434   1.000000
      2          3.083601   1.000000
      3          4.133372   1.000000
      4          7.167608  -0.000000
      5          8.450856  -0.000000
      6         12.907480   0.000000
      7         16.873995   0.000000
 
 -0.4210526E+00 -0.4210526E+00  0.1052632E+00  0.3499052E-02
      1          2.392141   1.000000
      2          3.678901   1.000000
      3          3.976412   1.000000
      4          7.038190  -0.000000
      5          8.864951  -0.000000
      6         13.365649   0.000000
      7         15.894782   0.000000
 
 -0.3684211E+00 -0.4210526E+00  0.1052632E+00  0.6998105E-02
      1          2.838392   1.000000
      2          3.343237   1.000000
      3          3.755882   1.000000
      4          7.473118  -0.000000
      5          8.438135  -0.000000
      6         14.232611   0.000000
      7         16.012293   0.000000
 
 -0.3684211E+00 -0.3684211E+00  0.1052632E+00  0.1166351E-02
      1          3.241418   1.000000
      2          3.314187   1.000000
      3          3.314189   1.000000
      4          8.004020  -0.000000
      5          8.004022  -0.000000
      6         15.780600   0.000000
      7         15.811549   0.000000
 
  0.1578947E+00  0.1578947E+00  0.1578947E+00  0.1166351E-02
      1          3.031758   1.000000
      2          3.226001   1.000000
      3          3.226002   1.000000
      4          7.764430  -0.000000
      5          7.764431  -0.000000
      6         10.993918  -0.000000
      7         19.749581   0.000000
 
  0.2105263E+00  0.1578947E+00  0.1578947E+00  0.3499052E-02
      1          2.970525   1.000000
      2          3.118936   1.000000
      3          3.759716   1.000000
      4          7.819026  -0.000000
      5          7.945020  -0.000000
      6         12.124888   0.000000
      7         18.046233   0.000000
 
  0.2631579E+00  0.1578947E+00  0.1578947E+00  0.3499052E-02
      1          2.818148   1.000000
      2          3.055230   1.000000
      3          4.357866   1.000000
      4          7.883612  -0.000000
      5          8.056290  -0.000000
      6         13.148167   0.000000
      7         16.623791   0.000000
 
  0.3157895E+00  0.1578947E+00  0.1578947E+00  0.3499052E-02
      1          2.736252   1.000000
      2          3.025984   1.000000
      3          4.723017   1.000000
      4          7.925250  -0.000000
      5          8.108720  -0.000000
      6         13.926642   0.000000
      7         15.656503   0.000000
 
 -0.1578947E+00  0.1578947E+00  0.1578947E+00  0.8747631E-03
      1          0.864844   1.000000
      2          4.866150   1.000000
      3          4.866154   1.000000
      4          5.555725   1.002160
      5          5.657572   1.012740
      6          8.235889  -0.000000
      7         23.066441   0.000000
 
  0.2105263E+00  0.2105263E+00  0.1578947E+00  0.3499052E-02
      1          2.997445   1.000000
      2          3.239295   1.000000
      3          3.935907   1.000000
      4          7.931320  -0.000000
      5          8.036415  -0.000000
      6         13.241425   0.000000
      7         16.963179   0.000000
 
  0.2631579E+00  0.2105263E+00  0.1578947E+00  0.6998105E-02
      1          2.950342   1.000000
      2          3.281935   1.000000
      3          4.212846   1.000000
      4          7.995597  -0.000000
      5          8.103716  -0.000000
      6         14.240988   0.000000
      7         15.987851   0.000000
 
  0.3157895E+00  0.2105263E+00  0.1578947E+00  0.3499052E-02
      1          2.932883   1.000000
      2          3.285722   1.000000
      3          4.334618   1.000000
      4          8.020669  -0.000000
      5          8.124406  -0.000000
      6         14.943921   0.000000
      7         15.320247   0.000000
 
 -0.2105263E+00  0.2105263E+00  0.1578947E+00  0.3499052E-02
      1          1.382040   1.000000
      2          4.690561   1.000000
      3          4.794229   1.000000
      4          5.380729   1.000024
      5          6.161303   0.049904
      6          8.418493  -0.000000
      7         22.476873   0.000000
 
  0.2631579E+00  0.2631579E+00  0.1578947E+00  0.3499052E-02
      1          2.949635   1.000000
      2          3.618928   1.000000
      3          4.008065   1.000000
      4          8.068352  -0.000000
      5          8.114585  -0.000000
      6         15.132338   0.000000
      7         15.748376   0.000000
 
 -0.2631579E+00  0.2631579E+00  0.1578947E+00  0.3499052E-02
      1          1.847450   1.000000
      2          4.247340   1.000000
      3          4.583645   1.000000
      4          5.721773   1.026541
      5          6.935620  -0.000000
      6          8.604605  -0.000000
      7         21.242986   0.000000
 
 -0.2105263E+00  0.2631579E+00  0.1578947E+00  0.3499052E-02
      1          1.856628   1.000000
      2          4.268975   1.000000
      3          4.886372   1.000000
      4          5.415699   1.000068
      5          6.684281  -0.000017
      6          8.628889  -0.000000
      7         21.598018   0.000000
 
 -0.3157895E+00  0.3157895E+00  0.1578947E+00  0.3499052E-02
      1          2.095559   1.000000
      2          4.018896   1.000000
      3          4.360862   1.000000
      4          6.151921   0.068615
      5          7.827416  -0.000000
      6          8.905079  -0.000000
      7         20.045753   0.000000
 
 -0.2631579E+00  0.3157895E+00  0.1578947E+00  0.6998105E-02
      1          2.223760   1.000000
      2          3.815605   1.000000
      3          4.786712   1.000000
      4          5.777727   1.035397
      5          7.443134  -0.000000
      6          8.926203  -0.000000
      7         20.629229   0.000000
 
 -0.3684211E+00  0.3684211E+00  0.1578947E+00  0.3499052E-02
      1          2.068830   1.000000
      2          4.091771   1.000000
      3          4.169579   1.000000
      4          6.440077  -0.006402
      5          8.729294  -0.000000
      6          9.492355  -0.000000
      7         18.742111   0.000000
 
 -0.3157895E+00  0.3684211E+00  0.1578947E+00  0.6998105E-02
      1          2.340385   1.000000
      2          3.620055   1.000000
      3          4.615134   1.000000
      4          6.176117   0.024756
      5          8.212743  -0.000000
      6          9.520736  -0.000000
      7         19.480956   0.000000
 
 -0.2631579E+00  0.3684211E+00  0.1578947E+00  0.3499052E-02
      1          2.513223   1.000000
      2          3.376340   1.000000
      3          4.851061   1.000000
      4          6.031035   0.481663
      5          7.986073  -0.000000
      6          9.551501  -0.000000
      7         19.850730   0.000000
 
 -0.4210526E+00  0.4210526E+00  0.1578947E+00  0.3499052E-02
      1          1.931173   1.000000
      2          4.031860   1.000000
      3          4.303124   1.000000
      4          6.497063  -0.002188
      5          9.502350  -0.000000
      6         10.359546  -0.000000
      7         17.391234   0.000000
 
 -0.3684211E+00  0.4210526E+00  0.1578947E+00  0.6998105E-02
      1          2.220048   1.000000
      2          3.711451   1.000000
      3          4.445507   1.000000
      4          6.383484  -0.015057
      5          8.927696  -0.000000
      6         10.471648  -0.000000
      7         18.101358   0.000000
 
 -0.3157895E+00  0.4210526E+00  0.1578947E+00  0.6998105E-02
      1          2.582114   1.000000
      2          3.199657   1.000000
      3          4.696892   1.000000
      4          6.408133  -0.010665
      5          8.430905  -0.000000
      6         10.581870  -0.000000
      7         18.731898   0.000000
 
 -0.4736842E+00  0.4736842E+00  0.1578947E+00  0.3499052E-02
      1          1.833845   1.000000
      2          3.960125   1.000000
      3          4.467108   1.000000
      4          6.452235  -0.005180
      5          9.965608  -0.000000
      6         11.120367  -0.000000
      7         16.391919   0.000000
 
 -0.4210526E+00  0.4736842E+00  0.1578947E+00  0.6998105E-02
      1          2.072778   1.000000
      2          3.899239   1.000000
      3          4.293814   1.000000
      4          6.412963  -0.009918
      5          9.521103  -0.000000
      6         11.509218   0.000000
      7         16.763997   0.000000
 
 -0.3684211E+00  0.4736842E+00  0.1578947E+00  0.6998105E-02
      1          2.416065   1.000000
      2          3.358575   1.000000
      3          4.455781   1.000000
      4          6.649290  -0.000049
      5          8.906170  -0.000000
      6         11.807781   0.000000
      7         17.353585   0.000000
 
 -0.3157895E+00  0.4736842E+00  0.1578947E+00  0.3499052E-02
      1          2.829176   1.000000
      2          2.874667   1.000000
      3          4.496886   1.000000
      4          6.857019  -0.000000
      5          8.575829  -0.000000
      6         11.906503   0.000000
      7         17.767275   0.000000
 
 -0.4736842E+00 -0.4736842E+00  0.1578947E+00  0.3499052E-02
      1          2.014870   1.000000
      2          4.024260   1.000000
      3          4.193795   1.000000
      4          6.401287  -0.011790
      5          9.761704  -0.000000
      6         12.050320   0.000000
      7         16.113141   0.000000
 
 -0.4210526E+00 -0.4736842E+00  0.1578947E+00  0.6998105E-02
      1          2.291776   1.000000
      2          3.561428   1.000000
      3          4.237114   1.000000
      4          6.732597  -0.000004
      5          9.269986  -0.000000
      6         12.884525   0.000000
      7         16.161911   0.000000
 
 -0.3684211E+00 -0.4736842E+00  0.1578947E+00  0.6998105E-02
      1          2.648920   1.000000
      2          3.104129   1.000000
      3          4.200996   1.000000
      4          7.222401  -0.000000
      5          8.742855  -0.000000
      6         13.300220   0.000000
      7         16.637223   0.000000
 
 -0.4210526E+00 -0.4210526E+00  0.1578947E+00  0.3499052E-02
      1          2.576491   1.000000
      2          3.248814   1.000000
      3          4.035632   1.000000
      4          7.345838  -0.000000
      5          8.837068  -0.000000
      6         14.219489   0.000000
      7         15.805395   0.000000
 
 -0.3684211E+00 -0.4210526E+00  0.1578947E+00  0.3499052E-02
      1          2.836397   1.000000
      2          2.991855   1.000000
      3          3.936468   1.000000
      4          7.823326  -0.000000
      5          8.444692  -0.000000
      6         14.840205   0.000000
      7         16.127499   0.000000
 
  0.2105263E+00  0.2105263E+00  0.2105263E+00  0.1166351E-02
      1          3.242086   1.000000
      2          3.242086   1.000000
      3          3.949068   1.000000
      4          8.070023  -0.000000
      5          8.070023  -0.000000
      6         14.277955   0.000000
      7         16.251259   0.000000
 
  0.2631579E+00  0.2105263E+00  0.2105263E+00  0.3499052E-02
      1          3.249358   1.000000
      2          3.363194   1.000000
      3          3.984387   1.000000
      4          8.097290  -0.000000
      5          8.132405  -0.000000
      6         15.065330   0.000000
      7         15.810555   0.000000
 
 -0.2105263E+00  0.2105263E+00  0.2105263E+00  0.8747631E-03
      1          1.842091   1.000000
      2          4.499121   1.000000
      3          5.128347   1.000000
      4          5.128350   1.000000
      5          6.289781  -0.034341
      6          8.648179  -0.000000
      7         22.012798   0.000000
 
  0.2631579E+00  0.2631579E+00  0.2105263E+00  0.1166351E-02
      1          3.295734   1.000000
      2          3.678745   1.000000
      3          3.678746   1.000000
      4          8.137252  -0.000000
      5          8.137252  -0.000000
      6         15.180306   0.000000
      7         16.561979   0.000000
 
 -0.2631579E+00  0.2631579E+00  0.2105263E+00  0.3499052E-02
      1          2.241607   1.000000
      2          3.935914   1.000000
      3          5.152644   1.000000
      4          5.470873   1.000304
      5          6.862881  -0.000000
      6          8.895561  -0.000000
      7         21.317490   0.000000
 
 -0.3157895E+00  0.3157895E+00  0.2105263E+00  0.3499052E-02
      1          2.460809   1.000000
      2          3.515956   1.000000
      3          5.018932   1.000000
      4          5.896182   0.942220
      5          7.701044  -0.000000
      6          9.305299  -0.000000
      7         20.365377   0.000000
 
 -0.2631579E+00  0.3157895E+00  0.2105263E+00  0.3499052E-02
      1          2.518611   1.000000
      2          3.452827   1.000000
      3          5.311133   1.000003
      4          5.731694   1.028749
      5          7.411641  -0.000000
      6          9.270191  -0.000000
      7         20.834151   0.000000
 
 -0.3684211E+00  0.3684211E+00  0.2105263E+00  0.3499052E-02
      1          2.396230   1.000000
      2          3.412188   1.000000
      3          4.869897   1.000000
      4          6.170760   0.033240
      5          8.597465  -0.000000
      6         10.052326  -0.000000
      7         19.020480   0.000000
 
 -0.3157895E+00  0.3684211E+00  0.2105263E+00  0.6998105E-02
      1          2.608435   1.000000
      2          3.104198   1.000000
      3          5.223871   1.000000
      4          6.128245   0.125689
      5          8.125843  -0.000000
      6          9.953321  -0.000000
      7         19.823876   0.000000
 
 -0.4210526E+00  0.4210526E+00  0.2105263E+00  0.3499052E-02
      1          2.204193   1.000000
      2          3.500398   1.000000
      3          4.754582   1.000000
      4          6.241243  -0.031121
      5          9.383786  -0.000000
      6         11.113794  -0.000000
      7         17.489461   0.000000
 
 -0.3684211E+00  0.4210526E+00  0.2105263E+00  0.6998105E-02
      1          2.420846   1.000000
      2          3.085399   1.000000
      3          5.073101   1.000000
      4          6.384854  -0.014789
      5          8.852419  -0.000000
      6         11.009845  -0.000000
      7         18.317584   0.000000
 
 -0.3157895E+00  0.4210526E+00  0.2105263E+00  0.3499052E-02
      1          2.711032   1.000000
      2          2.726050   1.000000
      3          5.144478   1.000000
      4          6.596528  -0.000212
      5          8.509669  -0.000000
      6         11.002912  -0.000000
      7         18.846835   0.000000
 
 -0.4736842E+00  0.4736842E+00  0.2105263E+00  0.3499052E-02
      1          2.079154   1.000000
      2          3.583173   1.000000
      3          4.692924   1.000000
      4          6.224331  -0.023854
      5          9.861842  -0.000000
      6         12.106063   0.000000
      7         16.256097   0.000000
 
 -0.4210526E+00  0.4736842E+00  0.2105263E+00  0.6998105E-02
      1          2.225415   1.000000
      2          3.162944   1.000000
      3          4.949006   1.000000
      4          6.474125  -0.003453
      5          9.457104  -0.000000
      6         12.237520   0.000000
      7         16.767865   0.000000
 
 -0.3684211E+00  0.4736842E+00  0.2105263E+00  0.6998105E-02
      1          2.444624   1.000000
      2          2.801513   1.000000
      3          4.965643   1.000000
      4          6.990400  -0.000000
      5          8.903508  -0.000000
      6         12.319960   0.000000
      7         17.479897   0.000000
 
 -0.4736842E+00 -0.4736842E+00  0.2105263E+00  0.3499052E-02
      1          2.154132   1.000000
      2          3.198399   1.000000
      3          4.900715   1.000000
      4          6.489671  -0.002543
      5          9.701744  -0.000000
      6         12.974652   0.000000
      7         15.918201   0.000000
 
 -0.4210526E+00 -0.4736842E+00  0.2105263E+00  0.6998105E-02
      1          2.299334   1.000000
      2          2.858181   1.000000
      3          4.841129   1.000000
      4          7.165532  -0.000000
      5          9.219876  -0.000000
      6         13.622618   0.000000
      7         16.104062   0.000000
 
 -0.3684211E+00 -0.4736842E+00  0.2105263E+00  0.3499052E-02
      1          2.443834   1.000000
      2          2.648245   1.000000
      3          4.793515   1.000000
      4          7.638289  -0.000000
      5          8.831180  -0.000000
      6         13.797490   0.000000
      7         16.673545   0.000000
 
 -0.4210526E+00 -0.4210526E+00  0.2105263E+00  0.3499052E-02
      1          2.423072   1.000000
      2          2.620668   1.000000
      3          4.720442   1.000000
      4          7.952048  -0.000000
      5          8.747432  -0.000000
      6         15.014165   0.000000
      7         15.778384   0.000000
 
 -0.2631579E+00  0.2631579E+00  0.2631579E+00  0.8747631E-03
      1          2.516610   1.000000
      2          3.488637   1.000000
      3          5.618861   1.007029
      4          5.618862   1.007029
      5          7.030991  -0.000000
      6          9.211482  -0.000000
      7         21.397622   0.000000
 
 -0.3157895E+00  0.3157895E+00  0.2631579E+00  0.3499052E-02
      1          2.625320   1.000000
      2          3.038483   1.000000
      3          5.754468   1.033093
      4          5.984191   0.675445
      5          7.639097  -0.000000
      6          9.702273  -0.000000
      7         20.872542   0.000000
 
 -0.3684211E+00  0.3684211E+00  0.2631579E+00  0.3499052E-02
      1          2.485073   1.000000
      2          2.825422   1.000000
      3          5.707490   1.023248
      4          6.282637  -0.035027
      5          8.475047  -0.000000
      6         10.537581  -0.000000
      7         19.333825   0.000000
 
 -0.3157895E+00  0.3684211E+00  0.2631579E+00  0.3499052E-02
      1          2.602873   1.000000
      2          2.638381   1.000000
      3          5.903492   0.927082
      4          6.423466  -0.008421
      5          8.155792  -0.000000
      6         10.408765  -0.000000
      7         20.024077   0.000000
 
 -0.4210526E+00  0.4210526E+00  0.2631579E+00  0.3499052E-02
      1          2.229656   1.000000
      2          2.813548   1.000000
      3          5.635313   1.009165
      4          6.414820  -0.009640
      5          9.259934  -0.000000
      6         11.716977   0.000000
      7         17.596971   0.000000
 
 -0.3684211E+00  0.4210526E+00  0.2631579E+00  0.6998105E-02
      1          2.308915   1.000000
      2          2.553155   1.000000
      3          5.849849   1.008575
      4          6.816551  -0.000000
      5          8.794465  -0.000000
      6         11.489467   0.000000
      7         18.451091   0.000000
 
 -0.4736842E+00  0.4736842E+00  0.2631579E+00  0.3499052E-02
      1          2.084952   1.000000
      2          2.818391   1.000000
      3          5.590990   1.004306
      4          6.447251  -0.005656
      5          9.750977  -0.000000
      6         12.925720   0.000000
      7         16.114394   0.000000
 
 -0.4210526E+00  0.4736842E+00  0.2631579E+00  0.6998105E-02
      1          2.100109   1.000000
      2          2.511970   1.000000
      3          5.780196   1.035449
      4          7.008524  -0.000000
      5          9.368920  -0.000000
      6         12.820718   0.000000
      7         16.769101   0.000000
 
 -0.3684211E+00  0.4736842E+00  0.2631579E+00  0.3499052E-02
      1          2.153247   1.000000
      2          2.358797   1.000000
      3          5.770187   1.034982
      4          7.481822  -0.000000
      5          9.007134  -0.000000
      6         12.776951   0.000000
      7         17.416330   0.000000
 
 -0.4736842E+00 -0.4736842E+00  0.2631579E+00  0.3499052E-02
      1          2.028481   1.000000
      2          2.497338   1.000000
      3          5.751928   1.032684
      4          7.059619  -0.000000
      5          9.609750  -0.000000
      6         13.765747   0.000000
      7         15.706828   0.000000
 
 -0.4210526E+00 -0.4736842E+00  0.2631579E+00  0.6998105E-02
      1          2.057972   1.000000
      2          2.267509   1.000000
      3          5.704930   1.022657
      4          7.874845  -0.000000
      5          9.154866  -0.000000
      6         14.195812   0.000000
      7         16.096233   0.000000
 
 -0.4210526E+00 -0.4210526E+00  0.2631579E+00  0.1166351E-02
      1          2.113121   1.000000
      2          2.113122   1.000000
      3          5.667569   1.014599
      4          8.639963  -0.000000
      5          8.639964  -0.000000
      6         15.662119   0.000000
      7         15.662120   0.000000
 
 -0.3157895E+00  0.3157895E+00  0.3157895E+00  0.8747631E-03
      1          2.561807   1.000000
      2          2.609571   1.000000
      3          6.362845  -0.019395
      4          6.362846  -0.019395
      5          7.816725  -0.000000
      6         10.224463  -0.000000
      7         20.886641   0.000000
 
 -0.3684211E+00  0.3684211E+00  0.3157895E+00  0.3499052E-02
      1          2.253481   1.000000
      2          2.405994   1.000000
      3          6.601439  -0.000186
      4          6.760997  -0.000001
      5          8.413000  -0.000000
      6         11.042338  -0.000000
      7         19.317501   0.000000
 
 -0.4210526E+00  0.4210526E+00  0.3157895E+00  0.3499052E-02
      1          1.997808   1.000000
      2          2.266232   1.000000
      3          6.626504  -0.000094
      4          7.006619  -0.000000
      5          9.148788  -0.000000
      6         12.214407   0.000000
      7         17.567826   0.000000
 
 -0.3684211E+00  0.4210526E+00  0.3157895E+00  0.3499052E-02
      1          1.975061   1.000000
      2          2.169893   1.000000
      3          6.758529  -0.000001
      4          7.378163  -0.000000
      5          8.847925  -0.000000
      6         12.007309   0.000000
      7         18.176148   0.000000
 
 -0.4736842E+00  0.4736842E+00  0.3157895E+00  0.3499052E-02
      1          1.864328   1.000000
      2          2.188798   1.000000
      3          6.613744  -0.000134
      4          7.106439  -0.000000
      5          9.645132  -0.000000
      6         13.541213   0.000000
      7         15.959662   0.000000
 
 -0.4210526E+00  0.4736842E+00  0.3157895E+00  0.6998105E-02
      1          1.806798   1.000000
      2          1.998041   1.000000
      3          6.761907  -0.000001
      4          7.787067  -0.000000
      5          9.304408  -0.000000
      6         13.283584   0.000000
      7         16.669158   0.000000
 
 -0.4736842E+00 -0.4736842E+00  0.3157895E+00  0.3499052E-02
      1          1.750775   1.000000
      2          1.936218   1.000000
      3          6.755221  -0.000002
      4          7.908338  -0.000000
      5          9.517039  -0.000000
      6         14.366427   0.000000
      7         15.488071   0.000000
 
 -0.4210526E+00 -0.4736842E+00  0.3157895E+00  0.3499052E-02
      1          1.740796   1.000000
      2          1.819856   1.000000
      3          6.745624  -0.000002
      4          8.544162  -0.000000
      5          9.176406  -0.000000
      6         14.600589   0.000000
      7         16.082550   0.000000
 
 -0.3684211E+00  0.3684211E+00  0.3684211E+00  0.8747631E-03
      1          1.915040   1.000000
      2          2.104600   1.000000
      3          7.341962  -0.000000
      4          7.341964  -0.000000
      5          8.559137  -0.000000
      6         11.727520   0.000000
      7         18.539175   0.000000
 
 -0.4210526E+00  0.4210526E+00  0.3684211E+00  0.3499052E-02
      1          1.680749   1.000000
      2          1.853244   1.000000
      3          7.641293  -0.000000
      4          7.778481  -0.000000
      5          9.078170  -0.000000
      6         12.724292   0.000000
      7         17.212713   0.000000
 
 -0.4736842E+00  0.4736842E+00  0.3684211E+00  0.3499052E-02
      1          1.569804   1.000000
      2          1.706601   1.000000
      3          7.694771  -0.000000
      4          7.988524  -0.000000
      5          9.555460  -0.000000
      6         13.971680   0.000000
      7         15.753660   0.000000
 
 -0.4210526E+00  0.4736842E+00  0.3684211E+00  0.3499052E-02
      1          1.513546   1.000000
      2          1.622052   1.000000
      3          7.810335  -0.000000
      4          8.479288  -0.000000
      5          9.334242  -0.000000
      6         13.735404   0.000000
      7         16.336416   0.000000
 
 -0.4736842E+00 -0.4736842E+00  0.3684211E+00  0.3499052E-02
      1          1.471358   1.000000
      2          1.526828   1.000000
      3          7.831779  -0.000000
      4          8.777882  -0.000000
      5          9.440363  -0.000000
      6         14.764869   0.000000
      7         15.269047   0.000000
 
 -0.4210526E+00  0.4210526E+00  0.4210526E+00  0.8747631E-03
      1          1.437151   1.000000
      2          1.552995   1.000000
      3          8.456439  -0.000000
      4          8.456442  -0.000000
      5          9.150428  -0.000000
      6         13.397576   0.000000
      7         16.461285   0.000000
 
 -0.4736842E+00  0.4736842E+00  0.4210526E+00  0.3499052E-02
      1          1.324483   1.000000
      2          1.379303   1.000000
      3          8.707939  -0.000000
      4          8.836261  -0.000000
      5          9.491802  -0.000000
      6         14.302861   0.000000
      7         15.448523   0.000000
 
 -0.4736842E+00 -0.4736842E+00  0.4210526E+00  0.1166351E-02
      1          1.277713   1.000000
      2          1.277713   1.000000
      3          8.814280  -0.000000
      4          9.390294  -0.000000
      5          9.390296  -0.000000
      6         14.982920   0.000000
      7         14.982921   0.000000
 
 -0.4736842E+00  0.4736842E+00  0.4736842E+00  0.8747631E-03
      1          1.194095   1.000000
      2          1.209431   1.000000
      3          9.372936  -0.000000
      4          9.372940  -0.000000
      5          9.482000  -0.000000
      6         14.644870   0.000000
      7         15.051103   0.000000
