 vasp.6.4.2 20Jul23 (build Mar  2 2025 11:04:54) complex                         
 executed on              LinuxNV date 2026.04.06  23:43:01
 running    1 mpi-ranks, with    2 threads/rank, on    1 nodes
 distrk:  each k-point on    1 cores,    1 groups
 distr:  one band on NCORE=   1 cores,    1 groups
 OpenACC runtime initialized ...    1 GPUs detected


--------------------------------------------------------------------------------------------------------


 INCAR:
   SYSTEM = FCC Ca EOS
   PREC = Accurate
   ENCUT = 400
   KSPACING = 0.12
   KGAMMA = .TRUE.
   ISMEAR = 1
   SIGMA = 0.2
   EDIFF = 1E-6
   NSW = 0
   ISIF = 2
   IBRION = -1
   LWAVE = .FALSE.
   LCHARG = .FALSE.

 POTCAR:    PAW_PBE Ca_pv 06Sep2000               
 POTCAR:    PAW_PBE Ca_pv 06Sep2000               
   SHA256 =  5cc3b112e325694c46995e507efc6b20df47ddfb672dcbdafb4aa31d8b171ed2 Ca_pv/POTCAR          
   COPYR  = (c) Copyright 06Sep2000 Georg Kresse                                                    
   COPYR  = This file is part of the software VASP. Any use, copying, and all other rights are regul
   COPYR  = If you do not have a valid VASP license, you may not use, copy or distribute this file. 
   VRHFIN =Ca: p6s2d0.01                                                                            
   LEXCH  = PE                                                                                      
   EATOM  =   612.6676 eV,   45.0298 Ry                                                             
                                                                                                    
   TITEL  = PAW_PBE Ca_pv 06Sep2000                                                                 
   LULTRA =        F    use ultrasoft PP ?                                                          
   IUNSCR =        1    unscreen: 0-lin 1-nonlin 2-no                                               
   RPACOR =    2.300    partial core radius                                                         
   POMASS =   40.078; ZVAL   =    8.000    mass and valenz                                          
   RCORE  =    3.000    outmost cutoff radius                                                       
   RWIGS  =    3.300; RWIGS  =    1.746    wigner-seitz radius (au A)                               
   ENMAX  =  119.559; ENMIN  =   89.670 eV                                                          
   RCLOC  =    1.709    cutoff for local pot                                                        
   LCOR   =        T    correct aug charges                                                         
   LPAW   =        T    paw PP                                                                      
   EAUG   =  325.799                                                                                
   DEXC   =    0.000                                                                                
   RMAX   =    3.072    core radius for proj-oper                                                   
   RAUG   =    1.300    factor for augmentation sphere                                              
   RDEP   =    3.090    radius for radial grids                                                     
   RDEPT  =    2.377    core radius for aug-charge                                                  
                                                                                                    
   Atomic configuration                                                                             
    7 entries                                                                                       
     n  l   j            E        occ.                                                              
     1  0  0.50     -3949.1705   2.0000                                                             
     2  0  0.50      -414.3434   2.0000                                                             
     2  1  1.50      -334.7047   6.0000                                                             
     3  0  0.50       -47.0896   2.0000                                                             
     3  1  1.50       -28.0061   6.0000                                                             
     4  0  0.50        -3.7663   2.0000                                                             
     3  2  1.50        -4.0817   0.0000                                                             
   Description                                                                                      
     l       E           TYP  RCUT    TYP  RCUT                                                     
     1    -28.0060855     23  3.000                                                                 
     1      1.3605826     23  3.000                                                                 
     0     -3.7663320     23  3.000                                                                 
     0      4.1207953     23  3.000                                                                 
     2     -4.0817478     23  3.000                                                                 
     2     -0.8716232     23  3.000                                                                 
  local pseudopotential read in
  partial core-charges read in
  partial kinetic energy density read in
  atomic valenz-charges read in
  non local Contribution for L=            1  read in
    real space projection operators read in
  non local Contribution for L=            1  read in
    real space projection operators read in
  non local Contribution for L=            0  read in
    real space projection operators read in
  non local Contribution for L=            0  read in
    real space projection operators read in
  non local Contribution for L=            2  read in
    real space projection operators read in
  non local Contribution for L=            2  read in
    real space projection operators read in
    PAW grid and wavefunctions read in
 
   number of l-projection  operators is LMAX  =            6
   number of lm-projection operators is LMMAX =           18
 
  PAW_PBE Ca_pv 06Sep2000               :
 energy of atom  1       EATOM= -612.6676
 kinetic energy error for atom=    0.0002 (will be added to EATOM!!)
 
 
 POSCAR: Ca1
  positions in direct lattice
  No initial velocities read in
 exchange correlation table for  LEXCH =        8
   RHO(1)=    0.500       N(1)  =     2000
   RHO(2)=  100.500       N(2)  =     4000
 


--------------------------------------------------------------------------------------------------------


 ion  position               nearest neighbor table
   1  0.000  0.000  0.000-
 
  LATTYP: Found a face centered cubic cell.
 ALAT       =     5.2422056639
  
  Lattice vectors:
  
 A1 = (   3.2101831994,  -0.0000000188,   1.8533992502)
 A2 = (   1.0700607312,   3.0265890640,   1.8533992502)
 A3 = (  -0.0000000188,  -0.0000000188,   3.7068004650)


Analysis of symmetry for initial positions (statically):
=====================================================================
 Subroutine PRICEL returns:
 Original cell was already a primitive cell.
 

 Routine SETGRP: Setting up the symmetry group for a 
 face centered cubic supercell.


 Subroutine GETGRP returns: Found 48 space group operations
 (whereof 48 operations were pure point group operations)
 out of a pool of 48 trial point group operations.


The static configuration has the point symmetry O_h .


Analysis of symmetry for dynamics (positions and initial velocities):
=====================================================================
 Subroutine PRICEL returns:
 Original cell was already a primitive cell.
 

 Routine SETGRP: Setting up the symmetry group for a 
 face centered cubic supercell.


 Subroutine GETGRP returns: Found 48 space group operations
 (whereof 48 operations were pure point group operations)
 out of a pool of 48 trial point group operations.


The dynamic configuration has the point symmetry O_h .


 Subroutine INISYM returns: Found 48 space group operations
 (whereof 48 operations are pure point group operations),
 and found     1 'primitive' translations


----------------------------------------------------------------------------------------

                                     Primitive cell                                     

  volume of cell :      36.0149

  direct lattice vectors                    reciprocal lattice vectors
     3.210183199 -0.000000019  1.853399250     0.311508700 -0.110134948  0.000000001
     1.070060731  3.026589064  1.853399250     0.000000001  0.330404946  0.000000002
    -0.000000019 -0.000000019  3.706800465    -0.155754268 -0.110134941  0.269774433

  length of vectors
     3.706799827  3.706799173  3.706800465     0.330404868  0.330404946  0.330404815

  position of ions in fractional coordinates (direct lattice)
     0.000000000  0.000000000  0.000000000

  ion indices of the primitive-cell ions
   primitive index   ion index
                 1           1

----------------------------------------------------------------------------------------

 
 -----------------------------------------------------------------------------
|                                                                             |
|           W    W    AA    RRRRR   N    N  II  N    N   GGGG   !!!           |
|           W    W   A  A   R    R  NN   N  II  NN   N  G    G  !!!           |
|           W    W  A    A  R    R  N N  N  II  N N  N  G       !!!           |
|           W WW W  AAAAAA  RRRRR   N  N N  II  N  N N  G  GGG   !            |
|           WW  WW  A    A  R   R   N   NN  II  N   NN  G    G                |
|           W    W  A    A  R    R  N    N  II  N    N   GGGG   !!!           |
|                                                                             |
|     The requested file  could not be found or opened for reading            |
|     k-point information. Automatic k-point generation is used as a          |
|     fallback, which may lead to unwanted results.                           |
|                                                                             |
 -----------------------------------------------------------------------------

 

Automatic generation of k-mesh.
 Grid dimensions derived from KSPACING:
 generate k-points for:   18   18   18

 Generating k-lattice:

  Cartesian coordinates                     Fractional coordinates (reciprocal lattice)
     0.017306039 -0.006118608  0.000000000     0.055555556 -0.000000000 -0.000000000
     0.000000000  0.018355830  0.000000000    -0.000000000  0.055555556 -0.000000000
    -0.008653015 -0.006118608  0.014987469     0.000000000  0.000000000  0.055555556

  Length of vectors
     0.018355826  0.018355830  0.018355823

  Shift w.r.t. Gamma in fractional coordinates (k-lattice)
     0.000000000  0.000000000  0.000000000

 
 Subroutine IBZKPT returns following result:
 ===========================================
 
 Found    195 irreducible k-points:
 
 Following reciprocal coordinates:
            Coordinates               Weight
  0.000000  0.000000  0.000000      1.000000
  0.055556  0.000000  0.000000      8.000000
  0.111111  0.000000  0.000000      8.000000
  0.166667  0.000000  0.000000      8.000000
  0.222222  0.000000  0.000000      8.000000
  0.277778  0.000000  0.000000      8.000000
  0.333333  0.000000  0.000000      8.000000
  0.388889  0.000000  0.000000      8.000000
  0.444444  0.000000  0.000000      8.000000
  0.500000  0.000000  0.000000      4.000000
  0.055556  0.055556  0.000000      6.000000
  0.111111  0.055556  0.000000     24.000000
  0.166667  0.055556  0.000000     24.000000
  0.222222  0.055556  0.000000     24.000000
  0.277778  0.055556  0.000000     24.000000
  0.333333  0.055556  0.000000     24.000000
  0.388889  0.055556  0.000000     24.000000
  0.444444  0.055556  0.000000     24.000000
  0.500000  0.055556  0.000000     24.000000
 -0.444444  0.055556  0.000000     24.000000
 -0.388889  0.055556  0.000000     24.000000
 -0.333333  0.055556  0.000000     24.000000
 -0.277778  0.055556  0.000000     24.000000
 -0.222222  0.055556  0.000000     24.000000
 -0.166667  0.055556  0.000000     24.000000
 -0.111111  0.055556  0.000000     24.000000
 -0.055556  0.055556  0.000000     12.000000
  0.111111  0.111111  0.000000      6.000000
  0.166667  0.111111  0.000000     24.000000
  0.222222  0.111111  0.000000     24.000000
  0.277778  0.111111  0.000000     24.000000
  0.333333  0.111111  0.000000     24.000000
  0.388889  0.111111  0.000000     24.000000
  0.444444  0.111111  0.000000     24.000000
  0.500000  0.111111  0.000000     24.000000
 -0.444444  0.111111  0.000000     24.000000
 -0.388889  0.111111  0.000000     24.000000
 -0.333333  0.111111  0.000000     24.000000
 -0.277778  0.111111  0.000000     24.000000
 -0.222222  0.111111  0.000000     24.000000
 -0.166667  0.111111  0.000000     24.000000
 -0.111111  0.111111  0.000000     12.000000
  0.166667  0.166667  0.000000      6.000000
  0.222222  0.166667  0.000000     24.000000
  0.277778  0.166667  0.000000     24.000000
  0.333333  0.166667  0.000000     24.000000
  0.388889  0.166667  0.000000     24.000000
  0.444444  0.166667  0.000000     24.000000
  0.500000  0.166667  0.000000     24.000000
 -0.444444  0.166667  0.000000     24.000000
 -0.388889  0.166667  0.000000     24.000000
 -0.333333  0.166667  0.000000     24.000000
 -0.277778  0.166667  0.000000     24.000000
 -0.222222  0.166667  0.000000     24.000000
 -0.166667  0.166667  0.000000     12.000000
  0.222222  0.222222  0.000000      6.000000
  0.277778  0.222222  0.000000     24.000000
  0.333333  0.222222  0.000000     24.000000
  0.388889  0.222222  0.000000     24.000000
  0.444444  0.222222  0.000000     24.000000
  0.500000  0.222222  0.000000     24.000000
 -0.444444  0.222222  0.000000     24.000000
 -0.388889  0.222222  0.000000     24.000000
 -0.333333  0.222222  0.000000     24.000000
 -0.277778  0.222222  0.000000     24.000000
 -0.222222  0.222222  0.000000     12.000000
  0.277778  0.277778  0.000000      6.000000
  0.333333  0.277778  0.000000     24.000000
  0.388889  0.277778  0.000000     24.000000
  0.444444  0.277778  0.000000     24.000000
  0.500000  0.277778  0.000000     24.000000
 -0.444444  0.277778  0.000000     24.000000
 -0.388889  0.277778  0.000000     24.000000
 -0.333333  0.277778  0.000000     24.000000
 -0.277778  0.277778  0.000000     12.000000
  0.333333  0.333333  0.000000      6.000000
  0.388889  0.333333  0.000000     24.000000
  0.444444  0.333333  0.000000     24.000000
  0.500000  0.333333  0.000000     24.000000
 -0.444444  0.333333  0.000000     24.000000
 -0.388889  0.333333  0.000000     24.000000
 -0.333333  0.333333  0.000000     12.000000
  0.388889  0.388889  0.000000      6.000000
  0.444444  0.388889  0.000000     24.000000
  0.500000  0.388889  0.000000     24.000000
 -0.444444  0.388889  0.000000     24.000000
 -0.388889  0.388889  0.000000     12.000000
  0.444444  0.444444  0.000000      6.000000
  0.500000  0.444444  0.000000     24.000000
 -0.444444  0.444444  0.000000     12.000000
  0.500000  0.500000  0.000000      3.000000
  0.166667  0.111111  0.055556     24.000000
  0.222222  0.111111  0.055556     48.000000
  0.277778  0.111111  0.055556     48.000000
  0.333333  0.111111  0.055556     48.000000
  0.388889  0.111111  0.055556     48.000000
  0.444444  0.111111  0.055556     48.000000
  0.500000  0.111111  0.055556     48.000000
 -0.444444  0.111111  0.055556     24.000000
  0.222222  0.166667  0.055556     24.000000
  0.277778  0.166667  0.055556     48.000000
  0.333333  0.166667  0.055556     48.000000
  0.388889  0.166667  0.055556     48.000000
  0.444444  0.166667  0.055556     48.000000
  0.500000  0.166667  0.055556     48.000000
 -0.444444  0.166667  0.055556     48.000000
 -0.388889  0.166667  0.055556     48.000000
 -0.333333  0.166667  0.055556     48.000000
 -0.277778  0.166667  0.055556     48.000000
 -0.222222  0.166667  0.055556     48.000000
 -0.166667  0.166667  0.055556     48.000000
 -0.111111  0.166667  0.055556     24.000000
  0.277778  0.222222  0.055556     24.000000
  0.333333  0.222222  0.055556     48.000000
  0.388889  0.222222  0.055556     48.000000
  0.444444  0.222222  0.055556     48.000000
  0.500000  0.222222  0.055556     48.000000
 -0.444444  0.222222  0.055556     48.000000
 -0.388889  0.222222  0.055556     48.000000
 -0.333333  0.222222  0.055556     48.000000
 -0.277778  0.222222  0.055556     48.000000
 -0.222222  0.222222  0.055556     48.000000
 -0.166667  0.222222  0.055556     24.000000
  0.333333  0.277778  0.055556     24.000000
  0.388889  0.277778  0.055556     48.000000
  0.444444  0.277778  0.055556     48.000000
  0.500000  0.277778  0.055556     48.000000
 -0.444444  0.277778  0.055556     48.000000
 -0.388889  0.277778  0.055556     48.000000
 -0.333333  0.277778  0.055556     48.000000
 -0.277778  0.277778  0.055556     48.000000
 -0.222222  0.277778  0.055556     24.000000
  0.388889  0.333333  0.055556     24.000000
  0.444444  0.333333  0.055556     48.000000
  0.500000  0.333333  0.055556     48.000000
 -0.444444  0.333333  0.055556     48.000000
 -0.388889  0.333333  0.055556     48.000000
 -0.333333  0.333333  0.055556     48.000000
 -0.277778  0.333333  0.055556     24.000000
  0.444444  0.388889  0.055556     24.000000
  0.500000  0.388889  0.055556     48.000000
 -0.444444  0.388889  0.055556     48.000000
 -0.388889  0.388889  0.055556     48.000000
 -0.333333  0.388889  0.055556     24.000000
  0.500000  0.444444  0.055556     24.000000
 -0.444444  0.444444  0.055556     48.000000
 -0.388889  0.444444  0.055556     24.000000
 -0.444444  0.500000  0.055556     12.000000
  0.333333  0.222222  0.111111     24.000000
  0.388889  0.222222  0.111111     48.000000
  0.444444  0.222222  0.111111     48.000000
  0.500000  0.222222  0.111111     48.000000
 -0.444444  0.222222  0.111111     48.000000
 -0.388889  0.222222  0.111111     24.000000
  0.388889  0.277778  0.111111     24.000000
  0.444444  0.277778  0.111111     48.000000
  0.500000  0.277778  0.111111     48.000000
 -0.444444  0.277778  0.111111     48.000000
 -0.388889  0.277778  0.111111     48.000000
 -0.333333  0.277778  0.111111     48.000000
 -0.277778  0.277778  0.111111     48.000000
 -0.222222  0.277778  0.111111     48.000000
 -0.166667  0.277778  0.111111     24.000000
  0.444444  0.333333  0.111111     24.000000
  0.500000  0.333333  0.111111     48.000000
 -0.444444  0.333333  0.111111     48.000000
 -0.388889  0.333333  0.111111     48.000000
 -0.333333  0.333333  0.111111     48.000000
 -0.277778  0.333333  0.111111     48.000000
 -0.222222  0.333333  0.111111     24.000000
  0.500000  0.388889  0.111111     24.000000
 -0.444444  0.388889  0.111111     48.000000
 -0.388889  0.388889  0.111111     48.000000
 -0.333333  0.388889  0.111111     48.000000
 -0.277778  0.388889  0.111111     24.000000
 -0.444444  0.444444  0.111111     24.000000
 -0.388889  0.444444  0.111111     48.000000
 -0.333333  0.444444  0.111111     24.000000
 -0.388889  0.500000  0.111111     12.000000
  0.500000  0.333333  0.166667     24.000000
 -0.444444  0.333333  0.166667     48.000000
 -0.388889  0.333333  0.166667     48.000000
 -0.333333  0.333333  0.166667     24.000000
 -0.444444  0.388889  0.166667     24.000000
 -0.388889  0.388889  0.166667     48.000000
 -0.333333  0.388889  0.166667     48.000000
 -0.277778  0.388889  0.166667     48.000000
 -0.222222  0.388889  0.166667     24.000000
 -0.388889  0.444444  0.166667     24.000000
 -0.333333  0.444444  0.166667     48.000000
 -0.277778  0.444444  0.166667     24.000000
 -0.333333  0.500000  0.166667     12.000000
 -0.333333  0.444444  0.222222     24.000000
 -0.277778  0.444444  0.222222     24.000000
 -0.277778  0.500000  0.222222     12.000000
 
 Following cartesian coordinates:
            Coordinates               Weight
  0.000000  0.000000  0.000000      1.000000
  0.016268 -0.005751  0.000000      8.000000
  0.032535 -0.011503  0.000000      8.000000
  0.048803 -0.017254  0.000000      8.000000
  0.065071 -0.023006  0.000000      8.000000
  0.081338 -0.028757  0.000000      8.000000
  0.097606 -0.034509  0.000000      8.000000
  0.113874 -0.040260  0.000000      8.000000
  0.130141 -0.046012  0.000000      8.000000
  0.146409 -0.051763  0.000000      4.000000
  0.016268  0.011503  0.000000      6.000000
  0.032535  0.005751  0.000000     24.000000
  0.048803  0.000000  0.000000     24.000000
  0.065071 -0.005751  0.000000     24.000000
  0.081338 -0.011503  0.000000     24.000000
  0.097606 -0.017254  0.000000     24.000000
  0.113874 -0.023006  0.000000     24.000000
  0.130141 -0.028757  0.000000     24.000000
  0.146409 -0.034509  0.000000     24.000000
 -0.130141  0.063266 -0.000000     24.000000
 -0.113874  0.057515 -0.000000     24.000000
 -0.097606  0.051763 -0.000000     24.000000
 -0.081338  0.046012 -0.000000     24.000000
 -0.065071  0.040260 -0.000000     24.000000
 -0.048803  0.034509 -0.000000     24.000000
 -0.032535  0.028757 -0.000000     24.000000
 -0.016268  0.023006  0.000000     12.000000
  0.032535  0.023006  0.000000      6.000000
  0.048803  0.017254  0.000000     24.000000
  0.065071  0.011503  0.000000     24.000000
  0.081338  0.005752  0.000000     24.000000
  0.097606  0.000000  0.000000     24.000000
  0.113874 -0.005751  0.000000     24.000000
  0.130141 -0.011503  0.000000     24.000000
  0.146409 -0.017254  0.000000     24.000000
 -0.130141  0.080521 -0.000000     24.000000
 -0.113874  0.074769 -0.000000     24.000000
 -0.097606  0.069018 -0.000000     24.000000
 -0.081338  0.063266 -0.000000     24.000000
 -0.065071  0.057515 -0.000000     24.000000
 -0.048803  0.051763  0.000000     24.000000
 -0.032535  0.046012  0.000000     12.000000
  0.048803  0.034509  0.000000      6.000000
  0.065071  0.028757  0.000000     24.000000
  0.081338  0.023006  0.000000     24.000000
  0.097606  0.017254  0.000000     24.000000
  0.113874  0.011503  0.000000     24.000000
  0.130141  0.005752  0.000000     24.000000
  0.146409  0.000000  0.000000     24.000000
 -0.130141  0.097775 -0.000000     24.000000
 -0.113874  0.092024 -0.000000     24.000000
 -0.097606  0.086272 -0.000000     24.000000
 -0.081338  0.080521 -0.000000     24.000000
 -0.065071  0.074769  0.000000     24.000000
 -0.048803  0.069018  0.000000     12.000000
  0.065071  0.046012  0.000000      6.000000
  0.081338  0.040260  0.000000     24.000000
  0.097606  0.034509  0.000000     24.000000
  0.113874  0.028757  0.000000     24.000000
  0.130141  0.023006  0.000000     24.000000
  0.146409  0.017254  0.000000     24.000000
 -0.130141  0.115030 -0.000000     24.000000
 -0.113874  0.109278 -0.000000     24.000000
 -0.097606  0.103527  0.000000     24.000000
 -0.081338  0.097775  0.000000     24.000000
 -0.065071  0.092024  0.000000     12.000000
  0.081338  0.057515  0.000000      6.000000
  0.097606  0.051763  0.000000     24.000000
  0.113874  0.046012  0.000000     24.000000
  0.130141  0.040260  0.000000     24.000000
  0.146409  0.034509  0.000000     24.000000
 -0.130141  0.132284  0.000000     24.000000
 -0.113874  0.126533  0.000000     24.000000
 -0.097606  0.120781  0.000000     24.000000
 -0.081338  0.115030  0.000000     12.000000
  0.097606  0.069018  0.000000      6.000000
  0.113874  0.063266  0.000000     24.000000
  0.130141  0.057515  0.000000     24.000000
  0.146409  0.051763  0.000000     24.000000
 -0.130141  0.149539  0.000000     24.000000
 -0.113874  0.143787  0.000000     24.000000
 -0.097606  0.138036  0.000000     12.000000
  0.113874  0.080521  0.000000      6.000000
  0.130141  0.074769  0.000000     24.000000
  0.146409  0.069018  0.000000     24.000000
 -0.130141  0.166793  0.000000     24.000000
 -0.113874  0.161042  0.000000     12.000000
  0.130141  0.092024  0.000000      6.000000
  0.146409  0.086272  0.000000     24.000000
 -0.130141  0.184048  0.000000     12.000000
  0.146409  0.103527  0.000000      3.000000
  0.040669  0.011503  0.014088     24.000000
  0.056937  0.005752  0.014088     48.000000
  0.073205  0.000000  0.014088     48.000000
  0.089472 -0.005751  0.014088     48.000000
  0.105740 -0.011503  0.014088     48.000000
  0.122008 -0.017254  0.014088     48.000000
  0.138275 -0.023006  0.014088     48.000000
 -0.138275  0.074769  0.014088     24.000000
  0.056937  0.023006  0.014088     24.000000
  0.073205  0.017254  0.014088     48.000000
  0.089472  0.011503  0.014088     48.000000
  0.105740  0.005752  0.014088     48.000000
  0.122008  0.000000  0.014088     48.000000
  0.138275 -0.005751  0.014088     48.000000
 -0.138275  0.092024  0.014088     48.000000
 -0.122008  0.086272  0.014088     48.000000
 -0.105740  0.080521  0.014088     48.000000
 -0.089472  0.074769  0.014088     48.000000
 -0.073205  0.069018  0.014088     48.000000
 -0.056937  0.063266  0.014088     48.000000
 -0.040669  0.057515  0.014088     24.000000
  0.073205  0.034509  0.014088     24.000000
  0.089472  0.028757  0.014088     48.000000
  0.105740  0.023006  0.014088     48.000000
  0.122008  0.017254  0.014088     48.000000
  0.138275  0.011503  0.014088     48.000000
 -0.138275  0.109278  0.014088     48.000000
 -0.122008  0.103527  0.014088     48.000000
 -0.105740  0.097775  0.014088     48.000000
 -0.089472  0.092024  0.014088     48.000000
 -0.073205  0.086272  0.014088     48.000000
 -0.056937  0.080521  0.014088     24.000000
  0.089472  0.046012  0.014088     24.000000
  0.105740  0.040260  0.014088     48.000000
  0.122008  0.034509  0.014088     48.000000
  0.138275  0.028757  0.014088     48.000000
 -0.138275  0.126533  0.014088     48.000000
 -0.122008  0.120781  0.014088     48.000000
 -0.105740  0.115030  0.014088     48.000000
 -0.089472  0.109278  0.014088     48.000000
 -0.073205  0.103527  0.014088     24.000000
  0.105740  0.057515  0.014088     24.000000
  0.122008  0.051763  0.014088     48.000000
  0.138275  0.046012  0.014088     48.000000
 -0.138275  0.143787  0.014088     48.000000
 -0.122008  0.138036  0.014088     48.000000
 -0.105740  0.132284  0.014088     48.000000
 -0.089472  0.126533  0.014088     24.000000
  0.122008  0.069018  0.014088     24.000000
  0.138275  0.063266  0.014088     48.000000
 -0.138275  0.161042  0.014088     48.000000
 -0.122008  0.155290  0.014088     48.000000
 -0.105740  0.149539  0.014088     24.000000
  0.138275  0.080521  0.014088     24.000000
 -0.138275  0.178296  0.014088     48.000000
 -0.122008  0.172545  0.014088     24.000000
 -0.138275  0.195551  0.014088     12.000000
  0.081338  0.023006  0.028176     24.000000
  0.097606  0.017254  0.028176     48.000000
  0.113874  0.011503  0.028176     48.000000
  0.130141  0.005752  0.028176     48.000000
 -0.146409  0.103527  0.028176     48.000000
 -0.130141  0.097775  0.028176     24.000000
  0.097606  0.034509  0.028176     24.000000
  0.113874  0.028757  0.028176     48.000000
  0.130141  0.023006  0.028176     48.000000
 -0.146409  0.120781  0.028176     48.000000
 -0.130141  0.115030  0.028176     48.000000
 -0.113874  0.109278  0.028176     48.000000
 -0.097606  0.103527  0.028176     48.000000
 -0.081338  0.097775  0.028176     48.000000
 -0.065071  0.092024  0.028176     24.000000
  0.113874  0.046012  0.028176     24.000000
  0.130141  0.040260  0.028176     48.000000
 -0.146409  0.138036  0.028176     48.000000
 -0.130141  0.132284  0.028176     48.000000
 -0.113874  0.126533  0.028176     48.000000
 -0.097606  0.120781  0.028176     48.000000
 -0.081338  0.115030  0.028176     24.000000
  0.130141  0.057515  0.028176     24.000000
 -0.146409  0.155290  0.028176     48.000000
 -0.130141  0.149539  0.028176     48.000000
 -0.113874  0.143787  0.028176     48.000000
 -0.097606  0.138036  0.028176     24.000000
 -0.146409  0.172545  0.028176     24.000000
 -0.130141  0.166793  0.028176     48.000000
 -0.113874  0.161042  0.028176     24.000000
 -0.130141  0.184048  0.028176     12.000000
  0.122008  0.034509  0.042265     24.000000
 -0.154543  0.132284  0.042265     48.000000
 -0.138275  0.126533  0.042265     48.000000
 -0.122008  0.120781  0.042265     24.000000
 -0.154543  0.149539  0.042265     24.000000
 -0.138275  0.143787  0.042265     48.000000
 -0.122008  0.138036  0.042265     48.000000
 -0.105740  0.132284  0.042265     48.000000
 -0.089472  0.126533  0.042265     24.000000
 -0.138275  0.161042  0.042265     24.000000
 -0.122008  0.155290  0.042265     48.000000
 -0.105740  0.149539  0.042265     24.000000
 -0.122008  0.172545  0.042265     12.000000
 -0.130141  0.149539  0.056353     24.000000
 -0.113874  0.143787  0.056353     24.000000
 -0.113874  0.161042  0.056353     12.000000
 


--------------------------------------------------------------------------------------------------------




 Dimension of arrays:
   k-points           NKPTS =    195   k-points in BZ     NKDIM =    195   number of bands    NBANDS=      8
   number of dos      NEDOS =    301   number of ions     NIONS =      1
   non local maximal  LDIM  =      6   non local SUM 2l+1 LMDIM =     18
   total plane-waves  NPLWV =  13824
   max r-space proj   IRMAX =      1   max aug-charges    IRDMAX=  27083
   dimension x,y,z NGX =    24 NGY =   24 NGZ =   24
   dimension x,y,z NGXF=    48 NGYF=   48 NGZF=   48
   support grid    NGXF=    48 NGYF=   48 NGZF=   48
   ions per type =               1
   NGX,Y,Z   is equivalent  to a cutoff of  10.76, 10.76, 10.76 a.u.
   NGXF,Y,Z  is equivalent  to a cutoff of  21.53, 21.53, 21.53 a.u.

 SYSTEM =  FCC Ca EOS                              
 POSCAR =  Ca1                                     

 Startparameter for this run:
   NWRITE =      2    write-flag & timer
   PREC   = accura    normal or accurate (medium, high low for compatibility)
   ISTART =      0    job   : 0-new  1-cont  2-samecut
   ICHARG =      2    charge: 1-file 2-atom 10-const
   ISPIN  =      1    spin polarized calculation?
   LNONCOLLINEAR =      F non collinear calculations
   LSORBIT =      F    spin-orbit coupling
   INIWAV =      1    electr: 0-lowe 1-rand  2-diag
   LASPH  =      F    aspherical Exc in radial PAW
 Electronic Relaxation 1
   ENCUT  =  400.0 eV  29.40 Ry    5.42 a.u.   6.04  6.04  6.04*2*pi/ulx,y,z
   ENINI  =  400.0     initial cutoff
   ENAUG  =  325.8 eV  augmentation charge cutoff
   NELM   =     60;   NELMIN=  2; NELMDL= -5     # of ELM steps 
   EDIFF  = 0.1E-05   stopping-criterion for ELM
   LREAL  =      F    real-space projection
   NLSPLINE    = F    spline interpolate recip. space projectors
   LCOMPAT=      F    compatible to vasp.4.4
   GGA_COMPAT  = T    GGA compatible to vasp.4.4-vasp.4.6
   LMAXPAW     = -100 max onsite density
   LMAXMIX     =    2 max onsite mixed and CHGCAR
   VOSKOWN=      0    Vosko Wilk Nusair interpolation
   ROPT   =    0.00000
 Ionic relaxation
   EDIFFG = 0.1E-04   stopping-criterion for IOM
   NSW    =      0    number of steps for IOM
   NBLOCK =      1;   KBLOCK =      1    inner block; outer block 
   IBRION =     -1    ionic relax: 0-MD 1-quasi-New 2-CG
   NFREE  =      0    steps in history (QN), initial steepest desc. (CG)
   ISIF   =      2    stress and relaxation
   IWAVPR =     10    prediction:  0-non 1-charg 2-wave 3-comb
   ISYM   =      2    0-nonsym 1-usesym 2-fastsym
   LCORR  =      T    Harris-Foulkes like correction to forces

   POTIM  = 0.5000    time-step for ionic-motion
   TEIN   =    0.0    initial temperature
   TEBEG  =    0.0;   TEEND  =   0.0 temperature during run
   SMASS  =  -3.00    Nose mass-parameter (am)
   estimated Nose-frequenzy (Omega)   =  0.10E-29 period in steps = 0.13E+47 mass=  -0.314E-27a.u.
   SCALEE = 1.0000    scale energy and forces
   NPACO  =    256;   APACO  = 10.0  distance and # of slots for P.C.
   PSTRESS=    0.0 pullay stress

  Mass of Ions in am
   POMASS =  40.08
  Ionic Valenz
   ZVAL   =   8.00
  Atomic Wigner-Seitz radii
   RWIGS  =  -1.00
  virtual crystal weights 
   VCA    =   1.00
   NELECT =       8.0000    total number of electrons
   NUPDOWN=      -1.0000    fix difference up-down

 DOS related values:
   EMIN   =  10.00;   EMAX   =-10.00  energy-range for DOS
   EFERMI =   0.00;   METHOD = LEGACY      
   ISMEAR =     1;   SIGMA  =   0.20  broadening in eV -4-tet -1-fermi 0-gaus

 Electronic relaxation 2 (details)
   IALGO  =     38    algorithm
   LDIAG  =      T    sub-space diagonalisation (order eigenvalues)
   LSUBROT=      F    optimize rotation matrix (better conditioning)
   TURBO    =      0    0=normal 1=particle mesh
   IRESTART =      0    0=no restart 2=restart with 2 vectors
   NREBOOT  =      0    no. of reboots
   NMIN     =      0    reboot dimension
   EREF     =   0.00    reference energy to select bands
   IMIX   =      4    mixing-type and parameters
     AMIX     =   0.40;   BMIX     =  1.00
     AMIX_MAG =   1.60;   BMIX_MAG =  1.00
     AMIN     =   0.10
     WC   =   100.;   INIMIX=   1;  MIXPRE=   1;  MAXMIX= -45

 Intra band minimization:
   WEIMIN = 0.0000     energy-eigenvalue tresh-hold
   EBREAK =  0.31E-07  absolut break condition
   DEPER  =   0.30     relativ break condition  

   TIME   =   0.40     timestep for ELM

  volume/ion in A,a.u.               =      36.01       243.04
  Fermi-wavevector in a.u.,A,eV,Ry     =   0.991465  1.873597 13.374562  0.983003
  Thomas-Fermi vector in A             =   2.123208
 
 Write flags
   LWAVE        =      F    write WAVECAR
   LDOWNSAMPLE  =      F    k-point downsampling of WAVECAR
   LCHARG       =      F    write CHGCAR
   LVTOT        =      F    write LOCPOT, total local potential
   LVHAR        =      F    write LOCPOT, Hartree potential only
   LELF         =      F    write electronic localiz. function (ELF)
   LORBIT       =      0    0 simple, 1 ext, 2 COOP (PROOUT), +10 PAW based schemes


 Dipole corrections
   LMONO  =      F    monopole corrections only (constant potential shift)
   LDIPOL =      F    correct potential (dipole corrections)
   IDIPOL =      0    1-x, 2-y, 3-z, 4-all directions 
   EPSILON=  1.0000000 bulk dielectric constant

 Exchange correlation treatment:
   GGA     =    --    GGA type
   LEXCH   =     8    internal setting for exchange type
   LIBXC   =     F    Libxc                    
   VOSKOWN =     0    Vosko Wilk Nusair interpolation
   LHFCALC =     F    Hartree Fock is set to
   LHFONE  =     F    Hartree Fock one center treatment
   AEXX    =    0.0000 exact exchange contribution

 Linear response parameters
   LEPSILON=     F    determine dielectric tensor
   LRPA    =     F    only Hartree local field effects (RPA)
   LNABLA  =     F    use nabla operator in PAW spheres
   LVEL    =     F    velocity operator in full k-point grid
   CSHIFT  =0.1000    complex shift for real part using Kramers Kronig
   OMEGAMAX=  -1.0    maximum frequency
   DEG_THRESHOLD= 0.2000000E-02 threshold for treating states as degnerate
   RTIME   =   -0.100 relaxation time in fs
  (WPLASMAI=    0.000 imaginary part of plasma frequency in eV, 0.658/RTIME)
   DFIELD  = 0.0000000 0.0000000 0.0000000 field for delta impulse in time
 
  Optional k-point grid parameters
   LKPOINTS_OPT  =     F    use optional k-point grid
   KPOINTS_OPT_MODE=     1    mode for optional k-point grid
 
 Orbital magnetization related:
   ORBITALMAG=     F  switch on orbital magnetization
   LCHIMAG   =     F  perturbation theory with respect to B field
   DQ        =  0.001000  dq finite difference perturbation B field
   LLRAUG    =     F  two centre corrections for induced B field
   LBONE     =     F  B-component reconstruction in AE one-centre
   LVGVCALC  =     T  calculate vGv susceptibility
   LVGVAPPL  =     F  apply vGv susceptibility instead of pGv for G=0

 Random number generation:
   RANDOM_GENERATOR = DEFAULT
   PCG_SEED         = not used


--------------------------------------------------------------------------------------------------------


 Static calculation
 charge density and potential will be updated during run
 non-spin polarized calculation
 Variant of blocked Davidson
 Davidson routine will perform the subspace rotation
 perform sub-space diagonalisation
    after iterative eigenvector-optimisation
 modified Broyden-mixing scheme, WC =      100.0
 initial mixing is a Kerker type mixing with AMIX =  0.4000 and BMIX =      1.0000
 Hartree-type preconditioning will be used
 using additional bands             4
 reciprocal scheme for non local part
 use partial core corrections
 calculate Harris-corrections to forces 
   (improved forces if not selfconsistent)
 use gradient corrections 
 use of overlap-Matrix (Vanderbilt PP)
 Methfessel and Paxton  Order N= 1 SIGMA  =   0.20


--------------------------------------------------------------------------------------------------------


  energy-cutoff  :      400.00
  volume of cell :       36.01
      direct lattice vectors                 reciprocal lattice vectors
     3.210183199 -0.000000019  1.853399250     0.311508700 -0.110134948  0.000000001
     1.070060731  3.026589064  1.853399250     0.000000001  0.330404946  0.000000002
    -0.000000019 -0.000000019  3.706800465    -0.155754268 -0.110134941  0.269774433

  length of vectors
     3.706799827  3.706799173  3.706800465     0.330404868  0.330404946  0.330404815


 
 k-points in units of 2pi/SCALE and weight: read from INCAR                         
   0.00000000  0.00000000  0.00000000       0.000
   0.01626768 -0.00575149  0.00000000       0.001
   0.03253535 -0.01150298  0.00000000       0.001
   0.04880303 -0.01725448  0.00000000       0.001
   0.06507071 -0.02300597  0.00000000       0.001
   0.08133838 -0.02875746  0.00000000       0.001
   0.09760606 -0.03450895  0.00000000       0.001
   0.11387374 -0.04026044  0.00000000       0.001
   0.13014141 -0.04601193  0.00000000       0.001
   0.14640909 -0.05176343  0.00000000       0.001
   0.01626768  0.01150299  0.00000000       0.001
   0.03253535  0.00575150  0.00000000       0.004
   0.04880303  0.00000001  0.00000000       0.004
   0.06507071 -0.00575149  0.00000000       0.004
   0.08133838 -0.01150298  0.00000000       0.004
   0.09760606 -0.01725447  0.00000000       0.004
   0.11387374 -0.02300596  0.00000000       0.004
   0.13014141 -0.02875745  0.00000000       0.004
   0.14640909 -0.03450895  0.00000000       0.004
  -0.13014141  0.06326641 -0.00000000       0.004
  -0.11387374  0.05751492 -0.00000000       0.004
  -0.09760606  0.05176343 -0.00000000       0.004
  -0.08133838  0.04601194 -0.00000000       0.004
  -0.06507071  0.04026045 -0.00000000       0.004
  -0.04880303  0.03450896 -0.00000000       0.004
  -0.03253535  0.02875746 -0.00000000       0.004
  -0.01626768  0.02300597  0.00000000       0.002
   0.03253535  0.02300598  0.00000000       0.001
   0.04880303  0.01725449  0.00000000       0.004
   0.06507071  0.01150299  0.00000000       0.004
   0.08133838  0.00575150  0.00000000       0.004
   0.09760606  0.00000001  0.00000000       0.004
   0.11387374 -0.00575148  0.00000000       0.004
   0.13014141 -0.01150297  0.00000000       0.004
   0.14640909 -0.01725446  0.00000000       0.004
  -0.13014141  0.08052089 -0.00000000       0.004
  -0.11387374  0.07476940 -0.00000000       0.004
  -0.09760606  0.06901791 -0.00000000       0.004
  -0.08133838  0.06326642 -0.00000000       0.004
  -0.06507071  0.05751493 -0.00000000       0.004
  -0.04880303  0.05176344  0.00000000       0.004
  -0.03253535  0.04601194  0.00000000       0.002
   0.04880303  0.03450897  0.00000000       0.001
   0.06507071  0.02875747  0.00000000       0.004
   0.08133838  0.02300598  0.00000000       0.004
   0.09760606  0.01725449  0.00000000       0.004
   0.11387374  0.01150300  0.00000000       0.004
   0.13014141  0.00575151  0.00000000       0.004
   0.14640909  0.00000002  0.00000000       0.004
  -0.13014141  0.09777538 -0.00000000       0.004
  -0.11387374  0.09202388 -0.00000000       0.004
  -0.09760606  0.08627239 -0.00000000       0.004
  -0.08133838  0.08052090 -0.00000000       0.004
  -0.06507071  0.07476941  0.00000000       0.004
  -0.04880303  0.06901792  0.00000000       0.002
   0.06507071  0.04601196  0.00000000       0.001
   0.08133838  0.04026046  0.00000000       0.004
   0.09760606  0.03450897  0.00000000       0.004
   0.11387374  0.02875748  0.00000000       0.004
   0.13014141  0.02300599  0.00000000       0.004
   0.14640909  0.01725450  0.00000000       0.004
  -0.13014141  0.11502986 -0.00000000       0.004
  -0.11387374  0.10927836 -0.00000000       0.004
  -0.09760606  0.10352687  0.00000000       0.004
  -0.08133838  0.09777538  0.00000000       0.004
  -0.06507071  0.09202389  0.00000000       0.002
   0.08133838  0.05751494  0.00000000       0.001
   0.09760606  0.05176345  0.00000000       0.004
   0.11387374  0.04601196  0.00000000       0.004
   0.13014141  0.04026047  0.00000000       0.004
   0.14640909  0.03450898  0.00000000       0.004
  -0.13014141  0.13228434  0.00000000       0.004
  -0.11387374  0.12653284  0.00000000       0.004
  -0.09760606  0.12078135  0.00000000       0.004
  -0.08133838  0.11502986  0.00000000       0.002
   0.09760606  0.06901793  0.00000000       0.001
   0.11387374  0.06326644  0.00000000       0.004
   0.13014141  0.05751495  0.00000000       0.004
   0.14640909  0.05176346  0.00000000       0.004
  -0.13014141  0.14953882  0.00000000       0.004
  -0.11387374  0.14378733  0.00000000       0.004
  -0.09760606  0.13803583  0.00000000       0.002
   0.11387374  0.08052092  0.00000000       0.001
   0.13014141  0.07476943  0.00000000       0.004
   0.14640909  0.06901794  0.00000000       0.004
  -0.13014141  0.16679330  0.00000000       0.004
  -0.11387374  0.16104181  0.00000000       0.002
   0.13014141  0.09202391  0.00000000       0.001
   0.14640909  0.08627242  0.00000000       0.004
  -0.13014141  0.18404778  0.00000000       0.002
   0.14640909  0.10352690  0.00000000       0.001
   0.04066920  0.01150299  0.01408822       0.004
   0.05693687  0.00575150  0.01408822       0.008
   0.07320455  0.00000001  0.01408822       0.008
   0.08947223 -0.00575148  0.01408822       0.008
   0.10573990 -0.01150297  0.01408822       0.008
   0.12200758 -0.01725446  0.01408822       0.008
   0.13827526 -0.02300596  0.01408822       0.008
  -0.13827525  0.07476940  0.01408822       0.004
   0.05693687  0.02300598  0.01408822       0.004
   0.07320455  0.01725449  0.01408822       0.008
   0.08947223  0.01150300  0.01408822       0.008
   0.10573990  0.00575151  0.01408822       0.008
   0.12200758  0.00000002  0.01408822       0.008
   0.13827526 -0.00575148  0.01408822       0.008
  -0.13827525  0.09202388  0.01408822       0.008
  -0.12200757  0.08627239  0.01408822       0.008
  -0.10573989  0.08052090  0.01408822       0.008
  -0.08947222  0.07476941  0.01408822       0.008
  -0.07320454  0.06901792  0.01408822       0.008
  -0.05693686  0.06326643  0.01408822       0.008
  -0.04066919  0.05751493  0.01408822       0.004
   0.07320455  0.03450897  0.01408822       0.004
   0.08947223  0.02875748  0.01408822       0.008
   0.10573990  0.02300599  0.01408822       0.008
   0.12200758  0.01725450  0.01408822       0.008
   0.13827526  0.01150301  0.01408822       0.008
  -0.13827525  0.10927836  0.01408822       0.008
  -0.12200757  0.10352687  0.01408822       0.008
  -0.10573989  0.09777538  0.01408822       0.008
  -0.08947222  0.09202389  0.01408822       0.008
  -0.07320454  0.08627240  0.01408822       0.008
  -0.05693686  0.08052091  0.01408822       0.004
   0.08947223  0.04601196  0.01408822       0.004
   0.10573990  0.04026047  0.01408822       0.008
   0.12200758  0.03450898  0.01408822       0.008
   0.13827526  0.02875749  0.01408822       0.008
  -0.13827525  0.12653285  0.01408822       0.008
  -0.12200757  0.12078135  0.01408822       0.008
  -0.10573989  0.11502986  0.01408822       0.008
  -0.08947222  0.10927837  0.01408822       0.008
  -0.07320454  0.10352688  0.01408822       0.004
   0.10573990  0.05751495  0.01408822       0.004
   0.12200758  0.05176346  0.01408822       0.008
   0.13827526  0.04601197  0.01408822       0.008
  -0.13827525  0.14378733  0.01408822       0.008
  -0.12200757  0.13803583  0.01408822       0.008
  -0.10573989  0.13228434  0.01408822       0.008
  -0.08947222  0.12653285  0.01408822       0.004
   0.12200758  0.06901794  0.01408822       0.004
   0.13827526  0.06326645  0.01408822       0.008
  -0.13827525  0.16104181  0.01408822       0.008
  -0.12200757  0.15529031  0.01408822       0.008
  -0.10573989  0.14953882  0.01408822       0.004
   0.13827526  0.08052093  0.01408822       0.004
  -0.13827525  0.17829629  0.01408822       0.008
  -0.12200757  0.17254479  0.01408822       0.004
  -0.13827525  0.19555077  0.01408822       0.002
   0.08133839  0.02300599  0.02817644       0.004
   0.09760607  0.01725450  0.02817644       0.008
   0.11387374  0.01150301  0.02817644       0.008
   0.13014142  0.00575151  0.02817644       0.008
  -0.14640908  0.10352687  0.02817644       0.008
  -0.13014140  0.09777538  0.02817644       0.004
   0.09760607  0.03450898  0.02817644       0.004
   0.11387374  0.02875749  0.02817644       0.008
   0.13014142  0.02300599  0.02817644       0.008
  -0.14640908  0.12078135  0.02817644       0.008
  -0.13014140  0.11502986  0.02817644       0.008
  -0.11387373  0.10927837  0.02817644       0.008
  -0.09760605  0.10352688  0.02817644       0.008
  -0.08133837  0.09777539  0.02817644       0.008
  -0.06507070  0.09202390  0.02817644       0.004
   0.11387374  0.04601197  0.02817644       0.004
   0.13014142  0.04026047  0.02817644       0.008
  -0.14640908  0.13803583  0.02817644       0.008
  -0.13014140  0.13228434  0.02817644       0.008
  -0.11387373  0.12653285  0.02817644       0.008
  -0.09760605  0.12078136  0.02817644       0.008
  -0.08133837  0.11502987  0.02817644       0.004
   0.13014142  0.05751496  0.02817644       0.004
  -0.14640908  0.15529031  0.02817644       0.008
  -0.13014140  0.14953882  0.02817644       0.008
  -0.11387373  0.14378733  0.02817644       0.008
  -0.09760605  0.13803584  0.02817644       0.004
  -0.14640908  0.17254480  0.02817644       0.004
  -0.13014140  0.16679330  0.02817644       0.008
  -0.11387373  0.16104181  0.02817644       0.004
  -0.13014140  0.18404778  0.02817644       0.002
   0.12200759  0.03450898  0.04226466       0.004
  -0.15454291  0.13228434  0.04226466       0.008
  -0.13827524  0.12653285  0.04226466       0.008
  -0.12200756  0.12078136  0.04226466       0.004
  -0.15454291  0.14953882  0.04226466       0.004
  -0.13827524  0.14378733  0.04226466       0.008
  -0.12200756  0.13803584  0.04226466       0.008
  -0.10573988  0.13228435  0.04226466       0.008
  -0.08947221  0.12653286  0.04226466       0.004
  -0.13827524  0.16104181  0.04226466       0.004
  -0.12200756  0.15529032  0.04226466       0.008
  -0.10573988  0.14953883  0.04226466       0.004
  -0.12200756  0.17254480  0.04226466       0.002
  -0.13014140  0.14953883  0.05635288       0.004
  -0.11387372  0.14378734  0.05635288       0.004
  -0.11387372  0.16104182  0.05635288       0.002
 
 k-points in reciprocal lattice and weights: read from INCAR                         
   0.00000000  0.00000000  0.00000000       0.000
   0.05555556  0.00000000  0.00000000       0.001
   0.11111111  0.00000000  0.00000000       0.001
   0.16666667  0.00000000  0.00000000       0.001
   0.22222222  0.00000000  0.00000000       0.001
   0.27777778  0.00000000  0.00000000       0.001
   0.33333333  0.00000000  0.00000000       0.001
   0.38888889  0.00000000  0.00000000       0.001
   0.44444444  0.00000000  0.00000000       0.001
   0.50000000  0.00000000  0.00000000       0.001
   0.05555556  0.05555556  0.00000000       0.001
   0.11111111  0.05555556  0.00000000       0.004
   0.16666667  0.05555556  0.00000000       0.004
   0.22222222  0.05555556  0.00000000       0.004
   0.27777778  0.05555556  0.00000000       0.004
   0.33333333  0.05555556  0.00000000       0.004
   0.38888889  0.05555556  0.00000000       0.004
   0.44444444  0.05555556  0.00000000       0.004
   0.50000000  0.05555556  0.00000000       0.004
  -0.44444444  0.05555556  0.00000000       0.004
  -0.38888889  0.05555556  0.00000000       0.004
  -0.33333333  0.05555556  0.00000000       0.004
  -0.27777778  0.05555556  0.00000000       0.004
  -0.22222222  0.05555556  0.00000000       0.004
  -0.16666667  0.05555556  0.00000000       0.004
  -0.11111111  0.05555556  0.00000000       0.004
  -0.05555556  0.05555556  0.00000000       0.002
   0.11111111  0.11111111  0.00000000       0.001
   0.16666667  0.11111111  0.00000000       0.004
   0.22222222  0.11111111  0.00000000       0.004
   0.27777778  0.11111111  0.00000000       0.004
   0.33333333  0.11111111  0.00000000       0.004
   0.38888889  0.11111111  0.00000000       0.004
   0.44444444  0.11111111  0.00000000       0.004
   0.50000000  0.11111111  0.00000000       0.004
  -0.44444444  0.11111111  0.00000000       0.004
  -0.38888889  0.11111111  0.00000000       0.004
  -0.33333333  0.11111111  0.00000000       0.004
  -0.27777778  0.11111111  0.00000000       0.004
  -0.22222222  0.11111111  0.00000000       0.004
  -0.16666667  0.11111111  0.00000000       0.004
  -0.11111111  0.11111111  0.00000000       0.002
   0.16666667  0.16666667  0.00000000       0.001
   0.22222222  0.16666667  0.00000000       0.004
   0.27777778  0.16666667  0.00000000       0.004
   0.33333333  0.16666667  0.00000000       0.004
   0.38888889  0.16666667  0.00000000       0.004
   0.44444444  0.16666667  0.00000000       0.004
   0.50000000  0.16666667  0.00000000       0.004
  -0.44444444  0.16666667  0.00000000       0.004
  -0.38888889  0.16666667  0.00000000       0.004
  -0.33333333  0.16666667  0.00000000       0.004
  -0.27777778  0.16666667  0.00000000       0.004
  -0.22222222  0.16666667  0.00000000       0.004
  -0.16666667  0.16666667  0.00000000       0.002
   0.22222222  0.22222222  0.00000000       0.001
   0.27777778  0.22222222  0.00000000       0.004
   0.33333333  0.22222222  0.00000000       0.004
   0.38888889  0.22222222  0.00000000       0.004
   0.44444444  0.22222222  0.00000000       0.004
   0.50000000  0.22222222  0.00000000       0.004
  -0.44444444  0.22222222  0.00000000       0.004
  -0.38888889  0.22222222  0.00000000       0.004
  -0.33333333  0.22222222  0.00000000       0.004
  -0.27777778  0.22222222  0.00000000       0.004
  -0.22222222  0.22222222  0.00000000       0.002
   0.27777778  0.27777778  0.00000000       0.001
   0.33333333  0.27777778  0.00000000       0.004
   0.38888889  0.27777778  0.00000000       0.004
   0.44444444  0.27777778  0.00000000       0.004
   0.50000000  0.27777778  0.00000000       0.004
  -0.44444444  0.27777778  0.00000000       0.004
  -0.38888889  0.27777778  0.00000000       0.004
  -0.33333333  0.27777778  0.00000000       0.004
  -0.27777778  0.27777778  0.00000000       0.002
   0.33333333  0.33333333  0.00000000       0.001
   0.38888889  0.33333333  0.00000000       0.004
   0.44444444  0.33333333  0.00000000       0.004
   0.50000000  0.33333333  0.00000000       0.004
  -0.44444444  0.33333333  0.00000000       0.004
  -0.38888889  0.33333333  0.00000000       0.004
  -0.33333333  0.33333333  0.00000000       0.002
   0.38888889  0.38888889  0.00000000       0.001
   0.44444444  0.38888889  0.00000000       0.004
   0.50000000  0.38888889  0.00000000       0.004
  -0.44444444  0.38888889  0.00000000       0.004
  -0.38888889  0.38888889  0.00000000       0.002
   0.44444444  0.44444444  0.00000000       0.001
   0.50000000  0.44444444  0.00000000       0.004
  -0.44444444  0.44444444  0.00000000       0.002
   0.50000000  0.50000000  0.00000000       0.001
   0.16666667  0.11111111  0.05555556       0.004
   0.22222222  0.11111111  0.05555556       0.008
   0.27777778  0.11111111  0.05555556       0.008
   0.33333333  0.11111111  0.05555556       0.008
   0.38888889  0.11111111  0.05555556       0.008
   0.44444444  0.11111111  0.05555556       0.008
   0.50000000  0.11111111  0.05555556       0.008
  -0.44444444  0.11111111  0.05555556       0.004
   0.22222222  0.16666667  0.05555556       0.004
   0.27777778  0.16666667  0.05555556       0.008
   0.33333333  0.16666667  0.05555556       0.008
   0.38888889  0.16666667  0.05555556       0.008
   0.44444444  0.16666667  0.05555556       0.008
   0.50000000  0.16666667  0.05555556       0.008
  -0.44444444  0.16666667  0.05555556       0.008
  -0.38888889  0.16666667  0.05555556       0.008
  -0.33333333  0.16666667  0.05555556       0.008
  -0.27777778  0.16666667  0.05555556       0.008
  -0.22222222  0.16666667  0.05555556       0.008
  -0.16666667  0.16666667  0.05555556       0.008
  -0.11111111  0.16666667  0.05555556       0.004
   0.27777778  0.22222222  0.05555556       0.004
   0.33333333  0.22222222  0.05555556       0.008
   0.38888889  0.22222222  0.05555556       0.008
   0.44444444  0.22222222  0.05555556       0.008
   0.50000000  0.22222222  0.05555556       0.008
  -0.44444444  0.22222222  0.05555556       0.008
  -0.38888889  0.22222222  0.05555556       0.008
  -0.33333333  0.22222222  0.05555556       0.008
  -0.27777778  0.22222222  0.05555556       0.008
  -0.22222222  0.22222222  0.05555556       0.008
  -0.16666667  0.22222222  0.05555556       0.004
   0.33333333  0.27777778  0.05555556       0.004
   0.38888889  0.27777778  0.05555556       0.008
   0.44444444  0.27777778  0.05555556       0.008
   0.50000000  0.27777778  0.05555556       0.008
  -0.44444444  0.27777778  0.05555556       0.008
  -0.38888889  0.27777778  0.05555556       0.008
  -0.33333333  0.27777778  0.05555556       0.008
  -0.27777778  0.27777778  0.05555556       0.008
  -0.22222222  0.27777778  0.05555556       0.004
   0.38888889  0.33333333  0.05555556       0.004
   0.44444444  0.33333333  0.05555556       0.008
   0.50000000  0.33333333  0.05555556       0.008
  -0.44444444  0.33333333  0.05555556       0.008
  -0.38888889  0.33333333  0.05555556       0.008
  -0.33333333  0.33333333  0.05555556       0.008
  -0.27777778  0.33333333  0.05555556       0.004
   0.44444444  0.38888889  0.05555556       0.004
   0.50000000  0.38888889  0.05555556       0.008
  -0.44444444  0.38888889  0.05555556       0.008
  -0.38888889  0.38888889  0.05555556       0.008
  -0.33333333  0.38888889  0.05555556       0.004
   0.50000000  0.44444444  0.05555556       0.004
  -0.44444444  0.44444444  0.05555556       0.008
  -0.38888889  0.44444444  0.05555556       0.004
  -0.44444444  0.50000000  0.05555556       0.002
   0.33333333  0.22222222  0.11111111       0.004
   0.38888889  0.22222222  0.11111111       0.008
   0.44444444  0.22222222  0.11111111       0.008
   0.50000000  0.22222222  0.11111111       0.008
  -0.44444444  0.22222222  0.11111111       0.008
  -0.38888889  0.22222222  0.11111111       0.004
   0.38888889  0.27777778  0.11111111       0.004
   0.44444444  0.27777778  0.11111111       0.008
   0.50000000  0.27777778  0.11111111       0.008
  -0.44444444  0.27777778  0.11111111       0.008
  -0.38888889  0.27777778  0.11111111       0.008
  -0.33333333  0.27777778  0.11111111       0.008
  -0.27777778  0.27777778  0.11111111       0.008
  -0.22222222  0.27777778  0.11111111       0.008
  -0.16666667  0.27777778  0.11111111       0.004
   0.44444444  0.33333333  0.11111111       0.004
   0.50000000  0.33333333  0.11111111       0.008
  -0.44444444  0.33333333  0.11111111       0.008
  -0.38888889  0.33333333  0.11111111       0.008
  -0.33333333  0.33333333  0.11111111       0.008
  -0.27777778  0.33333333  0.11111111       0.008
  -0.22222222  0.33333333  0.11111111       0.004
   0.50000000  0.38888889  0.11111111       0.004
  -0.44444444  0.38888889  0.11111111       0.008
  -0.38888889  0.38888889  0.11111111       0.008
  -0.33333333  0.38888889  0.11111111       0.008
  -0.27777778  0.38888889  0.11111111       0.004
  -0.44444444  0.44444444  0.11111111       0.004
  -0.38888889  0.44444444  0.11111111       0.008
  -0.33333333  0.44444444  0.11111111       0.004
  -0.38888889  0.50000000  0.11111111       0.002
   0.50000000  0.33333333  0.16666667       0.004
  -0.44444444  0.33333333  0.16666667       0.008
  -0.38888889  0.33333333  0.16666667       0.008
  -0.33333333  0.33333333  0.16666667       0.004
  -0.44444444  0.38888889  0.16666667       0.004
  -0.38888889  0.38888889  0.16666667       0.008
  -0.33333333  0.38888889  0.16666667       0.008
  -0.27777778  0.38888889  0.16666667       0.008
  -0.22222222  0.38888889  0.16666667       0.004
  -0.38888889  0.44444444  0.16666667       0.004
  -0.33333333  0.44444444  0.16666667       0.008
  -0.27777778  0.44444444  0.16666667       0.004
  -0.33333333  0.50000000  0.16666667       0.002
  -0.33333333  0.44444444  0.22222222       0.004
  -0.27777778  0.44444444  0.22222222       0.004
  -0.27777778  0.50000000  0.22222222       0.002
 
 position of ions in fractional coordinates (direct lattice) 
   0.00000000  0.00000000  0.00000000
 
 position of ions in cartesian coordinates  (Angst):
   0.00000000  0.00000000  0.00000000
 


--------------------------------------------------------------------------------------------------------


 k-point   1 :   0.0000 0.0000 0.0000  plane waves:     645
 k-point   2 :   0.0556 0.0000 0.0000  plane waves:     639
 k-point   3 :   0.1111 0.0000 0.0000  plane waves:     649
 k-point   4 :   0.1667 0.0000 0.0000  plane waves:     649
 k-point   5 :   0.2222 0.0000 0.0000  plane waves:     649
 k-point   6 :   0.2778 0.0000 0.0000  plane waves:     640
 k-point   7 :   0.3333 0.0000 0.0000  plane waves:     646
 k-point   8 :   0.3889 0.0000 0.0000  plane waves:     640
 k-point   9 :   0.4444 0.0000 0.0000  plane waves:     646
 k-point  10 :   0.5000 0.0000 0.0000  plane waves:     652
 k-point  11 :   0.0556 0.0556 0.0000  plane waves:     637
 k-point  12 :   0.1111 0.0556 0.0000  plane waves:     641
 k-point  13 :   0.1667 0.0556 0.0000  plane waves:     652
 k-point  14 :   0.2222 0.0556 0.0000  plane waves:     647
 k-point  15 :   0.2778 0.0556 0.0000  plane waves:     641
 k-point  16 :   0.3333 0.0556 0.0000  plane waves:     641
 k-point  17 :   0.3889 0.0556 0.0000  plane waves:     643
 k-point  18 :   0.4444 0.0556 0.0000  plane waves:     647
 k-point  19 :   0.5000 0.0556 0.0000  plane waves:     642
 k-point  20 :  -0.4444 0.0556 0.0000  plane waves:     646
 k-point  21 :  -0.3889 0.0556 0.0000  plane waves:     650
 k-point  22 :  -0.3333 0.0556 0.0000  plane waves:     644
 k-point  23 :  -0.2778 0.0556 0.0000  plane waves:     640
 k-point  24 :  -0.2222 0.0556 0.0000  plane waves:     642
 k-point  25 :  -0.1667 0.0556 0.0000  plane waves:     649
 k-point  26 :  -0.1111 0.0556 0.0000  plane waves:     651
 k-point  27 :  -0.0556 0.0556 0.0000  plane waves:     638
 k-point  28 :   0.1111 0.1111 0.0000  plane waves:     657
 k-point  29 :   0.1667 0.1111 0.0000  plane waves:     653
 k-point  30 :   0.2222 0.1111 0.0000  plane waves:     652
 k-point  31 :   0.2778 0.1111 0.0000  plane waves:     650
 k-point  32 :   0.3333 0.1111 0.0000  plane waves:     641
 k-point  33 :   0.3889 0.1111 0.0000  plane waves:     645
 k-point  34 :   0.4444 0.1111 0.0000  plane waves:     647
 k-point  35 :   0.5000 0.1111 0.0000  plane waves:     653
 k-point  36 :  -0.4444 0.1111 0.0000  plane waves:     656
 k-point  37 :  -0.3889 0.1111 0.0000  plane waves:     654
 k-point  38 :  -0.3333 0.1111 0.0000  plane waves:     645
 k-point  39 :  -0.2778 0.1111 0.0000  plane waves:     647
 k-point  40 :  -0.2222 0.1111 0.0000  plane waves:     643
 k-point  41 :  -0.1667 0.1111 0.0000  plane waves:     649
 k-point  42 :  -0.1111 0.1111 0.0000  plane waves:     654
 k-point  43 :   0.1667 0.1667 0.0000  plane waves:     653
 k-point  44 :   0.2222 0.1667 0.0000  plane waves:     656
 k-point  45 :   0.2778 0.1667 0.0000  plane waves:     653
 k-point  46 :   0.3333 0.1667 0.0000  plane waves:     650
 k-point  47 :   0.3889 0.1667 0.0000  plane waves:     648
 k-point  48 :   0.4444 0.1667 0.0000  plane waves:     649
 k-point  49 :   0.5000 0.1667 0.0000  plane waves:     662
 k-point  50 :  -0.4444 0.1667 0.0000  plane waves:     659
 k-point  51 :  -0.3889 0.1667 0.0000  plane waves:     657
 k-point  52 :  -0.3333 0.1667 0.0000  plane waves:     647
 k-point  53 :  -0.2778 0.1667 0.0000  plane waves:     643
 k-point  54 :  -0.2222 0.1667 0.0000  plane waves:     644
 k-point  55 :  -0.1667 0.1667 0.0000  plane waves:     644
 k-point  56 :   0.2222 0.2222 0.0000  plane waves:     645
 k-point  57 :   0.2778 0.2222 0.0000  plane waves:     649
 k-point  58 :   0.3333 0.2222 0.0000  plane waves:     649
 k-point  59 :   0.3889 0.2222 0.0000  plane waves:     655
 k-point  60 :   0.4444 0.2222 0.0000  plane waves:     658
 k-point  61 :   0.5000 0.2222 0.0000  plane waves:     657
 k-point  62 :  -0.4444 0.2222 0.0000  plane waves:     661
 k-point  63 :  -0.3889 0.2222 0.0000  plane waves:     658
 k-point  64 :  -0.3333 0.2222 0.0000  plane waves:     659
 k-point  65 :  -0.2778 0.2222 0.0000  plane waves:     655
 k-point  66 :  -0.2222 0.2222 0.0000  plane waves:     650
 k-point  67 :   0.2778 0.2778 0.0000  plane waves:     648
 k-point  68 :   0.3333 0.2778 0.0000  plane waves:     650
 k-point  69 :   0.3889 0.2778 0.0000  plane waves:     652
 k-point  70 :   0.4444 0.2778 0.0000  plane waves:     658
 k-point  71 :   0.5000 0.2778 0.0000  plane waves:     654
 k-point  72 :  -0.4444 0.2778 0.0000  plane waves:     662
 k-point  73 :  -0.3889 0.2778 0.0000  plane waves:     664
 k-point  74 :  -0.3333 0.2778 0.0000  plane waves:     664
 k-point  75 :  -0.2778 0.2778 0.0000  plane waves:     662
 k-point  76 :   0.3333 0.3333 0.0000  plane waves:     644
 k-point  77 :   0.3889 0.3333 0.0000  plane waves:     652
 k-point  78 :   0.4444 0.3333 0.0000  plane waves:     654
 k-point  79 :   0.5000 0.3333 0.0000  plane waves:     660
 k-point  80 :  -0.4444 0.3333 0.0000  plane waves:     654
 k-point  81 :  -0.3889 0.3333 0.0000  plane waves:     664
 k-point  82 :  -0.3333 0.3333 0.0000  plane waves:     658
 k-point  83 :   0.3889 0.3889 0.0000  plane waves:     660
 k-point  84 :   0.4444 0.3889 0.0000  plane waves:     658
 k-point  85 :   0.5000 0.3889 0.0000  plane waves:     656
 k-point  86 :  -0.4444 0.3889 0.0000  plane waves:     654
 k-point  87 :  -0.3889 0.3889 0.0000  plane waves:     660
 k-point  88 :   0.4444 0.4444 0.0000  plane waves:     652
 k-point  89 :   0.5000 0.4444 0.0000  plane waves:     652
 k-point  90 :  -0.4444 0.4444 0.0000  plane waves:     652
 k-point  91 :   0.5000 0.5000 0.0000  plane waves:     652
 k-point  92 :   0.1667 0.1111 0.0556  plane waves:     653
 k-point  93 :   0.2222 0.1111 0.0556  plane waves:     652
 k-point  94 :   0.2778 0.1111 0.0556  plane waves:     650
 k-point  95 :   0.3333 0.1111 0.0556  plane waves:     643
 k-point  96 :   0.3889 0.1111 0.0556  plane waves:     643
 k-point  97 :   0.4444 0.1111 0.0556  plane waves:     647
 k-point  98 :   0.5000 0.1111 0.0556  plane waves:     649
 k-point  99 :  -0.4444 0.1111 0.0556  plane waves:     656
 k-point 100 :   0.2222 0.1667 0.0556  plane waves:     654
 k-point 101 :   0.2778 0.1667 0.0556  plane waves:     648
 k-point 102 :   0.3333 0.1667 0.0556  plane waves:     644
 k-point 103 :   0.3889 0.1667 0.0556  plane waves:     645
 k-point 104 :   0.4444 0.1667 0.0556  plane waves:     648
 k-point 105 :   0.5000 0.1667 0.0556  plane waves:     655
 k-point 106 :  -0.4444 0.1667 0.0556  plane waves:     656
 k-point 107 :  -0.3889 0.1667 0.0556  plane waves:     657
 k-point 108 :  -0.3333 0.1667 0.0556  plane waves:     651
 k-point 109 :  -0.2778 0.1667 0.0556  plane waves:     646
 k-point 110 :  -0.2222 0.1667 0.0556  plane waves:     642
 k-point 111 :  -0.1667 0.1667 0.0556  plane waves:     646
 k-point 112 :  -0.1111 0.1667 0.0556  plane waves:     651
 k-point 113 :   0.2778 0.2222 0.0556  plane waves:     650
 k-point 114 :   0.3333 0.2222 0.0556  plane waves:     652
 k-point 115 :   0.3889 0.2222 0.0556  plane waves:     647
 k-point 116 :   0.4444 0.2222 0.0556  plane waves:     650
 k-point 117 :   0.5000 0.2222 0.0556  plane waves:     656
 k-point 118 :  -0.4444 0.2222 0.0556  plane waves:     658
 k-point 119 :  -0.3889 0.2222 0.0556  plane waves:     659
 k-point 120 :  -0.3333 0.2222 0.0556  plane waves:     656
 k-point 121 :  -0.2778 0.2222 0.0556  plane waves:     655
 k-point 122 :  -0.2222 0.2222 0.0556  plane waves:     650
 k-point 123 :  -0.1667 0.2222 0.0556  plane waves:     646
 k-point 124 :   0.3333 0.2778 0.0556  plane waves:     648
 k-point 125 :   0.3889 0.2778 0.0556  plane waves:     654
 k-point 126 :   0.4444 0.2778 0.0556  plane waves:     658
 k-point 127 :   0.5000 0.2778 0.0556  plane waves:     657
 k-point 128 :  -0.4444 0.2778 0.0556  plane waves:     657
 k-point 129 :  -0.3889 0.2778 0.0556  plane waves:     658
 k-point 130 :  -0.3333 0.2778 0.0556  plane waves:     660
 k-point 131 :  -0.2778 0.2778 0.0556  plane waves:     659
 k-point 132 :  -0.2222 0.2778 0.0556  plane waves:     656
 k-point 133 :   0.3889 0.3333 0.0556  plane waves:     656
 k-point 134 :   0.4444 0.3333 0.0556  plane waves:     657
 k-point 135 :   0.5000 0.3333 0.0556  plane waves:     660
 k-point 136 :  -0.4444 0.3333 0.0556  plane waves:     660
 k-point 137 :  -0.3889 0.3333 0.0556  plane waves:     660
 k-point 138 :  -0.3333 0.3333 0.0556  plane waves:     663
 k-point 139 :  -0.2778 0.3333 0.0556  plane waves:     663
 k-point 140 :   0.4444 0.3889 0.0556  plane waves:     658
 k-point 141 :   0.5000 0.3889 0.0556  plane waves:     659
 k-point 142 :  -0.4444 0.3889 0.0556  plane waves:     659
 k-point 143 :  -0.3889 0.3889 0.0556  plane waves:     664
 k-point 144 :  -0.3333 0.3889 0.0556  plane waves:     665
 k-point 145 :   0.5000 0.4444 0.0556  plane waves:     660
 k-point 146 :  -0.4444 0.4444 0.0556  plane waves:     656
 k-point 147 :  -0.3889 0.4444 0.0556  plane waves:     661
 k-point 148 :  -0.4444 0.5000 0.0556  plane waves:     654
 k-point 149 :   0.3333 0.2222 0.1111  plane waves:     647
 k-point 150 :   0.3889 0.2222 0.1111  plane waves:     649
 k-point 151 :   0.4444 0.2222 0.1111  plane waves:     649
 k-point 152 :   0.5000 0.2222 0.1111  plane waves:     658
 k-point 153 :  -0.4444 0.2222 0.1111  plane waves:     656
 k-point 154 :  -0.3889 0.2222 0.1111  plane waves:     660
 k-point 155 :   0.3889 0.2778 0.1111  plane waves:     647
 k-point 156 :   0.4444 0.2778 0.1111  plane waves:     652
 k-point 157 :   0.5000 0.2778 0.1111  plane waves:     656
 k-point 158 :  -0.4444 0.2778 0.1111  plane waves:     659
 k-point 159 :  -0.3889 0.2778 0.1111  plane waves:     662
 k-point 160 :  -0.3333 0.2778 0.1111  plane waves:     662
 k-point 161 :  -0.2778 0.2778 0.1111  plane waves:     658
 k-point 162 :  -0.2222 0.2778 0.1111  plane waves:     652
 k-point 163 :  -0.1667 0.2778 0.1111  plane waves:     647
 k-point 164 :   0.4444 0.3333 0.1111  plane waves:     658
 k-point 165 :   0.5000 0.3333 0.1111  plane waves:     659
 k-point 166 :  -0.4444 0.3333 0.1111  plane waves:     662
 k-point 167 :  -0.3889 0.3333 0.1111  plane waves:     659
 k-point 168 :  -0.3333 0.3333 0.1111  plane waves:     663
 k-point 169 :  -0.2778 0.3333 0.1111  plane waves:     662
 k-point 170 :  -0.2222 0.3333 0.1111  plane waves:     654
 k-point 171 :   0.5000 0.3889 0.1111  plane waves:     656
 k-point 172 :  -0.4444 0.3889 0.1111  plane waves:     659
 k-point 173 :  -0.3889 0.3889 0.1111  plane waves:     662
 k-point 174 :  -0.3333 0.3889 0.1111  plane waves:     661
 k-point 175 :  -0.2778 0.3889 0.1111  plane waves:     662
 k-point 176 :  -0.4444 0.4444 0.1111  plane waves:     660
 k-point 177 :  -0.3889 0.4444 0.1111  plane waves:     657
 k-point 178 :  -0.3333 0.4444 0.1111  plane waves:     660
 k-point 179 :  -0.3889 0.5000 0.1111  plane waves:     662
 k-point 180 :   0.5000 0.3333 0.1667  plane waves:     656
 k-point 181 :  -0.4444 0.3333 0.1667  plane waves:     659
 k-point 182 :  -0.3889 0.3333 0.1667  plane waves:     658
 k-point 183 :  -0.3333 0.3333 0.1667  plane waves:     660
 k-point 184 :  -0.4444 0.3889 0.1667  plane waves:     658
 k-point 185 :  -0.3889 0.3889 0.1667  plane waves:     662
 k-point 186 :  -0.3333 0.3889 0.1667  plane waves:     661
 k-point 187 :  -0.2778 0.3889 0.1667  plane waves:     657
 k-point 188 :  -0.2222 0.3889 0.1667  plane waves:     660
 k-point 189 :  -0.3889 0.4444 0.1667  plane waves:     660
 k-point 190 :  -0.3333 0.4444 0.1667  plane waves:     664
 k-point 191 :  -0.2778 0.4444 0.1667  plane waves:     662
 k-point 192 :  -0.3333 0.5000 0.1667  plane waves:     654
 k-point 193 :  -0.3333 0.4444 0.2222  plane waves:     660
 k-point 194 :  -0.2778 0.4444 0.2222  plane waves:     662
 k-point 195 :  -0.2778 0.5000 0.2222  plane waves:     662

 maximum and minimum number of plane-waves per node :       665      637

 maximum number of plane-waves:       665
 maximum index in each direction: 
   IXMAX=    6   IYMAX=    6   IZMAX=    6
   IXMIN=   -6   IYMIN=   -6   IZMIN=   -6


 serial   3D FFT for wavefunctions
 parallel 3D FFT for charge:
    minimum data exchange during FFTs selected (reduces bandwidth)


 total amount of memory used by VASP MPI-rank0    75679. kBytes
=======================================================================

   base      :      30000. kBytes
   nonl-proj :      18683. kBytes
   fftplans  :       3916. kBytes
   grid      :       6018. kBytes
   one-center:         15. kBytes
   wavefun   :      17047. kBytes
 
     INWAV:  cpu time      0.0000: real time      0.0000
 Broyden mixing: mesh for mixing (old mesh)
   NGX = 13   NGY = 13   NGZ = 13
  (NGX  = 48   NGY  = 48   NGZ  = 48)
  gives a total of   2197 points

 initial charge density was supplied:
 charge density of overlapping atoms calculated
 number of electron       8.0000000 magnetization 
 keeping initial charge density in first step


--------------------------------------------------------------------------------------------------------


 Maximum index for augmentation-charges         26107 (set IRDMAX)


--------------------------------------------------------------------------------------------------------


 First call to EWALD:  gamma=   0.537
 Maximum number of real-space cells 3x 3x 3
 Maximum number of reciprocal cells 3x 3x 3

    FEWALD:  cpu time      0.0009: real time      0.0006


--------------------------------------- Ionic step        1  -------------------------------------------




--------------------------------------- Iteration      1(   1)  ---------------------------------------


    POTLOK:  cpu time      0.0177: real time      0.0175
    SETDIJ:  cpu time      0.0095: real time      0.0048
     EDDAV:  cpu time      2.4933: real time      2.4939
       DOS:  cpu time      0.0026: real time      0.0026
    --------------------------------------------
      LOOP:  cpu time      2.5231: real time      2.5188

 eigenvalue-minimisations  :  3120
 total energy-change (2. order) : 0.1786731E+02  (-0.3397357E+03)
 number of electron       8.0000000 magnetization 
 augmentation part        8.0000000 magnetization 

 Free energy of the ion-electron system (eV)
  ---------------------------------------------------
  alpha Z        PSCENC =        20.52613769
  Ewald energy   TEWEN  =      -403.01217560
  -Hartree energ DENC   =      -132.78656688
  -exchange      EXHF   =         0.00000000
  -V(xc)+E(xc)   XCENC  =        15.56392680
  PAW double counting   =       438.55957176     -436.87374562
  entropy T*S    EENTRO =        -0.00105147
  eigenvalues    EBANDS =       -96.77613791
  atomic energy  EATOM  =       612.66735224
  Solvation  Ediel_sol  =         0.00000000
  ---------------------------------------------------
  free energy    TOTEN  =        17.86731101 eV

  energy without entropy =       17.86836248  energy(sigma->0) =       17.86766150


--------------------------------------------------------------------------------------------------------




--------------------------------------- Iteration      1(   2)  ---------------------------------------


     EDDAV:  cpu time      2.6738: real time      2.6745
       DOS:  cpu time      0.0029: real time      0.0029
    --------------------------------------------
      LOOP:  cpu time      2.6766: real time      2.6774

 eigenvalue-minimisations  :  3632
 total energy-change (2. order) :-0.1899272E+02  (-0.1895051E+02)
 number of electron       8.0000000 magnetization 
 augmentation part        8.0000000 magnetization 

 Free energy of the ion-electron system (eV)
  ---------------------------------------------------
  alpha Z        PSCENC =        20.52613769
  Ewald energy   TEWEN  =      -403.01217560
  -Hartree energ DENC   =      -132.78656688
  -exchange      EXHF   =         0.00000000
  -V(xc)+E(xc)   XCENC  =        15.56392680
  PAW double counting   =       438.55957176     -436.87374562
  entropy T*S    EENTRO =        -0.00271182
  eigenvalues    EBANDS =      -115.76720167
  atomic energy  EATOM  =       612.66735224
  Solvation  Ediel_sol  =         0.00000000
  ---------------------------------------------------
  free energy    TOTEN  =        -1.12541309 eV

  energy without entropy =       -1.12270127  energy(sigma->0) =       -1.12450915


--------------------------------------------------------------------------------------------------------




--------------------------------------- Iteration      1(   3)  ---------------------------------------


     EDDAV:  cpu time      3.6608: real time      3.6617
       DOS:  cpu time      0.0030: real time      0.0030
    --------------------------------------------
      LOOP:  cpu time      3.6638: real time      3.6648

 eigenvalue-minimisations  :  5056
 total energy-change (2. order) :-0.7256737E+00  (-0.7232607E+00)
 number of electron       8.0000000 magnetization 
 augmentation part        8.0000000 magnetization 

 Free energy of the ion-electron system (eV)
  ---------------------------------------------------
  alpha Z        PSCENC =        20.52613769
  Ewald energy   TEWEN  =      -403.01217560
  -Hartree energ DENC   =      -132.78656688
  -exchange      EXHF   =         0.00000000
  -V(xc)+E(xc)   XCENC  =        15.56392680
  PAW double counting   =       438.55957176     -436.87374562
  entropy T*S    EENTRO =        -0.00266572
  eigenvalues    EBANDS =      -116.49292145
  atomic energy  EATOM  =       612.66735224
  Solvation  Ediel_sol  =         0.00000000
  ---------------------------------------------------
  free energy    TOTEN  =        -1.85108678 eV

  energy without entropy =       -1.84842106  energy(sigma->0) =       -1.85019820


--------------------------------------------------------------------------------------------------------




--------------------------------------- Iteration      1(   4)  ---------------------------------------


     EDDAV:  cpu time      3.0347: real time      3.0357
       DOS:  cpu time      0.0031: real time      0.0031
    --------------------------------------------
      LOOP:  cpu time      3.0379: real time      3.0388

 eigenvalue-minimisations  :  4136
 total energy-change (2. order) :-0.4834056E-02  (-0.4825494E-02)
 number of electron       8.0000000 magnetization 
 augmentation part        8.0000000 magnetization 

 Free energy of the ion-electron system (eV)
  ---------------------------------------------------
  alpha Z        PSCENC =        20.52613769
  Ewald energy   TEWEN  =      -403.01217560
  -Hartree energ DENC   =      -132.78656688
  -exchange      EXHF   =         0.00000000
  -V(xc)+E(xc)   XCENC  =        15.56392680
  PAW double counting   =       438.55957176     -436.87374562
  entropy T*S    EENTRO =        -0.00256483
  eigenvalues    EBANDS =      -116.49785640
  atomic energy  EATOM  =       612.66735224
  Solvation  Ediel_sol  =         0.00000000
  ---------------------------------------------------
  free energy    TOTEN  =        -1.85592083 eV

  energy without entropy =       -1.85335600  energy(sigma->0) =       -1.85506589


--------------------------------------------------------------------------------------------------------




--------------------------------------- Iteration      1(   5)  ---------------------------------------


     EDDAV:  cpu time      3.7181: real time      3.7191
       DOS:  cpu time      0.0031: real time      0.0031
    CHARGE:  cpu time      0.2215: real time      0.2195
    MIXING:  cpu time      0.0014: real time      0.0009
    --------------------------------------------
      LOOP:  cpu time      3.9441: real time      3.9426

 eigenvalue-minimisations  :  5136
 total energy-change (2. order) :-0.2726573E-04  (-0.2726533E-04)
 number of electron       8.0000003 magnetization 
 augmentation part        4.6067405 magnetization 

 Broyden mixing:
  rms(total) = 0.80446E-01    rms(broyden)= 0.80445E-01
  rms(prec ) = 0.23058E+00
  weight for this iteration     100.00

 Free energy of the ion-electron system (eV)
  ---------------------------------------------------
  alpha Z        PSCENC =        20.52613769
  Ewald energy   TEWEN  =      -403.01217560
  -Hartree energ DENC   =      -132.78656688
  -exchange      EXHF   =         0.00000000
  -V(xc)+E(xc)   XCENC  =        15.56392680
  PAW double counting   =       438.55957176     -436.87374562
  entropy T*S    EENTRO =        -0.00256476
  eigenvalues    EBANDS =      -116.49788374
  atomic energy  EATOM  =       612.66735224
  Solvation  Ediel_sol  =         0.00000000
  ---------------------------------------------------
  free energy    TOTEN  =        -1.85594810 eV

  energy without entropy =       -1.85338334  energy(sigma->0) =       -1.85509318


--------------------------------------------------------------------------------------------------------




--------------------------------------- Iteration      1(   6)  ---------------------------------------


    POTLOK:  cpu time      0.0050: real time      0.0040
    SETDIJ:  cpu time      0.0085: real time      0.0043
     EDDAV:  cpu time      2.4552: real time      2.4549
       DOS:  cpu time      0.0031: real time      0.0031
    CHARGE:  cpu time      0.2169: real time      0.2150
    MIXING:  cpu time      0.0016: real time      0.0010
    --------------------------------------------
      LOOP:  cpu time      2.6904: real time      2.6823

 eigenvalue-minimisations  :  3296
 total energy-change (2. order) :-0.2368547E-02  (-0.1136786E-02)
 number of electron       8.0000003 magnetization 
 augmentation part        4.5954477 magnetization 

 Broyden mixing:
  rms(total) = 0.45832E-01    rms(broyden)= 0.45832E-01
  rms(prec ) = 0.13285E+00
  weight for this iteration     100.00

 eigenvalues of (default mixing * dielectric matrix)
  average eigenvalue GAMMA=   2.2571
  2.2571

 Free energy of the ion-electron system (eV)
  ---------------------------------------------------
  alpha Z        PSCENC =        20.52613769
  Ewald energy   TEWEN  =      -403.01217560
  -Hartree energ DENC   =      -134.09946922
  -exchange      EXHF   =         0.00000000
  -V(xc)+E(xc)   XCENC  =        15.65546561
  PAW double counting   =       446.23482898     -444.14894094
  entropy T*S    EENTRO =        -0.00271796
  eigenvalues    EBANDS =      -115.67879745
  atomic energy  EATOM  =       612.66735224
  Solvation  Ediel_sol  =         0.00000000
  ---------------------------------------------------
  free energy    TOTEN  =        -1.85831665 eV

  energy without entropy =       -1.85559868  energy(sigma->0) =       -1.85741066


--------------------------------------------------------------------------------------------------------




--------------------------------------- Iteration      1(   7)  ---------------------------------------


    POTLOK:  cpu time      0.0048: real time      0.0037
    SETDIJ:  cpu time      0.0064: real time      0.0032
     EDDAV:  cpu time      2.5445: real time      2.5442
       DOS:  cpu time      0.0031: real time      0.0031
    CHARGE:  cpu time      0.2175: real time      0.2156
    MIXING:  cpu time      0.0020: real time      0.0012
    --------------------------------------------
      LOOP:  cpu time      2.7783: real time      2.7710

 eigenvalue-minimisations  :  3440
 total energy-change (2. order) :-0.3225283E-02  (-0.1156671E-02)
 number of electron       8.0000003 magnetization 
 augmentation part        4.5843716 magnetization 

 Broyden mixing:
  rms(total) = 0.65560E-02    rms(broyden)= 0.65560E-02
  rms(prec ) = 0.23639E-01
  weight for this iteration     100.00

 eigenvalues of (default mixing * dielectric matrix)
  average eigenvalue GAMMA=   2.2518
  1.7883  2.7154

 Free energy of the ion-electron system (eV)
  ---------------------------------------------------
  alpha Z        PSCENC =        20.52613769
  Ewald energy   TEWEN  =      -403.01217560
  -Hartree energ DENC   =      -135.60883686
  -exchange      EXHF   =         0.00000000
  -V(xc)+E(xc)   XCENC  =        15.76734708
  PAW double counting   =       456.72877396     -454.01666779
  entropy T*S    EENTRO =        -0.00281730
  eigenvalues    EBANDS =      -114.91065536
  atomic energy  EATOM  =       612.66735224
  Solvation  Ediel_sol  =         0.00000000
  ---------------------------------------------------
  free energy    TOTEN  =        -1.86154193 eV

  energy without entropy =       -1.85872463  energy(sigma->0) =       -1.86060283


--------------------------------------------------------------------------------------------------------




--------------------------------------- Iteration      1(   8)  ---------------------------------------


    POTLOK:  cpu time      0.0050: real time      0.0039
    SETDIJ:  cpu time      0.0079: real time      0.0040
     EDDAV:  cpu time      2.7541: real time      2.7538
       DOS:  cpu time      0.0031: real time      0.0031
    CHARGE:  cpu time      0.2169: real time      0.2150
    MIXING:  cpu time      0.0016: real time      0.0010
    --------------------------------------------
      LOOP:  cpu time      2.9886: real time      2.9808

 eigenvalue-minimisations  :  3736
 total energy-change (2. order) : 0.1105189E-03  (-0.5381702E-04)
 number of electron       8.0000003 magnetization 
 augmentation part        4.5863864 magnetization 

 Broyden mixing:
  rms(total) = 0.99900E-03    rms(broyden)= 0.99899E-03
  rms(prec ) = 0.20166E-02
  weight for this iteration     100.00

 eigenvalues of (default mixing * dielectric matrix)
  average eigenvalue GAMMA=   1.9141
  1.1269  2.7673  1.8479

 Free energy of the ion-electron system (eV)
  ---------------------------------------------------
  alpha Z        PSCENC =        20.52613769
  Ewald energy   TEWEN  =      -403.01217560
  -Hartree energ DENC   =      -135.58001121
  -exchange      EXHF   =         0.00000000
  -V(xc)+E(xc)   XCENC  =        15.77079966
  PAW double counting   =       458.33108093     -455.44823587
  entropy T*S    EENTRO =        -0.00276471
  eigenvalues    EBANDS =      -115.11361456
  atomic energy  EATOM  =       612.66735224
  Solvation  Ediel_sol  =         0.00000000
  ---------------------------------------------------
  free energy    TOTEN  =        -1.86143141 eV

  energy without entropy =       -1.85866670  energy(sigma->0) =       -1.86050984


--------------------------------------------------------------------------------------------------------




--------------------------------------- Iteration      1(   9)  ---------------------------------------


    POTLOK:  cpu time      0.0048: real time      0.0037
    SETDIJ:  cpu time      0.0063: real time      0.0031
     EDDAV:  cpu time      3.7305: real time      3.7305
       DOS:  cpu time      0.0031: real time      0.0031
    CHARGE:  cpu time      0.2179: real time      0.2160
    MIXING:  cpu time      0.0018: real time      0.0011
    --------------------------------------------
      LOOP:  cpu time      3.9643: real time      3.9575

 eigenvalue-minimisations  :  5168
 total energy-change (2. order) :-0.7204888E-05  (-0.1882856E-05)
 number of electron       8.0000003 magnetization 
 augmentation part        4.5864191 magnetization 

 Broyden mixing:
  rms(total) = 0.81110E-03    rms(broyden)= 0.81110E-03
  rms(prec ) = 0.95460E-03
  weight for this iteration     100.00

 eigenvalues of (default mixing * dielectric matrix)
  average eigenvalue GAMMA=   2.0588
  2.6639  1.6590  1.9561  1.9561

 Free energy of the ion-electron system (eV)
  ---------------------------------------------------
  alpha Z        PSCENC =        20.52613769
  Ewald energy   TEWEN  =      -403.01217560
  -Hartree energ DENC   =      -135.56727746
  -exchange      EXHF   =         0.00000000
  -V(xc)+E(xc)   XCENC  =        15.77016184
  PAW double counting   =       457.94839180     -455.07351604
  entropy T*S    EENTRO =        -0.00276436
  eigenvalues    EBANDS =      -115.11774875
  atomic energy  EATOM  =       612.66735224
  Solvation  Ediel_sol  =         0.00000000
  ---------------------------------------------------
  free energy    TOTEN  =        -1.86143862 eV

  energy without entropy =       -1.85867426  energy(sigma->0) =       -1.86051716


--------------------------------------------------------------------------------------------------------




--------------------------------------- Iteration      1(  10)  ---------------------------------------


    POTLOK:  cpu time      0.0050: real time      0.0039
    SETDIJ:  cpu time      0.0080: real time      0.0040
     EDDAV:  cpu time      2.9219: real time      2.9217
       DOS:  cpu time      0.0030: real time      0.0030
    CHARGE:  cpu time      0.2166: real time      0.2147
    MIXING:  cpu time      0.0016: real time      0.0010
    --------------------------------------------
      LOOP:  cpu time      3.1561: real time      3.1483

 eigenvalue-minimisations  :  4000
 total energy-change (2. order) :-0.3735942E-05  (-0.1733405E-06)
 number of electron       8.0000003 magnetization 
 augmentation part        4.5862689 magnetization 

 Broyden mixing:
  rms(total) = 0.26375E-03    rms(broyden)= 0.26375E-03
  rms(prec ) = 0.38303E-03
  weight for this iteration     100.00

 eigenvalues of (default mixing * dielectric matrix)
  average eigenvalue GAMMA=   1.8642
  2.8418  2.5198  1.6933  1.3705  0.8959

 Free energy of the ion-electron system (eV)
  ---------------------------------------------------
  alpha Z        PSCENC =        20.52613769
  Ewald energy   TEWEN  =      -403.01217560
  -Hartree energ DENC   =      -135.56468471
  -exchange      EXHF   =         0.00000000
  -V(xc)+E(xc)   XCENC  =        15.76984396
  PAW double counting   =       457.29056037     -454.43135242
  entropy T*S    EENTRO =        -0.00276798
  eigenvalues    EBANDS =      -115.10435593
  atomic energy  EATOM  =       612.66735224
  Solvation  Ediel_sol  =         0.00000000
  ---------------------------------------------------
  free energy    TOTEN  =        -1.86144235 eV

  energy without entropy =       -1.85867438  energy(sigma->0) =       -1.86051969


--------------------------------------------------------------------------------------------------------




--------------------------------------- Iteration      1(  11)  ---------------------------------------


    POTLOK:  cpu time      0.0048: real time      0.0037
    SETDIJ:  cpu time      0.0065: real time      0.0032
     EDDAV:  cpu time      1.6173: real time      1.6168
       DOS:  cpu time      0.0031: real time      0.0031
    --------------------------------------------
      LOOP:  cpu time      1.6317: real time      1.6269

 eigenvalue-minimisations  :  1792
 total energy-change (2. order) :-0.7453766E-06  (-0.4775561E-08)
 number of electron       8.0000003 magnetization 
 augmentation part        4.5862689 magnetization 

 Free energy of the ion-electron system (eV)
  ---------------------------------------------------
  alpha Z        PSCENC =        20.52613769
  Ewald energy   TEWEN  =      -403.01217560
  -Hartree energ DENC   =      -135.56002251
  -exchange      EXHF   =         0.00000000
  -V(xc)+E(xc)   XCENC  =        15.76952615
  PAW double counting   =       457.02798916     -454.17360616
  entropy T*S    EENTRO =        -0.00276819
  eigenvalues    EBANDS =      -115.10387590
  atomic energy  EATOM  =       612.66735224
  Solvation  Ediel_sol  =         0.00000000
  ---------------------------------------------------
  free energy    TOTEN  =        -1.86144310 eV

  energy without entropy =       -1.85867491  energy(sigma->0) =       -1.86052037


--------------------------------------------------------------------------------------------------------




 average (electrostatic) potential at core
  the test charge radii are     1.2658
  (the norm of the test charge is              1.0000)
       1 -48.6512
 
 
 
 E-fermi :   2.9296     XC(G=0):  -8.1964     alpha+bet : -8.7313

 Fermi energy:         2.9296107134

 k-point     1 :       0.0000    0.0000    0.0000
  band No.  band energies     occupation 
      1     -19.5962      2.00000
      2     -19.5962      2.00000
      3     -19.5962      2.00000
      4      -1.3806      2.00000
      5       5.4793     -0.00000
      6       5.4793     -0.00000
      7       5.4793     -0.00000
      8       6.7693     -0.00000

 k-point     2 :       0.0556    0.0000    0.0000
  band No.  band energies     occupation 
      1     -19.6038      2.00000
      2     -19.5972      2.00000
      3     -19.5972      2.00000
      4      -1.3200      2.00000
      5       5.4099     -0.00000
      6       5.5042     -0.00000
      7       5.5042     -0.00000
      8       6.7457     -0.00000

 k-point     3 :       0.1111    0.0000    0.0000
  band No.  band energies     occupation 
      1     -19.6257      2.00000
      2     -19.6000      2.00000
      3     -19.6000      2.00000
      4      -1.1404      2.00000
      5       5.2174     -0.00000
      6       5.5689     -0.00000
      7       5.5689     -0.00000
      8       6.6911     -0.00000

 k-point     4 :       0.1667    0.0000    0.0000
  band No.  band energies     occupation 
      1     -19.6590      2.00000
      2     -19.6044      2.00000
      3     -19.6044      2.00000
      4      -0.8489      2.00000
      5       4.9378     -0.00000
      6       5.6381     -0.00000
      7       5.6381     -0.00000
      8       6.6544     -0.00000

 k-point     5 :       0.2222    0.0000    0.0000
  band No.  band energies     occupation 
      1     -19.6995      2.00000
      2     -19.6097      2.00000
      3     -19.6097      2.00000
      4      -0.4573      2.00000
      5       4.6076     -0.00000
      6       5.6565     -0.00000
      7       5.6565     -0.00000
      8       6.7048     -0.00000

 k-point     6 :       0.2778    0.0000    0.0000
  band No.  band energies     occupation 
      1     -19.7422      2.00000
      2     -19.6154      2.00000
      3     -19.6154      2.00000
      4       0.0171      2.00000
      5       4.2513     -0.00000
      6       5.6015     -0.00000
      7       5.6015     -0.00000
      8       6.8707     -0.00000

 k-point     7 :       0.3333    0.0000    0.0000
  band No.  band energies     occupation 
      1     -19.7819      2.00000
      2     -19.6207      2.00000
      3     -19.6207      2.00000
      4       0.5493      2.00000
      5       3.8795     -0.00000
      6       5.5082     -0.00000
      7       5.5082     -0.00000
      8       7.1086     -0.00000

 k-point     8 :       0.3889    0.0000    0.0000
  band No.  band energies     occupation 
      1     -19.8140      2.00000
      2     -19.6250      2.00000
      3     -19.6250      2.00000
      4       1.1030      2.00000
      5       3.4943     -0.00048
      6       5.4181     -0.00000
      7       5.4181     -0.00000
      8       7.3514     -0.00000

 k-point     9 :       0.4444    0.0000    0.0000
  band No.  band energies     occupation 
      1     -19.8349      2.00000
      2     -19.6278      2.00000
      3     -19.6278      2.00000
      4       1.6102      2.00000
      5       3.1169     -0.03450
      6       5.3560     -0.00000
      7       5.3560     -0.00000
      8       7.5339     -0.00000

 k-point    10 :       0.5000    0.0000    0.0000
  band No.  band energies     occupation 
      1     -19.8421      2.00000
      2     -19.6288      2.00000
      3     -19.6288      2.00000
      4       1.8690      2.00000
      5       2.9071      1.18887
      6       5.3341     -0.00000
      7       5.3341     -0.00000
      8       7.6021     -0.00000

 k-point    11 :       0.0556    0.0556    0.0000
  band No.  band energies     occupation 
      1     -19.6036      2.00000
      2     -19.5988      2.00000
      3     -19.5988      2.00000
      4      -1.2998      2.00000
      5       5.3880     -0.00000
      6       5.5135     -0.00000
      7       5.5135     -0.00000
      8       6.6809     -0.00000

 k-point    12 :       0.1111    0.0556    0.0000
  band No.  band energies     occupation 
      1     -19.6199      2.00000
      2     -19.6023      2.00000
      3     -19.6006      2.00000
      4      -1.1601      2.00000
      5       5.2404     -0.00000
      6       5.5669     -0.00000
      7       5.5680     -0.00000
      8       6.5789     -0.00000

 k-point    13 :       0.1667    0.0556    0.0000
  band No.  band energies     occupation 
      1     -19.6492      2.00000
      2     -19.6072      2.00000
      3     -19.6036      2.00000
      4      -0.9060      2.00000
      5       4.9977     -0.00000
      6       5.6362     -0.00000
      7       5.6389     -0.00000
      8       6.4852     -0.00000

 k-point    14 :       0.2222    0.0556    0.0000
  band No.  band energies     occupation 
      1     -19.6870      2.00000
      2     -19.6129      2.00000
      3     -19.6083      2.00000
      4      -0.5477      2.00000
      5       4.6946     -0.00000
      6       5.6600     -0.00000
      7       5.6752     -0.00000
      8       6.4856     -0.00000

 k-point    15 :       0.2778    0.0556    0.0000
  band No.  band energies     occupation 
      1     -19.7285      2.00000
      2     -19.6187      2.00000
      3     -19.6140      2.00000
      4      -0.1005      2.00000
      5       4.3575     -0.00000
      6       5.5896     -0.00000
      7       5.6503     -0.00000
      8       6.6352     -0.00000

 k-point    16 :       0.3333    0.0556    0.0000
  band No.  band energies     occupation 
      1     -19.7687      2.00000
      2     -19.6239      2.00000
      3     -19.6201      2.00000
      4       0.4140      2.00000
      5       3.9996     -0.00000
      6       5.4753     -0.00000
      7       5.5751     -0.00000
      8       6.8873     -0.00000

 k-point    17 :       0.3889    0.0556    0.0000
  band No.  band energies     occupation 
      1     -19.8030      2.00000
      2     -19.6279      2.00000
      3     -19.6258      2.00000
      4       0.9646      2.00000
      5       3.6241     -0.00001
      6       5.3697     -0.00000
      7       5.4867     -0.00000
      8       7.1726     -0.00000

 k-point    18 :       0.4444    0.0556    0.0000
  band No.  band energies     occupation 
      1     -19.8272      2.00000
      2     -19.6304      2.00000
      3     -19.6302      2.00000
      4       1.5001      2.00000
      5       3.2391     -0.05099
      6       5.2970     -0.00000
      7       5.4146     -0.00000
      8       7.4310     -0.00000

 k-point    19 :       0.5000    0.0556    0.0000
  band No.  band energies     occupation 
      1     -19.8388      2.00000
      2     -19.6334      2.00000
      3     -19.6305      2.00000
      4       1.8873      2.00000
      5       2.9328      0.97260
      6       5.2645     -0.00000
      7       5.3766     -0.00000
      8       7.6051     -0.00000

 k-point    20 :      -0.4444    0.0556    0.0000
  band No.  band energies     occupation 
      1     -19.8364      2.00000
      2     -19.6344      2.00000
      3     -19.6288      2.00000
      4       1.7924      2.00000
      5       3.0122      0.36284
      6       5.2723     -0.00000
      7       5.3809     -0.00000
      8       7.5152     -0.00000

 k-point    21 :      -0.3889    0.0556    0.0000
  band No.  band energies     occupation 
      1     -19.8203      2.00000
      2     -19.6333      2.00000
      3     -19.6254      2.00000
      4       1.3284      2.00000
      5       3.3696     -0.00795
      6       5.3185     -0.00000
      7       5.4291     -0.00000
      8       7.3094     -0.00000

 k-point    22 :      -0.3333    0.0556    0.0000
  band No.  band energies     occupation 
      1     -19.7923      2.00000
      2     -19.6302      2.00000
      3     -19.6205      2.00000
      4       0.7799      2.00000
      5       3.7554     -0.00000
      6       5.3977     -0.00000
      7       5.5148     -0.00000
      8       7.0392     -0.00000

 k-point    23 :      -0.2778    0.0556    0.0000
  band No.  band energies     occupation 
      1     -19.7556      2.00000
      2     -19.6254      2.00000
      3     -19.6149      2.00000
      4       0.2369      2.00000
      5       4.1256     -0.00000
      6       5.4942     -0.00000
      7       5.6206     -0.00000
      8       6.7649     -0.00000

 k-point    24 :      -0.2222    0.0556    0.0000
  band No.  band energies     occupation 
      1     -19.7146      2.00000
      2     -19.6196      2.00000
      3     -19.6091      2.00000
      4      -0.2582      2.00000
      5       4.4771     -0.00000
      6       5.5778     -0.00000
      7       5.7065     -0.00000
      8       6.5547     -0.00000

 k-point    25 :      -0.1667    0.0556    0.0000
  band No.  band energies     occupation 
      1     -19.6740      2.00000
      2     -19.6133      2.00000
      3     -19.6039      2.00000
      4      -0.6779      2.00000
      5       4.8044     -0.00000
      6       5.6121     -0.00000
      7       5.7097     -0.00000
      8       6.4831     -0.00000

 k-point    26 :      -0.1111    0.0556    0.0000
  band No.  band energies     occupation 
      1     -19.6391      2.00000
      2     -19.6071      2.00000
      3     -19.5998      2.00000
      4      -1.0029      2.00000
      5       5.0897     -0.00000
      6       5.5871     -0.00000
      7       5.6316     -0.00000
      8       6.5459     -0.00000

 k-point    27 :      -0.0556    0.0556    0.0000
  band No.  band energies     occupation 
      1     -19.6147      2.00000
      2     -19.6015      2.00000
      3     -19.5975      2.00000
      4      -1.2198      2.00000
      5       5.3028     -0.00000
      6       5.5371     -0.00000
      7       5.5477     -0.00000
      8       6.6549     -0.00000

 k-point    28 :       0.1111    0.1111    0.0000
  band No.  band energies     occupation 
      1     -19.6250      2.00000
      2     -19.6065      2.00000
      3     -19.6065      2.00000
      4      -1.0612      2.00000
      5       5.1422     -0.00000
      6       5.6170     -0.00000
      7       5.6170     -0.00000
      8       6.4259     -0.00000

 k-point    29 :       0.1667    0.1111    0.0000
  band No.  band energies     occupation 
      1     -19.6468      2.00000
      2     -19.6120      2.00000
      3     -19.6102      2.00000
      4      -0.8476      2.00000
      5       4.9502     -0.00000
      6       5.6856     -0.00000
      7       5.6947     -0.00000
      8       6.2755     -0.00000

 k-point    30 :       0.2222    0.1111    0.0000
  band No.  band energies     occupation 
      1     -19.6796      2.00000
      2     -19.6182      2.00000
      3     -19.6144      2.00000
      4      -0.5274      2.00000
      5       4.6979     -0.00000
      6       5.6654     -0.00000
      7       5.7584     -0.00000
      8       6.2562     -0.00000

 k-point    31 :       0.2778    0.1111    0.0000
  band No.  band energies     occupation 
      1     -19.7175      2.00000
      2     -19.6244      2.00000
      3     -19.6201      2.00000
      4      -0.1137      2.00000
      5       4.4071     -0.00000
      6       5.5155     -0.00000
      7       5.7670     -0.00000
      8       6.4328     -0.00000

 k-point    32 :       0.3333    0.1111    0.0000
  band No.  band energies     occupation 
      1     -19.7557      2.00000
      2     -19.6297      2.00000
      3     -19.6270      2.00000
      4       0.3751      2.00000
      5       4.0877     -0.00000
      6       5.3430     -0.00000
      7       5.7159     -0.00000
      8       6.7130     -0.00000

 k-point    33 :       0.3889    0.1111    0.0000
  band No.  band energies     occupation 
      1     -19.7896      2.00000
      2     -19.6343      2.00000
      3     -19.6335      2.00000
      4       0.9127      2.00000
      5       3.7411     -0.00000
      6       5.2058     -0.00000
      7       5.6348     -0.00000
      8       7.0347     -0.00000

 k-point    34 :       0.4444    0.1111    0.0000
  band No.  band energies     occupation 
      1     -19.8152      2.00000
      2     -19.6410      2.00000
      3     -19.6355      2.00000
      4       1.4605      2.00000
      5       3.3688     -0.00807
      6       5.1187     -0.00000
      7       5.5563     -0.00000
      8       7.3530     -0.00000

 k-point    35 :       0.5000    0.1111    0.0000
  band No.  band energies     occupation 
      1     -19.8297      2.00000
      2     -19.6464      2.00000
      3     -19.6353      2.00000
      4       1.9377      2.00000
      5       3.0089      0.38400
      6       5.0757     -0.00000
      7       5.5029     -0.00000
      8       7.6152     -0.00000

 k-point    36 :      -0.4444    0.1111    0.0000
  band No.  band energies     occupation 
      1     -19.8315      2.00000
      2     -19.6496      2.00000
      3     -19.6330      2.00000
      4       2.0395      2.00000
      5       2.9324      0.97672
      6       5.0655     -0.00000
      7       5.4876     -0.00000
      8       7.5073     -0.00000

 k-point    37 :      -0.3889    0.1111    0.0000
  band No.  band energies     occupation 
      1     -19.8204      2.00000
      2     -19.6503      2.00000
      3     -19.6289      2.00000
      4       1.6354      2.00000
      5       3.2628     -0.04010
      6       5.0866     -0.00000
      7       5.5166     -0.00000
      8       7.2819     -0.00000

 k-point    38 :      -0.3333    0.1111    0.0000
  band No.  band energies     occupation 
      1     -19.7979      2.00000
      2     -19.6482      2.00000
      3     -19.6234      2.00000
      4       1.0990      2.00000
      5       3.6494     -0.00000
      6       5.1477     -0.00000
      7       5.5897     -0.00000
      8       6.9888     -0.00000

 k-point    39 :      -0.2778    0.1111    0.0000
  band No.  band energies     occupation 
      1     -19.7666      2.00000
      2     -19.6435      2.00000
      3     -19.6172      2.00000
      4       0.5525      2.00000
      5       4.0096     -0.00000
      6       5.2519     -0.00000
      7       5.6987     -0.00000
      8       6.6806     -0.00000

 k-point    40 :      -0.2222    0.1111    0.0000
  band No.  band energies     occupation 
      1     -19.7303      2.00000
      2     -19.6366      2.00000
      3     -19.6111      2.00000
      4       0.0432      2.00000
      5       4.3363     -0.00000
      6       5.3829     -0.00000
      7       5.8171     -0.00000
      8       6.4144     -0.00000

 k-point    41 :      -0.1667    0.1111    0.0000
  band No.  band energies     occupation 
      1     -19.6938      2.00000
      2     -19.6278      2.00000
      3     -19.6057      2.00000
      4      -0.3989      2.00000
      5       4.6303     -0.00000
      6       5.5040     -0.00000
      7       5.8528     -0.00000
      8       6.2970     -0.00000

 k-point    42 :      -0.1111    0.1111    0.0000
  band No.  band energies     occupation 
      1     -19.6620      2.00000
      2     -19.6176      2.00000
      3     -19.6018      2.00000
      4      -0.7525      2.00000
      5       4.8864     -0.00000
      6       5.5755     -0.00000
      7       5.7463     -0.00000
      8       6.3889     -0.00000

 k-point    43 :       0.1667    0.1667    0.0000
  band No.  band energies     occupation 
      1     -19.6571      2.00000
      2     -19.6182      2.00000
      3     -19.6182      2.00000
      4      -0.6761      2.00000
      5       4.8051     -0.00000
      6       5.7922     -0.00000
      7       5.7922     -0.00000
      8       6.0382     -0.00000

 k-point    44 :       0.2222    0.1667    0.0000
  band No.  band energies     occupation 
      1     -19.6814      2.00000
      2     -19.6251      2.00000
      3     -19.6240      2.00000
      4      -0.3981      2.00000
      5       4.6025     -0.00000
      6       5.6991     -0.00000
      7       5.8910     -0.00000
      8       6.0422     -0.00000

 k-point    45 :       0.2778    0.1667    0.0000
  band No.  band energies     occupation 
      1     -19.7133      2.00000
      2     -19.6317      2.00000
      3     -19.6303      2.00000
      4      -0.0242      2.00000
      5       4.3694     -0.00000
      6       5.4264     -0.00000
      7       5.9433     -0.00000
      8       6.2870     -0.00000

 k-point    46 :       0.3333    0.1667    0.0000
  band No.  band energies     occupation 
      1     -19.7469      2.00000
      2     -19.6382      2.00000
      3     -19.6374      2.00000
      4       0.4299      2.00000
      5       4.1120     -0.00000
      6       5.1770     -0.00000
      7       5.9259     -0.00000
      8       6.5951     -0.00000

 k-point    47 :       0.3889    0.1667    0.0000
  band No.  band energies     occupation 
      1     -19.7776      2.00000
      2     -19.6474      2.00000
      3     -19.6414      2.00000
      4       0.9425      2.00000
      5       3.8221     -0.00000
      6       4.9898     -0.00000
      7       5.8592     -0.00000
      8       6.9440     -0.00000

 k-point    48 :       0.4444    0.1667    0.0000
  band No.  band energies     occupation 
      1     -19.8018      2.00000
      2     -19.6567      2.00000
      3     -19.6432      2.00000
      4       1.4841      2.00000
      5       3.4916     -0.00052
      6       4.8757     -0.00000
      7       5.7780     -0.00000
      8       7.3074     -0.00000

 k-point    49 :       0.5000    0.1667    0.0000
  band No.  band energies     occupation 
      1     -19.8167      2.00000
      2     -19.6650      2.00000
      3     -19.6427      2.00000
      4       2.0082      2.00000
      5       3.1291     -0.04969
      6       4.8173     -0.00000
      7       5.7097     -0.00000
      8       7.6345     -0.00000

 k-point    50 :      -0.4444    0.1667    0.0000
  band No.  band energies     occupation 
      1     -19.8209      2.00000
      2     -19.6712      2.00000
      3     -19.6399      2.00000
      4       2.3260      2.00017
      5       2.8891      1.33498
      6       4.7858     -0.00000
      7       5.6719     -0.00000
      8       7.5126     -0.00000

 k-point    51 :      -0.3889    0.1667    0.0000
  band No.  band energies     occupation 
      1     -19.8141      2.00000
      2     -19.6741      2.00000
      3     -19.6351      2.00000
      4       2.0091      2.00000
      5       3.1820     -0.07051
      6       4.7722     -0.00000
      7       5.6746     -0.00000
      8       7.2758     -0.00000

 k-point    52 :      -0.3333    0.1667    0.0000
  band No.  band energies     occupation 
      1     -19.7975      2.00000
      2     -19.6731      2.00000
      3     -19.6289      2.00000
      4       1.4922      2.00000
      5       3.5789     -0.00004
      6       4.8003     -0.00000
      7       5.7222     -0.00000
      8       6.9713     -0.00000

 k-point    53 :      -0.2778    0.1667    0.0000
  band No.  band energies     occupation 
      1     -19.7736      2.00000
      2     -19.6676      2.00000
      3     -19.6221      2.00000
      4       0.9510      2.00000
      5       3.9257     -0.00000
      6       4.9038     -0.00000
      7       5.8143     -0.00000
      8       6.6459     -0.00000

 k-point    54 :      -0.2222    0.1667    0.0000
  band No.  band energies     occupation 
      1     -19.7458      2.00000
      2     -19.6577      2.00000
      3     -19.6155      2.00000
      4       0.4352      2.00000
      5       4.2044     -0.00000
      6       5.0891     -0.00000
      7       5.9461     -0.00000
      8       6.3365     -0.00000

 k-point    55 :      -0.1667    0.1667    0.0000
  band No.  band energies     occupation 
      1     -19.7182      2.00000
      2     -19.6438      2.00000
      3     -19.6098      2.00000
      4      -0.0225      2.00000
      5       4.4316     -0.00000
      6       5.3126     -0.00000
      7       6.0550     -0.00000
      8       6.1227     -0.00000

 k-point    56 :       0.2222    0.2222    0.0000
  band No.  band energies     occupation 
      1     -19.6957      2.00000
      2     -19.6326      2.00000
      3     -19.6326      2.00000
      4      -0.1649      2.00000
      5       4.4404     -0.00000
      6       5.5767     -0.00000
      7       6.0416     -0.00000
      8       6.0416     -0.00000

 k-point    57 :       0.2778    0.2222    0.0000
  band No.  band energies     occupation 
      1     -19.7195      2.00000
      2     -19.6401      2.00000
      3     -19.6399      2.00000
      4       0.1631      2.00000
      5       4.2518     -0.00000
      6       5.3031     -0.00000
      7       6.1579     -0.00000
      8       6.2531     -0.00000

 k-point    58 :       0.3333    0.2222    0.0000
  band No.  band energies     occupation 
      1     -19.7465      2.00000
      2     -19.6489      2.00000
      3     -19.6461      2.00000
      4       0.5728      2.00000
      5       4.0549     -0.00000
      6       5.0219     -0.00000
      7       6.1934     -0.00000
      8       6.5503     -0.00000

 k-point    59 :       0.3889    0.2222    0.0000
  band No.  band energies     occupation 
      1     -19.7718      2.00000
      2     -19.6599      2.00000
      3     -19.6504      2.00000
      4       1.0461      2.00000
      5       3.8406     -0.00000
      6       4.7873     -0.00000
      7       6.1526     -0.00000
      8       6.9046     -0.00000

 k-point    60 :       0.4444    0.2222    0.0000
  band No.  band energies     occupation 
      1     -19.7917      2.00000
      2     -19.6723      2.00000
      3     -19.6524      2.00000
      4       1.5598      2.00000
      5       3.5850     -0.00004
      6       4.6319     -0.00000
      7       6.0738     -0.00000
      8       7.2947     -0.00000

 k-point    61 :       0.5000    0.2222    0.0000
  band No.  band energies     occupation 
      1     -19.8038      2.00000
      2     -19.6847      2.00000
      3     -19.6517      2.00000
      4       2.0852      2.00000
      5       3.2749     -0.03482
      6       4.5476     -0.00000
      7       5.9911     -0.00000
      8       7.6569     -0.00000

 k-point    62 :      -0.4444    0.2222    0.0000
  band No.  band energies     occupation 
      1     -19.8071      2.00000
      2     -19.6952      2.00000
      3     -19.6486      2.00000
      4       2.5691      2.02865
      5       2.9329      0.97216
      6       4.4915     -0.00000
      7       5.9266     -0.00000
      8       7.5325     -0.00000

 k-point    63 :      -0.3889    0.2222    0.0000
  band No.  band energies     occupation 
      1     -19.8021      2.00000
      2     -19.7017      2.00000
      3     -19.6433      2.00000
      4       2.4178      2.00177
      5       3.1302     -0.05088
      6       4.4351     -0.00000
      7       5.8929     -0.00000
      8       7.2968     -0.00000

 k-point    64 :      -0.3333    0.2222    0.0000
  band No.  band energies     occupation 
      1     -19.7907      2.00000
      2     -19.7020      2.00000
      3     -19.6365      2.00000
      4       1.9323      2.00000
      5       3.5555     -0.00009
      6       4.4077     -0.00000
      7       5.8955     -0.00000
      8       7.0010     -0.00000

 k-point    65 :      -0.2778    0.2222    0.0000
  band No.  band energies     occupation 
      1     -19.7761      2.00000
      2     -19.6943      2.00000
      3     -19.6290      2.00000
      4       1.4110      2.00000
      5       3.8891     -0.00000
      6       4.4944     -0.00000
      7       5.9312     -0.00000
      8       6.6966     -0.00000

 k-point    66 :      -0.2222    0.2222    0.0000
  band No.  band energies     occupation 
      1     -19.7610      2.00000
      2     -19.6785      2.00000
      3     -19.6217      2.00000
      4       0.9000      2.00000
      5       4.0771     -0.00000
      6       4.7563     -0.00000
      7       5.9771     -0.00000
      8       6.4399     -0.00000

 k-point    67 :       0.2778    0.2778    0.0000
  band No.  band energies     occupation 
      1     -19.7356      2.00000
      2     -19.6479      2.00000
      3     -19.6479      2.00000
      4       0.4402      2.00000
      5       4.0959     -0.00000
      6       5.1110     -0.00000
      7       6.3653     -0.00000
      8       6.3653     -0.00000

 k-point    68 :       0.3333    0.2778    0.0000
  band No.  band energies     occupation 
      1     -19.7564      2.00000
      2     -19.6562      2.00000
      3     -19.6547      2.00000
      4       0.7955      2.00000
      5       3.9373     -0.00000
      6       4.8728     -0.00000
      7       6.4919     -0.00000
      8       6.6004     -0.00000

 k-point    69 :       0.3889    0.2778    0.0000
  band No.  band energies     occupation 
      1     -19.7760      2.00000
      2     -19.6674      2.00000
      3     -19.6595      2.00000
      4       1.2137      2.00000
      5       3.7851     -0.00000
      6       4.6358     -0.00000
      7       6.5008     -0.00000
      8       6.9249     -0.00000

 k-point    70 :       0.4444    0.2778    0.0000
  band No.  band energies     occupation 
      1     -19.7904      2.00000
      2     -19.6817      2.00000
      3     -19.6619      2.00000
      4       1.6751      2.00000
      5       3.6194     -0.00001
      6       4.4459     -0.00000
      7       6.4333     -0.00000
      8       7.3137     -0.00000

 k-point    71 :       0.5000    0.2778    0.0000
  band No.  band energies     occupation 
      1     -19.7973      2.00000
      2     -19.6981      2.00000
      3     -19.6614      2.00000
      4       2.1574      2.00000
      5       3.4077     -0.00373
      6       4.3248     -0.00000
      7       6.3373     -0.00000
      8       7.6824     -0.00000

 k-point    72 :      -0.4444    0.2778    0.0000
  band No.  band energies     occupation 
      1     -19.7958      2.00000
      2     -19.7147      2.00000
      3     -19.6581      2.00000
      4       2.6389      2.05932
      5       3.1355     -0.05583
      6       4.2393     -0.00000
      7       6.2406     -0.00000
      8       7.5675     -0.00000

 k-point    73 :      -0.3889    0.2778    0.0000
  band No.  band energies     occupation 
      1     -19.7875      2.00000
      2     -19.7281      2.00000
      3     -19.6525      2.00000
      4       2.7854      1.93404
      5       3.1183     -0.03639
      6       4.1391     -0.00000
      7       6.1565     -0.00000
      8       7.3494     -0.00000

 k-point    74 :      -0.3333    0.2778    0.0000
  band No.  band energies     occupation 
      1     -19.7781      2.00000
      2     -19.7319      2.00000
      3     -19.6451      2.00000
      4       2.3722      2.00058
      5       3.5700     -0.00006
      6       4.0307     -0.00000
      7       6.0867     -0.00000
      8       7.0906     -0.00000

 k-point    75 :      -0.2778    0.2778    0.0000
  band No.  band energies     occupation 
      1     -19.7757      2.00000
      2     -19.7186      2.00000
      3     -19.6370      2.00000
      4       1.8994      2.00000
      5       3.8859     -0.00000
      6       4.0828     -0.00000
      7       6.0194     -0.00000
      8       6.8540     -0.00000

 k-point    76 :       0.3333    0.3333    0.0000
  band No.  band energies     occupation 
      1     -19.7722      2.00000
      2     -19.6622      2.00000
      3     -19.6622      2.00000
      4       1.0872      2.00000
      5       3.8035     -0.00000
      6       4.7061     -0.00000
      7       6.7580     -0.00000
      8       6.7580     -0.00000

 k-point    77 :       0.3889    0.3333    0.0000
  band No.  band energies     occupation 
      1     -19.7879      2.00000
      2     -19.6705      2.00000
      3     -19.6677      2.00000
      4       1.4335      2.00000
      5       3.6841     -0.00000
      6       4.5220     -0.00000
      7       6.8760     -0.00000
      8       7.0190     -0.00000

 k-point    78 :       0.4444    0.3333    0.0000
  band No.  band energies     occupation 
      1     -19.7988      2.00000
      2     -19.6829      2.00000
      3     -19.6705      2.00000
      4       1.8171      2.00000
      5       3.5816     -0.00004
      6       4.3451     -0.00000
      7       6.8383     -0.00000
      8       7.3680     -0.00000

 k-point    79 :       0.5000    0.3333    0.0000
  band No.  band energies     occupation 
      1     -19.8020      2.00000
      2     -19.6996      2.00000
      3     -19.6703      2.00000
      4       2.2172      2.00001
      5       3.4735     -0.00082
      6       4.2023     -0.00000
      7       6.7314     -0.00000
      8       7.7090     -0.00000

 k-point    80 :      -0.4444    0.3333    0.0000
  band No.  band energies     occupation 
      1     -19.7962      2.00000
      2     -19.7194      2.00000
      3     -19.6672      2.00000
      4       2.6091      2.04588
      5       3.3372     -0.01411
      6       4.0895     -0.00000
      7       6.5957     -0.00000
      8       7.6174     -0.00000

 k-point    81 :      -0.3889    0.3333    0.0000
  band No.  band energies     occupation 
      1     -19.7816      2.00000
      2     -19.7405      2.00000
      3     -19.6615      2.00000
      4       2.8967      1.27438
      5       3.2375     -0.05172
      6       3.9681     -0.00000
      7       6.4429     -0.00000
      8       7.4368     -0.00000

 k-point    82 :      -0.3333    0.3333    0.0000
  band No.  band energies     occupation 
      1     -19.7610      2.00000
      2     -19.7592      2.00000
      3     -19.6538      2.00000
      4       2.7422      2.03467
      5       3.4572     -0.00122
      6       3.8660     -0.00000
      7       6.2732     -0.00000
      8       7.2432     -0.00000

 k-point    83 :       0.3889    0.3889    0.0000
  band No.  band energies     occupation 
      1     -19.8014      2.00000
      2     -19.6738      2.00000
      3     -19.6738      2.00000
      4       1.6919      2.00000
      5       3.5831     -0.00004
      6       4.4134     -0.00000
      7       7.1990     -0.00000
      8       7.1990     -0.00000

 k-point    84 :       0.4444    0.3889    0.0000
  band No.  band energies     occupation 
      1     -19.8109      2.00000
      2     -19.6811      2.00000
      3     -19.6773      2.00000
      4       1.9732      2.00000
      5       3.5080     -0.00034
      6       4.2986     -0.00000
      7       7.2530     -0.00000
      8       7.4673     -0.00000

 k-point    85 :       0.5000    0.3889    0.0000
  band No.  band energies     occupation 
      1     -19.8132      2.00000
      2     -19.6933      2.00000
      3     -19.6777      2.00000
      4       2.2602      2.00002
      5       3.4581     -0.00120
      6       4.1853     -0.00000
      7       7.1395     -0.00000
      8       7.7370     -0.00000

 k-point    86 :      -0.4444    0.3889    0.0000
  band No.  band energies     occupation 
      1     -19.8073      2.00000
      2     -19.7099      2.00000
      3     -19.6749      2.00000
      4       2.5336      2.01705
      5       3.4166     -0.00308
      6       4.0783     -0.00000
      7       6.9594     -0.00000
      8       7.6825     -0.00000

 k-point    87 :      -0.3889    0.3889    0.0000
  band No.  band energies     occupation 
      1     -19.7943      2.00000
      2     -19.7284      2.00000
      3     -19.6692      2.00000
      4       2.7645      1.99260
      5       3.3605     -0.00941
      6       3.9804     -0.00000
      7       6.7213     -0.00000
      8       7.5566     -0.00000

 k-point    88 :       0.4444    0.4444    0.0000
  band No.  band energies     occupation 
      1     -19.8201      2.00000
      2     -19.6815      2.00000
      3     -19.6815      2.00000
      4       2.1324      2.00000
      5       3.4467     -0.00157
      6       4.2601     -0.00000
      7       7.5678     -0.00000
      8       7.6207     -0.00000

 k-point    89 :       0.5000    0.4444    0.0000
  band No.  band energies     occupation 
      1     -19.8229      2.00000
      2     -19.6867      2.00000
      3     -19.6824      2.00000
      4       2.2851      2.00005
      5       3.4181     -0.00298
      6       4.2087     -0.00000
      7       7.4765     -0.00000
      8       7.7783     -0.00000

 k-point    90 :      -0.4444    0.4444    0.0000
  band No.  band energies     occupation 
      1     -19.8181      2.00000
      2     -19.6969      2.00000
      3     -19.6801      2.00000
      4       2.4223      2.00196
      5       3.4180     -0.00299
      6       4.1420     -0.00000
      7       7.2735     -0.00000
      8       7.7573     -0.00000

 k-point    91 :       0.5000    0.5000    0.0000
  band No.  band energies     occupation 
      1     -19.8266      2.00000
      2     -19.6841      2.00000
      3     -19.6841      2.00000
      4       2.2930      2.00006
      5       3.4005     -0.00432
      6       4.2212     -0.00000
      7       7.5956     -0.00000
      8       7.8259     -0.00000

 k-point    92 :       0.1667    0.1111    0.0556
  band No.  band energies     occupation 
      1     -19.6374      2.00000
      2     -19.6094      2.00000
      3     -19.6025      2.00000
      4      -0.9832      2.00000
      5       5.0735     -0.00000
      6       5.6049     -0.00000
      7       5.6495     -0.00000
      8       6.4444     -0.00000

 k-point    93 :       0.2222    0.1111    0.0556
  band No.  band energies     occupation 
      1     -19.6667      2.00000
      2     -19.6171      2.00000
      3     -19.6055      2.00000
      4      -0.6958      2.00000
      5       4.8329     -0.00000
      6       5.6113     -0.00000
      7       5.7501     -0.00000
      8       6.3407     -0.00000

 k-point    94 :       0.2778    0.1111    0.0556
  band No.  band energies     occupation 
      1     -19.7035      2.00000
      2     -19.6246      2.00000
      3     -19.6102      2.00000
      4      -0.3093      2.00000
      5       4.5444     -0.00000
      6       5.5441     -0.00000
      7       5.7854     -0.00000
      8       6.3791     -0.00000

 k-point    95 :       0.3333    0.1111    0.0556
  band No.  band energies     occupation 
      1     -19.7426      2.00000
      2     -19.6314      2.00000
      3     -19.6160      2.00000
      4       0.1594      2.00000
      5       4.2239     -0.00000
      6       5.4204     -0.00000
      7       5.7227     -0.00000
      8       6.5852     -0.00000

 k-point    96 :       0.3889    0.1111    0.0556
  band No.  band energies     occupation 
      1     -19.7792      2.00000
      2     -19.6370      2.00000
      3     -19.6220      2.00000
      4       0.6866      2.00000
      5       3.8771     -0.00000
      6       5.2939     -0.00000
      7       5.6242     -0.00000
      8       6.8735     -0.00000

 k-point    97 :       0.4444    0.1111    0.0556
  band No.  band energies     occupation 
      1     -19.8088      2.00000
      2     -19.6409      2.00000
      3     -19.6275      2.00000
      4       1.2376      2.00000
      5       3.5045     -0.00037
      6       5.1990     -0.00000
      7       5.5330     -0.00000
      8       7.1774     -0.00000

 k-point    98 :       0.5000    0.1111    0.0556
  band No.  band energies     occupation 
      1     -19.8281      2.00000
      2     -19.6432      2.00000
      3     -19.6314      2.00000
      4       1.7515      2.00000
      5       3.1243     -0.04426
      6       5.1455     -0.00000
      7       5.4711     -0.00000
      8       7.4383     -0.00000

 k-point    99 :      -0.4444    0.1111    0.0556
  band No.  band energies     occupation 
      1     -19.8347      2.00000
      2     -19.6438      2.00000
      3     -19.6329      2.00000
      4       2.0276      2.00000
      5       2.8980      1.26365
      6       5.1291     -0.00000
      7       5.4493     -0.00000
      8       7.5655     -0.00000

 k-point   100 :       0.2222    0.1667    0.0556
  band No.  band energies     occupation 
      1     -19.6683      2.00000
      2     -19.6213      2.00000
      3     -19.6134      2.00000
      4      -0.6013      2.00000
      5       4.7568     -0.00000
      6       5.6738     -0.00000
      7       5.8215     -0.00000
      8       6.1446     -0.00000

 k-point   101 :       0.2778    0.1667    0.0556
  band No.  band energies     occupation 
      1     -19.6988      2.00000
      2     -19.6308      2.00000
      3     -19.6174      2.00000
      4      -0.2535      2.00000
      5       4.5223     -0.00000
      6       5.5204     -0.00000
      7       5.9098     -0.00000
      8       6.1996     -0.00000

 k-point   102 :       0.3333    0.1667    0.0556
  band No.  band energies     occupation 
      1     -19.7333      2.00000
      2     -19.6392      2.00000
      3     -19.6229      2.00000
      4       0.1814      2.00000
      5       4.2582     -0.00000
      6       5.3064     -0.00000
      7       5.8858     -0.00000
      8       6.4362     -0.00000

 k-point   103 :       0.3889    0.1667    0.0556
  band No.  band energies     occupation 
      1     -19.7670      2.00000
      2     -19.6465      2.00000
      3     -19.6291      2.00000
      4       0.6832      2.00000
      5       3.9620     -0.00000
      6       5.1185     -0.00000
      7       5.8075     -0.00000
      8       6.7464     -0.00000

 k-point   104 :       0.4444    0.1667    0.0556
  band No.  band energies     occupation 
      1     -19.7955      2.00000
      2     -19.6526      2.00000
      3     -19.6346      2.00000
      4       1.2240      2.00000
      5       3.6273     -0.00001
      6       4.9912     -0.00000
      7       5.7173     -0.00000
      8       7.0799     -0.00000

 k-point   105 :       0.5000    0.1667    0.0556
  band No.  band energies     occupation 
      1     -19.8155      2.00000
      2     -19.6576      2.00000
      3     -19.6380      2.00000
      4       1.7617      2.00000
      5       3.2575     -0.04248
      6       4.9241     -0.00000
      7       5.6428     -0.00000
      8       7.3824     -0.00000

 k-point   106 :      -0.4444    0.1667    0.0556
  band No.  band energies     occupation 
      1     -19.8248      2.00000
      2     -19.6613      2.00000
      3     -19.6386      2.00000
      4       2.1862      2.00000
      5       2.9257      1.03347
      6       4.8967     -0.00000
      7       5.6008     -0.00000
      8       7.5308     -0.00000

 k-point   107 :      -0.3889    0.1667    0.0556
  band No.  band energies     occupation 
      1     -19.8224      2.00000
      2     -19.6631      2.00000
      3     -19.6362      2.00000
      4       2.0738      2.00000
      5       3.0312      0.25087
      6       4.8917     -0.00000
      7       5.6006     -0.00000
      8       7.4172     -0.00000

 k-point   108 :      -0.3333    0.1667    0.0556
  band No.  band energies     occupation 
      1     -19.8086      2.00000
      2     -19.6623      2.00000
      3     -19.6316      2.00000
      4       1.5888      2.00000
      5       3.4125     -0.00337
      6       4.9165     -0.00000
      7       5.6444     -0.00000
      8       7.1563     -0.00000

 k-point   109 :      -0.2778    0.1667    0.0556
  band No.  band energies     occupation 
      1     -19.7852      2.00000
      2     -19.6586      2.00000
      3     -19.6256      2.00000
      4       1.0448      2.00000
      5       3.7818     -0.00000
      6       4.9941     -0.00000
      7       5.7286     -0.00000
      8       6.8393     -0.00000

 k-point   110 :      -0.2222    0.1667    0.0556
  band No.  band energies     occupation 
      1     -19.7551      2.00000
      2     -19.6518      2.00000
      3     -19.6192      2.00000
      4       0.5124      2.00000
      5       4.1042     -0.00000
      6       5.1361     -0.00000
      7       5.8424     -0.00000
      8       6.5216     -0.00000

 k-point   111 :      -0.1667    0.1667    0.0556
  band No.  band energies     occupation 
      1     -19.7225      2.00000
      2     -19.6422      2.00000
      3     -19.6132      2.00000
      4       0.0289      2.00000
      5       4.3813     -0.00000
      6       5.3230     -0.00000
      7       5.9552     -0.00000
      8       6.2551     -0.00000

 k-point   112 :      -0.1111    0.1667    0.0556
  band No.  band energies     occupation 
      1     -19.6917      2.00000
      2     -19.6302      2.00000
      3     -19.6084      2.00000
      4      -0.3799      2.00000
      5       4.6233     -0.00000
      6       5.5017     -0.00000
      7       5.9088     -0.00000
      8       6.2078     -0.00000

 k-point   113 :       0.2778    0.2222    0.0556
  band No.  band energies     occupation 
      1     -19.7041      2.00000
      2     -19.6360      2.00000
      3     -19.6282      2.00000
      4      -0.0938      2.00000
      5       4.4112     -0.00000
      6       5.4696     -0.00000
      7       6.0666     -0.00000
      8       6.1069     -0.00000

 k-point   114 :       0.3333    0.2222    0.0556
  band No.  band energies     occupation 
      1     -19.7319      2.00000
      2     -19.6465      2.00000
      3     -19.6332      2.00000
      4       0.2995      2.00000
      5       4.2049     -0.00000
      6       5.1875     -0.00000
      7       6.1062     -0.00000
      8       6.3529     -0.00000

 k-point   115 :       0.3889    0.2222    0.0556
  band No.  band energies     occupation 
      1     -19.7601      2.00000
      2     -19.6563      2.00000
      3     -19.6391      2.00000
      4       0.7650      2.00000
      5       3.9796     -0.00000
      6       4.9369     -0.00000
      7       6.0585     -0.00000
      8       6.6740     -0.00000

 k-point   116 :       0.4444    0.2222    0.0556
  band No.  band energies     occupation 
      1     -19.7846      2.00000
      2     -19.6656      2.00000
      3     -19.6443      2.00000
      4       1.2798      2.00000
      5       3.7143     -0.00000
      6       4.7604     -0.00000
      7       5.9753     -0.00000
      8       7.0258     -0.00000

 k-point   117 :       0.5000    0.2222    0.0556
  band No.  band energies     occupation 
      1     -19.8024      2.00000
      2     -19.6746      2.00000
      3     -19.6471      2.00000
      4       1.8138      2.00000
      5       3.3949     -0.00486
      6       4.6659     -0.00000
      7       5.8894     -0.00000
      8       7.3550     -0.00000

 k-point   118 :      -0.4444    0.2222    0.0556
  band No.  band energies     occupation 
      1     -19.8114      2.00000
      2     -19.6824      2.00000
      3     -19.6468      2.00000
      4       2.3194      2.00014
      5       3.0356      0.22756
      6       4.6211     -0.00000
      7       5.8242     -0.00000
      8       7.5088     -0.00000

 k-point   119 :      -0.3889    0.2222    0.0556
  band No.  band energies     occupation 
      1     -19.8111      2.00000
      2     -19.6877      2.00000
      3     -19.6437      2.00000
      4       2.4472      2.00340
      5       2.9602      0.74412
      6       4.5889     -0.00000
      7       5.7952     -0.00000
      8       7.4056     -0.00000

 k-point   120 :      -0.3333    0.2222    0.0556
  band No.  band energies     occupation 
      1     -19.8019      2.00000
      2     -19.6890      2.00000
      3     -19.6384      2.00000
      4       1.9963      2.00000
      5       3.3591     -0.00965
      6       4.5720     -0.00000
      7       5.8091     -0.00000
      8       7.1566     -0.00000

 k-point   121 :      -0.2778    0.2222    0.0556
  band No.  band energies     occupation 
      1     -19.7856      2.00000
      2     -19.6851      2.00000
      3     -19.6317      2.00000
      4       1.4704      2.00000
      5       3.7323     -0.00000
      6       4.6179     -0.00000
      7       5.8648     -0.00000
      8       6.8448     -0.00000

 k-point   122 :      -0.2222    0.2222    0.0556
  band No.  band energies     occupation 
      1     -19.7651      2.00000
      2     -19.6754      2.00000
      3     -19.6246      2.00000
      4       0.9432      2.00000
      5       4.0140     -0.00000
      6       4.7797     -0.00000
      7       5.9550     -0.00000
      8       6.5293     -0.00000

 k-point   123 :      -0.1667    0.2222    0.0556
  band No.  band energies     occupation 
      1     -19.7433      2.00000
      2     -19.6604      2.00000
      3     -19.6182      2.00000
      4       0.4531      2.00000
      5       4.2129     -0.00000
      6       5.0427     -0.00000
      7       6.0514     -0.00000
      8       6.2640     -0.00000

 k-point   124 :       0.3333    0.2778    0.0556
  band No.  band energies     occupation 
      1     -19.7406      2.00000
      2     -19.6515      2.00000
      3     -19.6445      2.00000
      4       0.5073      2.00000
      5       4.0826     -0.00000
      6       5.0517     -0.00000
      7       6.3440     -0.00000
      8       6.3852     -0.00000

 k-point   125 :       0.3889    0.2778    0.0556
  band No.  band energies     occupation 
      1     -19.7626      2.00000
      2     -19.6628      2.00000
      3     -19.6500      2.00000
      4       0.9243      2.00000
      5       3.9167     -0.00000
      6       4.7879     -0.00000
      7       6.3628     -0.00000
      8       6.6706     -0.00000

 k-point   126 :       0.4444    0.2778    0.0556
  band No.  band energies     occupation 
      1     -19.7813      2.00000
      2     -19.6750      2.00000
      3     -19.6549      2.00000
      4       1.3950      2.00000
      5       3.7367     -0.00000
      6       4.5686     -0.00000
      7       6.2977     -0.00000
      8       7.0190     -0.00000

 k-point   127 :       0.5000    0.2778    0.0556
  band No.  band energies     occupation 
      1     -19.7940      2.00000
      2     -19.6884      2.00000
      3     -19.6573      2.00000
      4       1.8956      2.00000
      5       3.5074     -0.00034
      6       4.4314     -0.00000
      7       6.2022     -0.00000
      8       7.3607     -0.00000

 k-point   128 :      -0.4444    0.2778    0.0556
  band No.  band energies     occupation 
      1     -19.7992      2.00000
      2     -19.7018      2.00000
      3     -19.6565      2.00000
      4       2.4003      2.00117
      5       3.2120     -0.06265
      6       4.3589     -0.00000
      7       6.1082     -0.00000
      8       7.5136     -0.00000

 k-point   129 :      -0.3889    0.2778    0.0556
  band No.  band energies     occupation 
      1     -19.7969      2.00000
      2     -19.7127      2.00000
      3     -19.6528      2.00000
      4       2.8347      1.71142
      5       2.9034      1.21940
      6       4.2954     -0.00000
      7       6.0386     -0.00000
      8       7.4181     -0.00000

 k-point   130 :      -0.3333    0.2778    0.0556
  band No.  band energies     occupation 
      1     -19.7894      2.00000
      2     -19.7178      2.00000
      3     -19.6469      2.00000
      4       2.4171      2.00174
      5       3.3488     -0.01158
      6       4.2223     -0.00000
      7       6.0053     -0.00000
      8       7.1975     -0.00000

 k-point   131 :      -0.2778    0.2778    0.0556
  band No.  band energies     occupation 
      1     -19.7805      2.00000
      2     -19.7132      2.00000
      3     -19.6395      2.00000
      4       1.9328      2.00000
      5       3.7422     -0.00000
      6       4.2050     -0.00000
      7       6.0014     -0.00000
      8       6.9231     -0.00000

 k-point   132 :      -0.2222    0.2778    0.0556
  band No.  band energies     occupation 
      1     -19.7729      2.00000
      2     -19.6978      2.00000
      3     -19.6317      2.00000
      4       1.4279      2.00000
      5       3.9401     -0.00000
      6       4.4132     -0.00000
      7       6.0011     -0.00000
      8       6.6737     -0.00000

 k-point   133 :       0.3889    0.3333    0.0556
  band No.  band energies     occupation 
      1     -19.7737      2.00000
      2     -19.6661      2.00000
      3     -19.6601      2.00000
      4       1.1513      2.00000
      5       3.8023     -0.00000
      6       4.6595     -0.00000
      7       6.6710     -0.00000
      8       6.7721     -0.00000

 k-point   134 :       0.4444    0.3333    0.0556
  band No.  band energies     occupation 
      1     -19.7878      2.00000
      2     -19.6779      2.00000
      3     -19.6650      2.00000
      4       1.5579      2.00000
      5       3.6831     -0.00000
      6       4.4471     -0.00000
      7       6.6657     -0.00000
      8       7.0684     -0.00000

 k-point   135 :       0.5000    0.3333    0.0556
  band No.  band energies     occupation 
      1     -19.7957      2.00000
      2     -19.6930      2.00000
      3     -19.6673      2.00000
      4       1.9941      2.00000
      5       3.5541     -0.00009
      6       4.2778     -0.00000
      7       6.5672     -0.00000
      8       7.4023     -0.00000

 k-point   136 :      -0.4444    0.3333    0.0556
  band No.  band energies     occupation 
      1     -19.7956      2.00000
      2     -19.7109      2.00000
      3     -19.6664      2.00000
      4       2.4365      2.00270
      5       3.3800     -0.00652
      6       4.1679     -0.00000
      7       6.4374     -0.00000
      8       7.5602     -0.00000

 k-point   137 :      -0.3889    0.3333    0.0556
  band No.  band energies     occupation 
      1     -19.7873      2.00000
      2     -19.7294      2.00000
      3     -19.6624      2.00000
      4       2.8416      1.67098
      5       3.1732     -0.07090
      6       4.0729     -0.00000
      7       6.3091     -0.00000
      8       7.4766     -0.00000

 k-point   138 :      -0.3333    0.3333    0.0556
  band No.  band energies     occupation 
      1     -19.7737      2.00000
      2     -19.7443      2.00000
      3     -19.6559      2.00000
      4       2.7698      1.97957
      5       3.3607     -0.00938
      6       3.9492     -0.00000
      7       6.2047     -0.00000
      8       7.2957     -0.00000

 k-point   139 :      -0.2778    0.3333    0.0556
  band No.  band energies     occupation 
      1     -19.7719      2.00000
      2     -19.7382      2.00000
      3     -19.6479      2.00000
      4       2.3855      2.00082
      5       3.7613     -0.00000
      6       3.8384     -0.00000
      7       6.1124     -0.00000
      8       7.0858     -0.00000

 k-point   140 :       0.4444    0.3889    0.0556
  band No.  band energies     occupation 
      1     -19.7998      2.00000
      2     -19.6780      2.00000
      3     -19.6730      2.00000
      4       1.7553      2.00000
      5       3.5903     -0.00003
      6       4.3704     -0.00000
      7       7.0248     -0.00000
      8       7.2070     -0.00000

 k-point   141 :       0.5000    0.3889    0.0556
  band No.  band energies     occupation 
      1     -19.8057      2.00000
      2     -19.6897      2.00000
      3     -19.6759      2.00000
      4       2.0977      2.00000
      5       3.5210     -0.00024
      6       4.2237     -0.00000
      7       6.9573     -0.00000
      8       7.4843     -0.00000

 k-point   142 :      -0.4444    0.3889    0.0556
  band No.  band energies     occupation 
      1     -19.8036      2.00000
      2     -19.7064      2.00000
      3     -19.6751      2.00000
      4       2.4389      2.00284
      5       3.4539     -0.00132
      6       4.1006     -0.00000
      7       6.7922     -0.00000
      8       7.6486     -0.00000

 k-point   143 :      -0.3889    0.3889    0.0556
  band No.  band energies     occupation 
      1     -19.7931      2.00000
      2     -19.7262      2.00000
      3     -19.6710      2.00000
      4       2.7467      2.02768
      5       3.3750     -0.00718
      6       3.9913     -0.00000
      7       6.5910     -0.00000
      8       7.5880     -0.00000

 k-point   144 :      -0.3333    0.3889    0.0556
  band No.  band energies     occupation 
      1     -19.7762      2.00000
      2     -19.7460      2.00000
      3     -19.6643      2.00000
      4       2.9151      1.12236
      5       3.3336     -0.01499
      6       3.8932     -0.00000
      7       6.3941     -0.00000
      8       7.4454     -0.00000

 k-point   145 :       0.5000    0.4444    0.0556
  band No.  band energies     occupation 
      1     -19.8166      2.00000
      2     -19.6857      2.00000
      3     -19.6815      2.00000
      4       2.1968      2.00000
      5       3.4589     -0.00118
      6       4.2177     -0.00000
      7       7.3040     -0.00000
      8       7.6234     -0.00000

 k-point   146 :      -0.4444    0.4444    0.0556
  band No.  band energies     occupation 
      1     -19.8149      2.00000
      2     -19.6963      2.00000
      3     -19.6816      2.00000
      4       2.4113      2.00152
      5       3.4396     -0.00185
      6       4.1312     -0.00000
      7       7.1382     -0.00000
      8       7.7563     -0.00000

 k-point   147 :      -0.3889    0.4444    0.0556
  band No.  band energies     occupation 
      1     -19.8060      2.00000
      2     -19.7114      2.00000
      3     -19.6778      2.00000
      4       2.6006      2.04202
      5       3.4300     -0.00229
      6       4.0439     -0.00000
      7       6.8780     -0.00000
      8       7.7065     -0.00000

 k-point   148 :      -0.4444    0.5000    0.0556
  band No.  band energies     occupation 
      1     -19.8223      2.00000
      2     -19.6884      2.00000
      3     -19.6844      2.00000
      4       2.3581      2.00041
      5       3.4143     -0.00323
      6       4.1789     -0.00000
      7       7.4016     -0.00000
      8       7.8263     -0.00000

 k-point   149 :       0.3333    0.2222    0.1111
  band No.  band energies     occupation 
      1     -19.7228      2.00000
      2     -19.6456      2.00000
      3     -19.6211      2.00000
      4       0.1157      2.00000
      5       4.3302     -0.00000
      6       5.2710     -0.00000
      7       6.1349     -0.00000
      8       6.1407     -0.00000

 k-point   150 :       0.3889    0.2222    0.1111
  band No.  band energies     occupation 
      1     -19.7492      2.00000
      2     -19.6589      2.00000
      3     -19.6266      2.00000
      4       0.5646      2.00000
      5       4.1214     -0.00000
      6       5.0090     -0.00000
      7       6.0429     -0.00000
      8       6.4237     -0.00000

 k-point   151 :       0.4444    0.2222    0.1111
  band No.  band energies     occupation 
      1     -19.7746      2.00000
      2     -19.6692      2.00000
      3     -19.6330      2.00000
      4       1.0713      2.00000
      5       3.8709     -0.00000
      6       4.8025     -0.00000
      7       5.9380     -0.00000
      8       6.7456     -0.00000

 k-point   152 :       0.5000    0.2222    0.1111
  band No.  band energies     occupation 
      1     -19.7956      2.00000
      2     -19.6763      2.00000
      3     -19.6390      2.00000
      4       1.6059      2.00000
      5       3.5546     -0.00009
      6       4.6887     -0.00000
      7       5.8445     -0.00000
      8       7.0736     -0.00000

 k-point   153 :      -0.4444    0.2222    0.1111
  band No.  band energies     occupation 
      1     -19.8095      2.00000
      2     -19.6804      2.00000
      3     -19.6433      2.00000
      4       2.1261      2.00000
      5       3.1808     -0.07063
      6       4.6511     -0.00000
      7       5.7799     -0.00000
      8       7.3431     -0.00000

 k-point   154 :      -0.3889    0.2222    0.1111
  band No.  band energies     occupation 
      1     -19.8143      2.00000
      2     -19.6817      2.00000
      3     -19.6449      2.00000
      4       2.4689      2.00532
      5       2.8901      1.32751
      6       4.6462     -0.00000
      7       5.7566     -0.00000
      8       7.4504     -0.00000

 k-point   155 :       0.3889    0.2778    0.1111
  band No.  band energies     occupation 
      1     -19.7521      2.00000
      2     -19.6620      2.00000
      3     -19.6377      2.00000
      4       0.7044      2.00000
      5       4.0465     -0.00000
      6       4.9014     -0.00000
      7       6.2494     -0.00000
      8       6.4435     -0.00000

 k-point   156 :       0.4444    0.2778    0.1111
  band No.  band energies     occupation 
      1     -19.7711      2.00000
      2     -19.6760      2.00000
      3     -19.6435      2.00000
      4       1.1721      2.00000
      5       3.8801     -0.00000
      6       4.6391     -0.00000
      7       6.1999     -0.00000
      8       6.7231     -0.00000

 k-point   157 :       0.5000    0.2778    0.1111
  band No.  band energies     occupation 
      1     -19.7867      2.00000
      2     -19.6877      2.00000
      3     -19.6493      2.00000
      4       1.6775      2.00000
      5       3.6587     -0.00000
      6       4.4663     -0.00000
      7       6.1037     -0.00000
      8       7.0463     -0.00000

 k-point   158 :      -0.4444    0.2778    0.1111
  band No.  band energies     occupation 
      1     -19.7968      2.00000
      2     -19.6971      2.00000
      3     -19.6532      2.00000
      4       2.1906      2.00000
      5       3.3529     -0.01077
      6       4.3974     -0.00000
      7       6.0108     -0.00000
      8       7.3125     -0.00000

 k-point   159 :      -0.3889    0.2778    0.1111
  band No.  band energies     occupation 
      1     -19.8005      2.00000
      2     -19.7035      2.00000
      3     -19.6540      2.00000
      4       2.6746      2.07018
      5       2.9822      0.57187
      6       4.3748     -0.00000
      7       5.9494     -0.00000
      8       7.4050     -0.00000

 k-point   160 :      -0.3333    0.2778    0.1111
  band No.  band energies     occupation 
      1     -19.7977      2.00000
      2     -19.7060      2.00000
      3     -19.6513      2.00000
      4       2.5196      2.01356
      5       3.1472     -0.06401
      6       4.3484     -0.00000
      7       5.9406     -0.00000
      8       7.3222     -0.00000

 k-point   161 :      -0.2778    0.2778    0.1111
  band No.  band energies     occupation 
      1     -19.7896      2.00000
      2     -19.7030      2.00000
      3     -19.6461      2.00000
      4       2.0315      2.00000
      5       3.5372     -0.00015
      6       4.3402     -0.00000
      7       5.9812     -0.00000
      8       7.0956     -0.00000

 k-point   162 :      -0.2222    0.2778    0.1111
  band No.  band energies     occupation 
      1     -19.7780      2.00000
      2     -19.6936      2.00000
      3     -19.6393      2.00000
      4       1.5186      2.00000
      5       3.8286     -0.00000
      6       4.4375     -0.00000
      7       6.0480     -0.00000
      8       6.8020     -0.00000

 k-point   163 :      -0.1667    0.2778    0.1111
  band No.  band energies     occupation 
      1     -19.7642      2.00000
      2     -19.6781      2.00000
      3     -19.6324      2.00000
      4       1.0186      2.00000
      5       3.9959     -0.00000
      6       4.6902     -0.00000
      7       6.1012     -0.00000
      8       6.5389     -0.00000

 k-point   164 :       0.4444    0.3333    0.1111
  band No.  band energies     occupation 
      1     -19.7768      2.00000
      2     -19.6774      2.00000
      3     -19.6552      2.00000
      4       1.3380      2.00000
      5       3.8010     -0.00000
      6       4.5324     -0.00000
      7       6.4664     -0.00000
      8       6.8129     -0.00000

 k-point   165 :       0.5000    0.3333    0.1111
  band No.  band energies     occupation 
      1     -19.7868      2.00000
      2     -19.6918      2.00000
      3     -19.6607      2.00000
      4       1.7922      2.00000
      5       3.6812     -0.00000
      6       4.3140     -0.00000
      7       6.4019     -0.00000
      8       7.0898     -0.00000

 k-point   166 :      -0.4444    0.3333    0.1111
  band No.  band energies     occupation 
      1     -19.7910      2.00000
      2     -19.7064      2.00000
      3     -19.6642      2.00000
      4       2.2600      2.00002
      5       3.4978     -0.00044
      6       4.1900     -0.00000
      7       6.2756     -0.00000
      8       7.3507     -0.00000

 k-point   167 :      -0.3889    0.3333    0.1111
  band No.  band energies     occupation 
      1     -19.7890      2.00000
      2     -19.7204      2.00000
      3     -19.6643      2.00000
      4       2.7113      2.06441
      5       3.2346     -0.05305
      6       4.1362     -0.00000
      7       6.1520     -0.00000
      8       7.4402     -0.00000

 k-point   168 :      -0.3333    0.3333    0.1111
  band No.  band energies     occupation 
      1     -19.7828      2.00000
      2     -19.7304      2.00000
      3     -19.6608      2.00000
      4       2.8473      1.63530
      5       3.1911     -0.06904
      6       4.0716     -0.00000
      7       6.0842     -0.00000
      8       7.3732     -0.00000

 k-point   169 :      -0.2778    0.3333    0.1111
  band No.  band energies     occupation 
      1     -19.7779      2.00000
      2     -19.7300      2.00000
      3     -19.6546      2.00000
      4       2.4535      2.00389
      5       3.5782     -0.00005
      6       3.9899     -0.00000
      7       6.0805     -0.00000
      8       7.1942     -0.00000

 k-point   170 :      -0.2222    0.3333    0.1111
  band No.  band energies     occupation 
      1     -19.7778      2.00000
      2     -19.7158      2.00000
      3     -19.6469      2.00000
      4       1.9934      2.00000
      5       3.8166     -0.00000
      6       4.0783     -0.00000
      7       6.0889     -0.00000
      8       6.9669     -0.00000

 k-point   171 :       0.5000    0.3889    0.1111
  band No.  band energies     occupation 
      1     -19.7952      2.00000
      2     -19.6899      2.00000
      3     -19.6707      2.00000
      4       1.9369      2.00000
      5       3.6135     -0.00001
      6       4.2519     -0.00000
      7       6.7023     -0.00000
      8       7.2297     -0.00000

 k-point   172 :      -0.4444    0.3889    0.1111
  band No.  band energies     occupation 
      1     -19.7960      2.00000
      2     -19.7046      2.00000
      3     -19.6745      2.00000
      4       2.3257      2.00017
      5       3.5450     -0.00012
      6       4.0945     -0.00000
      7       6.5615     -0.00000
      8       7.4661     -0.00000

 k-point   173 :      -0.3889    0.3889    0.1111
  band No.  band energies     occupation 
      1     -19.7894      2.00000
      2     -19.7225      2.00000
      3     -19.6743      2.00000
      4       2.6916      2.07053
      5       3.4365     -0.00198
      6       3.9961     -0.00000
      7       6.3614     -0.00000
      8       7.5728     -0.00000

 k-point   174 :      -0.3333    0.3889    0.1111
  band No.  band energies     occupation 
      1     -19.7755      2.00000
      2     -19.7421      2.00000
      3     -19.6701      2.00000
      4       2.9330      0.97145
      5       3.3632     -0.00896
      6       3.9010     -0.00000
      7       6.2039     -0.00000
      8       7.5193     -0.00000

 k-point   175 :      -0.2778    0.3889    0.1111
  band No.  band energies     occupation 
      1     -19.7623      2.00000
      2     -19.7541      2.00000
      3     -19.6631      2.00000
      4       2.7999      1.88116
      5       3.5437     -0.00013
      6       3.8010     -0.00000
      7       6.1315     -0.00000
      8       7.3665     -0.00000

 k-point   176 :      -0.4444    0.4444    0.1111
  band No.  band energies     occupation 
      1     -19.8063      2.00000
      2     -19.6981      2.00000
      3     -19.6814      2.00000
      4       2.3783      2.00068
      5       3.4965     -0.00046
      6       4.1032     -0.00000
      7       6.8608     -0.00000
      8       7.6306     -0.00000

 k-point   177 :      -0.3889    0.4444    0.1111
  band No.  band energies     occupation 
      1     -19.7999      2.00000
      2     -19.7120      2.00000
      3     -19.6821      2.00000
      4       2.6353      2.05779
      5       3.4836     -0.00064
      6       4.0013     -0.00000
      7       6.6115     -0.00000
      8       7.7404     -0.00000

 k-point   178 :      -0.3333    0.4444    0.1111
  band No.  band energies     occupation 
      1     -19.7874      2.00000
      2     -19.7295      2.00000
      3     -19.6777      2.00000
      4       2.8366      1.70083
      5       3.4594     -0.00116
      6       3.9128     -0.00000
      7       6.3668     -0.00000
      8       7.6795     -0.00000

 k-point   179 :      -0.3889    0.5000    0.1111
  band No.  band energies     occupation 
      1     -19.8100      2.00000
      2     -19.7009      2.00000
      3     -19.6852      2.00000
      4       2.5397      2.01876
      5       3.4568     -0.00123
      6       4.0673     -0.00000
      7       6.9036     -0.00000
      8       7.8271     -0.00000

 k-point   180 :       0.5000    0.3333    0.1667
  band No.  band energies     occupation 
      1     -19.7790      2.00000
      2     -19.6947      2.00000
      3     -19.6500      2.00000
      4       1.6292      2.00000
      5       3.8044     -0.00000
      6       4.3397     -0.00000
      7       6.2350     -0.00000
      8       6.8777     -0.00000

 k-point   181 :      -0.4444    0.3333    0.1667
  band No.  band energies     occupation 
      1     -19.7836      2.00000
      2     -19.7102      2.00000
      3     -19.6567      2.00000
      4       2.1064      2.00000
      5       3.6668     -0.00000
      6       4.1417     -0.00000
      7       6.1650     -0.00000
      8       7.1281     -0.00000

 k-point   182 :      -0.3889    0.3333    0.1667
  band No.  band energies     occupation 
      1     -19.7855      2.00000
      2     -19.7206      2.00000
      3     -19.6618      2.00000
      4       2.5679      2.02822
      5       3.3823     -0.00624
      6       4.1111     -0.00000
      7       6.0725     -0.00000
      8       7.3356     -0.00000

 k-point   183 :      -0.3333    0.3333    0.1667
  band No.  band energies     occupation 
      1     -19.7860      2.00000
      2     -19.7243      2.00000
      3     -19.6637      2.00000
      4       2.9226      1.05909
      5       3.0802      0.04591
      6       4.1234     -0.00000
      7       6.0292     -0.00000
      8       7.4022     -0.00000

 k-point   184 :      -0.4444    0.3889    0.1667
  band No.  band energies     occupation 
      1     -19.7873      2.00000
      2     -19.7082      2.00000
      3     -19.6676      2.00000
      4       2.2093      2.00000
      5       3.6558     -0.00000
      6       4.0727     -0.00000
      7       6.3524     -0.00000
      8       7.2641     -0.00000

 k-point   185 :      -0.3889    0.3889    0.1667
  band No.  band energies     occupation 
      1     -19.7829      2.00000
      2     -19.7239      2.00000
      3     -19.6728      2.00000
      4       2.6087      2.04573
      5       3.5623     -0.00007
      6       3.9431     -0.00000
      7       6.1928     -0.00000
      8       7.4653     -0.00000

 k-point   186 :      -0.3333    0.3889    0.1667
  band No.  band energies     occupation 
      1     -19.7748      2.00000
      2     -19.7379      2.00000
      3     -19.6742      2.00000
      4       2.9190      1.08953
      5       3.3932     -0.00503
      6       3.9195     -0.00000
      7       6.0552     -0.00000
      8       7.5415     -0.00000

 k-point   187 :      -0.2778    0.3889    0.1667
  band No.  band energies     occupation 
      1     -19.7699      2.00000
      2     -19.7430      2.00000
      3     -19.6711      2.00000
      4       2.8608      1.54562
      5       3.4913     -0.00052
      6       3.8578     -0.00000
      7       6.0405     -0.00000
      8       7.4824     -0.00000

 k-point   188 :      -0.2222    0.3889    0.1667
  band No.  band energies     occupation 
      1     -19.7763      2.00000
      2     -19.7305      2.00000
      3     -19.6646      2.00000
      4       2.5221      2.01412
      5       3.7191     -0.00000
      6       3.8319     -0.00000
      7       6.1181     -0.00000
      8       7.3087     -0.00000

 k-point   189 :      -0.3889    0.4444    0.1667
  band No.  band energies     occupation 
      1     -19.7906      2.00000
      2     -19.7169      2.00000
      3     -19.6810      2.00000
      4       2.6357      2.05797
      5       3.5621     -0.00007
      6       3.9414     -0.00000
      7       6.3606     -0.00000
      8       7.6405     -0.00000

 k-point   190 :      -0.3333    0.4444    0.1667
  band No.  band energies     occupation 
      1     -19.7797      2.00000
      2     -19.7325      2.00000
      3     -19.6828      2.00000
      4       2.8810      1.39849
      5       3.5501     -0.00010
      6       3.8533     -0.00000
      7       6.1261     -0.00000
      8       7.7350     -0.00000

 k-point   191 :      -0.2778    0.4444    0.1667
  band No.  band energies     occupation 
      1     -19.7645      2.00000
      2     -19.7501      2.00000
      3     -19.6789      2.00000
      4       2.9791      0.59480
      5       3.5558     -0.00009
      6       3.7771     -0.00000
      7       6.0148     -0.00000
      8       7.6635     -0.00000

 k-point   192 :      -0.3333    0.5000    0.1667
  band No.  band energies     occupation 
      1     -19.7912      2.00000
      2     -19.7200      2.00000
      3     -19.6862      2.00000
      4       2.7874      1.92737
      5       3.5301     -0.00018
      6       3.9200     -0.00000
      7       6.3283     -0.00000
      8       7.8280     -0.00000

 k-point   193 :      -0.3333    0.4444    0.2222
  band No.  band energies     occupation 
      1     -19.7711      2.00000
      2     -19.7400      2.00000
      3     -19.6801      2.00000
      4       2.8821      1.38942
      5       3.6567     -0.00000
      6       3.7473     -0.00000
      7       6.0158     -0.00000
      8       7.6514     -0.00000

 k-point   194 :      -0.2778    0.4444    0.2222
  band No.  band energies     occupation 
      1     -19.7604      2.00000
      2     -19.7519      2.00000
      3     -19.6831      2.00000
      4       2.9992      0.44898
      5       3.6099     -0.00002
      6       3.7561     -0.00000
      7       5.9245     -0.00000
      8       7.7339     -0.00000

 k-point   195 :      -0.2778    0.5000    0.2222
  band No.  band energies     occupation 
      1     -19.7681      2.00000
      2     -19.7433      2.00000
      3     -19.6868      2.00000
      4       2.9871      0.53517
      5       3.6353     -0.00001
      6       3.7689     -0.00000
      7       5.9337     -0.00000
      8       7.8286     -0.00000


--------------------------------------------------------------------------------------------------------


 soft charge-density along one line, spin component            1
         0         1         2         3         4         5         6         7         8         9
 total charge-density along one line
 
 pseudopotential strength for first ion, spin component:            1
-19.153  -0.000  -0.000   2.319   0.000   0.000   0.000   0.000
 -0.000 -19.153  -0.000   0.000   2.319   0.000   0.000   0.000
 -0.000  -0.000 -19.153   0.000   0.000   2.319  -0.000  -0.000
  2.319   0.000   0.000   5.796  -0.000  -0.000   0.000   0.000
  0.000   2.319   0.000  -0.000   5.796  -0.000   0.000   0.000
  0.000   0.000   2.319  -0.000  -0.000   5.796  -0.000  -0.000
  0.000   0.000  -0.000   0.000   0.000  -0.000   3.456   7.380
  0.000   0.000  -0.000   0.000   0.000  -0.000   7.380  15.793
  0.000  -0.000  -0.000  -0.000   0.000   0.000   0.000   0.000
 -0.000  -0.000  -0.000   0.000   0.000   0.000   0.000   0.000
  0.000   0.000  -0.000  -0.000  -0.000   0.000  -0.000  -0.000
 -0.000   0.000  -0.000   0.000  -0.000   0.000   0.000   0.000
  0.000  -0.000   0.000  -0.000   0.000  -0.000  -0.000  -0.000
  0.000  -0.000  -0.000  -0.000   0.000   0.000   0.000   0.000
 -0.000  -0.000  -0.000   0.000   0.000   0.000   0.000   0.000
  0.000   0.000  -0.000  -0.000  -0.000   0.000  -0.000  -0.000
 -0.000   0.000  -0.000   0.000  -0.000   0.000   0.000   0.000
  0.000  -0.000   0.000  -0.000   0.000  -0.000  -0.000  -0.000
 total augmentation occupancy for first ion, spin component:            1
  2.003  -0.000  -0.000   0.020  -0.000  -0.000   0.000   0.000   0.000   0.000   0.000   0.000   0.000   0.000   0.000   0.000
 -0.000   2.003  -0.000  -0.000   0.020  -0.000   0.000   0.000   0.000   0.000   0.000   0.000   0.000   0.000   0.000   0.000
 -0.000  -0.000   2.003  -0.000  -0.000   0.020   0.000   0.000   0.000   0.000   0.000   0.000   0.000   0.000   0.000   0.000
  0.020  -0.000  -0.000   0.080  -0.000  -0.000   0.000   0.000   0.000   0.000   0.000   0.000   0.000   0.000   0.000   0.000
 -0.000   0.020  -0.000  -0.000   0.080  -0.000   0.000   0.000   0.000   0.000   0.000   0.000   0.000   0.000   0.000   0.000
 -0.000  -0.000   0.020  -0.000  -0.000   0.080   0.000   0.000   0.000   0.000   0.000   0.000   0.000   0.000   0.000   0.000
  0.000   0.000   0.000   0.000   0.000   0.000   1.418  -0.053   0.000   0.000  -0.000   0.000  -0.000  -0.000  -0.000   0.000
  0.000   0.000   0.000   0.000   0.000   0.000  -0.053   0.003  -0.000  -0.000   0.000  -0.000   0.000   0.000   0.000  -0.000
  0.000   0.000   0.000   0.000   0.000   0.000   0.000  -0.000   0.192  -0.000  -0.044  -0.000   0.026  -0.058   0.000   0.012
  0.000   0.000   0.000   0.000   0.000   0.000   0.000  -0.000  -0.000   0.192  -0.000  -0.051   0.000   0.000  -0.058   0.000
  0.000   0.000   0.000   0.000   0.000   0.000  -0.000   0.000  -0.044  -0.000   0.146  -0.000  -0.016   0.012   0.000  -0.046
  0.000   0.000   0.000   0.000   0.000   0.000   0.000  -0.000  -0.000  -0.051  -0.000   0.156  -0.000   0.000   0.013   0.000
  0.000   0.000   0.000   0.000   0.000   0.000  -0.000   0.000   0.026   0.000  -0.016  -0.000   0.128  -0.007  -0.000   0.004
  0.000   0.000   0.000   0.000   0.000   0.000  -0.000   0.000  -0.058   0.000   0.012   0.000  -0.007   0.018  -0.000  -0.003
  0.000   0.000   0.000   0.000   0.000   0.000  -0.000   0.000   0.000  -0.058   0.000   0.013  -0.000  -0.000   0.018  -0.000
  0.000   0.000   0.000   0.000   0.000   0.000   0.000  -0.000   0.012   0.000  -0.046   0.000   0.004  -0.003  -0.000   0.015
  0.000   0.000   0.000   0.000   0.000   0.000  -0.000   0.000   0.000   0.013   0.000  -0.049   0.000  -0.000  -0.004  -0.000
  0.000   0.000   0.000   0.000   0.000   0.000   0.000  -0.000  -0.007  -0.000   0.004   0.000  -0.042   0.002   0.000  -0.001


------------------------ aborting loop because EDIFF is reached ----------------------------------------


    CHARGE:  cpu time      0.2276: real time      0.2253
    FORLOC:  cpu time      0.0020: real time      0.0020
    FORNL :  cpu time      0.6358: real time      0.6226
    STRESS:  cpu time      4.4657: real time      4.2159
    FORCOR:  cpu time      0.0051: real time      0.0040
    FORHAR:  cpu time      0.0011: real time      0.0011
    MIXING:  cpu time      0.0019: real time      0.0012
    OFIELD:  cpu time      0.0000: real time      0.0000

  FORCE on cell =-STRESS in cart. coord.  units (eV):
  Direction    XX          YY          ZZ          XY          YZ          ZX
  --------------------------------------------------------------------------------------
  Alpha Z    20.52614    20.52614    20.52614
  Ewald    -134.33741  -134.33737  -134.33741     0.00000     0.00002     0.00003
  Hartree    45.18672    45.18673    45.18672    -0.00000     0.00000     0.00000
  E(xc)     -31.52458   -31.52458   -31.52458    -0.00000    -0.00000    -0.00001
  Local       3.23771     3.23767     3.23774     0.00002     0.00001     0.00002
  n-local     3.67583     7.23951     8.69693    -0.21014    -0.21966    -0.03527
  augment    60.81743    60.81742    60.81741    -0.00001    -0.00002    -0.00003
  Kinetic    34.16872    29.28607    27.57407    -0.34332     0.36121     0.44541
  Fock        0.00000     0.00000     0.00000     0.00000     0.00000     0.00000
  -------------------------------------------------------------------------------------
  Total       0.78639     0.78639     0.78639    -0.00000    -0.00000    -0.00000
  in kB      34.98375    34.98374    34.98376    -0.00000    -0.00001    -0.00001
  external pressure =       34.98 kB  Pullay stress =        0.00 kB


 VOLUME and BASIS-vectors are now :
 -----------------------------------------------------------------------------
  energy-cutoff  :      400.00
  volume of cell :       36.01
      direct lattice vectors                 reciprocal lattice vectors
     3.210183199 -0.000000019  1.853399250     0.311508700 -0.110134948  0.000000001
     1.070060731  3.026589064  1.853399250     0.000000001  0.330404946  0.000000002
    -0.000000019 -0.000000019  3.706800465    -0.155754268 -0.110134941  0.269774433

  length of vectors
     3.706799827  3.706799173  3.706800465     0.330404868  0.330404946  0.330404815


 FORCES acting on ions
    electron-ion (+dipol)            ewald-force                    non-local-force                 convergence-correction
 -----------------------------------------------------------------------------------------------
   -.178E-14 0.193E-14 -.553E-14   0.747E-15 0.195E-15 0.443E-16   -.124E-23 0.000E+00 0.165E-23   0.375E-15 -.608E-15 0.367E-14
 -----------------------------------------------------------------------------------------------
   -.178E-14 0.193E-14 -.553E-14   0.747E-15 0.195E-15 0.443E-16   -.124E-23 0.000E+00 0.165E-23   0.375E-15 -.608E-15 0.367E-14
 
 
 POSITION                                       TOTAL-FORCE (eV/Angst)
 -----------------------------------------------------------------------------------
      0.00000      0.00000      0.00000         0.000000      0.000000     -0.000000
 -----------------------------------------------------------------------------------
    total drift:                               -0.000000      0.000000     -0.000000


--------------------------------------------------------------------------------------------------------



  FREE ENERGIE OF THE ION-ELECTRON SYSTEM (eV)
  ---------------------------------------------------
  free  energy   TOTEN  =        -1.86144310 eV

  energy  without entropy=       -1.85867491  energy(sigma->0) =       -1.86052037
 


--------------------------------------------------------------------------------------------------------


    POTLOK:  cpu time      0.0129: real time      0.0084


--------------------------------------------------------------------------------------------------------


     LOOP+:  cpu time     38.4502: real time     38.1278
    4ORBIT:  cpu time      0.0000: real time      0.0000

 total amount of memory used by VASP MPI-rank0    75679. kBytes
=======================================================================

   base      :      30000. kBytes
   nonl-proj :      18683. kBytes
   fftplans  :       3916. kBytes
   grid      :       6018. kBytes
   one-center:         15. kBytes
   wavefun   :      17047. kBytes
 
  
  
 General timing and accounting informations for this job:
 ========================================================
  
                  Total CPU time used (sec):       39.960
                            User time (sec):       39.079
                          System time (sec):        0.881
                         Elapsed time (sec):       39.534
  
                   Maximum memory used (kb):     1554688.
                   Average memory used (kb):          N/A
  
                          Minor page faults:       406130
                          Major page faults:            0
                 Voluntary context switches:        31600
