 running    1 mpi-ranks, with    2 threads/rank, on    1 nodes
 distrk:  each k-point on    1 cores,    1 groups
 distr:  one band on    1 cores,    1 groups
 OpenACC runtime initialized ...    1 GPUs detected
 vasp.6.4.2 20Jul23 (build Mar  2 2025 11:04:54) complex                         
 POSCAR found type information on POSCAR Li
 POSCAR found :  1 types and       1 ions
 scaLAPACK will be used selectively (only on CPU)
 LDA part: xc-table for Pade appr. of Perdew
 POSCAR, INCAR and KPOINTS ok, starting setup
 FFT: planning ... GRIDC
 FFT: planning ... GRID_SOFT
 FFT: planning ... GRID
 WAVECAR not read
 WARNING: random wavefunctions but no delay for mixing, default for NELMDL
 entering main loop
       N       E                     dE             d eps       ncg     rms          rms(c)
DAV:   1    -0.183825496014E+01   -0.18383E+01   -0.10966E+02   436   0.356E+01
DAV:   2    -0.190410450233E+01   -0.65850E-01   -0.65645E-01   504   0.407E+00
DAV:   3    -0.190424971645E+01   -0.14521E-03   -0.14516E-03   380   0.179E-01
DAV:   4    -0.190425027151E+01   -0.55506E-06   -0.55508E-06   408   0.799E-03
DAV:   5    -0.190425027469E+01   -0.31737E-08   -0.31277E-08   352   0.475E-04    0.136E-01
DAV:   6    -0.190327683159E+01    0.97344E-03   -0.47893E-05   400   0.318E-02    0.890E-02
DAV:   7    -0.190264989108E+01    0.62694E-03   -0.13823E-04   392   0.570E-02    0.434E-03
DAV:   8    -0.190262961390E+01    0.20277E-04   -0.12085E-06   380   0.579E-03    0.193E-03
DAV:   9    -0.190262453918E+01    0.50747E-05   -0.54177E-07   356   0.382E-03    0.993E-05
DAV:  10    -0.190262455490E+01   -0.15727E-07   -0.16072E-09   176   0.155E-04
   1 F= -.19026246E+01 E0= -.19020459E+01  d E =-.115726E-02
