<?xml version="1.0" encoding="ISO-8859-1"?>
<modeling>
 <generator>
  <i name="program" type="string">vasp </i>
  <i name="version" type="string">6.4.2  </i>
  <i name="subversion" type="string">20Jul23 (build Mar  2 2025 11:04:54) complex                          parallel </i>
  <i name="platform" type="string">LinuxNV </i>
  <i name="date" type="string">2026 04 07 </i>
  <i name="time" type="string">00:05:33 </i>
 </generator>
 <incar>
  <i type="string" name="SYSTEM">static single-point for EOS</i>
  <i type="string" name="PREC">Accurate</i>
  <i type="int" name="IBRION">    -1</i>
  <i name="EDIFF">      0.00000100</i>
  <i type="int" name="NSW">     0</i>
  <i type="int" name="ISIF">     2</i>
  <i name="ENCUT">    430.00000000</i>
  <i type="int" name="ISMEAR">     0</i>
  <i name="SIGMA">      0.05000000</i>
  <i name="KSPACING">      0.20000000</i>
  <i type="logical" name="KGAMMA"> T  </i>
  <i type="logical" name="LWAVE"> F  </i>
  <i type="logical" name="LCHARG"> F  </i>
 </incar>
 <primitive_cell>
  <structure name="primitive_cell" >
   <crystal>
    <varray name="basis" >
     <v>       3.71539076       0.00000000       2.14508142 </v>
     <v>       1.23846393       3.50290135       2.14508142 </v>
     <v>      -0.00000001      -0.00000001       4.29016388 </v>
    </varray>
    <i name="volume">     55.83496992 </i>
    <varray name="rec_basis" >
     <v>       0.26915069      -0.09515924       0.00000000 </v>
     <v>      -0.00000000       0.28547764       0.00000000 </v>
     <v>      -0.13457531      -0.09515918       0.23309133 </v>
    </varray>
   </crystal>
   <varray name="positions" >
    <v>       0.00000000       0.00000000       0.00000000 </v>
   </varray>
  </structure>
  <varray name="primitive_index" >
   <v type="int" >        1 </v>
  </varray>
 </primitive_cell>
 <kpoints>
  <generation param="Gamma">
   <v type="int" name="divisions">       9        9        9 </v>
   <v name="usershift">      0.00000000       0.00000000       0.00000000 </v>
   <v name="genvec1">      0.11111111      -0.00000000       0.00000000 </v>
   <v name="genvec2">      0.00000000       0.11111111      -0.00000000 </v>
   <v name="genvec3">     -0.00000000      -0.00000000       0.11111111 </v>
   <v name="shift">      0.00000000       0.00000000       0.00000000 </v>
  </generation>
  <varray name="kpointlist" >
   <v>       0.00000000       0.00000000       0.00000000 </v>
   <v>       0.11111111       0.00000000       0.00000000 </v>
   <v>       0.22222222       0.00000000       0.00000000 </v>
   <v>       0.33333333       0.00000000       0.00000000 </v>
   <v>       0.44444444       0.00000000       0.00000000 </v>
   <v>       0.11111111       0.11111111       0.00000000 </v>
   <v>       0.22222222       0.11111111       0.00000000 </v>
   <v>       0.33333333       0.11111111       0.00000000 </v>
   <v>       0.44444444       0.11111111       0.00000000 </v>
   <v>      -0.44444444       0.11111111       0.00000000 </v>
   <v>      -0.33333333       0.11111111       0.00000000 </v>
   <v>      -0.22222222       0.11111111       0.00000000 </v>
   <v>      -0.11111111       0.11111111       0.00000000 </v>
   <v>       0.22222222       0.22222222       0.00000000 </v>
   <v>       0.33333333       0.22222222       0.00000000 </v>
   <v>       0.44444444       0.22222222       0.00000000 </v>
   <v>      -0.44444444       0.22222222       0.00000000 </v>
   <v>      -0.33333333       0.22222222       0.00000000 </v>
   <v>      -0.22222222       0.22222222       0.00000000 </v>
   <v>       0.33333333       0.33333333       0.00000000 </v>
   <v>       0.44444444       0.33333333       0.00000000 </v>
   <v>      -0.44444444       0.33333333       0.00000000 </v>
   <v>      -0.33333333       0.33333333       0.00000000 </v>
   <v>       0.44444444       0.44444444       0.00000000 </v>
   <v>      -0.44444444       0.44444444       0.00000000 </v>
   <v>       0.33333333       0.22222222       0.11111111 </v>
   <v>       0.44444444       0.22222222       0.11111111 </v>
   <v>      -0.44444444       0.22222222       0.11111111 </v>
   <v>       0.44444444       0.33333333       0.11111111 </v>
   <v>      -0.44444444       0.33333333       0.11111111 </v>
   <v>      -0.33333333       0.33333333       0.11111111 </v>
   <v>      -0.22222222       0.33333333       0.11111111 </v>
   <v>      -0.44444444       0.44444444       0.11111111 </v>
   <v>      -0.33333333       0.44444444       0.11111111 </v>
   <v>      -0.33333333       0.44444444       0.22222222 </v>
  </varray>
  <varray name="weights" >
   <v>       0.00137174 </v>
   <v>       0.01097394 </v>
   <v>       0.01097394 </v>
   <v>       0.01097394 </v>
   <v>       0.01097394 </v>
   <v>       0.00823045 </v>
   <v>       0.03292181 </v>
   <v>       0.03292181 </v>
   <v>       0.03292181 </v>
   <v>       0.03292181 </v>
   <v>       0.03292181 </v>
   <v>       0.03292181 </v>
   <v>       0.01646091 </v>
   <v>       0.00823045 </v>
   <v>       0.03292181 </v>
   <v>       0.03292181 </v>
   <v>       0.03292181 </v>
   <v>       0.03292181 </v>
   <v>       0.01646091 </v>
   <v>       0.00823045 </v>
   <v>       0.03292181 </v>
   <v>       0.03292181 </v>
   <v>       0.01646091 </v>
   <v>       0.00823045 </v>
   <v>       0.01646091 </v>
   <v>       0.03292181 </v>
   <v>       0.06584362 </v>
   <v>       0.06584362 </v>
   <v>       0.03292181 </v>
   <v>       0.06584362 </v>
   <v>       0.06584362 </v>
   <v>       0.03292181 </v>
   <v>       0.03292181 </v>
   <v>       0.03292181 </v>
   <v>       0.03292181 </v>
  </varray>
 </kpoints>
 <parameters>
  <separator name="general" >
   <i type="string" name="SYSTEM">static single-point for EOS</i>
   <i type="logical" name="LCOMPAT"> F  </i>
  </separator>
  <separator name="electronic" >
   <i type="string" name="PREC">accura</i>
   <i name="ENMAX">    430.00000000</i>
   <i name="ENAUG">    366.80400000</i>
   <i name="EDIFF">      0.00000100</i>
   <i type="int" name="IALGO">    38</i>
   <i type="int" name="IWAVPR">    10</i>
   <i type="int" name="NBANDS">     9</i>
   <i type="int" name="NBANDSLOW">    -1</i>
   <i type="int" name="NBANDSHIGH">    -1</i>
   <i name="NELECT">     10.00000000</i>
   <i type="int" name="TURBO">     0</i>
   <i type="int" name="IRESTART">     0</i>
   <i type="int" name="NREBOOT">     0</i>
   <i type="int" name="NMIN">     0</i>
   <i name="EREF">      0.00000000</i>
   <separator name="electronic smearing" >
    <i type="int" name="ISMEAR">     0</i>
    <i name="SIGMA">      0.05000000</i>
    <i name="KSPACING">      0.20000000</i>
    <i type="logical" name="KGAMMA"> T  </i>
    <i type="logical" name="KBLOWUP"> T  </i>
   </separator>
   <separator name="electronic projectors" >
    <i type="logical" name="LREAL"> F  </i>
    <v name="ROPT">      0.00000000</v>
    <i type="int" name="LMAXPAW">  -100</i>
    <i type="int" name="LMAXMIX">     2</i>
    <i type="logical" name="NLSPLINE"> F  </i>
   </separator>
   <separator name="electronic startup" >
    <i type="int" name="ISTART">     0</i>
    <i type="int" name="ICHARG">     2</i>
    <i type="int" name="INIWAV">     1</i>
   </separator>
   <separator name="electronic spin" >
    <i type="int" name="ISPIN">     1</i>
    <i type="logical" name="LNONCOLLINEAR"> F  </i>
    <v name="MAGMOM">      1.00000000</v>
    <i name="NUPDOWN">     -1.00000000</i>
    <i type="logical" name="LSORBIT"> F  </i>
    <v name="SAXIS">      0.00000000      0.00000000      1.00000000</v>
    <i type="logical" name="LSPIRAL"> F  </i>
    <v name="QSPIRAL">      0.00000000      0.00000000      0.00000000</v>
    <i type="logical" name="LZEROZ"> F  </i>
   </separator>
   <separator name="electronic exchange-correlation" >
    <i type="logical" name="LASPH"> F  </i>
    <i type="logical" name="LMETAGGA"> F  </i>
   </separator>
   <separator name="electronic convergence" >
    <i type="int" name="NELM">    60</i>
    <i type="int" name="NELMDL">    -5</i>
    <i type="int" name="NELMIN">     2</i>
    <i name="ENINI">    430.00000000</i>
    <separator name="electronic convergence detail" >
     <i type="logical" name="LDIAG"> T  </i>
     <i type="logical" name="LSUBROT"> F  </i>
     <i name="WEIMIN">      0.00000000</i>
     <i name="EBREAK">      0.00000003</i>
     <i name="DEPER">      0.30000000</i>
     <i type="int" name="NRMM">     4</i>
     <i name="TIME">      0.40000000</i>
    </separator>
   </separator>
   <separator name="electronic mixer" >
    <i name="AMIX">      0.40000000</i>
    <i name="BMIX">      1.00000000</i>
    <i name="AMIN">      0.10000000</i>
    <i name="AMIX_MAG">      1.60000000</i>
    <i name="BMIX_MAG">      1.00000000</i>
    <separator name="electronic mixer details" >
     <i type="int" name="IMIX">     4</i>
     <i type="logical" name="MIXFIRST"> F  </i>
     <i type="int" name="MAXMIX">   -45</i>
     <i name="WC">    100.00000000</i>
     <i type="int" name="INIMIX">     1</i>
     <i type="int" name="MIXPRE">     1</i>
     <i type="int" name="MREMOVE">     5</i>
    </separator>
   </separator>
   <separator name="electronic dipolcorrection" >
    <i type="logical" name="LDIPOL"> F  </i>
    <i type="logical" name="LMONO"> F  </i>
    <i type="int" name="IDIPOL">     0</i>
    <i name="EPSILON">      1.00000000</i>
    <v name="DIPOL">   -100.00000000   -100.00000000   -100.00000000</v>
    <i name="EFIELD">      0.00000000</i>
   </separator>
  </separator>
  <separator name="grids" >
   <i type="int" name="NGX">    30</i>
   <i type="int" name="NGY">    30</i>
   <i type="int" name="NGZ">    30</i>
   <i type="int" name="NGXF">    60</i>
   <i type="int" name="NGYF">    60</i>
   <i type="int" name="NGZF">    60</i>
   <i type="logical" name="ADDGRID"> F  </i>
  </separator>
  <separator name="ionic" >
   <i type="int" name="NSW">     0</i>
   <i type="int" name="IBRION">    -1</i>
   <i type="int" name="MDALGO">     0</i>
   <i type="int" name="ISIF">     2</i>
   <i name="PSTRESS">      0.00000000</i>
   <i name="EDIFFG">      0.00001000</i>
   <i type="int" name="NFREE">     0</i>
   <i name="POTIM">      0.50000000</i>
   <i name="SMASS">     -3.00000000</i>
   <i name="SCALEE">      1.00000000</i>
  </separator>
  <separator name="ionic md" >
   <i name="TEBEG">      0.00010000</i>
   <i name="TEEND">      0.00010000</i>
   <i type="int" name="NBLOCK">     1</i>
   <i type="int" name="KBLOCK">     1</i>
   <i type="int" name="NPACO">   256</i>
   <i name="APACO">     10.00000000</i>
  </separator>
  <separator name="symmetry" >
   <i type="int" name="ISYM">     2</i>
   <i name="SYMPREC">      0.00001000</i>
  </separator>
  <separator name="dos" >
   <i type="int" name="LORBIT">     0</i>
   <v name="RWIGS">     -1.00000000</v>
   <i type="int" name="NEDOS">   301</i>
   <i name="EMIN">     10.00000000</i>
   <i name="EMAX">    -10.00000000</i>
   <i name="EFERMI">      0.00000000</i>
  </separator>
  <separator name="writing" >
   <i type="int" name="NWRITE">     2</i>
   <i type="logical" name="LWAVE"> F  </i>
   <i type="logical" name="LDOWNSAMPLE"> F  </i>
   <i type="logical" name="LCHARG"> F  </i>
   <i type="logical" name="LPARD"> F  </i>
   <i type="logical" name="LVTOT"> F  </i>
   <i type="logical" name="LVHAR"> F  </i>
   <i type="logical" name="LELF"> F  </i>
   <i type="logical" name="LOPTICS"> F  </i>
   <v name="STM">      0.00000000      0.00000000      0.00000000      0.00000000      0.00000000      0.00000000      0.00000000</v>
  </separator>
  <separator name="performance" >
   <i type="int" name="NPAR">     1</i>
   <i type="int" name="NSIM">     4</i>
   <i type="int" name="NBLK">    -1</i>
   <i type="logical" name="LPLANE"> T  </i>
   <i type="logical" name="LSCALAPACK"> T  </i>
   <i type="logical" name="LSCAAWARE"> F  </i>
   <i type="logical" name="LSCALU"> F  </i>
   <i type="logical" name="LASYNC"> F  </i>
   <i type="logical" name="LORBITALREAL"> F  </i>
  </separator>
  <separator name="miscellaneous" >
   <i type="int" name="IDIOT">     3</i>
   <i type="int" name="PHON_NSTRUCT">    -1</i>
   <i type="logical" name="LMUSIC"> F  </i>
   <v name="POMASS">     87.62000000</v>
   <v name="DARWINR">      0.00000000</v>
   <v name="DARWINV">      1.00000000</v>
   <i type="logical" name="LCORR"> T  </i>
  </separator>
  <i type="logical" name="GGA_COMPAT"> T  </i>
  <i type="logical" name="LBERRY"> F  </i>
  <i type="int" name="ICORELEVEL">     0</i>
  <i type="logical" name="LDAU"> F  </i>
  <i type="int" name="I_CONSTRAINED_M">     0</i>
  <separator name="electronic exchange-correlation" >
   <i type="string" name="GGA">--</i>
   <i type="int" name="VOSKOWN">     0</i>
   <i type="logical" name="LHFCALC"> F  </i>
   <i type="string" name="PRECFOCK"></i>
   <i type="logical" name="LSYMGRAD"> F  </i>
   <i type="logical" name="LHFONE"> F  </i>
   <i type="logical" name="LRHFCALC"> F  </i>
   <i type="logical" name="LTHOMAS"> F  </i>
   <i type="logical" name="LMODELHF"> F  </i>
   <i type="logical" name="LFOCKACE"> F  </i>
   <i name="ENCUT4O">     -1.00000000</i>
   <i type="int" name="EXXOEP">     0</i>
   <i type="int" name="FOURORBIT">     0</i>
   <i name="AEXX">      0.00000000</i>
   <i name="HFALPHA">      0.00000000</i>
   <i name="MCALPHA">      0.00000000</i>
   <i name="ALDAX">      1.00000000</i>
   <i name="AGGAX">      1.00000000</i>
   <i name="ALDAC">      1.00000000</i>
   <i name="AGGAC">      1.00000000</i>
   <i type="int" name="NKREDX">     1</i>
   <i type="int" name="NKREDY">     1</i>
   <i type="int" name="NKREDZ">     1</i>
   <i type="logical" name="SHIFTRED"> F  </i>
   <i type="logical" name="ODDONLY"> F  </i>
   <i type="logical" name="EVENONLY"> F  </i>
   <i type="int" name="LMAXFOCK">     0</i>
   <i type="int" name="NMAXFOCKAE">     0</i>
   <i type="logical" name="LFOCKAEDFT"> F  </i>
   <i name="HFSCREEN">      0.00000000</i>
   <i name="HFSCREENC">      0.00000000</i>
   <i type="int" name="NBANDSGWLOW">     0</i>
  </separator>
  <separator name="vdW DFT" >
   <i type="logical" name="LUSE_VDW"> F  </i>
   <i type="int" name="IVDW_NL">     1</i>
   <i type="logical" name="LSPIN_VDW"> F  </i>
   <i name="Zab_VDW">     -0.84910000</i>
   <i name="PARAM1">      0.12340000</i>
   <i name="PARAM2">      1.00000000</i>
   <i name="PARAM3">      0.00000000</i>
  </separator>
  <separator name="model GW" >
   <i type="int" name="MODEL_GW">     0</i>
   <i name="MODEL_EPS0">     33.50098195</i>
   <i name="MODEL_ALPHA">      1.00000000</i>
  </separator>
  <separator name="linear response parameters" >
   <i type="logical" name="LEPSILON"> F  </i>
   <i type="logical" name="LRPA"> F  </i>
   <i type="logical" name="LNABLA"> F  </i>
   <i type="logical" name="LVEL"> F  </i>
   <i name="CSHIFT">      0.10000000</i>
   <i name="OMEGAMAX">     -1.00000000</i>
   <i name="DEG_THRESHOLD">      0.00200000</i>
   <i name="RTIME">     -0.10000000</i>
   <i name="WPLASMAI">      0.00000000</i>
   <v name="DFIELD">      0.00000000      0.00000000      0.00000000</v>
   <v name="WPLASMA">      0.00000000      0.00000000      0.00000000      0.00000000      0.00000000      0.00000000      0.00000000      0.00000000      0.00000000</v>
  </separator>
  <separator name="orbital magnetization" >
   <i type="logical" name="NUCIND"> F  </i>
   <v name="MAGPOS">      0.00000000      0.00000000      0.00000000</v>
   <i type="logical" name="LNICSALL"> T  </i>
   <i type="logical" name="ORBITALMAG"> F  </i>
   <i type="logical" name="LMAGBLOCH"> F  </i>
   <i type="logical" name="LCHIMAG"> F  </i>
   <i type="logical" name="LGAUGE"> T  </i>
   <i type="int" name="MAGATOM">     0</i>
   <v name="MAGDIPOL">      0.00000000      0.00000000      0.00000000</v>
   <v name="AVECCONST">      0.00000000      0.00000000      0.00000000</v>
  </separator>
  <separator name="response functions" >
   <i type="logical" name="LALL_IN_ONE"> F  </i>
   <i type="int" name="IALL_IN_ONE">    -1</i>
   <i type="int" name="NBANDS_WAVE">    -1</i>
   <i type="logical" name="LFINITE_TEMPERATURE"> F  </i>
   <i type="logical" name="LADDER"> F  </i>
   <i type="logical" name="LRPAFORCE"> F  </i>
   <i type="logical" name="LFXC"> F  </i>
   <i type="logical" name="LHARTREE"> T  </i>
   <i type="int" name="IBSE">     0</i>
   <v type="int" name="KPOINT">    -1     0     0     0</v>
   <i type="logical" name="LTCTC"> F  </i>
   <i type="logical" name="LTCTE"> F  </i>
   <i type="logical" name="LTETE"> F  </i>
   <i type="logical" name="LTRIPLET"> F  </i>
   <i type="logical" name="LFXCEPS"> F  </i>
   <i type="logical" name="LFXHEG"> F  </i>
   <i type="int" name="NATURALO">     2</i>
   <i type="logical" name="LHOLEGF"> F  </i>
   <i type="logical" name="L2ORDER"> F  </i>
   <i type="logical" name="LDMP1"> F  </i>
   <i type="logical" name="LMP2LT"> F  </i>
   <i type="logical" name="LSMP2LT"> F  </i>
   <i type="logical" name="LGWLF"> F  </i>
   <i name="ENCUTGW">     -1.60000002</i>
   <i name="ENCUTGWSOFT">     -1.60000002</i>
   <i name="ENCUTLF">     -1.00000000</i>
   <i type="logical" name="LESF_SPLINES"> F  </i>
   <i type="int" name="LMAXMP2">    -1</i>
   <i name="SCISSOR">      0.00000000</i>
   <i type="int" name="NOMEGA">     0</i>
   <i type="int" name="NOMEGAR">     0</i>
   <i type="int" name="NBANDSGW">    -1</i>
   <i type="int" name="NBANDSO">    -1</i>
   <i type="int" name="NBANDSV">    -1</i>
   <i type="int" name="NELMGW">     1</i>
   <i type="int" name="NELMHF">     1</i>
   <i type="int" name="DIM">     3</i>
   <i type="int" name="IESPILON">     4</i>
   <i type="int" name="ANTIRES">     0</i>
   <i name="OMEGAMAX">    -30.00000000</i>
   <i name="OMEGAMIN">    -30.00000000</i>
   <i name="OMEGATL">   -200.00000000</i>
   <i type="int" name="OMEGAGRID">     0</i>
   <i name="CSHIFT">     -0.10000000</i>
   <i type="logical" name="LSELFENERGY"> F  </i>
   <i type="logical" name="LSPECTRAL"> F  </i>
   <i type="logical" name="LSPECTRALGW"> F  </i>
   <i type="logical" name="LSINGLES"> F  </i>
   <i type="logical" name="LFERMIGW"> F  </i>
   <i type="logical" name="ODDONLYGW"> F  </i>
   <i type="logical" name="EVENONLYGW"> F  </i>
   <i type="int" name="NKREDLFX">     1</i>
   <i type="int" name="NKREDLFY">     1</i>
   <i type="int" name="NKREDLFZ">     1</i>
   <i type="int" name="MAXMEM">  2800</i>
   <i type="int" name="TELESCOPE">     0</i>
   <i type="int" name="NTAUPAR">    -1</i>
   <i type="int" name="NOMEGAPAR">    -1</i>
   <i name="DAMP_NEWTON">      0.80000001</i>
   <i name="LAMBDA">      1.00000000</i>
  </separator>
  <separator name="External order field" >
   <i name="OFIELD_KAPPA">      0.00000000</i>
   <v name="OFIELD_K">      0.00000000      0.00000000      0.00000000</v>
   <i name="OFIELD_Q6_NEAR">      0.00000000</i>
   <i name="OFIELD_Q6_FAR">      0.00000000</i>
   <i name="OFIELD_A">      0.00000000</i>
  </separator>
  <separator name="optional k-points parameters" >
   <i type="int" name="KPOINTS_OPT_MODE">     1</i>
   <i type="logical" name="LKPOINTS_OPT"> F  </i>
  </separator>
 </parameters>
 <atominfo>
  <atoms>       1 </atoms>
  <types>       1 </types>
  <array name="atoms" >
   <dimension dim="1">ion</dimension>
   <field type="string">element</field>
   <field type="int">atomtype</field>
   <set>
    <rc><c>Sr</c><c>   1</c></rc>
   </set>
  </array>
  <array name="atomtypes" >
   <dimension dim="1">type</dimension>
   <field type="int">atomspertype</field>
   <field type="string">element</field>
   <field>mass</field>
   <field>valence</field>
   <field type="string">pseudopotential</field>
   <set>
    <rc><c>   1</c><c>Sr</c><c>     87.62000000</c><c>     10.00000000</c><c>  PAW_PBE Sr_sv 07Sep2000               </c></rc>
   </set>
  </array>
 </atominfo>
 <structure name="initialpos" >
  <crystal>
   <varray name="basis" >
    <v>       3.71539076       0.00000000       2.14508142 </v>
    <v>       1.23846393       3.50290135       2.14508142 </v>
    <v>      -0.00000001      -0.00000001       4.29016388 </v>
   </varray>
   <i name="volume">     55.83496992 </i>
   <varray name="rec_basis" >
    <v>       0.26915069      -0.09515924       0.00000000 </v>
    <v>      -0.00000000       0.28547764       0.00000000 </v>
    <v>      -0.13457531      -0.09515918       0.23309133 </v>
   </varray>
  </crystal>
  <varray name="positions" >
   <v>       0.00000000       0.00000000       0.00000000 </v>
  </varray>
 </structure>
 <calculation>
  <scstep>
   <time name="dav">    0.59    0.59</time>
   <time name="total">    0.63    0.62</time>
   <energy>
    <i name="alphaZ">     33.57607253 </i>
    <i name="ewald">   -544.08104189 </i>
    <i name="hartreedc">   -210.98374295 </i>
    <i name="XCdc">     34.47126742 </i>
    <i name="pawpsdc">    631.17397051 </i>
    <i name="pawaedc">   -617.19253826 </i>
    <i name="eentropy">     -0.00102041 </i>
    <i name="bandstr">   -133.41741261 </i>
    <i name="atom">    843.02953968 </i>
    <i name="e_fr_energy">     36.57509402 </i>
    <i name="e_wo_entrp">     36.57611443 </i>
    <i name="e_0_energy">     36.57560422 </i>
   </energy>
  </scstep>
  <scstep>
   <time name="dav">    0.47    0.47</time>
   <time name="total">    0.47    0.47</time>
   <energy>
    <i name="e_fr_energy">     -0.06236412 </i>
    <i name="e_wo_entrp">     -0.05911220 </i>
    <i name="e_0_energy">     -0.06073816 </i>
   </energy>
  </scstep>
  <scstep>
   <time name="dav">    0.62    0.62</time>
   <time name="total">    0.62    0.62</time>
   <energy>
    <i name="e_fr_energy">     -1.59209305 </i>
    <i name="e_wo_entrp">     -1.59085683 </i>
    <i name="e_0_energy">     -1.59147494 </i>
   </energy>
  </scstep>
  <scstep>
   <time name="dav">    0.57    0.57</time>
   <time name="total">    0.57    0.57</time>
   <energy>
    <i name="e_fr_energy">     -1.63196741 </i>
    <i name="e_wo_entrp">     -1.63076251 </i>
    <i name="e_0_energy">     -1.63136496 </i>
   </energy>
  </scstep>
  <scstep>
   <time name="dav">    0.67    0.67</time>
   <time name="total">    0.72    0.72</time>
   <energy>
    <i name="e_fr_energy">     -1.63272555 </i>
    <i name="e_wo_entrp">     -1.63152252 </i>
    <i name="e_0_energy">     -1.63212404 </i>
   </energy>
  </scstep>
  <scstep>
   <time name="dav">    0.53    0.53</time>
   <time name="total">    0.60    0.59</time>
   <energy>
    <i name="e_fr_energy">     -1.63358146 </i>
    <i name="e_wo_entrp">     -1.63234191 </i>
    <i name="e_0_energy">     -1.63296169 </i>
   </energy>
  </scstep>
  <scstep>
   <time name="dav">    0.49    0.49</time>
   <time name="total">    0.55    0.54</time>
   <energy>
    <i name="e_fr_energy">     -1.63415729 </i>
    <i name="e_wo_entrp">     -1.63287991 </i>
    <i name="e_0_energy">     -1.63351860 </i>
   </energy>
  </scstep>
  <scstep>
   <time name="dav">    0.63    0.63</time>
   <time name="total">    0.69    0.68</time>
   <energy>
    <i name="e_fr_energy">     -1.63415072 </i>
    <i name="e_wo_entrp">     -1.63287598 </i>
    <i name="e_0_energy">     -1.63351335 </i>
   </energy>
  </scstep>
  <scstep>
   <time name="dav">    0.56    0.56</time>
   <time name="total">    0.62    0.62</time>
   <energy>
    <i name="e_fr_energy">     -1.63416901 </i>
    <i name="e_wo_entrp">     -1.63289369 </i>
    <i name="e_0_energy">     -1.63353135 </i>
   </energy>
  </scstep>
  <scstep>
   <time name="dav">    0.53    0.53</time>
   <time name="total">    0.59    0.58</time>
   <energy>
    <i name="e_fr_energy">     -1.63418443 </i>
    <i name="e_wo_entrp">     -1.63290654 </i>
    <i name="e_0_energy">     -1.63354548 </i>
   </energy>
  </scstep>
  <scstep>
   <time name="dav">    0.37    0.37</time>
   <time name="total">    0.39    0.38</time>
   <energy>
    <i name="alphaZ">     33.57607253 </i>
    <i name="ewald">   -544.08104189 </i>
    <i name="hartreedc">   -207.18914322 </i>
    <i name="XCdc">     34.32260596 </i>
    <i name="pawpsdc">    764.59494929 </i>
    <i name="pawaedc">   -753.81281658 </i>
    <i name="eentropy">     -0.00127754 </i>
    <i name="bandstr">   -172.07307198 </i>
    <i name="atom">    843.02953968 </i>
    <i name="e_fr_energy">     -1.63418376 </i>
    <i name="e_wo_entrp">     -1.63290622 </i>
    <i name="e_0_energy">     -1.63354499 </i>
   </energy>
  </scstep>
  <structure>
   <crystal>
    <varray name="basis" >
     <v>       3.71539076       0.00000000       2.14508142 </v>
     <v>       1.23846393       3.50290135       2.14508142 </v>
     <v>      -0.00000001      -0.00000001       4.29016388 </v>
    </varray>
    <i name="volume">     55.83496992 </i>
    <varray name="rec_basis" >
     <v>       0.26915069      -0.09515924       0.00000000 </v>
     <v>      -0.00000000       0.28547764       0.00000000 </v>
     <v>      -0.13457531      -0.09515918       0.23309133 </v>
    </varray>
   </crystal>
   <varray name="positions" >
    <v>       0.00000000       0.00000000       0.00000000 </v>
   </varray>
  </structure>
  <varray name="forces" >
   <v>       0.00000000       0.00000000       0.00000000 </v>
  </varray>
  <varray name="stress" >
   <v>      -2.99273181      -0.00000030       0.00000043 </v>
   <v>      -0.00000030      -2.99272728       0.00000030 </v>
   <v>       0.00000043       0.00000030      -2.99273204 </v>
  </varray>
  <energy>
   <i name="e_fr_energy">     -1.63418376 </i>
   <i name="e_wo_entrp">     -1.63290622 </i>
   <i name="e_0_energy">     -1.63354499 </i>
  </energy>
  <time name="totalsc">    7.73    7.57</time>
  <eigenvalues>
   <array>
    <dimension dim="1">band</dimension>
    <dimension dim="2">kpoint</dimension>
    <dimension dim="3">spin</dimension>
    <field>eigene</field>
    <field>occ</field>
    <set>
     <set comment="spin 1">
      <set comment="kpoint 1">
       <r>  -35.1108    1.0000 </r>
       <r>  -17.0005    1.0000 </r>
       <r>  -17.0005    1.0000 </r>
       <r>  -17.0004    1.0000 </r>
       <r>   -2.0906    1.0000 </r>
       <r>    3.8615    0.0000 </r>
       <r>    3.8615    0.0000 </r>
       <r>    3.8615    0.0000 </r>
       <r>    5.3041    0.0000 </r>
      </set>
      <set comment="kpoint 2">
       <r>  -35.1093    1.0000 </r>
       <r>  -17.0227    1.0000 </r>
       <r>  -17.0034    1.0000 </r>
       <r>  -17.0034    1.0000 </r>
       <r>   -1.8958    1.0000 </r>
       <r>    3.5694    0.0000 </r>
       <r>    3.9483    0.0000 </r>
       <r>    3.9483    0.0000 </r>
       <r>    5.1936    0.0000 </r>
      </set>
      <set comment="kpoint 3">
       <r>  -35.1055    1.0000 </r>
       <r>  -17.0782    1.0000 </r>
       <r>  -17.0110    1.0000 </r>
       <r>  -17.0110    1.0000 </r>
       <r>   -1.3441    1.0000 </r>
       <r>    2.9544    0.0000 </r>
       <r>    4.0311    0.0000 </r>
       <r>    4.0311    0.0000 </r>
       <r>    5.1792    0.0000 </r>
      </set>
      <set comment="kpoint 4">
       <r>  -35.1011    1.0000 </r>
       <r>  -17.1402    1.0000 </r>
       <r>  -17.0196    1.0000 </r>
       <r>  -17.0196    1.0000 </r>
       <r>   -0.5432    1.0000 </r>
       <r>    2.3006    0.0000 </r>
       <r>    3.8792    0.0000 </r>
       <r>    3.8792    0.0000 </r>
       <r>    5.6461    0.0000 </r>
      </set>
      <set comment="kpoint 5">
       <r>  -35.0983    1.0000 </r>
       <r>  -17.1800    1.0000 </r>
       <r>  -17.0252    1.0000 </r>
       <r>  -17.0252    1.0000 </r>
       <r>    0.2531    1.0000 </r>
       <r>    1.7116    0.0000 </r>
       <r>    3.7274    0.0000 </r>
       <r>    3.7274    0.0000 </r>
       <r>    6.2222    0.0000 </r>
      </set>
      <set comment="kpoint 6">
       <r>  -35.1088    1.0000 </r>
       <r>  -17.0221    1.0000 </r>
       <r>  -17.0084    1.0000 </r>
       <r>  -17.0084    1.0000 </r>
       <r>   -1.8312    1.0000 </r>
       <r>    3.4995    0.0000 </r>
       <r>    3.9879    0.0000 </r>
       <r>    3.9879    0.0000 </r>
       <r>    4.8595    0.0000 </r>
      </set>
      <set comment="kpoint 7">
       <r>  -35.1058    1.0000 </r>
       <r>  -17.0632    1.0000 </r>
       <r>  -17.0175    1.0000 </r>
       <r>  -17.0145    1.0000 </r>
       <r>   -1.3984    1.0000 </r>
       <r>    3.0510    0.0000 </r>
       <r>    4.0180    0.0000 </r>
       <r>    4.1190    0.0000 </r>
       <r>    4.6428    0.0000 </r>
      </set>
      <set comment="kpoint 8">
       <r>  -35.1016    1.0000 </r>
       <r>  -17.1205    1.0000 </r>
       <r>  -17.0264    1.0000 </r>
       <r>  -17.0243    1.0000 </r>
       <r>   -0.6722    1.0000 </r>
       <r>    2.4826    0.0000 </r>
       <r>    3.6835    0.0000 </r>
       <r>    4.0738    0.0000 </r>
       <r>    5.1249    0.0000 </r>
      </set>
      <set comment="kpoint 9">
       <r>  -35.0982    1.0000 </r>
       <r>  -17.1654    1.0000 </r>
       <r>  -17.0351    1.0000 </r>
       <r>  -17.0310    1.0000 </r>
       <r>    0.1768    1.0000 </r>
       <r>    1.8859    0.0000 </r>
       <r>    3.4658    0.0000 </r>
       <r>    3.9164    0.0000 </r>
       <r>    5.8517    0.0000 </r>
      </set>
      <set comment="kpoint 10">
       <r>  -35.0973    1.0000 </r>
       <r>  -17.1776    1.0000 </r>
       <r>  -17.0416    1.0000 </r>
       <r>  -17.0292    1.0000 </r>
       <r>    0.5825    1.0000 </r>
       <r>    1.5848    0.0283 </r>
       <r>    3.4130    0.0000 </r>
       <r>    3.8515    0.0000 </r>
       <r>    6.1833    0.0000 </r>
      </set>
      <set comment="kpoint 11">
       <r>  -35.0992    1.0000 </r>
       <r>  -17.1523    1.0000 </r>
       <r>  -17.0405    1.0000 </r>
       <r>  -17.0218    1.0000 </r>
       <r>   -0.1000    1.0000 </r>
       <r>    2.1086    0.0000 </r>
       <r>    3.4849    0.0000 </r>
       <r>    3.9574    0.0000 </r>
       <r>    5.4908    0.0000 </r>
      </set>
      <set comment="kpoint 12">
       <r>  -35.1030    1.0000 </r>
       <r>  -17.1014    1.0000 </r>
       <r>  -17.0315    1.0000 </r>
       <r>  -17.0122    1.0000 </r>
       <r>   -0.9386    1.0000 </r>
       <r>    2.7055    0.0000 </r>
       <r>    3.7130    0.0000 </r>
       <r>    4.1966    0.0000 </r>
       <r>    4.8314    0.0000 </r>
      </set>
      <set comment="kpoint 13">
       <r>  -35.1070    1.0000 </r>
       <r>  -17.0500    1.0000 </r>
       <r>  -17.0169    1.0000 </r>
       <r>  -17.0050    1.0000 </r>
       <r>   -1.5813    1.0000 </r>
       <r>    3.2316    0.0000 </r>
       <r>    3.9278    0.0000 </r>
       <r>    4.1302    0.0000 </r>
       <r>    4.8217    0.0000 </r>
      </set>
      <set comment="kpoint 14">
       <r>  -35.1037    1.0000 </r>
       <r>  -17.0752    1.0000 </r>
       <r>  -17.0285    1.0000 </r>
       <r>  -17.0285    1.0000 </r>
       <r>   -1.1016    1.0000 </r>
       <r>    2.8162    0.0000 </r>
       <r>    3.8851    0.0000 </r>
       <r>    4.3819    0.0000 </r>
       <r>    4.3819    0.0000 </r>
      </set>
      <set comment="kpoint 15">
       <r>  -35.1003    1.0000 </r>
       <r>  -17.1137    1.0000 </r>
       <r>  -17.0410    1.0000 </r>
       <r>  -17.0389    1.0000 </r>
       <r>   -0.5013    1.0000 </r>
       <r>    2.4624    0.0000 </r>
       <r>    3.3277    0.0000 </r>
       <r>    4.5277    0.0000 </r>
       <r>    4.8781    0.0000 </r>
      </set>
      <set comment="kpoint 16">
       <r>  -35.0972    1.0000 </r>
       <r>  -17.1479    1.0000 </r>
       <r>  -17.0588    1.0000 </r>
       <r>  -17.0439    1.0000 </r>
       <r>    0.2991    1.0000 </r>
       <r>    2.0501    0.0000 </r>
       <r>    2.9696    0.0000 </r>
       <r>    4.4119    0.0000 </r>
       <r>    5.5709    0.0000 </r>
      </set>
      <set comment="kpoint 17">
       <r>  -35.0957    1.0000 </r>
       <r>  -17.1597    1.0000 </r>
       <r>  -17.0760    1.0000 </r>
       <r>  -17.0411    1.0000 </r>
       <r>    1.0661    1.0000 </r>
       <r>    1.5573    0.1294 </r>
       <r>    2.8476    0.0000 </r>
       <r>    4.2688    0.0000 </r>
       <r>    5.8764    0.0000 </r>
      </set>
      <set comment="kpoint 18">
       <r>  -35.0966    1.0000 </r>
       <r>  -17.1473    1.0000 </r>
       <r>  -17.0812    1.0000 </r>
       <r>  -17.0318    1.0000 </r>
       <r>    0.6029    1.0000 </r>
       <r>    2.0206    0.0000 </r>
       <r>    2.7594    0.0000 </r>
       <r>    4.2449    0.0000 </r>
       <r>    5.5119    0.0000 </r>
      </set>
      <set comment="kpoint 19">
       <r>  -35.0995    1.0000 </r>
       <r>  -17.1246    1.0000 </r>
       <r>  -17.0633    1.0000 </r>
       <r>  -17.0204    1.0000 </r>
       <r>   -0.2393    1.0000 </r>
       <r>    2.4773    0.0000 </r>
       <r>    3.0723    0.0000 </r>
       <r>    4.3392    0.0000 </r>
       <r>    4.8675    0.0000 </r>
      </set>
      <set comment="kpoint 20">
       <r>  -35.0979    1.0000 </r>
       <r>  -17.1333    1.0000 </r>
       <r>  -17.0512    1.0000 </r>
       <r>  -17.0512    1.0000 </r>
       <r>   -0.0787    1.0000 </r>
       <r>    2.2412    0.0000 </r>
       <r>    3.0066    0.0000 </r>
       <r>    5.0729    0.0000 </r>
       <r>    5.0729    0.0000 </r>
      </set>
      <set comment="kpoint 21">
       <r>  -35.0955    1.0000 </r>
       <r>  -17.1536    1.0000 </r>
       <r>  -17.0670    1.0000 </r>
       <r>  -17.0577    1.0000 </r>
       <r>    0.5226    1.0000 </r>
       <r>    2.0482    0.0000 </r>
       <r>    2.6794    0.0000 </r>
       <r>    5.1796    0.0000 </r>
       <r>    5.6164    0.0000 </r>
      </set>
      <set comment="kpoint 22">
       <r>  -35.0943    1.0000 </r>
       <r>  -17.1519    1.0000 </r>
       <r>  -17.0943    1.0000 </r>
       <r>  -17.0552    1.0000 </r>
       <r>    1.2004    1.0000 </r>
       <r>    1.8226    0.0000 </r>
       <r>    2.4754    0.0000 </r>
       <r>    4.9263    0.0000 </r>
       <r>    5.5243    0.0000 </r>
      </set>
      <set comment="kpoint 23">
       <r>  -35.0947    1.0000 </r>
       <r>  -17.1253    1.0000 </r>
       <r>  -17.1242    1.0000 </r>
       <r>  -17.0451    1.0000 </r>
       <r>    1.3443    1.0000 </r>
       <r>    1.8676    0.0000 </r>
       <r>    2.2945    0.0000 </r>
       <r>    4.6013    0.0000 </r>
       <r>    5.5219    0.0000 </r>
      </set>
      <set comment="kpoint 24">
       <r>  -35.0942    1.0000 </r>
       <r>  -17.1698    1.0000 </r>
       <r>  -17.0661    1.0000 </r>
       <r>  -17.0661    1.0000 </r>
       <r>    0.7767    1.0000 </r>
       <r>    1.9306    0.0000 </r>
       <r>    2.5894    0.0000 </r>
       <r>    6.0766    0.0000 </r>
       <r>    6.0783    0.0000 </r>
      </set>
      <set comment="kpoint 25">
       <r>  -35.0937    1.0000 </r>
       <r>  -17.1684    1.0000 </r>
       <r>  -17.0777    1.0000 </r>
       <r>  -17.0651    1.0000 </r>
       <r>    1.0249    1.0000 </r>
       <r>    1.9070    0.0000 </r>
       <r>    2.4999    0.0000 </r>
       <r>    5.6936    0.0000 </r>
       <r>    6.0134    0.0000 </r>
      </set>
      <set comment="kpoint 26">
       <r>  -35.1025    1.0000 </r>
       <r>  -17.0958    1.0000 </r>
       <r>  -17.0384    1.0000 </r>
       <r>  -17.0198    1.0000 </r>
       <r>   -0.8757    1.0000 </r>
       <r>    2.7080    0.0000 </r>
       <r>    3.5838    0.0000 </r>
       <r>    4.4903    0.0000 </r>
       <r>    4.5149    0.0000 </r>
      </set>
      <set comment="kpoint 27">
       <r>  -35.0989    1.0000 </r>
       <r>  -17.1349    1.0000 </r>
       <r>  -17.0564    1.0000 </r>
       <r>  -17.0290    1.0000 </r>
       <r>   -0.1012    1.0000 </r>
       <r>    2.2954    0.0000 </r>
       <r>    3.1294    0.0000 </r>
       <r>    4.2817    0.0000 </r>
       <r>    5.1527    0.0000 </r>
      </set>
      <set comment="kpoint 28">
       <r>  -35.0965    1.0000 </r>
       <r>  -17.1613    1.0000 </r>
       <r>  -17.0649    1.0000 </r>
       <r>  -17.0370    1.0000 </r>
       <r>    0.7294    1.0000 </r>
       <r>    1.7313    0.0000 </r>
       <r>    2.9994    0.0000 </r>
       <r>    4.1158    0.0000 </r>
       <r>    5.8148    0.0000 </r>
      </set>
      <set comment="kpoint 29">
       <r>  -35.0974    1.0000 </r>
       <r>  -17.1368    1.0000 </r>
       <r>  -17.0627    1.0000 </r>
       <r>  -17.0459    1.0000 </r>
       <r>    0.1277    1.0000 </r>
       <r>    2.2399    0.0000 </r>
       <r>    2.8601    0.0000 </r>
       <r>    4.7520    0.0000 </r>
       <r>    5.1765    0.0000 </r>
      </set>
      <set comment="kpoint 30">
       <r>  -35.0952    1.0000 </r>
       <r>  -17.1477    1.0000 </r>
       <r>  -17.0846    1.0000 </r>
       <r>  -17.0529    1.0000 </r>
       <r>    0.8994    1.0000 </r>
       <r>    1.9716    0.0000 </r>
       <r>    2.5644    0.0000 </r>
       <r>    4.4981    0.0000 </r>
       <r>    5.6909    0.0000 </r>
      </set>
      <set comment="kpoint 31">
       <r>  -35.0947    1.0000 </r>
       <r>  -17.1417    1.0000 </r>
       <r>  -17.1026    1.0000 </r>
       <r>  -17.0503    1.0000 </r>
       <r>    1.4310    0.9927 </r>
       <r>    1.6657    0.0000 </r>
       <r>    2.4698    0.0000 </r>
       <r>    4.2859    0.0000 </r>
       <r>    5.6942    0.0000 </r>
      </set>
      <set comment="kpoint 32">
       <r>  -35.0961    1.0000 </r>
       <r>  -17.1377    1.0000 </r>
       <r>  -17.0916    1.0000 </r>
       <r>  -17.0397    1.0000 </r>
       <r>    0.6745    1.0000 </r>
       <r>    2.2544    0.0000 </r>
       <r>    2.4458    0.0000 </r>
       <r>    4.3721    0.0000 </r>
       <r>    5.4385    0.0000 </r>
      </set>
      <set comment="kpoint 33">
       <r>  -35.0941    1.0000 </r>
       <r>  -17.1595    1.0000 </r>
       <r>  -17.0785    1.0000 </r>
       <r>  -17.0659    1.0000 </r>
       <r>    0.9980    1.0000 </r>
       <r>    1.9783    0.0000 </r>
       <r>    2.4731    0.0000 </r>
       <r>    4.9790    0.0000 </r>
       <r>    6.1385    0.0000 </r>
      </set>
      <set comment="kpoint 34">
       <r>  -35.0938    1.0000 </r>
       <r>  -17.1454    1.0000 </r>
       <r>  -17.1020    1.0000 </r>
       <r>  -17.0631    1.0000 </r>
       <r>    1.4223    0.9964 </r>
       <r>    1.9253    0.0000 </r>
       <r>    2.3303    0.0000 </r>
       <r>    4.3616    0.0000 </r>
       <r>    6.1218    0.0000 </r>
      </set>
      <set comment="kpoint 35">
       <r>  -35.0939    1.0000 </r>
       <r>  -17.1332    1.0000 </r>
       <r>  -17.1099    1.0000 </r>
       <r>  -17.0648    1.0000 </r>
       <r>    1.4791    0.8605 </r>
       <r>    2.1216    0.0000 </r>
       <r>    2.1669    0.0000 </r>
       <r>    3.9785    0.0000 </r>
       <r>    6.2685    0.0000 </r>
      </set>
     </set>
    </set>
   </array>
  </eigenvalues>
  <separator name="orbital magnetization" >
   <v name="MAGDIPOLOUT">      0.00000000      0.00000000      0.00000000</v>
  </separator>
  <dos>
   <i name="efermi">      1.51739430 </i>
   <total>
    <array>
     <dimension dim="1">gridpoints</dimension>
     <dimension dim="2">spin</dimension>
     <field>energy</field>
     <field>total</field>
     <field>integrated</field>
     <set>
      <set comment="spin 1">
       <r>   -37.1798     0.0000     0.0000 </r>
       <r>   -37.0281     0.0000     0.0000 </r>
       <r>   -36.8763     0.0000     0.0000 </r>
       <r>   -36.7246     0.0000     0.0000 </r>
       <r>   -36.5729     0.0000     0.0000 </r>
       <r>   -36.4212     0.0000     0.0000 </r>
       <r>   -36.2694     0.0000     0.0000 </r>
       <r>   -36.1177     0.0000     0.0000 </r>
       <r>   -35.9660     0.0000     0.0000 </r>
       <r>   -35.8143     0.0000     0.0000 </r>
       <r>   -35.6625     0.0000     0.0000 </r>
       <r>   -35.5108     0.0000     0.0000 </r>
       <r>   -35.3591     0.0000     0.0000 </r>
       <r>   -35.2074     0.0138     0.0021 </r>
       <r>   -35.0556    11.6241     1.7657 </r>
       <r>   -34.9039     1.5440     2.0000 </r>
       <r>   -34.7522     0.0000     2.0000 </r>
       <r>   -34.6005     0.0000     2.0000 </r>
       <r>   -34.4487     0.0000     2.0000 </r>
       <r>   -34.2970     0.0000     2.0000 </r>
       <r>   -34.1453     0.0000     2.0000 </r>
       <r>   -33.9936     0.0000     2.0000 </r>
       <r>   -33.8418     0.0000     2.0000 </r>
       <r>   -33.6901     0.0000     2.0000 </r>
       <r>   -33.5384     0.0000     2.0000 </r>
       <r>   -33.3867     0.0000     2.0000 </r>
       <r>   -33.2350     0.0000     2.0000 </r>
       <r>   -33.0832     0.0000     2.0000 </r>
       <r>   -32.9315     0.0000     2.0000 </r>
       <r>   -32.7798     0.0000     2.0000 </r>
       <r>   -32.6281     0.0000     2.0000 </r>
       <r>   -32.4763     0.0000     2.0000 </r>
       <r>   -32.3246     0.0000     2.0000 </r>
       <r>   -32.1729     0.0000     2.0000 </r>
       <r>   -32.0212     0.0000     2.0000 </r>
       <r>   -31.8694     0.0000     2.0000 </r>
       <r>   -31.7177     0.0000     2.0000 </r>
       <r>   -31.5660     0.0000     2.0000 </r>
       <r>   -31.4143     0.0000     2.0000 </r>
       <r>   -31.2625     0.0000     2.0000 </r>
       <r>   -31.1108     0.0000     2.0000 </r>
       <r>   -30.9591     0.0000     2.0000 </r>
       <r>   -30.8074     0.0000     2.0000 </r>
       <r>   -30.6556     0.0000     2.0000 </r>
       <r>   -30.5039     0.0000     2.0000 </r>
       <r>   -30.3522     0.0000     2.0000 </r>
       <r>   -30.2005     0.0000     2.0000 </r>
       <r>   -30.0487     0.0000     2.0000 </r>
       <r>   -29.8970     0.0000     2.0000 </r>
       <r>   -29.7453     0.0000     2.0000 </r>
       <r>   -29.5936     0.0000     2.0000 </r>
       <r>   -29.4418     0.0000     2.0000 </r>
       <r>   -29.2901     0.0000     2.0000 </r>
       <r>   -29.1384     0.0000     2.0000 </r>
       <r>   -28.9867     0.0000     2.0000 </r>
       <r>   -28.8350     0.0000     2.0000 </r>
       <r>   -28.6832     0.0000     2.0000 </r>
       <r>   -28.5315     0.0000     2.0000 </r>
       <r>   -28.3798     0.0000     2.0000 </r>
       <r>   -28.2281     0.0000     2.0000 </r>
       <r>   -28.0763     0.0000     2.0000 </r>
       <r>   -27.9246     0.0000     2.0000 </r>
       <r>   -27.7729     0.0000     2.0000 </r>
       <r>   -27.6212     0.0000     2.0000 </r>
       <r>   -27.4694     0.0000     2.0000 </r>
       <r>   -27.3177     0.0000     2.0000 </r>
       <r>   -27.1660     0.0000     2.0000 </r>
       <r>   -27.0143     0.0000     2.0000 </r>
       <r>   -26.8625     0.0000     2.0000 </r>
       <r>   -26.7108     0.0000     2.0000 </r>
       <r>   -26.5591     0.0000     2.0000 </r>
       <r>   -26.4074     0.0000     2.0000 </r>
       <r>   -26.2556     0.0000     2.0000 </r>
       <r>   -26.1039     0.0000     2.0000 </r>
       <r>   -25.9522     0.0000     2.0000 </r>
       <r>   -25.8005     0.0000     2.0000 </r>
       <r>   -25.6487     0.0000     2.0000 </r>
       <r>   -25.4970     0.0000     2.0000 </r>
       <r>   -25.3453     0.0000     2.0000 </r>
       <r>   -25.1936     0.0000     2.0000 </r>
       <r>   -25.0418     0.0000     2.0000 </r>
       <r>   -24.8901     0.0000     2.0000 </r>
       <r>   -24.7384     0.0000     2.0000 </r>
       <r>   -24.5867     0.0000     2.0000 </r>
       <r>   -24.4350     0.0000     2.0000 </r>
       <r>   -24.2832     0.0000     2.0000 </r>
       <r>   -24.1315     0.0000     2.0000 </r>
       <r>   -23.9798     0.0000     2.0000 </r>
       <r>   -23.8281     0.0000     2.0000 </r>
       <r>   -23.6763     0.0000     2.0000 </r>
       <r>   -23.5246     0.0000     2.0000 </r>
       <r>   -23.3729     0.0000     2.0000 </r>
       <r>   -23.2212     0.0000     2.0000 </r>
       <r>   -23.0694     0.0000     2.0000 </r>
       <r>   -22.9177     0.0000     2.0000 </r>
       <r>   -22.7660     0.0000     2.0000 </r>
       <r>   -22.6143     0.0000     2.0000 </r>
       <r>   -22.4625     0.0000     2.0000 </r>
       <r>   -22.3108     0.0000     2.0000 </r>
       <r>   -22.1591     0.0000     2.0000 </r>
       <r>   -22.0074     0.0000     2.0000 </r>
       <r>   -21.8556     0.0000     2.0000 </r>
       <r>   -21.7039     0.0000     2.0000 </r>
       <r>   -21.5522     0.0000     2.0000 </r>
       <r>   -21.4005     0.0000     2.0000 </r>
       <r>   -21.2487     0.0000     2.0000 </r>
       <r>   -21.0970     0.0000     2.0000 </r>
       <r>   -20.9453     0.0000     2.0000 </r>
       <r>   -20.7936     0.0000     2.0000 </r>
       <r>   -20.6418     0.0000     2.0000 </r>
       <r>   -20.4901     0.0000     2.0000 </r>
       <r>   -20.3384     0.0000     2.0000 </r>
       <r>   -20.1867     0.0000     2.0000 </r>
       <r>   -20.0350     0.0000     2.0000 </r>
       <r>   -19.8832     0.0000     2.0000 </r>
       <r>   -19.7315     0.0000     2.0000 </r>
       <r>   -19.5798     0.0000     2.0000 </r>
       <r>   -19.4281     0.0000     2.0000 </r>
       <r>   -19.2763     0.0000     2.0000 </r>
       <r>   -19.1246     0.0000     2.0000 </r>
       <r>   -18.9729     0.0000     2.0000 </r>
       <r>   -18.8212     0.0000     2.0000 </r>
       <r>   -18.6694     0.0000     2.0000 </r>
       <r>   -18.5177     0.0000     2.0000 </r>
       <r>   -18.3660     0.0000     2.0000 </r>
       <r>   -18.2143     0.0000     2.0000 </r>
       <r>   -18.0625     0.0000     2.0000 </r>
       <r>   -17.9108     0.0000     2.0000 </r>
       <r>   -17.7591     0.0000     2.0000 </r>
       <r>   -17.6074     0.0000     2.0000 </r>
       <r>   -17.4556     0.0000     2.0000 </r>
       <r>   -17.3039     0.0002     2.0000 </r>
       <r>   -17.1522     5.3405     2.8103 </r>
       <r>   -17.0005    30.7397     7.4743 </r>
       <r>   -16.8487     3.4651     8.0000 </r>
       <r>   -16.6970     0.0000     8.0000 </r>
       <r>   -16.5453     0.0000     8.0000 </r>
       <r>   -16.3936     0.0000     8.0000 </r>
       <r>   -16.2418     0.0000     8.0000 </r>
       <r>   -16.0901     0.0000     8.0000 </r>
       <r>   -15.9384     0.0000     8.0000 </r>
       <r>   -15.7867     0.0000     8.0000 </r>
       <r>   -15.6350     0.0000     8.0000 </r>
       <r>   -15.4832     0.0000     8.0000 </r>
       <r>   -15.3315     0.0000     8.0000 </r>
       <r>   -15.1798     0.0000     8.0000 </r>
       <r>   -15.0281     0.0000     8.0000 </r>
       <r>   -14.8763     0.0000     8.0000 </r>
       <r>   -14.7246     0.0000     8.0000 </r>
       <r>   -14.5729     0.0000     8.0000 </r>
       <r>   -14.4212     0.0000     8.0000 </r>
       <r>   -14.2694     0.0000     8.0000 </r>
       <r>   -14.1177     0.0000     8.0000 </r>
       <r>   -13.9660     0.0000     8.0000 </r>
       <r>   -13.8143     0.0000     8.0000 </r>
       <r>   -13.6625     0.0000     8.0000 </r>
       <r>   -13.5108     0.0000     8.0000 </r>
       <r>   -13.3591     0.0000     8.0000 </r>
       <r>   -13.2074     0.0000     8.0000 </r>
       <r>   -13.0556     0.0000     8.0000 </r>
       <r>   -12.9039     0.0000     8.0000 </r>
       <r>   -12.7522     0.0000     8.0000 </r>
       <r>   -12.6005     0.0000     8.0000 </r>
       <r>   -12.4487     0.0000     8.0000 </r>
       <r>   -12.2970     0.0000     8.0000 </r>
       <r>   -12.1453     0.0000     8.0000 </r>
       <r>   -11.9936     0.0000     8.0000 </r>
       <r>   -11.8419     0.0000     8.0000 </r>
       <r>   -11.6901     0.0000     8.0000 </r>
       <r>   -11.5384     0.0000     8.0000 </r>
       <r>   -11.3867     0.0000     8.0000 </r>
       <r>   -11.2350     0.0000     8.0000 </r>
       <r>   -11.0832     0.0000     8.0000 </r>
       <r>   -10.9315     0.0000     8.0000 </r>
       <r>   -10.7798     0.0000     8.0000 </r>
       <r>   -10.6281     0.0000     8.0000 </r>
       <r>   -10.4763     0.0000     8.0000 </r>
       <r>   -10.3246     0.0000     8.0000 </r>
       <r>   -10.1729     0.0000     8.0000 </r>
       <r>   -10.0212     0.0000     8.0000 </r>
       <r>    -9.8694     0.0000     8.0000 </r>
       <r>    -9.7177     0.0000     8.0000 </r>
       <r>    -9.5660     0.0000     8.0000 </r>
       <r>    -9.4143     0.0000     8.0000 </r>
       <r>    -9.2625     0.0000     8.0000 </r>
       <r>    -9.1108     0.0000     8.0000 </r>
       <r>    -8.9591     0.0000     8.0000 </r>
       <r>    -8.8074     0.0000     8.0000 </r>
       <r>    -8.6556     0.0000     8.0000 </r>
       <r>    -8.5039     0.0000     8.0000 </r>
       <r>    -8.3522     0.0000     8.0000 </r>
       <r>    -8.2005     0.0000     8.0000 </r>
       <r>    -8.0487     0.0000     8.0000 </r>
       <r>    -7.8970     0.0000     8.0000 </r>
       <r>    -7.7453     0.0000     8.0000 </r>
       <r>    -7.5936     0.0000     8.0000 </r>
       <r>    -7.4419     0.0000     8.0000 </r>
       <r>    -7.2901     0.0000     8.0000 </r>
       <r>    -7.1384     0.0000     8.0000 </r>
       <r>    -6.9867     0.0000     8.0000 </r>
       <r>    -6.8350     0.0000     8.0000 </r>
       <r>    -6.6832     0.0000     8.0000 </r>
       <r>    -6.5315     0.0000     8.0000 </r>
       <r>    -6.3798     0.0000     8.0000 </r>
       <r>    -6.2281     0.0000     8.0000 </r>
       <r>    -6.0763     0.0000     8.0000 </r>
       <r>    -5.9246     0.0000     8.0000 </r>
       <r>    -5.7729     0.0000     8.0000 </r>
       <r>    -5.6212     0.0000     8.0000 </r>
       <r>    -5.4694     0.0000     8.0000 </r>
       <r>    -5.3177     0.0000     8.0000 </r>
       <r>    -5.1660     0.0000     8.0000 </r>
       <r>    -5.0143     0.0000     8.0000 </r>
       <r>    -4.8625     0.0000     8.0000 </r>
       <r>    -4.7108     0.0000     8.0000 </r>
       <r>    -4.5591     0.0000     8.0000 </r>
       <r>    -4.4074     0.0000     8.0000 </r>
       <r>    -4.2556     0.0000     8.0000 </r>
       <r>    -4.1039     0.0000     8.0000 </r>
       <r>    -3.9522     0.0000     8.0000 </r>
       <r>    -3.8005     0.0000     8.0000 </r>
       <r>    -3.6487     0.0000     8.0000 </r>
       <r>    -3.4970     0.0000     8.0000 </r>
       <r>    -3.3453     0.0000     8.0000 </r>
       <r>    -3.1936     0.0000     8.0000 </r>
       <r>    -3.0419     0.0000     8.0000 </r>
       <r>    -2.8901     0.0000     8.0000 </r>
       <r>    -2.7384     0.0000     8.0000 </r>
       <r>    -2.5867     0.0000     8.0000 </r>
       <r>    -2.4350     0.0000     8.0000 </r>
       <r>    -2.2832     0.0000     8.0000 </r>
       <r>    -2.1315     0.0022     8.0003 </r>
       <r>    -1.9798     0.0171     8.0029 </r>
       <r>    -1.8281     0.1974     8.0329 </r>
       <r>    -1.6763     0.0552     8.0413 </r>
       <r>    -1.5246     0.2045     8.0723 </r>
       <r>    -1.3729     0.3735     8.1290 </r>
       <r>    -1.2212     0.2168     8.1619 </r>
       <r>    -1.0694     0.0888     8.1753 </r>
       <r>    -0.9177     0.3844     8.2337 </r>
       <r>    -0.7660     0.5045     8.3102 </r>
       <r>    -0.6143     0.4142     8.3731 </r>
       <r>    -0.4625     0.5363     8.4544 </r>
       <r>    -0.3108     0.0655     8.4644 </r>
       <r>    -0.1591     0.2757     8.5062 </r>
       <r>    -0.0074     1.3393     8.7094 </r>
       <r>     0.1444     0.3813     8.7672 </r>
       <r>     0.2961     0.8248     8.8924 </r>
       <r>     0.4478     0.2557     8.9312 </r>
       <r>     0.5995     0.9253     9.0716 </r>
       <r>     0.7513     1.4570     9.2926 </r>
       <r>     0.9030     0.7928     9.4129 </r>
       <r>     1.0547     1.1437     9.5865 </r>
       <r>     1.2064     0.5853     9.6753 </r>
       <r>     1.3581     0.3614     9.7301 </r>
       <r>     1.5099     1.7279     9.9922 </r>
       <r>     1.6616     1.3387    10.1954 </r>
       <r>     1.8133     1.6471    10.4453 </r>
       <r>     1.9650     2.1236    10.7675 </r>
       <r>     2.1168     2.5967    11.1614 </r>
       <r>     2.2685     1.8423    11.4410 </r>
       <r>     2.4202     1.9469    11.7364 </r>
       <r>     2.5719     3.6947    12.2969 </r>
       <r>     2.7237     1.4980    12.5242 </r>
       <r>     2.8754     1.4225    12.7401 </r>
       <r>     3.0271     1.6831    12.9954 </r>
       <r>     3.1788     1.5745    13.2343 </r>
       <r>     3.3306     0.5076    13.3113 </r>
       <r>     3.4823     1.1573    13.4869 </r>
       <r>     3.6340     1.0342    13.6438 </r>
       <r>     3.7857     1.1464    13.8178 </r>
       <r>     3.9375     1.6242    14.0642 </r>
       <r>     4.0892     2.5934    14.4577 </r>
       <r>     4.2409     2.2533    14.7995 </r>
       <r>     4.3926     3.2905    15.2988 </r>
       <r>     4.5444     2.4539    15.6711 </r>
       <r>     4.6961     0.9697    15.8182 </r>
       <r>     4.8478     1.0925    15.9840 </r>
       <r>     4.9995     1.4982    16.2113 </r>
       <r>     5.1513     1.3377    16.4143 </r>
       <r>     5.3030     1.4732    16.6378 </r>
       <r>     5.4547     0.4101    16.7000 </r>
       <r>     5.6064     2.1120    17.0204 </r>
       <r>     5.7581     2.3920    17.3834 </r>
       <r>     5.9099     1.6508    17.6338 </r>
       <r>     6.0616     0.3939    17.6936 </r>
       <r>     6.2133     1.4292    17.9104 </r>
       <r>     6.3650     0.5890    17.9998 </r>
       <r>     6.5168     0.0014    18.0000 </r>
       <r>     6.6685     0.0000    18.0000 </r>
       <r>     6.8202     0.0000    18.0000 </r>
       <r>     6.9719     0.0000    18.0000 </r>
       <r>     7.1237     0.0000    18.0000 </r>
       <r>     7.2754     0.0000    18.0000 </r>
       <r>     7.4271     0.0000    18.0000 </r>
       <r>     7.5788     0.0000    18.0000 </r>
       <r>     7.7306     0.0000    18.0000 </r>
       <r>     7.8823     0.0000    18.0000 </r>
       <r>     8.0340     0.0000    18.0000 </r>
       <r>     8.1857     0.0000    18.0000 </r>
       <r>     8.3375     0.0000    18.0000 </r>
      </set>
     </set>
    </array>
   </total>
  </dos>
 </calculation>
 <structure name="finalpos" >
  <crystal>
   <varray name="basis" >
    <v>       3.71539076       0.00000000       2.14508142 </v>
    <v>       1.23846393       3.50290135       2.14508142 </v>
    <v>      -0.00000001      -0.00000001       4.29016388 </v>
   </varray>
   <i name="volume">     55.83496992 </i>
   <varray name="rec_basis" >
    <v>       0.26915069      -0.09515924       0.00000000 </v>
    <v>      -0.00000000       0.28547764       0.00000000 </v>
    <v>      -0.13457531      -0.09515918       0.23309133 </v>
   </varray>
  </crystal>
  <varray name="positions" >
   <v>       0.00000000       0.00000000       0.00000000 </v>
  </varray>
 </structure>
</modeling>
