       N       E                     dE             d eps       ncg     rms          rms(c)
DAV:   1     0.328942163104E+01    0.32894E+01   -0.16127E+03  2664   0.559E+02
DAV:   2    -0.101367962677E+02   -0.13426E+02   -0.12969E+02  2730   0.915E+01
DAV:   3    -0.103634187703E+02   -0.22662E+00   -0.22524E+00  2808   0.150E+01
DAV:   4    -0.103666200827E+02   -0.32013E-02   -0.32010E-02  3234   0.182E+00
DAV:   5    -0.103666460207E+02   -0.25938E-04   -0.25938E-04  2802   0.125E-01    0.954E+00
DAV:   6    -0.860537628133E+01    0.17613E+01   -0.80167E+00  2790   0.504E+01    0.199E+00
DAV:   7    -0.858451160259E+01    0.20865E-01   -0.31879E-02  3402   0.211E+00    0.117E+00
DAV:   8    -0.857559578052E+01    0.89158E-02   -0.60137E-03  2640   0.144E+00    0.161E-01
DAV:   9    -0.857547005977E+01    0.12572E-03   -0.14297E-03  3258   0.508E-01    0.644E-02
DAV:  10    -0.857541867754E+01    0.51382E-04   -0.33601E-05  3264   0.792E-02    0.139E-02
DAV:  11    -0.857541157876E+01    0.70988E-05   -0.16633E-05  3060   0.612E-02    0.226E-03
DAV:  12    -0.857541210969E+01   -0.53093E-06   -0.79710E-08  1320   0.506E-03
   1 F= -.85754121E+01 E0= -.85753800E+01  d E =-.964608E-04
