   1   1   0   0
  0.1499532E+02  0.2690662E-09  0.2690662E-09  0.2690663E-09  0.5000000E-15
   1.0000000000000000E-004
  CAR 
 static single-point for EOS             
     27.97949040     -2.88308617  301      8.51372675      1.00000000
     -2.883  0.0000E+00  0.0000E+00
     -2.780  0.0000E+00  0.0000E+00
     -2.677  0.0000E+00  0.0000E+00
     -2.574  0.0000E+00  0.0000E+00
     -2.472  0.0000E+00  0.0000E+00
     -2.369  0.0000E+00  0.0000E+00
     -2.266  0.0000E+00  0.0000E+00
     -2.163  0.0000E+00  0.0000E+00
     -2.060  0.0000E+00  0.0000E+00
     -1.957  0.0000E+00  0.0000E+00
     -1.854  0.0000E+00  0.0000E+00
     -1.751  0.2077E-16  0.2137E-17
     -1.649  0.2336E-08  0.2403E-09
     -1.546  0.7785E-04  0.8009E-05
     -1.443  0.2171E-02  0.2313E-03
     -1.340  0.1919E-01  0.2205E-02
     -1.237  0.1596E-01  0.3847E-02
     -1.134  0.2111E-01  0.6019E-02
     -1.031  0.4780E-01  0.1094E-01
     -0.928  0.2754E-01  0.1377E-01
     -0.826  0.4961E-01  0.1887E-01
     -0.723  0.2423E-01  0.2136E-01
     -0.620  0.7865E-01  0.2946E-01
     -0.517  0.4679E-01  0.3427E-01
     -0.414  0.4090E-01  0.3848E-01
     -0.311  0.7262E-01  0.4595E-01
     -0.208  0.5833E-01  0.5195E-01
     -0.105  0.5434E-01  0.5754E-01
     -0.003  0.8276E-01  0.6605E-01
      0.100  0.1308E+00  0.7951E-01
      0.203  0.2211E-01  0.8178E-01
      0.306  0.1154E+00  0.9365E-01
      0.409  0.5698E-01  0.9951E-01
      0.512  0.1032E+00  0.1101E+00
      0.615  0.9937E-01  0.1204E+00
      0.718  0.1486E+00  0.1356E+00
      0.820  0.1438E+00  0.1504E+00
      0.923  0.5026E-01  0.1556E+00
      1.026  0.1423E+00  0.1702E+00
      1.129  0.7923E-01  0.1784E+00
      1.232  0.1613E+00  0.1950E+00
      1.335  0.1899E+00  0.2145E+00
      1.438  0.2932E+00  0.2447E+00
      1.541  0.7935E-01  0.2528E+00
      1.643  0.1945E+00  0.2728E+00
      1.746  0.1193E+00  0.2851E+00
      1.849  0.2845E+00  0.3144E+00
      1.952  0.7299E+00  0.3895E+00
      2.055  0.6619E+00  0.4576E+00
      2.158  0.5143E+00  0.5105E+00
      2.261  0.7541E+00  0.5880E+00
      2.364  0.3750E+00  0.6266E+00
      2.466  0.5528E+00  0.6835E+00
      2.569  0.1188E+01  0.8057E+00
      2.672  0.9087E+00  0.8992E+00
      2.775  0.4157E+00  0.9420E+00
      2.878  0.6057E+00  0.1004E+01
      2.981  0.1026E+01  0.1110E+01
      3.084  0.1158E+01  0.1229E+01
      3.187  0.8656E+00  0.1318E+01
      3.289  0.4840E+00  0.1368E+01
      3.392  0.1278E+01  0.1499E+01
      3.495  0.1675E+01  0.1671E+01
      3.598  0.7633E+00  0.1750E+01
      3.701  0.5688E+00  0.1809E+01
      3.804  0.1129E+01  0.1925E+01
      3.907  0.7888E+00  0.2006E+01
      4.010  0.6473E+00  0.2072E+01
      4.112  0.3912E+00  0.2113E+01
      4.215  0.1517E+00  0.2128E+01
      4.318  0.3926E+00  0.2169E+01
      4.421  0.5399E+00  0.2224E+01
      4.524  0.3619E+00  0.2261E+01
      4.627  0.5781E+00  0.2321E+01
      4.730  0.1105E+01  0.2435E+01
      4.833  0.1421E+01  0.2581E+01
      4.935  0.2337E+01  0.2821E+01
      5.038  0.1604E+01  0.2986E+01
      5.141  0.1665E+01  0.3157E+01
      5.244  0.1433E+01  0.3305E+01
      5.347  0.1268E+01  0.3435E+01
      5.450  0.1289E+01  0.3568E+01
      5.553  0.1093E+01  0.3680E+01
      5.656  0.5098E+00  0.3733E+01
      5.758  0.7362E+00  0.3808E+01
      5.861  0.1190E+01  0.3931E+01
      5.964  0.1428E+01  0.4078E+01
      6.067  0.9418E+00  0.4175E+01
      6.170  0.1225E+01  0.4301E+01
      6.273  0.1514E+01  0.4457E+01
      6.376  0.1731E+01  0.4635E+01
      6.479  0.1829E+01  0.4823E+01
      6.581  0.1184E+01  0.4945E+01
      6.684  0.1180E+01  0.5066E+01
      6.787  0.1132E+01  0.5182E+01
      6.890  0.1180E+01  0.5304E+01
      6.993  0.9079E+00  0.5397E+01
      7.096  0.7584E+00  0.5475E+01
      7.199  0.2047E+00  0.5496E+01
      7.302  0.3512E+00  0.5532E+01
      7.404  0.3875E+00  0.5572E+01
      7.507  0.4821E+00  0.5622E+01
      7.610  0.3366E+00  0.5657E+01
      7.713  0.6237E+00  0.5721E+01
      7.816  0.4401E+00  0.5766E+01
      7.919  0.2561E+00  0.5792E+01
      8.022  0.3043E+00  0.5824E+01
      8.125  0.4670E+00  0.5872E+01
      8.227  0.4080E+00  0.5914E+01
      8.330  0.3110E+00  0.5946E+01
      8.433  0.2968E+00  0.5976E+01
      8.536  0.2924E+00  0.6006E+01
      8.639  0.2775E+00  0.6035E+01
      8.742  0.7487E+00  0.6112E+01
      8.845  0.6908E+00  0.6183E+01
      8.948  0.6890E+00  0.6254E+01
      9.050  0.9002E+00  0.6346E+01
      9.153  0.5524E+00  0.6403E+01
      9.256  0.6743E+00  0.6473E+01
      9.359  0.5342E+00  0.6527E+01
      9.462  0.7122E+00  0.6601E+01
      9.565  0.1054E+01  0.6709E+01
      9.668  0.6502E+00  0.6776E+01
      9.771  0.8267E+00  0.6861E+01
      9.873  0.7828E+00  0.6942E+01
      9.976  0.6864E+00  0.7012E+01
     10.079  0.1018E+01  0.7117E+01
     10.182  0.7603E+00  0.7195E+01
     10.285  0.6460E+00  0.7262E+01
     10.388  0.1158E+01  0.7381E+01
     10.491  0.1120E+01  0.7496E+01
     10.594  0.1225E+01  0.7622E+01
     10.696  0.1310E+01  0.7757E+01
     10.799  0.1117E+01  0.7872E+01
     10.902  0.1237E+01  0.7999E+01
     11.005  0.9847E+00  0.8100E+01
     11.108  0.8428E+00  0.8187E+01
     11.211  0.7602E+00  0.8265E+01
     11.314  0.1045E+01  0.8373E+01
     11.417  0.1050E+01  0.8481E+01
     11.519  0.1147E+01  0.8599E+01
     11.622  0.1168E+01  0.8719E+01
     11.725  0.1711E+01  0.8895E+01
     11.828  0.3098E+01  0.9214E+01
     11.931  0.3062E+01  0.9529E+01
     12.034  0.1186E+01  0.9651E+01
     12.137  0.1115E+01  0.9765E+01
     12.240  0.1168E+01  0.9885E+01
     12.342  0.1168E+01  0.1001E+02
     12.445  0.4641E+00  0.1005E+02
     12.548  0.3869E+00  0.1009E+02
     12.651  0.5907E+00  0.1015E+02
     12.754  0.4106E+00  0.1020E+02
     12.857  0.1762E+00  0.1021E+02
     12.960  0.3469E+00  0.1025E+02
     13.063  0.4541E+00  0.1030E+02
     13.165  0.7578E+00  0.1037E+02
     13.268  0.1010E+01  0.1048E+02
     13.371  0.6762E+00  0.1055E+02
     13.474  0.3676E+00  0.1059E+02
     13.577  0.3182E+00  0.1062E+02
     13.680  0.3988E+00  0.1066E+02
     13.783  0.3880E+00  0.1070E+02
     13.886  0.2397E+00  0.1072E+02
     13.988  0.2358E+00  0.1075E+02
     14.091  0.3422E+00  0.1078E+02
     14.194  0.9400E-01  0.1079E+02
     14.297  0.1162E+00  0.1081E+02
     14.400  0.2834E+00  0.1083E+02
     14.503  0.7269E+00  0.1091E+02
     14.606  0.5269E+00  0.1096E+02
     14.709  0.4945E+00  0.1101E+02
     14.811  0.1553E+00  0.1103E+02
     14.914  0.2142E+00  0.1105E+02
     15.017  0.2362E+00  0.1108E+02
     15.120  0.2907E+00  0.1111E+02
     15.223  0.3495E+00  0.1114E+02
     15.326  0.3205E+00  0.1118E+02
     15.429  0.1119E+00  0.1119E+02
     15.532  0.2512E+00  0.1121E+02
     15.634  0.2681E+00  0.1124E+02
     15.737  0.2357E+00  0.1126E+02
     15.840  0.2605E+00  0.1129E+02
     15.943  0.4774E+00  0.1134E+02
     16.046  0.2962E+00  0.1137E+02
     16.149  0.2262E+00  0.1139E+02
     16.252  0.3352E+00  0.1143E+02
     16.355  0.2978E+00  0.1146E+02
     16.457  0.1282E+00  0.1147E+02
     16.560  0.1483E+00  0.1149E+02
     16.663  0.3728E+00  0.1153E+02
     16.766  0.3173E+00  0.1156E+02
     16.869  0.2447E+00  0.1158E+02
     16.972  0.4491E+00  0.1163E+02
     17.075  0.3925E+00  0.1167E+02
     17.178  0.2313E+00  0.1169E+02
     17.280  0.2419E+00  0.1172E+02
     17.383  0.3948E+00  0.1176E+02
     17.486  0.3174E+00  0.1179E+02
     17.589  0.8502E-01  0.1180E+02
     17.692  0.3232E+00  0.1183E+02
     17.795  0.2282E+00  0.1186E+02
     17.898  0.4930E+00  0.1191E+02
     18.001  0.2060E+00  0.1193E+02
     18.103  0.3135E+00  0.1196E+02
     18.206  0.3012E+00  0.1199E+02
     18.309  0.3257E+00  0.1203E+02
     18.412  0.2270E+00  0.1205E+02
     18.515  0.2748E+00  0.1208E+02
     18.618  0.3255E+00  0.1211E+02
     18.721  0.1874E+00  0.1213E+02
     18.824  0.1646E+00  0.1215E+02
     18.926  0.1468E+00  0.1216E+02
     19.029  0.4862E+00  0.1221E+02
     19.132  0.8794E+00  0.1230E+02
     19.235  0.5834E+00  0.1236E+02
     19.338  0.4326E+00  0.1241E+02
     19.441  0.2624E+00  0.1244E+02
     19.544  0.2723E+00  0.1246E+02
     19.647  0.2805E+00  0.1249E+02
     19.749  0.3121E+00  0.1252E+02
     19.852  0.1570E+00  0.1254E+02
     19.955  0.1695E+00  0.1256E+02
     20.058  0.4509E+00  0.1260E+02
     20.161  0.8063E+00  0.1269E+02
     20.264  0.6691E+00  0.1276E+02
     20.367  0.3845E+00  0.1280E+02
     20.470  0.3921E+00  0.1284E+02
     20.572  0.2937E+00  0.1287E+02
     20.675  0.2057E+00  0.1289E+02
     20.778  0.1548E+00  0.1290E+02
     20.881  0.2209E+00  0.1293E+02
     20.984  0.2424E+00  0.1295E+02
     21.087  0.2531E+00  0.1298E+02
     21.190  0.4358E+00  0.1302E+02
     21.293  0.4302E+00  0.1307E+02
     21.395  0.3675E+00  0.1310E+02
     21.498  0.2130E+00  0.1313E+02
     21.601  0.2159E+00  0.1315E+02
     21.704  0.3144E+00  0.1318E+02
     21.807  0.1980E+00  0.1320E+02
     21.910  0.1483E+00  0.1322E+02
     22.013  0.2136E+00  0.1324E+02
     22.116  0.3783E+00  0.1328E+02
     22.218  0.2868E+00  0.1331E+02
     22.321  0.2139E+00  0.1333E+02
     22.424  0.1635E+00  0.1334E+02
     22.527  0.3141E+00  0.1338E+02
     22.630  0.3345E+00  0.1341E+02
     22.733  0.2197E+00  0.1343E+02
     22.836  0.2519E+00  0.1346E+02
     22.939  0.1454E+00  0.1348E+02
     23.041  0.3899E+00  0.1352E+02
     23.144  0.2178E+00  0.1354E+02
     23.247  0.1456E+00  0.1355E+02
     23.350  0.3283E+00  0.1359E+02
     23.453  0.2353E+00  0.1361E+02
     23.556  0.1296E+00  0.1362E+02
     23.659  0.1988E+00  0.1364E+02
     23.762  0.2940E+00  0.1367E+02
     23.864  0.8430E-01  0.1368E+02
     23.967  0.9466E-01  0.1369E+02
     24.070  0.1187E+00  0.1371E+02
     24.173  0.3729E+00  0.1374E+02
     24.276  0.1592E+00  0.1376E+02
     24.379  0.1819E+00  0.1378E+02
     24.482  0.1803E+00  0.1380E+02
     24.585  0.2605E+00  0.1382E+02
     24.687  0.2706E+00  0.1385E+02
     24.790  0.1714E+00  0.1387E+02
     24.893  0.2037E+00  0.1389E+02
     24.996  0.1842E+00  0.1391E+02
     25.099  0.7149E-01  0.1392E+02
     25.202  0.2924E+00  0.1395E+02
     25.305  0.1536E+00  0.1396E+02
     25.408  0.1382E+00  0.1398E+02
     25.510  0.7303E-01  0.1398E+02
     25.613  0.7155E-03  0.1398E+02
     25.716  0.1120E-01  0.1399E+02
     25.819  0.3270E-01  0.1399E+02
     25.922  0.5611E-01  0.1399E+02
     26.025  0.3575E-01  0.1400E+02
     26.128  0.2565E-03  0.1400E+02
     26.231  0.9357E-09  0.1400E+02
     26.333  0.4438E-13  0.1400E+02
     26.436  0.5287E-06  0.1400E+02
     26.539  0.2114E-02  0.1400E+02
     26.642  0.1200E-01  0.1400E+02
     26.745  0.4671E-03  0.1400E+02
     26.848  0.1402E-07  0.1400E+02
     26.951  0.1246E-15  0.1400E+02
     27.054  0.0000E+00  0.1400E+02
     27.156  0.0000E+00  0.1400E+02
     27.259  0.0000E+00  0.1400E+02
     27.362  0.0000E+00  0.1400E+02
     27.465  0.0000E+00  0.1400E+02
     27.568  0.0000E+00  0.1400E+02
     27.671  0.0000E+00  0.1400E+02
     27.774  0.0000E+00  0.1400E+02
     27.877  0.0000E+00  0.1400E+02
     27.979  0.0000E+00  0.1400E+02
