   39   39  200    1
  0.3485630E+02  0.2176006E-08  0.2176006E-08  0.2176006E-08  0.5000000E-15
   1.0000000000000000E-004
  CAR 
 Sb2Te3 Structural Relaxation (39 atoms, 
    219     19    131
 
  0.1262379E-14  0.1262379E-14  0.1262379E-14  0.8000000E-02
      1         -6.558219   1.000000
      2         -6.236569   1.000000
      3         -6.176809   1.000000
      4         -5.469279   1.000000
      5         -5.116022   1.000000
      6         -4.755960   1.000000
      7         -4.753139   1.000000
      8         -4.753138   1.000000
      9         -4.697734   1.000000
     10         -4.697733   1.000000
     11         -4.669812   1.000000
     12         -4.593996   1.000000
     13         -4.593995   1.000000
     14         -4.517465   1.000000
     15         -4.506148   1.000000
     16         -4.435750   1.000000
     17         -4.355450   1.000000
     18         -4.355449   1.000000
     19         -4.335392   1.000000
     20         -4.335391   1.000000
     21         -4.326589   1.000000
     22         -4.231386   1.000000
     23         -4.231385   1.000000
     24         -4.133573   1.000000
     25         -2.878301   1.000000
     26         -2.878300   1.000000
     27         -2.874659   1.000000
     28         -2.595061   1.000000
     29         -2.595060   1.000000
     30         -2.489207   1.000000
     31         -2.308455   1.000000
     32         -2.265546   1.000000
     33         -2.265545   1.000000
     34         -2.173386   1.000000
     35         -1.970059   1.000000
     36         -1.970057   1.000000
     37         -1.421421   1.000000
     38         -0.861007   1.000000
     39          0.004954   1.000000
     40          0.940292   1.000000
     41          0.967788   1.000000
     42          0.967789   1.000000
     43          1.506151   1.000000
     44          1.522746   1.000000
     45          1.522747   1.000000
     46          1.888488   1.000000
     47          1.937189   1.000000
     48          1.937190   1.000000
     49          2.409950   1.000000
     50          2.409950   1.000000
     51          2.445721   1.000000
     52          2.978650   1.000000
     53          3.072193   1.000000
     54          3.105662   1.000000
     55          3.105662   1.000000
     56          3.139861   1.000000
     57          3.139861   1.000000
     58          3.178255   1.000000
     59          3.237728   1.000000
     60          3.237729   1.000000
     61          3.336769   1.000000
     62          3.336769   1.000000
     63          3.365143   1.000000
     64          3.366057   1.000000
     65          3.523242   1.000000
     66          3.525738   1.000000
     67          3.525738   1.000000
     68          3.635577   1.000000
     69          3.745750   1.000000
     70          3.745751   1.000000
     71          3.978074   1.000000
     72          4.057013   1.000000
     73          4.057013   1.000000
     74          4.138174   1.000000
     75          4.209646   1.000000
     76          4.467213   1.000000
     77          4.467214   1.000000
     78          4.762018   1.000000
     79          4.788303   1.000000
     80          4.788304   1.000000
     81          4.804637   1.000000
     82          4.804639   1.000000
     83          4.810831   1.000000
     84          4.862066   1.000000
     85          4.862068   1.000000
     86          4.919935   1.000000
     87          4.919937   1.000000
     88          4.994221   1.000000
     89          4.994222   1.000000
     90          5.009341   1.000000
     91          5.133132   1.000000
     92          5.133134   1.000000
     93          5.211909   1.000000
     94          5.458245   1.000000
     95          5.496360   1.000000
     96          5.496361   1.000000
     97          5.724193   1.000000
     98          5.724193   1.000000
     99          5.752646   1.000000
    100          5.816845   1.000000
    101          5.816846   1.000000
    102          5.890108   1.000000
    103          5.890108   1.000000
    104          5.966481   1.000000
    105          6.249025   1.000000
    106          6.249025   1.000000
    107          6.373001   1.000000
    108          6.590323   0.319273
    109          6.681810   0.001116
    110          6.681811   0.001116
    111          7.112485   0.000000
    112          7.197989   0.000000
    113          7.197990   0.000000
    114          7.205836   0.000000
    115          7.275832   0.000000
    116          7.286669   0.000000
    117          7.286669   0.000000
    118          7.425298   0.000000
    119          7.425298   0.000000
    120          7.649573   0.000000
    121          7.714829   0.000000
    122          7.714830   0.000000
    123          7.723775   0.000000
    124          8.028430   0.000000
    125          8.061902   0.000000
    126          8.061904   0.000000
    127          8.294447   0.000000
    128          8.294448   0.000000
    129          8.385790   0.000000
    130          8.385791   0.000000
    131          8.422535   0.000000
 
  0.2000000E+00  0.1269906E-14  0.1259881E-14  0.4800000E-01
      1         -6.464331   1.000000
      2         -6.164297   1.000000
      3         -6.070156   1.000000
      4         -5.414060   1.000000
      5         -5.184559   1.000000
      6         -5.058376   1.000000
      7         -5.016503   1.000000
      8         -4.867679   1.000000
      9         -4.852199   1.000000
     10         -4.791929   1.000000
     11         -4.756180   1.000000
     12         -4.722580   1.000000
     13         -4.625864   1.000000
     14         -4.535284   1.000000
     15         -4.511591   1.000000
     16         -4.432867   1.000000
     17         -4.429144   1.000000
     18         -4.342889   1.000000
     19         -4.269854   1.000000
     20         -4.262862   1.000000
     21         -4.215086   1.000000
     22         -4.110010   1.000000
     23         -4.098916   1.000000
     24         -4.071004   1.000000
     25         -2.797475   1.000000
     26         -2.768980   1.000000
     27         -2.636817   1.000000
     28         -2.603486   1.000000
     29         -2.504544   1.000000
     30         -2.380465   1.000000
     31         -2.278626   1.000000
     32         -2.236569   1.000000
     33         -2.197982   1.000000
     34         -2.049687   1.000000
     35         -1.997873   1.000000
     36         -1.856731   1.000000
     37         -1.464610   1.000000
     38         -0.885697   1.000000
     39         -0.180180   1.000000
     40          1.106525   1.000000
     41          1.119868   1.000000
     42          1.211567   1.000000
     43          1.420235   1.000000
     44          1.452978   1.000000
     45          1.482554   1.000000
     46          2.188835   1.000000
     47          2.197162   1.000000
     48          2.273528   1.000000
     49          2.469320   1.000000
     50          2.475248   1.000000
     51          2.602274   1.000000
     52          2.627715   1.000000
     53          2.704262   1.000000
     54          2.742790   1.000000
     55          2.787836   1.000000
     56          2.906623   1.000000
     57          2.970761   1.000000
     58          2.996335   1.000000
     59          3.076356   1.000000
     60          3.158503   1.000000
     61          3.214901   1.000000
     62          3.245311   1.000000
     63          3.324092   1.000000
     64          3.411674   1.000000
     65          3.564085   1.000000
     66          3.565684   1.000000
     67          3.588793   1.000000
     68          3.743589   1.000000
     69          3.799102   1.000000
     70          3.842518   1.000000
     71          3.845537   1.000000
     72          3.920165   1.000000
     73          4.011673   1.000000
     74          4.079218   1.000000
     75          4.169092   1.000000
     76          4.241919   1.000000
     77          4.378354   1.000000
     78          4.387144   1.000000
     79          4.465847   1.000000
     80          4.506811   1.000000
     81          4.530240   1.000000
     82          4.624102   1.000000
     83          4.634132   1.000000
     84          4.681901   1.000000
     85          4.733480   1.000000
     86          4.860215   1.000000
     87          4.916657   1.000000
     88          4.941177   1.000000
     89          5.003815   1.000000
     90          5.102064   1.000000
     91          5.111004   1.000000
     92          5.240852   1.000000
     93          5.348050   1.000000
     94          5.393772   1.000000
     95          5.485541   1.000000
     96          5.506229   1.000000
     97          5.577211   1.000000
     98          5.725148   1.000000
     99          5.797736   1.000000
    100          5.814183   1.000000
    101          5.897195   1.000000
    102          5.951848   1.000000
    103          6.007020   1.000000
    104          6.031707   1.000000
    105          6.121535   1.000000
    106          6.228052   1.000000
    107          6.302646   1.000000
    108          6.408750   0.999998
    109          6.422463   0.999991
    110          6.599792   0.230391
    111          6.944095   0.000000
    112          7.411838   0.000000
    113          7.497986   0.000000
    114          7.501317   0.000000
    115          7.611277   0.000000
    116          7.699361   0.000000
    117          7.733797   0.000000
    118          7.735827   0.000000
    119          7.805961   0.000000
    120          7.902562   0.000000
    121          7.905639   0.000000
    122          8.018489   0.000000
    123          8.021947   0.000000
    124          8.079980   0.000000
    125          8.101104   0.000000
    126          8.275296   0.000000
    127          8.292848   0.000000
    128          8.323424   0.000000
    129          8.523533   0.000000
    130          8.529958   0.000000
    131          8.636543   0.000000
 
  0.4000000E+00  0.1300315E-14  0.1261037E-14  0.4800000E-01
      1         -6.187763   1.000000
      2         -5.942627   1.000000
      3         -5.782809   1.000000
      4         -5.738091   1.000000
      5         -5.531320   1.000000
      6         -5.324709   1.000000
      7         -5.191991   1.000000
      8         -4.970882   1.000000
      9         -4.957857   1.000000
     10         -4.925365   1.000000
     11         -4.830842   1.000000
     12         -4.821689   1.000000
     13         -4.719859   1.000000
     14         -4.565204   1.000000
     15         -4.561714   1.000000
     16         -4.485063   1.000000
     17         -4.438357   1.000000
     18         -4.351499   1.000000
     19         -4.220855   1.000000
     20         -4.177630   1.000000
     21         -4.135690   1.000000
     22         -4.090356   1.000000
     23         -4.004739   1.000000
     24         -3.949163   1.000000
     25         -2.628029   1.000000
     26         -2.601858   1.000000
     27         -2.454481   1.000000
     28         -2.406044   1.000000
     29         -2.349031   1.000000
     30         -2.337878   1.000000
     31         -2.227224   1.000000
     32         -2.204493   1.000000
     33         -2.187481   1.000000
     34         -2.071367   1.000000
     35         -1.729743   1.000000
     36         -1.506563   1.000000
     37         -1.367478   1.000000
     38         -0.995363   1.000000
     39         -0.702248   1.000000
     40          1.445177   1.000000
     41          1.457916   1.000000
     42          1.606417   1.000000
     43          1.642040   1.000000
     44          1.724592   1.000000
     45          1.924121   1.000000
     46          1.955379   1.000000
     47          2.026181   1.000000
     48          2.332255   1.000000
     49          2.343581   1.000000
     50          2.507173   1.000000
     51          2.522053   1.000000
     52          2.586906   1.000000
     53          2.619940   1.000000
     54          2.632790   1.000000
     55          2.711004   1.000000
     56          2.743100   1.000000
     57          2.777180   1.000000
     58          2.866809   1.000000
     59          2.916243   1.000000
     60          2.952994   1.000000
     61          2.968002   1.000000
     62          3.006491   1.000000
     63          3.044155   1.000000
     64          3.127089   1.000000
     65          3.255619   1.000000
     66          3.521021   1.000000
     67          3.540262   1.000000
     68          3.624300   1.000000
     69          3.655360   1.000000
     70          3.725002   1.000000
     71          3.732208   1.000000
     72          3.807674   1.000000
     73          3.810908   1.000000
     74          3.864451   1.000000
     75          3.982000   1.000000
     76          4.049822   1.000000
     77          4.072134   1.000000
     78          4.107285   1.000000
     79          4.169535   1.000000
     80          4.356807   1.000000
     81          4.455457   1.000000
     82          4.522249   1.000000
     83          4.565783   1.000000
     84          4.568162   1.000000
     85          4.695124   1.000000
     86          4.763012   1.000000
     87          4.877935   1.000000
     88          4.906216   1.000000
     89          5.037644   1.000000
     90          5.136511   1.000000
     91          5.253002   1.000000
     92          5.278018   1.000000
     93          5.324589   1.000000
     94          5.333054   1.000000
     95          5.455221   1.000000
     96          5.502367   1.000000
     97          5.549105   1.000000
     98          5.596710   1.000000
     99          5.721254   1.000000
    100          5.741882   1.000000
    101          5.814219   1.000000
    102          5.886395   1.000000
    103          6.009949   1.000000
    104          6.010321   1.000000
    105          6.223503   1.000000
    106          6.346846   1.000000
    107          6.354592   1.000000
    108          6.372321   1.000000
    109          6.488645   0.991939
    110          6.593690   0.286042
    111          6.675992   0.001909
    112          7.648402   0.000000
    113          7.670304   0.000000
    114          7.741979   0.000000
    115          7.759216   0.000000
    116          7.820774   0.000000
    117          7.890939   0.000000
    118          7.917898   0.000000
    119          7.973369   0.000000
    120          8.055330   0.000000
    121          8.218071   0.000000
    122          8.267344   0.000000
    123          8.308637   0.000000
    124          8.348399   0.000000
    125          8.403597   0.000000
    126          8.454374   0.000000
    127          8.483916   0.000000
    128          8.737356   0.000000
    129          8.783645   0.000000
    130          8.793358   0.000000
    131          8.956335   0.000000
 
  0.2000000E+00  0.2000000E+00  0.1262181E-14  0.4800000E-01
      1         -6.461725   1.000000
      2         -6.192000   1.000000
      3         -6.035521   1.000000
      4         -5.441606   1.000000
      5         -5.178903   1.000000
      6         -5.085158   1.000000
      7         -4.967555   1.000000
      8         -4.867904   1.000000
      9         -4.844342   1.000000
     10         -4.781043   1.000000
     11         -4.757464   1.000000
     12         -4.749142   1.000000
     13         -4.605762   1.000000
     14         -4.522440   1.000000
     15         -4.513818   1.000000
     16         -4.460365   1.000000
     17         -4.423898   1.000000
     18         -4.344311   1.000000
     19         -4.296379   1.000000
     20         -4.255509   1.000000
     21         -4.218118   1.000000
     22         -4.108445   1.000000
     23         -4.098413   1.000000
     24         -4.061277   1.000000
     25         -2.792319   1.000000
     26         -2.754937   1.000000
     27         -2.630719   1.000000
     28         -2.611742   1.000000
     29         -2.538269   1.000000
     30         -2.384177   1.000000
     31         -2.258327   1.000000
     32         -2.210228   1.000000
     33         -2.205449   1.000000
     34         -2.067968   1.000000
     35         -1.965556   1.000000
     36         -1.871243   1.000000
     37         -1.503547   1.000000
     38         -0.852983   1.000000
     39         -0.188833   1.000000
     40          1.064815   1.000000
     41          1.078288   1.000000
     42          1.221874   1.000000
     43          1.425158   1.000000
     44          1.599445   1.000000
     45          1.605063   1.000000
     46          1.988467   1.000000
     47          1.991273   1.000000
     48          2.380078   1.000000
     49          2.449792   1.000000
     50          2.452597   1.000000
     51          2.548153   1.000000
     52          2.605187   1.000000
     53          2.644241   1.000000
     54          2.759209   1.000000
     55          2.764585   1.000000
     56          2.866481   1.000000
     57          3.122451   1.000000
     58          3.190245   1.000000
     59          3.211788   1.000000
     60          3.239678   1.000000
     61          3.274095   1.000000
     62          3.340858   1.000000
     63          3.368640   1.000000
     64          3.424232   1.000000
     65          3.480610   1.000000
     66          3.567979   1.000000
     67          3.609595   1.000000
     68          3.682687   1.000000
     69          3.687578   1.000000
     70          3.795082   1.000000
     71          3.797950   1.000000
     72          3.872255   1.000000
     73          3.983297   1.000000
     74          3.987406   1.000000
     75          4.115291   1.000000
     76          4.135802   1.000000
     77          4.297656   1.000000
     78          4.369915   1.000000
     79          4.498531   1.000000
     80          4.537503   1.000000
     81          4.562568   1.000000
     82          4.622984   1.000000
     83          4.686342   1.000000
     84          4.726531   1.000000
     85          4.793149   1.000000
     86          4.911595   1.000000
     87          4.921669   1.000000
     88          5.009192   1.000000
     89          5.017660   1.000000
     90          5.053715   1.000000
     91          5.089990   1.000000
     92          5.181000   1.000000
     93          5.348202   1.000000
     94          5.372770   1.000000
     95          5.448842   1.000000
     96          5.555799   1.000000
     97          5.629703   1.000000
     98          5.649151   1.000000
     99          5.775595   1.000000
    100          5.778765   1.000000
    101          5.895600   1.000000
    102          5.906206   1.000000
    103          6.023479   1.000000
    104          6.143202   1.000000
    105          6.256125   1.000000
    106          6.274011   1.000000
    107          6.338327   1.000000
    108          6.435467   0.999954
    109          6.494992   0.987014
    110          6.636043   0.038959
    111          6.806647   0.000000
    112          7.305315   0.000000
    113          7.406107   0.000000
    114          7.515491   0.000000
    115          7.545756   0.000000
    116          7.631867   0.000000
    117          7.636315   0.000000
    118          7.749783   0.000000
    119          7.761409   0.000000
    120          7.864002   0.000000
    121          7.891754   0.000000
    122          7.917023   0.000000
    123          8.074514   0.000000
    124          8.121852   0.000000
    125          8.185113   0.000000
    126          8.284012   0.000000
    127          8.335645   0.000000
    128          8.460832   0.000000
    129          8.505427   0.000000
    130          8.569574   0.000000
    131          8.610998   0.000000
 
  0.4000000E+00  0.2000000E+00  0.1260145E-14  0.9600000E-01
      1         -6.274164   1.000000
      2         -6.045354   1.000000
      3         -5.827802   1.000000
      4         -5.445570   1.000000
      5         -5.401678   1.000000
      6         -5.334143   1.000000
      7         -5.269341   1.000000
      8         -5.170111   1.000000
      9         -5.019589   1.000000
     10         -4.926818   1.000000
     11         -4.820727   1.000000
     12         -4.722826   1.000000
     13         -4.577661   1.000000
     14         -4.564039   1.000000
     15         -4.506609   1.000000
     16         -4.405269   1.000000
     17         -4.347771   1.000000
     18         -4.299723   1.000000
     19         -4.251156   1.000000
     20         -4.213899   1.000000
     21         -4.204753   1.000000
     22         -4.084339   1.000000
     23         -4.031745   1.000000
     24         -4.001664   1.000000
     25         -2.845579   1.000000
     26         -2.642747   1.000000
     27         -2.543007   1.000000
     28         -2.442013   1.000000
     29         -2.410353   1.000000
     30         -2.298189   1.000000
     31         -2.234995   1.000000
     32         -2.176504   1.000000
     33         -1.967325   1.000000
     34         -1.888899   1.000000
     35         -1.831968   1.000000
     36         -1.669456   1.000000
     37         -1.573934   1.000000
     38         -0.941846   1.000000
     39         -0.542493   1.000000
     40          1.226312   1.000000
     41          1.421912   1.000000
     42          1.508029   1.000000
     43          1.630510   1.000000
     44          1.679831   1.000000
     45          1.872458   1.000000
     46          2.097038   1.000000
     47          2.134068   1.000000
     48          2.212499   1.000000
     49          2.256759   1.000000
     50          2.398963   1.000000
     51          2.428442   1.000000
     52          2.587709   1.000000
     53          2.662876   1.000000
     54          2.716280   1.000000
     55          2.793233   1.000000
     56          2.852548   1.000000
     57          2.894232   1.000000
     58          2.936766   1.000000
     59          2.996874   1.000000
     60          3.073546   1.000000
     61          3.125773   1.000000
     62          3.196574   1.000000
     63          3.251975   1.000000
     64          3.340390   1.000000
     65          3.354853   1.000000
     66          3.382483   1.000000
     67          3.450209   1.000000
     68          3.468232   1.000000
     69          3.525111   1.000000
     70          3.612038   1.000000
     71          3.664712   1.000000
     72          3.731746   1.000000
     73          3.781234   1.000000
     74          3.861655   1.000000
     75          3.995228   1.000000
     76          4.113064   1.000000
     77          4.136128   1.000000
     78          4.226399   1.000000
     79          4.279940   1.000000
     80          4.330840   1.000000
     81          4.405516   1.000000
     82          4.542962   1.000000
     83          4.579885   1.000000
     84          4.623357   1.000000
     85          4.660910   1.000000
     86          4.807731   1.000000
     87          4.880196   1.000000
     88          4.938543   1.000000
     89          5.051941   1.000000
     90          5.095607   1.000000
     91          5.126652   1.000000
     92          5.145252   1.000000
     93          5.319051   1.000000
     94          5.371545   1.000000
     95          5.419533   1.000000
     96          5.492068   1.000000
     97          5.588016   1.000000
     98          5.710288   1.000000
     99          5.762748   1.000000
    100          5.849033   1.000000
    101          5.989311   1.000000
    102          6.053122   1.000000
    103          6.116853   1.000000
    104          6.162574   1.000000
    105          6.193323   1.000000
    106          6.271112   1.000000
    107          6.349834   1.000000
    108          6.381116   1.000000
    109          6.518665   0.940273
    110          6.556803   0.683803
    111          6.697366   0.000235
    112          7.454485   0.000000
    113          7.610271   0.000000
    114          7.629259   0.000000
    115          7.748063   0.000000
    116          7.795507   0.000000
    117          7.847422   0.000000
    118          7.889695   0.000000
    119          7.941337   0.000000
    120          8.010030   0.000000
    121          8.085627   0.000000
    122          8.147610   0.000000
    123          8.166948   0.000000
    124          8.224249   0.000000
    125          8.355394   0.000000
    126          8.510336   0.000000
    127          8.592486   0.000000
    128          8.636595   0.000000
    129          8.698769   0.000000
    130          8.752891   0.000000
    131          8.844216   0.000000
 
 -0.4000000E+00  0.2000000E+00  0.1263351E-14  0.9600000E-01
      1         -5.929149   1.000000
      2         -5.912468   1.000000
      3         -5.766502   1.000000
      4         -5.614958   1.000000
      5         -5.571732   1.000000
      6         -5.509248   1.000000
      7         -5.422106   1.000000
      8         -5.302914   1.000000
      9         -5.077317   1.000000
     10         -5.003022   1.000000
     11         -4.899639   1.000000
     12         -4.725414   1.000000
     13         -4.636833   1.000000
     14         -4.530627   1.000000
     15         -4.499864   1.000000
     16         -4.429009   1.000000
     17         -4.299087   1.000000
     18         -4.239387   1.000000
     19         -4.213455   1.000000
     20         -4.178623   1.000000
     21         -4.118794   1.000000
     22         -4.093113   1.000000
     23         -4.019312   1.000000
     24         -3.968604   1.000000
     25         -2.787564   1.000000
     26         -2.779414   1.000000
     27         -2.679116   1.000000
     28         -2.419308   1.000000
     29         -2.287748   1.000000
     30         -2.199936   1.000000
     31         -2.148720   1.000000
     32         -2.013163   1.000000
     33         -1.854376   1.000000
     34         -1.817815   1.000000
     35         -1.728039   1.000000
     36         -1.361582   1.000000
     37         -1.258745   1.000000
     38         -1.225278   1.000000
     39         -1.020016   1.000000
     40          1.520982   1.000000
     41          1.647368   1.000000
     42          1.723688   1.000000
     43          1.833216   1.000000
     44          1.938197   1.000000
     45          1.995384   1.000000
     46          2.063151   1.000000
     47          2.091565   1.000000
     48          2.158942   1.000000
     49          2.280991   1.000000
     50          2.369648   1.000000
     51          2.434002   1.000000
     52          2.478055   1.000000
     53          2.586124   1.000000
     54          2.622036   1.000000
     55          2.674204   1.000000
     56          2.705112   1.000000
     57          2.773744   1.000000
     58          2.786649   1.000000
     59          2.829904   1.000000
     60          2.890626   1.000000
     61          2.947343   1.000000
     62          3.075882   1.000000
     63          3.140594   1.000000
     64          3.193176   1.000000
     65          3.247272   1.000000
     66          3.307803   1.000000
     67          3.373059   1.000000
     68          3.450905   1.000000
     69          3.491487   1.000000
     70          3.545944   1.000000
     71          3.605196   1.000000
     72          3.720770   1.000000
     73          3.757508   1.000000
     74          3.829014   1.000000
     75          3.875392   1.000000
     76          3.968983   1.000000
     77          4.011236   1.000000
     78          4.063233   1.000000
     79          4.162707   1.000000
     80          4.269398   1.000000
     81          4.363940   1.000000
     82          4.458985   1.000000
     83          4.549442   1.000000
     84          4.661807   1.000000
     85          4.704646   1.000000
     86          4.751244   1.000000
     87          4.839270   1.000000
     88          4.871886   1.000000
     89          4.904850   1.000000
     90          5.016686   1.000000
     91          5.105496   1.000000
     92          5.157477   1.000000
     93          5.258470   1.000000
     94          5.471025   1.000000
     95          5.504326   1.000000
     96          5.604687   1.000000
     97          5.634661   1.000000
     98          5.691934   1.000000
     99          5.853958   1.000000
    100          5.974659   1.000000
    101          5.990976   1.000000
    102          6.030634   1.000000
    103          6.101303   1.000000
    104          6.147437   1.000000
    105          6.199727   1.000000
    106          6.256601   1.000000
    107          6.326084   1.000000
    108          6.409126   0.999998
    109          6.446454   0.999841
    110          6.545735   0.785647
    111          6.596307   0.261414
    112          7.608693   0.000000
    113          7.667433   0.000000
    114          7.693966   0.000000
    115          7.776985   0.000000
    116          7.857346   0.000000
    117          7.905159   0.000000
    118          7.938622   0.000000
    119          8.046039   0.000000
    120          8.074138   0.000000
    121          8.166243   0.000000
    122          8.255777   0.000000
    123          8.359789   0.000000
    124          8.379581   0.000000
    125          8.462363   0.000000
    126          8.546930   0.000000
    127          8.678233   0.000000
    128          8.765433   0.000000
    129          8.833609   0.000000
    130          8.919856   0.000000
    131          9.051517   0.000000
 
 -0.2000000E+00  0.2000000E+00  0.1261815E-14  0.4800000E-01
      1         -6.281970   1.000000
      2         -5.969171   1.000000
      3         -5.925263   1.000000
      4         -5.417848   1.000000
      5         -5.404460   1.000000
      6         -5.319310   1.000000
      7         -5.275522   1.000000
      8         -5.139208   1.000000
      9         -4.971842   1.000000
     10         -4.924780   1.000000
     11         -4.882327   1.000000
     12         -4.776052   1.000000
     13         -4.626181   1.000000
     14         -4.565676   1.000000
     15         -4.506113   1.000000
     16         -4.400600   1.000000
     17         -4.299964   1.000000
     18         -4.268865   1.000000
     19         -4.218677   1.000000
     20         -4.212819   1.000000
     21         -4.197636   1.000000
     22         -4.092670   1.000000
     23         -4.051768   1.000000
     24         -4.011502   1.000000
     25         -2.847007   1.000000
     26         -2.641344   1.000000
     27         -2.545723   1.000000
     28         -2.446856   1.000000
     29         -2.421814   1.000000
     30         -2.302358   1.000000
     31         -2.253701   1.000000
     32         -2.157553   1.000000
     33         -1.977464   1.000000
     34         -1.913301   1.000000
     35         -1.825567   1.000000
     36         -1.644299   1.000000
     37         -1.494907   1.000000
     38         -1.033703   1.000000
     39         -0.510294   1.000000
     40          1.203371   1.000000
     41          1.467267   1.000000
     42          1.470460   1.000000
     43          1.699077   1.000000
     44          1.739535   1.000000
     45          1.769956   1.000000
     46          2.045874   1.000000
     47          2.095657   1.000000
     48          2.154375   1.000000
     49          2.363338   1.000000
     50          2.449682   1.000000
     51          2.480066   1.000000
     52          2.561613   1.000000
     53          2.667500   1.000000
     54          2.758190   1.000000
     55          2.780342   1.000000
     56          2.843578   1.000000
     57          2.878055   1.000000
     58          2.918099   1.000000
     59          2.961302   1.000000
     60          3.054769   1.000000
     61          3.100862   1.000000
     62          3.177580   1.000000
     63          3.211142   1.000000
     64          3.322777   1.000000
     65          3.378123   1.000000
     66          3.405285   1.000000
     67          3.444939   1.000000
     68          3.511009   1.000000
     69          3.625819   1.000000
     70          3.690438   1.000000
     71          3.706829   1.000000
     72          3.740799   1.000000
     73          3.768306   1.000000
     74          3.860265   1.000000
     75          3.909096   1.000000
     76          4.013262   1.000000
     77          4.045693   1.000000
     78          4.136831   1.000000
     79          4.241256   1.000000
     80          4.310193   1.000000
     81          4.367300   1.000000
     82          4.583566   1.000000
     83          4.669318   1.000000
     84          4.712440   1.000000
     85          4.819254   1.000000
     86          4.835778   1.000000
     87          4.906140   1.000000
     88          4.954422   1.000000
     89          5.029691   1.000000
     90          5.085075   1.000000
     91          5.163257   1.000000
     92          5.216259   1.000000
     93          5.299683   1.000000
     94          5.344547   1.000000
     95          5.411326   1.000000
     96          5.490638   1.000000
     97          5.516907   1.000000
     98          5.614600   1.000000
     99          5.772034   1.000000
    100          5.801616   1.000000
    101          5.895125   1.000000
    102          6.004977   1.000000
    103          6.062032   1.000000
    104          6.141747   1.000000
    105          6.282000   1.000000
    106          6.331550   1.000000
    107          6.364043   1.000000
    108          6.478974   0.996316
    109          6.497357   0.984603
    110          6.557637   0.675358
    111          6.684530   0.000861
    112          7.409116   0.000000
    113          7.528689   0.000000
    114          7.677269   0.000000
    115          7.733635   0.000000
    116          7.754017   0.000000
    117          7.846946   0.000000
    118          7.988361   0.000000
    119          8.007969   0.000000
    120          8.066959   0.000000
    121          8.129140   0.000000
    122          8.184943   0.000000
    123          8.253320   0.000000
    124          8.326697   0.000000
    125          8.392457   0.000000
    126          8.445284   0.000000
    127          8.491380   0.000000
    128          8.570984   0.000000
    129          8.628992   0.000000
    130          8.680498   0.000000
    131          8.762906   0.000000
 
  0.4000000E+00  0.4000000E+00  0.1261469E-14  0.4800000E-01
      1         -6.180001   1.000000
      2         -5.980249   1.000000
      3         -5.773516   1.000000
      4         -5.680072   1.000000
      5         -5.561625   1.000000
      6         -5.306484   1.000000
      7         -5.214531   1.000000
      8         -5.045206   1.000000
      9         -4.979286   1.000000
     10         -4.877968   1.000000
     11         -4.795183   1.000000
     12         -4.784744   1.000000
     13         -4.711305   1.000000
     14         -4.637261   1.000000
     15         -4.599366   1.000000
     16         -4.400170   1.000000
     17         -4.357213   1.000000
     18         -4.348749   1.000000
     19         -4.267575   1.000000
     20         -4.214656   1.000000
     21         -4.169378   1.000000
     22         -4.085223   1.000000
     23         -3.992728   1.000000
     24         -3.945262   1.000000
     25         -2.629009   1.000000
     26         -2.602897   1.000000
     27         -2.448871   1.000000
     28         -2.389947   1.000000
     29         -2.369475   1.000000
     30         -2.342891   1.000000
     31         -2.286201   1.000000
     32         -2.210082   1.000000
     33         -2.186753   1.000000
     34         -1.958056   1.000000
     35         -1.696171   1.000000
     36         -1.589555   1.000000
     37         -1.346976   1.000000
     38         -1.045331   1.000000
     39         -0.665367   1.000000
     40          1.387762   1.000000
     41          1.394173   1.000000
     42          1.678360   1.000000
     43          1.780048   1.000000
     44          1.807481   1.000000
     45          1.985533   1.000000
     46          1.986360   1.000000
     47          2.118907   1.000000
     48          2.205769   1.000000
     49          2.210504   1.000000
     50          2.328918   1.000000
     51          2.336515   1.000000
     52          2.443034   1.000000
     53          2.532479   1.000000
     54          2.571643   1.000000
     55          2.647297   1.000000
     56          2.735134   1.000000
     57          2.770914   1.000000
     58          2.870394   1.000000
     59          2.931415   1.000000
     60          3.080901   1.000000
     61          3.104519   1.000000
     62          3.304678   1.000000
     63          3.388431   1.000000
     64          3.429442   1.000000
     65          3.451740   1.000000
     66          3.472949   1.000000
     67          3.509832   1.000000
     68          3.511896   1.000000
     69          3.591125   1.000000
     70          3.616563   1.000000
     71          3.698277   1.000000
     72          3.773307   1.000000
     73          3.821778   1.000000
     74          3.853019   1.000000
     75          3.892841   1.000000
     76          3.971975   1.000000
     77          4.046523   1.000000
     78          4.164710   1.000000
     79          4.202932   1.000000
     80          4.269838   1.000000
     81          4.308955   1.000000
     82          4.392380   1.000000
     83          4.392424   1.000000
     84          4.490379   1.000000
     85          4.652461   1.000000
     86          4.736156   1.000000
     87          4.738467   1.000000
     88          4.925931   1.000000
     89          5.054186   1.000000
     90          5.201332   1.000000
     91          5.224668   1.000000
     92          5.312598   1.000000
     93          5.406518   1.000000
     94          5.457383   1.000000
     95          5.502199   1.000000
     96          5.584237   1.000000
     97          5.677093   1.000000
     98          5.710261   1.000000
     99          5.741849   1.000000
    100          5.804975   1.000000
    101          5.858838   1.000000
    102          5.956074   1.000000
    103          6.014163   1.000000
    104          6.113377   1.000000
    105          6.164107   1.000000
    106          6.191050   1.000000
    107          6.225260   1.000000
    108          6.349883   1.000000
    109          6.456636   0.999536
    110          6.730190   0.000005
    111          6.956187   0.000000
    112          7.405079   0.000000
    113          7.558946   0.000000
    114          7.592976   0.000000
    115          7.646994   0.000000
    116          7.693619   0.000000
    117          7.796668   0.000000
    118          7.878376   0.000000
    119          7.998687   0.000000
    120          8.037762   0.000000
    121          8.155526   0.000000
    122          8.208280   0.000000
    123          8.303462   0.000000
    124          8.368872   0.000000
    125          8.457295   0.000000
    126          8.572003   0.000000
    127          8.585753   0.000000
    128          8.659657   0.000000
    129          8.765688   0.000000
    130          8.808738   0.000000
    131          8.959564   0.000000
 
 -0.4000000E+00  0.4000000E+00  0.1264345E-14  0.4800000E-01
      1         -5.921107   1.000000
      2         -5.903459   1.000000
      3         -5.771829   1.000000
      4         -5.724277   1.000000
      5         -5.511401   1.000000
      6         -5.441491   1.000000
      7         -5.376233   1.000000
      8         -5.229299   1.000000
      9         -5.210604   1.000000
     10         -5.108401   1.000000
     11         -4.941472   1.000000
     12         -4.573698   1.000000
     13         -4.546252   1.000000
     14         -4.516451   1.000000
     15         -4.457773   1.000000
     16         -4.433767   1.000000
     17         -4.425501   1.000000
     18         -4.285264   1.000000
     19         -4.228103   1.000000
     20         -4.187797   1.000000
     21         -4.138959   1.000000
     22         -4.077773   1.000000
     23         -4.002284   1.000000
     24         -3.949310   1.000000
     25         -2.787672   1.000000
     26         -2.779437   1.000000
     27         -2.678950   1.000000
     28         -2.429371   1.000000
     29         -2.302267   1.000000
     30         -2.194786   1.000000
     31         -2.146550   1.000000
     32         -1.979032   1.000000
     33         -1.863649   1.000000
     34         -1.804551   1.000000
     35         -1.700085   1.000000
     36         -1.416187   1.000000
     37         -1.313617   1.000000
     38         -1.191119   1.000000
     39         -0.992164   1.000000
     40          1.468959   1.000000
     41          1.602127   1.000000
     42          1.758627   1.000000
     43          1.937520   1.000000
     44          1.950442   1.000000
     45          2.090664   1.000000
     46          2.154587   1.000000
     47          2.170476   1.000000
     48          2.180113   1.000000
     49          2.204325   1.000000
     50          2.268781   1.000000
     51          2.336083   1.000000
     52          2.349323   1.000000
     53          2.425845   1.000000
     54          2.579471   1.000000
     55          2.641034   1.000000
     56          2.693609   1.000000
     57          2.796968   1.000000
     58          2.825125   1.000000
     59          2.909780   1.000000
     60          2.962417   1.000000
     61          2.983766   1.000000
     62          3.101738   1.000000
     63          3.163316   1.000000
     64          3.190116   1.000000
     65          3.289097   1.000000
     66          3.367579   1.000000
     67          3.411732   1.000000
     68          3.489831   1.000000
     69          3.529971   1.000000
     70          3.594729   1.000000
     71          3.665106   1.000000
     72          3.721298   1.000000
     73          3.752620   1.000000
     74          3.784160   1.000000
     75          3.826091   1.000000
     76          3.929165   1.000000
     77          3.997944   1.000000
     78          4.035182   1.000000
     79          4.089996   1.000000
     80          4.171735   1.000000
     81          4.241139   1.000000
     82          4.375141   1.000000
     83          4.442671   1.000000
     84          4.591722   1.000000
     85          4.635014   1.000000
     86          4.813878   1.000000
     87          4.897115   1.000000
     88          5.072382   1.000000
     89          5.162794   1.000000
     90          5.176522   1.000000
     91          5.227940   1.000000
     92          5.267277   1.000000
     93          5.288988   1.000000
     94          5.352125   1.000000
     95          5.390429   1.000000
     96          5.489254   1.000000
     97          5.544139   1.000000
     98          5.662605   1.000000
     99          5.764317   1.000000
    100          5.838688   1.000000
    101          5.938495   1.000000
    102          5.995479   1.000000
    103          6.109352   1.000000
    104          6.142453   1.000000
    105          6.276684   1.000000
    106          6.318575   1.000000
    107          6.421709   0.999991
    108          6.440828   0.999915
    109          6.473521   0.997701
    110          6.552929   0.721711
    111          6.620129   0.094629
    112          7.644767   0.000000
    113          7.667428   0.000000
    114          7.761284   0.000000
    115          7.784383   0.000000
    116          7.831345   0.000000
    117          7.853418   0.000000
    118          7.984878   0.000000
    119          8.026939   0.000000
    120          8.083791   0.000000
    121          8.185322   0.000000
    122          8.251898   0.000000
    123          8.293056   0.000000
    124          8.375843   0.000000
    125          8.414731   0.000000
    126          8.470879   0.000000
    127          8.611444   0.000000
    128          8.746138   0.000000
    129          8.815770   0.000000
    130          8.873255   0.000000
    131          8.970720   0.000000
 
  0.2000000E+00  0.2000000E+00  0.2000000E+00  0.1600000E-01
      1         -6.550295   1.000000
      2         -6.310847   1.000000
      3         -6.080028   1.000000
      4         -5.558606   1.000000
      5         -5.019969   1.000000
      6         -4.756965   1.000000
      7         -4.753110   1.000000
      8         -4.753109   1.000000
      9         -4.697936   1.000000
     10         -4.697935   1.000000
     11         -4.670042   1.000000
     12         -4.593945   1.000000
     13         -4.593944   1.000000
     14         -4.534452   1.000000
     15         -4.503971   1.000000
     16         -4.451018   1.000000
     17         -4.354757   1.000000
     18         -4.354756   1.000000
     19         -4.337672   1.000000
     20         -4.334232   1.000000
     21         -4.334231   1.000000
     22         -4.233511   1.000000
     23         -4.233510   1.000000
     24         -4.139162   1.000000
     25         -2.873746   1.000000
     26         -2.863464   1.000000
     27         -2.863464   1.000000
     28         -2.628658   1.000000
     29         -2.628657   1.000000
     30         -2.463541   1.000000
     31         -2.275044   1.000000
     32         -2.231761   1.000000
     33         -2.231759   1.000000
     34         -2.171071   1.000000
     35         -1.984945   1.000000
     36         -1.984943   1.000000
     37         -1.566605   1.000000
     38         -0.714940   1.000000
     39         -0.050971   1.000000
     40          0.963651   1.000000
     41          0.991807   1.000000
     42          0.991808   1.000000
     43          1.404176   1.000000
     44          1.420182   1.000000
     45          1.420183   1.000000
     46          2.028910   1.000000
     47          2.083235   1.000000
     48          2.083235   1.000000
     49          2.438720   1.000000
     50          2.438720   1.000000
     51          2.461550   1.000000
     52          2.892982   1.000000
     53          2.938938   1.000000
     54          2.938938   1.000000
     55          3.033589   1.000000
     56          3.074604   1.000000
     57          3.074604   1.000000
     58          3.083966   1.000000
     59          3.179306   1.000000
     60          3.179307   1.000000
     61          3.303536   1.000000
     62          3.447136   1.000000
     63          3.447136   1.000000
     64          3.482134   1.000000
     65          3.538052   1.000000
     66          3.538052   1.000000
     67          3.609917   1.000000
     68          3.644112   1.000000
     69          3.773233   1.000000
     70          3.773234   1.000000
     71          3.995929   1.000000
     72          4.074893   1.000000
     73          4.248388   1.000000
     74          4.248388   1.000000
     75          4.413141   1.000000
     76          4.413142   1.000000
     77          4.420651   1.000000
     78          4.465389   1.000000
     79          4.508000   1.000000
     80          4.508001   1.000000
     81          4.805818   1.000000
     82          4.805821   1.000000
     83          4.926046   1.000000
     84          4.926049   1.000000
     85          4.958643   1.000000
     86          5.061562   1.000000
     87          5.061563   1.000000
     88          5.081680   1.000000
     89          5.099768   1.000000
     90          5.099769   1.000000
     91          5.185167   1.000000
     92          5.186416   1.000000
     93          5.186417   1.000000
     94          5.496568   1.000000
     95          5.496568   1.000000
     96          5.527657   1.000000
     97          5.624041   1.000000
     98          5.624041   1.000000
     99          5.689018   1.000000
    100          5.730887   1.000000
    101          5.730888   1.000000
    102          5.857409   1.000000
    103          5.886084   1.000000
    104          5.886084   1.000000
    105          6.165942   1.000000
    106          6.165942   1.000000
    107          6.221899   1.000000
    108          6.551485   0.735250
    109          6.551485   0.735246
    110          6.652341   0.013079
    111          7.004040   0.000000
    112          7.282763   0.000000
    113          7.282764   0.000000
    114          7.375554   0.000000
    115          7.455739   0.000000
    116          7.455739   0.000000
    117          7.482181   0.000000
    118          7.571300   0.000000
    119          7.571300   0.000000
    120          7.681668   0.000000
    121          7.732326   0.000000
    122          7.732327   0.000000
    123          7.734445   0.000000
    124          8.015354   0.000000
    125          8.030234   0.000000
    126          8.030235   0.000000
    127          8.263585   0.000000
    128          8.263585   0.000000
    129          8.426166   0.000000
    130          8.426168   0.000000
    131          8.432635   0.000000
 
  0.4000000E+00  0.2000000E+00  0.2000000E+00  0.4800000E-01
      1         -6.451849   1.000000
      2         -6.246784   1.000000
      3         -5.950346   1.000000
      4         -5.537199   1.000000
      5         -5.184842   1.000000
      6         -5.009341   1.000000
      7         -4.929024   1.000000
      8         -4.872051   1.000000
      9         -4.871316   1.000000
     10         -4.818959   1.000000
     11         -4.744222   1.000000
     12         -4.710395   1.000000
     13         -4.604750   1.000000
     14         -4.560594   1.000000
     15         -4.501314   1.000000
     16         -4.434036   1.000000
     17         -4.413153   1.000000
     18         -4.380053   1.000000
     19         -4.289038   1.000000
     20         -4.262773   1.000000
     21         -4.224422   1.000000
     22         -4.109849   1.000000
     23         -4.101448   1.000000
     24         -4.075391   1.000000
     25         -2.804506   1.000000
     26         -2.792041   1.000000
     27         -2.644039   1.000000
     28         -2.557033   1.000000
     29         -2.468527   1.000000
     30         -2.326923   1.000000
     31         -2.276775   1.000000
     32         -2.260059   1.000000
     33         -2.167796   1.000000
     34         -2.055507   1.000000
     35         -2.033132   1.000000
     36         -1.838116   1.000000
     37         -1.642338   1.000000
     38         -0.697902   1.000000
     39         -0.261999   1.000000
     40          1.152251   1.000000
     41          1.158077   1.000000
     42          1.169322   1.000000
     43          1.350419   1.000000
     44          1.350986   1.000000
     45          1.610760   1.000000
     46          2.048373   1.000000
     47          2.380448   1.000000
     48          2.397710   1.000000
     49          2.467157   1.000000
     50          2.504698   1.000000
     51          2.605828   1.000000
     52          2.612064   1.000000
     53          2.661133   1.000000
     54          2.722762   1.000000
     55          2.734111   1.000000
     56          2.825037   1.000000
     57          2.904795   1.000000
     58          2.970066   1.000000
     59          3.132560   1.000000
     60          3.147178   1.000000
     61          3.218199   1.000000
     62          3.220833   1.000000
     63          3.271239   1.000000
     64          3.406469   1.000000
     65          3.512295   1.000000
     66          3.525563   1.000000
     67          3.653421   1.000000
     68          3.855487   1.000000
     69          3.869420   1.000000
     70          3.899306   1.000000
     71          3.926515   1.000000
     72          3.943874   1.000000
     73          4.022859   1.000000
     74          4.041522   1.000000
     75          4.141047   1.000000
     76          4.234808   1.000000
     77          4.327924   1.000000
     78          4.348508   1.000000
     79          4.374424   1.000000
     80          4.493799   1.000000
     81          4.538983   1.000000
     82          4.687994   1.000000
     83          4.720434   1.000000
     84          4.759776   1.000000
     85          4.775259   1.000000
     86          4.854677   1.000000
     87          4.899488   1.000000
     88          4.963214   1.000000
     89          4.963769   1.000000
     90          5.079385   1.000000
     91          5.090749   1.000000
     92          5.133494   1.000000
     93          5.274857   1.000000
     94          5.384713   1.000000
     95          5.446965   1.000000
     96          5.574014   1.000000
     97          5.636407   1.000000
     98          5.683506   1.000000
     99          5.701790   1.000000
    100          5.924367   1.000000
    101          5.943285   1.000000
    102          5.964314   1.000000
    103          5.982018   1.000000
    104          6.037093   1.000000
    105          6.089465   1.000000
    106          6.185775   1.000000
    107          6.256099   1.000000
    108          6.454591   0.999623
    109          6.458015   0.999467
    110          6.581724   0.410403
    111          6.945697   0.000000
    112          7.378283   0.000000
    113          7.421024   0.000000
    114          7.480479   0.000000
    115          7.660836   0.000000
    116          7.699993   0.000000
    117          7.738608   0.000000
    118          7.784136   0.000000
    119          7.827805   0.000000
    120          7.888578   0.000000
    121          7.940850   0.000000
    122          8.054133   0.000000
    123          8.072979   0.000000
    124          8.185094   0.000000
    125          8.220376   0.000000
    126          8.279774   0.000000
    127          8.356199   0.000000
    128          8.372197   0.000000
    129          8.449864   0.000000
    130          8.529034   0.000000
    131          8.592782   0.000000
 
 -0.4000000E+00  0.2000000E+00  0.2000000E+00  0.4800000E-01
      1         -6.172077   1.000000
      2         -6.010331   1.000000
      3         -5.758438   1.000000
      4         -5.652455   1.000000
      5         -5.472822   1.000000
      6         -5.436961   1.000000
      7         -5.291979   1.000000
      8         -4.975327   1.000000
      9         -4.947912   1.000000
     10         -4.870904   1.000000
     11         -4.812900   1.000000
     12         -4.742741   1.000000
     13         -4.672580   1.000000
     14         -4.611111   1.000000
     15         -4.571985   1.000000
     16         -4.531642   1.000000
     17         -4.375550   1.000000
     18         -4.357826   1.000000
     19         -4.284716   1.000000
     20         -4.211518   1.000000
     21         -4.155589   1.000000
     22         -4.061114   1.000000
     23         -3.992077   1.000000
     24         -3.942289   1.000000
     25         -2.627284   1.000000
     26         -2.595657   1.000000
     27         -2.469088   1.000000
     28         -2.406261   1.000000
     29         -2.341769   1.000000
     30         -2.326285   1.000000
     31         -2.252532   1.000000
     32         -2.190534   1.000000
     33         -2.123992   1.000000
     34         -2.040134   1.000000
     35         -1.857558   1.000000
     36         -1.467398   1.000000
     37         -1.417839   1.000000
     38         -0.860115   1.000000
     39         -0.785453   1.000000
     40          1.393598   1.000000
     41          1.395489   1.000000
     42          1.732330   1.000000
     43          1.740165   1.000000
     44          1.791436   1.000000
     45          1.908249   1.000000
     46          1.973408   1.000000
     47          1.975602   1.000000
     48          2.210100   1.000000
     49          2.230130   1.000000
     50          2.441149   1.000000
     51          2.457472   1.000000
     52          2.516211   1.000000
     53          2.532223   1.000000
     54          2.636637   1.000000
     55          2.780139   1.000000
     56          2.835584   1.000000
     57          2.841184   1.000000
     58          2.901765   1.000000
     59          2.947112   1.000000
     60          2.983216   1.000000
     61          3.083482   1.000000
     62          3.106114   1.000000
     63          3.147725   1.000000
     64          3.177795   1.000000
     65          3.284665   1.000000
     66          3.524945   1.000000
     67          3.555095   1.000000
     68          3.572505   1.000000
     69          3.588077   1.000000
     70          3.614999   1.000000
     71          3.663895   1.000000
     72          3.741612   1.000000
     73          3.749271   1.000000
     74          3.828298   1.000000
     75          3.922071   1.000000
     76          3.956097   1.000000
     77          4.144336   1.000000
     78          4.159274   1.000000
     79          4.193392   1.000000
     80          4.390208   1.000000
     81          4.426057   1.000000
     82          4.513262   1.000000
     83          4.612798   1.000000
     84          4.625359   1.000000
     85          4.673309   1.000000
     86          4.749231   1.000000
     87          4.931878   1.000000
     88          5.003329   1.000000
     89          5.084315   1.000000
     90          5.086856   1.000000
     91          5.181948   1.000000
     92          5.197167   1.000000
     93          5.278019   1.000000
     94          5.304623   1.000000
     95          5.521005   1.000000
     96          5.584298   1.000000
     97          5.589759   1.000000
     98          5.620093   1.000000
     99          5.710205   1.000000
    100          5.728162   1.000000
    101          5.831306   1.000000
    102          5.912903   1.000000
    103          5.989368   1.000000
    104          6.101435   1.000000
    105          6.197934   1.000000
    106          6.199338   1.000000
    107          6.274258   1.000000
    108          6.442261   0.999900
    109          6.510991   0.961977
    110          6.531053   0.886218
    111          6.695498   0.000286
    112          7.704395   0.000000
    113          7.762422   0.000000
    114          7.803669   0.000000
    115          7.828592   0.000000
    116          7.887734   0.000000
    117          7.896246   0.000000
    118          7.937491   0.000000
    119          7.994883   0.000000
    120          8.038682   0.000000
    121          8.064543   0.000000
    122          8.089276   0.000000
    123          8.185966   0.000000
    124          8.206800   0.000000
    125          8.318962   0.000000
    126          8.509500   0.000000
    127          8.539331   0.000000
    128          8.729342   0.000000
    129          8.914019   0.000000
    130          8.915880   0.000000
    131          8.946511   0.000000
 
 -0.2000000E+00  0.2000000E+00  0.2000000E+00  0.4800000E-01
      1         -6.191389   1.000000
      2         -5.897187   1.000000
      3         -5.844166   1.000000
      4         -5.721379   1.000000
      5         -5.570013   1.000000
      6         -5.223090   1.000000
      7         -5.173140   1.000000
      8         -5.049745   1.000000
      9         -4.973692   1.000000
     10         -4.913756   1.000000
     11         -4.832242   1.000000
     12         -4.821800   1.000000
     13         -4.754803   1.000000
     14         -4.582003   1.000000
     15         -4.581205   1.000000
     16         -4.422151   1.000000
     17         -4.420989   1.000000
     18         -4.319527   1.000000
     19         -4.216824   1.000000
     20         -4.177897   1.000000
     21         -4.166305   1.000000
     22         -4.095463   1.000000
     23         -4.002888   1.000000
     24         -3.951150   1.000000
     25         -2.629072   1.000000
     26         -2.605892   1.000000
     27         -2.440792   1.000000
     28         -2.398713   1.000000
     29         -2.362763   1.000000
     30         -2.349639   1.000000
     31         -2.269161   1.000000
     32         -2.233433   1.000000
     33         -2.185291   1.000000
     34         -2.004741   1.000000
     35         -1.660991   1.000000
     36         -1.548364   1.000000
     37         -1.333519   1.000000
     38         -1.093512   1.000000
     39         -0.657084   1.000000
     40          1.444755   1.000000
     41          1.445437   1.000000
     42          1.634062   1.000000
     43          1.640227   1.000000
     44          1.702848   1.000000
     45          1.943521   1.000000
     46          1.961646   1.000000
     47          2.177122   1.000000
     48          2.320265   1.000000
     49          2.369812   1.000000
     50          2.377915   1.000000
     51          2.416620   1.000000
     52          2.512347   1.000000
     53          2.573357   1.000000
     54          2.598468   1.000000
     55          2.645172   1.000000
     56          2.720262   1.000000
     57          2.762386   1.000000
     58          2.849241   1.000000
     59          2.917301   1.000000
     60          2.956794   1.000000
     61          3.004168   1.000000
     62          3.141743   1.000000
     63          3.163969   1.000000
     64          3.239475   1.000000
     65          3.327964   1.000000
     66          3.502794   1.000000
     67          3.510741   1.000000
     68          3.646201   1.000000
     69          3.683142   1.000000
     70          3.728616   1.000000
     71          3.810283   1.000000
     72          3.840588   1.000000
     73          3.888651   1.000000
     74          3.916768   1.000000
     75          3.947478   1.000000
     76          3.993803   1.000000
     77          4.056229   1.000000
     78          4.057820   1.000000
     79          4.144830   1.000000
     80          4.260242   1.000000
     81          4.294398   1.000000
     82          4.466958   1.000000
     83          4.534723   1.000000
     84          4.638530   1.000000
     85          4.643318   1.000000
     86          4.700568   1.000000
     87          4.703636   1.000000
     88          4.903879   1.000000
     89          4.994804   1.000000
     90          5.197929   1.000000
     91          5.224166   1.000000
     92          5.273912   1.000000
     93          5.383003   1.000000
     94          5.421784   1.000000
     95          5.509971   1.000000
     96          5.513652   1.000000
     97          5.630975   1.000000
     98          5.715270   1.000000
     99          5.763592   1.000000
    100          5.777259   1.000000
    101          5.904224   1.000000
    102          5.963859   1.000000
    103          5.992043   1.000000
    104          6.044218   1.000000
    105          6.117197   1.000000
    106          6.133087   1.000000
    107          6.265675   1.000000
    108          6.456408   0.999547
    109          6.473549   0.997695
    110          6.716730   0.000026
    111          6.853027   0.000000
    112          7.468420   0.000000
    113          7.578158   0.000000
    114          7.594057   0.000000
    115          7.721304   0.000000
    116          7.822540   0.000000
    117          7.827576   0.000000
    118          7.934062   0.000000
    119          7.976081   0.000000
    120          8.035663   0.000000
    121          8.049640   0.000000
    122          8.225741   0.000000
    123          8.301728   0.000000
    124          8.399737   0.000000
    125          8.450405   0.000000
    126          8.608686   0.000000
    127          8.614534   0.000000
    128          8.673029   0.000000
    129          8.784362   0.000000
    130          8.835706   0.000000
    131          8.902368   0.000000
 
  0.4000000E+00  0.4000000E+00  0.2000000E+00  0.4800000E-01
      1         -6.446203   1.000000
      2         -6.266860   1.000000
      3         -5.910869   1.000000
      4         -5.579849   1.000000
      5         -5.181680   1.000000
      6         -5.042149   1.000000
      7         -4.889544   1.000000
      8         -4.871664   1.000000
      9         -4.829216   1.000000
     10         -4.809579   1.000000
     11         -4.746799   1.000000
     12         -4.722486   1.000000
     13         -4.617734   1.000000
     14         -4.538002   1.000000
     15         -4.498669   1.000000
     16         -4.445196   1.000000
     17         -4.421597   1.000000
     18         -4.383552   1.000000
     19         -4.338733   1.000000
     20         -4.250663   1.000000
     21         -4.226784   1.000000
     22         -4.111482   1.000000
     23         -4.100681   1.000000
     24         -4.057569   1.000000
     25         -2.796527   1.000000
     26         -2.777008   1.000000
     27         -2.612646   1.000000
     28         -2.597589   1.000000
     29         -2.518584   1.000000
     30         -2.338202   1.000000
     31         -2.230539   1.000000
     32         -2.228669   1.000000
     33         -2.168434   1.000000
     34         -2.056302   1.000000
     35         -2.010548   1.000000
     36         -1.845459   1.000000
     37         -1.704976   1.000000
     38         -0.648858   1.000000
     39         -0.287026   1.000000
     40          1.066117   1.000000
     41          1.081443   1.000000
     42          1.168398   1.000000
     43          1.549130   1.000000
     44          1.580901   1.000000
     45          1.582069   1.000000
     46          2.025273   1.000000
     47          2.032219   1.000000
     48          2.189566   1.000000
     49          2.418725   1.000000
     50          2.429769   1.000000
     51          2.518802   1.000000
     52          2.580200   1.000000
     53          2.638176   1.000000
     54          2.820019   1.000000
     55          2.860559   1.000000
     56          3.006723   1.000000
     57          3.081697   1.000000
     58          3.175340   1.000000
     59          3.206392   1.000000
     60          3.242885   1.000000
     61          3.270860   1.000000
     62          3.277363   1.000000
     63          3.423163   1.000000
     64          3.457511   1.000000
     65          3.505133   1.000000
     66          3.513458   1.000000
     67          3.556400   1.000000
     68          3.607365   1.000000
     69          3.679762   1.000000
     70          3.792602   1.000000
     71          3.841612   1.000000
     72          3.937473   1.000000
     73          4.046662   1.000000
     74          4.087915   1.000000
     75          4.141877   1.000000
     76          4.184744   1.000000
     77          4.265965   1.000000
     78          4.330885   1.000000
     79          4.355496   1.000000
     80          4.498519   1.000000
     81          4.516646   1.000000
     82          4.525889   1.000000
     83          4.667265   1.000000
     84          4.735767   1.000000
     85          4.826818   1.000000
     86          4.913293   1.000000
     87          4.954900   1.000000
     88          5.056380   1.000000
     89          5.079370   1.000000
     90          5.111290   1.000000
     91          5.121661   1.000000
     92          5.180855   1.000000
     93          5.185170   1.000000
     94          5.407059   1.000000
     95          5.462182   1.000000
     96          5.542112   1.000000
     97          5.658639   1.000000
     98          5.665515   1.000000
     99          5.733465   1.000000
    100          5.766066   1.000000
    101          5.881869   1.000000
    102          5.917597   1.000000
    103          6.025525   1.000000
    104          6.124135   1.000000
    105          6.254001   1.000000
    106          6.335712   1.000000
    107          6.401419   0.999999
    108          6.448899   0.999792
    109          6.506734   0.970923
    110          6.595153   0.272137
    111          6.717233   0.000025
    112          7.437399   0.000000
    113          7.467390   0.000000
    114          7.492274   0.000000
    115          7.543336   0.000000
    116          7.633377   0.000000
    117          7.651179   0.000000
    118          7.663157   0.000000
    119          7.760084   0.000000
    120          7.799120   0.000000
    121          7.827073   0.000000
    122          7.857923   0.000000
    123          8.016303   0.000000
    124          8.099012   0.000000
    125          8.148528   0.000000
    126          8.284965   0.000000
    127          8.362669   0.000000
    128          8.524637   0.000000
    129          8.597478   0.000000
    130          8.628669   0.000000
    131          8.728322   0.000000
 
 -0.4000000E+00  0.4000000E+00  0.2000000E+00  0.9600000E-01
      1         -6.257800   1.000000
      2         -6.105768   1.000000
      3         -5.707786   1.000000
      4         -5.520130   1.000000
      5         -5.416338   1.000000
      6         -5.359321   1.000000
      7         -5.254711   1.000000
      8         -5.150246   1.000000
      9         -5.085012   1.000000
     10         -4.980516   1.000000
     11         -4.687819   1.000000
     12         -4.631466   1.000000
     13         -4.558049   1.000000
     14         -4.519536   1.000000
     15         -4.483192   1.000000
     16         -4.445742   1.000000
     17         -4.406370   1.000000
     18         -4.364568   1.000000
     19         -4.330145   1.000000
     20         -4.213327   1.000000
     21         -4.209194   1.000000
     22         -4.078609   1.000000
     23         -4.008204   1.000000
     24         -3.983118   1.000000
     25         -2.843277   1.000000
     26         -2.645323   1.000000
     27         -2.538811   1.000000
     28         -2.423929   1.000000
     29         -2.397505   1.000000
     30         -2.317916   1.000000
     31         -2.238119   1.000000
     32         -2.104852   1.000000
     33         -1.973517   1.000000
     34         -1.857923   1.000000
     35         -1.836606   1.000000
     36         -1.773148   1.000000
     37         -1.632052   1.000000
     38         -0.781725   1.000000
     39         -0.634235   1.000000
     40          1.282192   1.000000
     41          1.411068   1.000000
     42          1.461654   1.000000
     43          1.509729   1.000000
     44          1.778348   1.000000
     45          1.947996   1.000000
     46          2.101332   1.000000
     47          2.116295   1.000000
     48          2.187867   1.000000
     49          2.274709   1.000000
     50          2.389926   1.000000
     51          2.422324   1.000000
     52          2.607352   1.000000
     53          2.617309   1.000000
     54          2.672142   1.000000
     55          2.733670   1.000000
     56          2.824257   1.000000
     57          2.921397   1.000000
     58          3.040572   1.000000
     59          3.065137   1.000000
     60          3.084913   1.000000
     61          3.122795   1.000000
     62          3.187797   1.000000
     63          3.240628   1.000000
     64          3.295233   1.000000
     65          3.354485   1.000000
     66          3.386298   1.000000
     67          3.435790   1.000000
     68          3.493448   1.000000
     69          3.518338   1.000000
     70          3.537474   1.000000
     71          3.653809   1.000000
     72          3.700508   1.000000
     73          3.762328   1.000000
     74          3.971240   1.000000
     75          4.051670   1.000000
     76          4.166605   1.000000
     77          4.201710   1.000000
     78          4.248234   1.000000
     79          4.328051   1.000000
     80          4.357979   1.000000
     81          4.409240   1.000000
     82          4.474531   1.000000
     83          4.564803   1.000000
     84          4.615985   1.000000
     85          4.645270   1.000000
     86          4.731776   1.000000
     87          4.834371   1.000000
     88          4.888787   1.000000
     89          4.912161   1.000000
     90          5.002328   1.000000
     91          5.052015   1.000000
     92          5.139450   1.000000
     93          5.286210   1.000000
     94          5.405174   1.000000
     95          5.478765   1.000000
     96          5.591952   1.000000
     97          5.709550   1.000000
     98          5.768045   1.000000
     99          5.805608   1.000000
    100          5.853282   1.000000
    101          6.006357   1.000000
    102          6.063269   1.000000
    103          6.143066   1.000000
    104          6.163052   1.000000
    105          6.263819   1.000000
    106          6.287412   1.000000
    107          6.340141   1.000000
    108          6.410659   0.999998
    109          6.458620   0.999434
    110          6.528929   0.897378
    111          6.644504   0.022631
    112          7.480027   0.000000
    113          7.543153   0.000000
    114          7.644054   0.000000
    115          7.663516   0.000000
    116          7.692450   0.000000
    117          7.830447   0.000000
    118          7.869813   0.000000
    119          7.930383   0.000000
    120          8.046549   0.000000
    121          8.076292   0.000000
    122          8.098823   0.000000
    123          8.188207   0.000000
    124          8.348070   0.000000
    125          8.405805   0.000000
    126          8.472010   0.000000
    127          8.598038   0.000000
    128          8.619662   0.000000
    129          8.682916   0.000000
    130          8.808430   0.000000
    131          8.832009   0.000000
 
 -0.2000000E+00  0.4000000E+00  0.2000000E+00  0.9600000E-01
      1         -5.927839   1.000000
      2         -5.901116   1.000000
      3         -5.783646   1.000000
      4         -5.673751   1.000000
      5         -5.528597   1.000000
      6         -5.497129   1.000000
      7         -5.345465   1.000000
      8         -5.289636   1.000000
      9         -5.167299   1.000000
     10         -5.071429   1.000000
     11         -4.893235   1.000000
     12         -4.662809   1.000000
     13         -4.608080   1.000000
     14         -4.514423   1.000000
     15         -4.453885   1.000000
     16         -4.417791   1.000000
     17         -4.350163   1.000000
     18         -4.267705   1.000000
     19         -4.249107   1.000000
     20         -4.196658   1.000000
     21         -4.120155   1.000000
     22         -4.079349   1.000000
     23         -4.004379   1.000000
     24         -3.958254   1.000000
     25         -2.787630   1.000000
     26         -2.779426   1.000000
     27         -2.679008   1.000000
     28         -2.426639   1.000000
     29         -2.300355   1.000000
     30         -2.198121   1.000000
     31         -2.128968   1.000000
     32         -2.007740   1.000000
     33         -1.863924   1.000000
     34         -1.812842   1.000000
     35         -1.696005   1.000000
     36         -1.412128   1.000000
     37         -1.277217   1.000000
     38         -1.208356   1.000000
     39         -1.001687   1.000000
     40          1.484260   1.000000
     41          1.625511   1.000000
     42          1.735260   1.000000
     43          1.909216   1.000000
     44          1.937251   1.000000
     45          2.072056   1.000000
     46          2.082544   1.000000
     47          2.120478   1.000000
     48          2.189225   1.000000
     49          2.257813   1.000000
     50          2.318605   1.000000
     51          2.349903   1.000000
     52          2.394978   1.000000
     53          2.477032   1.000000
     54          2.547383   1.000000
     55          2.705473   1.000000
     56          2.774487   1.000000
     57          2.791789   1.000000
     58          2.824131   1.000000
     59          2.873759   1.000000
     60          2.905362   1.000000
     61          2.943914   1.000000
     62          3.061001   1.000000
     63          3.144948   1.000000
     64          3.203068   1.000000
     65          3.225533   1.000000
     66          3.361830   1.000000
     67          3.440185   1.000000
     68          3.490605   1.000000
     69          3.525679   1.000000
     70          3.580975   1.000000
     71          3.658779   1.000000
     72          3.694886   1.000000
     73          3.741834   1.000000
     74          3.834373   1.000000
     75          3.869544   1.000000
     76          3.926463   1.000000
     77          3.974610   1.000000
     78          4.006548   1.000000
     79          4.117376   1.000000
     80          4.203157   1.000000
     81          4.304747   1.000000
     82          4.399174   1.000000
     83          4.472089   1.000000
     84          4.556010   1.000000
     85          4.737856   1.000000
     86          4.846351   1.000000
     87          4.913284   1.000000
     88          5.006495   1.000000
     89          5.030650   1.000000
     90          5.083774   1.000000
     91          5.137170   1.000000
     92          5.214274   1.000000
     93          5.241691   1.000000
     94          5.306846   1.000000
     95          5.481037   1.000000
     96          5.569554   1.000000
     97          5.675210   1.000000
     98          5.755536   1.000000
     99          5.800603   1.000000
    100          5.839550   1.000000
    101          5.919774   1.000000
    102          6.017380   1.000000
    103          6.059470   1.000000
    104          6.128245   1.000000
    105          6.284900   1.000000
    106          6.300431   1.000000
    107          6.345148   1.000000
    108          6.430229   0.999975
    109          6.516095   0.948423
    110          6.543066   0.806997
    111          6.608055   0.165707
    112          7.597833   0.000000
    113          7.693969   0.000000
    114          7.740060   0.000000
    115          7.786110   0.000000
    116          7.873191   0.000000
    117          7.911600   0.000000
    118          7.950730   0.000000
    119          7.975231   0.000000
    120          8.075259   0.000000
    121          8.142199   0.000000
    122          8.237069   0.000000
    123          8.282002   0.000000
    124          8.395078   0.000000
    125          8.464361   0.000000
    126          8.585388   0.000000
    127          8.627939   0.000000
    128          8.744704   0.000000
    129          8.867129   0.000000
    130          8.908330   0.000000
    131          8.951443   0.000000
 
 -0.4000000E+00 -0.4000000E+00  0.2000000E+00  0.4800000E-01
      1         -6.165240   1.000000
      2         -6.027742   1.000000
      3         -5.760658   1.000000
      4         -5.595134   1.000000
      5         -5.524095   1.000000
      6         -5.422295   1.000000
      7         -5.301721   1.000000
      8         -4.980153   1.000000
      9         -4.979916   1.000000
     10         -4.836921   1.000000
     11         -4.787358   1.000000
     12         -4.773397   1.000000
     13         -4.654181   1.000000
     14         -4.652919   1.000000
     15         -4.577307   1.000000
     16         -4.468540   1.000000
     17         -4.379167   1.000000
     18         -4.317771   1.000000
     19         -4.293130   1.000000
     20         -4.250491   1.000000
     21         -4.181492   1.000000
     22         -4.058442   1.000000
     23         -3.985577   1.000000
     24         -3.940174   1.000000
     25         -2.627890   1.000000
     26         -2.596443   1.000000
     27         -2.466015   1.000000
     28         -2.400805   1.000000
     29         -2.350792   1.000000
     30         -2.328892   1.000000
     31         -2.288694   1.000000
     32         -2.190029   1.000000
     33         -2.116588   1.000000
     34         -1.989913   1.000000
     35         -1.835154   1.000000
     36         -1.534937   1.000000
     37         -1.383029   1.000000
     38         -0.922446   1.000000
     39         -0.729241   1.000000
     40          1.368501   1.000000
     41          1.372525   1.000000
     42          1.728806   1.000000
     43          1.867327   1.000000
     44          1.876074   1.000000
     45          1.962862   1.000000
     46          1.988690   1.000000
     47          2.009171   1.000000
     48          2.101692   1.000000
     49          2.158590   1.000000
     50          2.309200   1.000000
     51          2.311083   1.000000
     52          2.508078   1.000000
     53          2.510719   1.000000
     54          2.616166   1.000000
     55          2.680806   1.000000
     56          2.765305   1.000000
     57          2.841873   1.000000
     58          2.871718   1.000000
     59          3.006936   1.000000
     60          3.177693   1.000000
     61          3.227307   1.000000
     62          3.242149   1.000000
     63          3.286941   1.000000
     64          3.317995   1.000000
     65          3.429834   1.000000
     66          3.452499   1.000000
     67          3.456434   1.000000
     68          3.526245   1.000000
     69          3.544520   1.000000
     70          3.625118   1.000000
     71          3.630959   1.000000
     72          3.707466   1.000000
     73          3.807143   1.000000
     74          3.812305   1.000000
     75          3.876788   1.000000
     76          3.925597   1.000000
     77          4.102880   1.000000
     78          4.214930   1.000000
     79          4.252339   1.000000
     80          4.270354   1.000000
     81          4.339220   1.000000
     82          4.407775   1.000000
     83          4.487159   1.000000
     84          4.497948   1.000000
     85          4.681960   1.000000
     86          4.717182   1.000000
     87          4.903121   1.000000
     88          4.931736   1.000000
     89          5.114379   1.000000
     90          5.138815   1.000000
     91          5.291611   1.000000
     92          5.318449   1.000000
     93          5.361304   1.000000
     94          5.407747   1.000000
     95          5.449516   1.000000
     96          5.525217   1.000000
     97          5.615750   1.000000
     98          5.688242   1.000000
     99          5.749638   1.000000
    100          5.756439   1.000000
    101          5.877158   1.000000
    102          5.908921   1.000000
    103          5.994911   1.000000
    104          6.097731   1.000000
    105          6.144070   1.000000
    106          6.217641   1.000000
    107          6.317110   1.000000
    108          6.425565   0.999986
    109          6.436351   0.999949
    110          6.611832   0.140490
    111          6.835188   0.000000
    112          7.558028   0.000000
    113          7.601193   0.000000
    114          7.655238   0.000000
    115          7.729588   0.000000
    116          7.760365   0.000000
    117          7.857613   0.000000
    118          7.926665   0.000000
    119          7.927834   0.000000
    120          8.075029   0.000000
    121          8.174779   0.000000
    122          8.203638   0.000000
    123          8.323159   0.000000
    124          8.329832   0.000000
    125          8.343438   0.000000
    126          8.404788   0.000000
    127          8.577743   0.000000
    128          8.670062   0.000000
    129          8.747358   0.000000
    130          8.830316   0.000000
    131          8.890065   0.000000
 
  0.4000000E+00  0.4000000E+00  0.4000000E+00  0.1600000E-01
      1         -6.533732   1.000000
      2         -6.372849   1.000000
      3         -5.957650   1.000000
      4         -5.698154   1.000000
      5         -4.863089   1.000000
      6         -4.762985   1.000000
      7         -4.753061   1.000000
      8         -4.753061   1.000000
      9         -4.698261   1.000000
     10         -4.698261   1.000000
     11         -4.676623   1.000000
     12         -4.593867   1.000000
     13         -4.593866   1.000000
     14         -4.593347   1.000000
     15         -4.503135   1.000000
     16         -4.471630   1.000000
     17         -4.353765   1.000000
     18         -4.353763   1.000000
     19         -4.350440   1.000000
     20         -4.332064   1.000000
     21         -4.332063   1.000000
     22         -4.237107   1.000000
     23         -4.237106   1.000000
     24         -4.146007   1.000000
     25         -2.872616   1.000000
     26         -2.830126   1.000000
     27         -2.830125   1.000000
     28         -2.686597   1.000000
     29         -2.686596   1.000000
     30         -2.434462   1.000000
     31         -2.200018   1.000000
     32         -2.174084   1.000000
     33         -2.174083   1.000000
     34         -2.129390   1.000000
     35         -2.017781   1.000000
     36         -2.017779   1.000000
     37         -1.797100   1.000000
     38         -0.471805   1.000000
     39         -0.199268   1.000000
     40          1.018016   1.000000
     41          1.049804   1.000000
     42          1.049805   1.000000
     43          1.269988   1.000000
     44          1.281428   1.000000
     45          1.281430   1.000000
     46          2.278808   1.000000
     47          2.349375   1.000000
     48          2.349376   1.000000
     49          2.488241   1.000000
     50          2.504048   1.000000
     51          2.504048   1.000000
     52          2.650993   1.000000
     53          2.735731   1.000000
     54          2.735731   1.000000
     55          2.824250   1.000000
     56          2.824250   1.000000
     57          2.941506   1.000000
     58          3.112643   1.000000
     59          3.174563   1.000000
     60          3.174563   1.000000
     61          3.228953   1.000000
     62          3.425350   1.000000
     63          3.425350   1.000000
     64          3.486020   1.000000
     65          3.758501   1.000000
     66          3.779728   1.000000
     67          3.791330   1.000000
     68          3.791331   1.000000
     69          3.854297   1.000000
     70          3.854298   1.000000
     71          3.934083   1.000000
     72          4.101988   1.000000
     73          4.112157   1.000000
     74          4.112158   1.000000
     75          4.269294   1.000000
     76          4.314078   1.000000
     77          4.314080   1.000000
     78          4.624996   1.000000
     79          4.705524   1.000000
     80          4.705524   1.000000
     81          4.804660   1.000000
     82          4.804664   1.000000
     83          4.878963   1.000000
     84          4.930952   1.000000
     85          4.930955   1.000000
     86          5.090284   1.000000
     87          5.090286   1.000000
     88          5.162956   1.000000
     89          5.162956   1.000000
     90          5.231311   1.000000
     91          5.253966   1.000000
     92          5.260491   1.000000
     93          5.260491   1.000000
     94          5.463202   1.000000
     95          5.463203   1.000000
     96          5.512129   1.000000
     97          5.549184   1.000000
     98          5.567532   1.000000
     99          5.567532   1.000000
    100          5.641850   1.000000
    101          5.641850   1.000000
    102          5.768590   1.000000
    103          5.870130   1.000000
    104          5.870130   1.000000
    105          6.002096   1.000000
    106          6.002096   1.000000
    107          6.076384   1.000000
    108          6.406479   0.999999
    109          6.406479   0.999999
    110          6.621590   0.087852
    111          7.008660   0.000000
    112          7.381962   0.000000
    113          7.381963   0.000000
    114          7.485720   0.000000
    115          7.646283   0.000000
    116          7.646284   0.000000
    117          7.688262   0.000000
    118          7.774186   0.000000
    119          7.774187   0.000000
    120          7.879512   0.000000
    121          7.934297   0.000000
    122          7.934349   0.000000
    123          7.934349   0.000000
    124          7.969313   0.000000
    125          8.036227   0.000000
    126          8.036228   0.000000
    127          8.168787   0.000000
    128          8.168787   0.000000
    129          8.374271   0.000000
    130          8.431676   0.000000
    131          8.431678   0.000000
 
 -0.4000000E+00  0.4000000E+00  0.4000000E+00  0.4800000E-01
      1         -6.437707   1.000000
      2         -6.290957   1.000000
      3         -5.845976   1.000000
      4         -5.652558   1.000000
      5         -5.186961   1.000000
      6         -4.992245   1.000000
      7         -4.924293   1.000000
      8         -4.873570   1.000000
      9         -4.835751   1.000000
     10         -4.767842   1.000000
     11         -4.738131   1.000000
     12         -4.717621   1.000000
     13         -4.609502   1.000000
     14         -4.563532   1.000000
     15         -4.508220   1.000000
     16         -4.431557   1.000000
     17         -4.420591   1.000000
     18         -4.404731   1.000000
     19         -4.325605   1.000000
     20         -4.254574   1.000000
     21         -4.233626   1.000000
     22         -4.110874   1.000000
     23         -4.102617   1.000000
     24         -4.065611   1.000000
     25         -2.803717   1.000000
     26         -2.795904   1.000000
     27         -2.633914   1.000000
     28         -2.554679   1.000000
     29         -2.471873   1.000000
     30         -2.320186   1.000000
     31         -2.272630   1.000000
     32         -2.228746   1.000000
     33         -2.082190   1.000000
     34         -2.063879   1.000000
     35         -2.036293   1.000000
     36         -1.887218   1.000000
     37         -1.763903   1.000000
     38         -0.502705   1.000000
     39         -0.397783   1.000000
     40          1.109209   1.000000
     41          1.128125   1.000000
     42          1.143364   1.000000
     43          1.428173   1.000000
     44          1.428839   1.000000
     45          1.694431   1.000000
     46          1.969409   1.000000
     47          2.262136   1.000000
     48          2.283629   1.000000
     49          2.430795   1.000000
     50          2.432808   1.000000
     51          2.563213   1.000000
     52          2.566144   1.000000
     53          2.621875   1.000000
     54          2.831346   1.000000
     55          2.887327   1.000000
     56          2.953463   1.000000
     57          2.997998   1.000000
     58          3.029581   1.000000
     59          3.072903   1.000000
     60          3.109673   1.000000
     61          3.250620   1.000000
     62          3.302302   1.000000
     63          3.305340   1.000000
     64          3.476477   1.000000
     65          3.506332   1.000000
     66          3.526676   1.000000
     67          3.675948   1.000000
     68          3.717067   1.000000
     69          3.755298   1.000000
     70          3.846523   1.000000
     71          3.919678   1.000000
     72          3.921334   1.000000
     73          3.996987   1.000000
     74          4.119103   1.000000
     75          4.143438   1.000000
     76          4.273571   1.000000
     77          4.282768   1.000000
     78          4.373057   1.000000
     79          4.441524   1.000000
     80          4.486981   1.000000
     81          4.532104   1.000000
     82          4.544600   1.000000
     83          4.613809   1.000000
     84          4.739924   1.000000
     85          4.756865   1.000000
     86          4.829811   1.000000
     87          4.899322   1.000000
     88          4.940947   1.000000
     89          5.003429   1.000000
     90          5.114014   1.000000
     91          5.233375   1.000000
     92          5.271118   1.000000
     93          5.353875   1.000000
     94          5.393323   1.000000
     95          5.397940   1.000000
     96          5.501475   1.000000
     97          5.551679   1.000000
     98          5.637359   1.000000
     99          5.740610   1.000000
    100          5.812559   1.000000
    101          5.904620   1.000000
    102          5.960925   1.000000
    103          5.992010   1.000000
    104          6.111016   1.000000
    105          6.208394   1.000000
    106          6.273047   1.000000
    107          6.293746   1.000000
    108          6.470480   0.998249
    109          6.473456   0.997714
    110          6.606821   0.174539
    111          6.826083   0.000000
    112          7.390922   0.000000
    113          7.419424   0.000000
    114          7.513028   0.000000
    115          7.604920   0.000000
    116          7.609610   0.000000
    117          7.690082   0.000000
    118          7.698922   0.000000
    119          7.862662   0.000000
    120          7.898923   0.000000
    121          7.930820   0.000000
    122          7.983298   0.000000
    123          8.048935   0.000000
    124          8.073351   0.000000
    125          8.137921   0.000000
    126          8.302116   0.000000
    127          8.335186   0.000000
    128          8.398317   0.000000
    129          8.577053   0.000000
    130          8.613803   0.000000
    131          8.619379   0.000000
