   2   2   0   0
  0.6347938E+01  0.2618540E-09  0.2618540E-09  0.2618540E-09  0.5000000E-15
   1.0000000000000000E-004
  CAR 
 Diamond C - EOS                         
     25.08964323    -13.61409520  301      8.44905152      1.00000000
    -13.614  0.0000E+00  0.0000E+00
    -13.485  0.0000E+00  0.0000E+00
    -13.356  0.0000E+00  0.0000E+00
    -13.227  0.0000E+00  0.0000E+00
    -13.098  0.0000E+00  0.0000E+00
    -12.969  0.0000E+00  0.0000E+00
    -12.840  0.0000E+00  0.0000E+00
    -12.711  0.0000E+00  0.0000E+00
    -12.582  0.0000E+00  0.0000E+00
    -12.453  0.0000E+00  0.0000E+00
    -12.324  0.0000E+00  0.0000E+00
    -12.195  0.0000E+00  0.0000E+00
    -12.066  0.2283E-11  0.2945E-12
    -11.937  0.1989E-04  0.2566E-05
    -11.808  0.8221E-02  0.1063E-02
    -11.679  0.3619E-01  0.5733E-02
    -11.550  0.6944E-01  0.1469E-01
    -11.421  0.7713E-01  0.2464E-01
    -11.292  0.9423E-01  0.3680E-01
    -11.163  0.6463E-01  0.4514E-01
    -11.034  0.1573E+00  0.6543E-01
    -10.905  0.1127E+00  0.7997E-01
    -10.776  0.9216E-01  0.9186E-01
    -10.647  0.1694E+00  0.1137E+00
    -10.518  0.1508E+00  0.1332E+00
    -10.389  0.1281E+00  0.1497E+00
    -10.260  0.1755E+00  0.1723E+00
    -10.131  0.1481E+00  0.1914E+00
    -10.002  0.2258E+00  0.2206E+00
     -9.873  0.1177E+00  0.2358E+00
     -9.744  0.1914E+00  0.2605E+00
     -9.615  0.2525E+00  0.2930E+00
     -9.486  0.1552E+00  0.3131E+00
     -9.357  0.2400E+00  0.3440E+00
     -9.228  0.1556E+00  0.3641E+00
     -9.099  0.2358E+00  0.3945E+00
     -8.970  0.2704E+00  0.4294E+00
     -8.841  0.2234E+00  0.4582E+00
     -8.712  0.2045E+00  0.4846E+00
     -8.583  0.2752E+00  0.5201E+00
     -8.454  0.1849E+00  0.5439E+00
     -8.325  0.2989E+00  0.5825E+00
     -8.196  0.2632E+00  0.6165E+00
     -8.067  0.3663E+00  0.6637E+00
     -7.938  0.1594E+00  0.6843E+00
     -7.809  0.2670E+00  0.7187E+00
     -7.680  0.3172E+00  0.7596E+00
     -7.551  0.3193E+00  0.8008E+00
     -7.421  0.3292E+00  0.8433E+00
     -7.292  0.3820E+00  0.8926E+00
     -7.163  0.2391E+00  0.9234E+00
     -7.034  0.2285E+00  0.9529E+00
     -6.905  0.4480E+00  0.1011E+01
     -6.776  0.3854E+00  0.1060E+01
     -6.647  0.4549E+00  0.1119E+01
     -6.518  0.5085E+00  0.1185E+01
     -6.389  0.3125E+00  0.1225E+01
     -6.260  0.3087E+00  0.1265E+01
     -6.131  0.3639E+00  0.1312E+01
     -6.002  0.5184E+00  0.1379E+01
     -5.873  0.4131E+00  0.1432E+01
     -5.744  0.3936E+00  0.1483E+01
     -5.615  0.2316E+00  0.1513E+01
     -5.486  0.2977E+00  0.1551E+01
     -5.357  0.3808E+00  0.1600E+01
     -5.228  0.2766E+00  0.1636E+01
     -5.099  0.4028E+00  0.1688E+01
     -4.970  0.2367E+00  0.1718E+01
     -4.841  0.2147E+00  0.1746E+01
     -4.712  0.3734E+00  0.1794E+01
     -4.583  0.1876E+00  0.1818E+01
     -4.454  0.1659E+00  0.1840E+01
     -4.325  0.3433E+00  0.1884E+01
     -4.196  0.2560E+00  0.1917E+01
     -4.067  0.1307E+00  0.1934E+01
     -3.938  0.1349E+00  0.1951E+01
     -3.809  0.2317E+00  0.1981E+01
     -3.680  0.3031E+00  0.2020E+01
     -3.551  0.2158E+00  0.2048E+01
     -3.422  0.2099E+00  0.2075E+01
     -3.293  0.2495E+00  0.2108E+01
     -3.164  0.2171E+00  0.2136E+01
     -3.035  0.4140E+00  0.2189E+01
     -2.906  0.4023E+00  0.2241E+01
     -2.777  0.6094E+00  0.2319E+01
     -2.648  0.5413E+00  0.2389E+01
     -2.519  0.6772E+00  0.2477E+01
     -2.390  0.7127E+00  0.2569E+01
     -2.261  0.7174E+00  0.2661E+01
     -2.132  0.4230E+00  0.2716E+01
     -2.003  0.3946E+00  0.2767E+01
     -1.874  0.4759E+00  0.2828E+01
     -1.745  0.3751E+00  0.2876E+01
     -1.616  0.2622E+00  0.2910E+01
     -1.487  0.5303E+00  0.2979E+01
     -1.358  0.3773E+00  0.3027E+01
     -1.229  0.2509E+00  0.3060E+01
     -1.100  0.2162E+00  0.3088E+01
     -0.971  0.3385E+00  0.3131E+01
     -0.842  0.3397E+00  0.3175E+01
     -0.713  0.3097E+00  0.3215E+01
     -0.584  0.2425E+00  0.3246E+01
     -0.455  0.2406E+00  0.3277E+01
     -0.326  0.1466E+00  0.3296E+01
     -0.197  0.3475E+00  0.3341E+01
     -0.068  0.3301E+00  0.3384E+01
      0.061  0.4857E+00  0.3446E+01
      0.190  0.4522E+00  0.3505E+01
      0.319  0.3284E+00  0.3547E+01
      0.448  0.6206E+00  0.3627E+01
      0.577  0.6805E+00  0.3715E+01
      0.706  0.5672E+00  0.3788E+01
      0.835  0.6230E+00  0.3869E+01
      0.964  0.5262E+00  0.3936E+01
      1.093  0.5635E+00  0.4009E+01
      1.222  0.3951E+00  0.4060E+01
      1.351  0.6363E+00  0.4142E+01
      1.480  0.6966E+00  0.4232E+01
      1.609  0.5647E+00  0.4305E+01
      1.738  0.7028E+00  0.4396E+01
      1.867  0.5339E+00  0.4464E+01
      1.996  0.4073E+00  0.4517E+01
      2.125  0.7151E+00  0.4609E+01
      2.254  0.9387E+00  0.4730E+01
      2.383  0.6781E+00  0.4818E+01
      2.512  0.8841E+00  0.4932E+01
      2.641  0.6375E+00  0.5014E+01
      2.770  0.8980E+00  0.5130E+01
      2.899  0.9192E+00  0.5249E+01
      3.029  0.8646E+00  0.5360E+01
      3.158  0.7880E+00  0.5462E+01
      3.287  0.7547E+00  0.5559E+01
      3.416  0.9878E+00  0.5687E+01
      3.545  0.8904E+00  0.5801E+01
      3.674  0.6995E+00  0.5892E+01
      3.803  0.6757E+00  0.5979E+01
      3.932  0.7455E+00  0.6075E+01
      4.061  0.9159E+00  0.6193E+01
      4.190  0.7800E+00  0.6294E+01
      4.319  0.8415E+00  0.6402E+01
      4.448  0.6210E+00  0.6483E+01
      4.577  0.8371E+00  0.6591E+01
      4.706  0.7636E+00  0.6689E+01
      4.835  0.6097E+00  0.6768E+01
      4.964  0.7617E+00  0.6866E+01
      5.093  0.7721E+00  0.6966E+01
      5.222  0.6603E+00  0.7051E+01
      5.351  0.7706E+00  0.7150E+01
      5.480  0.7047E+00  0.7241E+01
      5.609  0.6249E+00  0.7322E+01
      5.738  0.6738E+00  0.7409E+01
      5.867  0.4509E+00  0.7467E+01
      5.996  0.5314E+00  0.7535E+01
      6.125  0.3894E+00  0.7586E+01
      6.254  0.4226E+00  0.7640E+01
      6.383  0.4552E+00  0.7699E+01
      6.512  0.1818E+00  0.7722E+01
      6.641  0.2824E+00  0.7759E+01
      6.770  0.3451E+00  0.7803E+01
      6.899  0.1651E+00  0.7825E+01
      7.028  0.2355E+00  0.7855E+01
      7.157  0.2978E+00  0.7893E+01
      7.286  0.1606E+00  0.7914E+01
      7.415  0.6853E-01  0.7923E+01
      7.544  0.2237E+00  0.7952E+01
      7.673  0.8157E-01  0.7962E+01
      7.802  0.1086E+00  0.7976E+01
      7.931  0.1153E+00  0.7991E+01
      8.060  0.3468E-01  0.7996E+01
      8.189  0.3188E-01  0.8000E+01
      8.318  0.1603E-02  0.8000E+01
      8.447  0.6249E-07  0.8000E+01
      8.576  0.0000E+00  0.8000E+01
      8.705  0.0000E+00  0.8000E+01
      8.834  0.0000E+00  0.8000E+01
      8.963  0.0000E+00  0.8000E+01
      9.092  0.0000E+00  0.8000E+01
      9.221  0.0000E+00  0.8000E+01
      9.350  0.0000E+00  0.8000E+01
      9.479  0.0000E+00  0.8000E+01
      9.608  0.0000E+00  0.8000E+01
      9.737  0.0000E+00  0.8000E+01
      9.866  0.0000E+00  0.8000E+01
      9.995  0.0000E+00  0.8000E+01
     10.124  0.0000E+00  0.8000E+01
     10.253  0.0000E+00  0.8000E+01
     10.382  0.0000E+00  0.8000E+01
     10.511  0.0000E+00  0.8000E+01
     10.640  0.0000E+00  0.8000E+01
     10.769  0.0000E+00  0.8000E+01
     10.898  0.0000E+00  0.8000E+01
     11.027  0.0000E+00  0.8000E+01
     11.156  0.0000E+00  0.8000E+01
     11.285  0.0000E+00  0.8000E+01
     11.414  0.0000E+00  0.8000E+01
     11.543  0.0000E+00  0.8000E+01
     11.672  0.0000E+00  0.8000E+01
     11.801  0.3889E-14  0.8000E+01
     11.930  0.2365E-05  0.8000E+01
     12.059  0.7849E-02  0.8001E+01
     12.188  0.3082E-01  0.8005E+01
     12.317  0.1057E+00  0.8019E+01
     12.446  0.1453E+00  0.8037E+01
     12.575  0.1047E+00  0.8051E+01
     12.704  0.2545E+00  0.8084E+01
     12.833  0.1587E+00  0.8104E+01
     12.962  0.3336E+00  0.8147E+01
     13.091  0.3679E+00  0.8195E+01
     13.220  0.2156E+00  0.8223E+01
     13.350  0.5162E+00  0.8289E+01
     13.479  0.3548E+00  0.8335E+01
     13.608  0.5794E+00  0.8410E+01
     13.737  0.3453E+00  0.8454E+01
     13.866  0.5068E+00  0.8520E+01
     13.995  0.6060E+00  0.8598E+01
     14.124  0.6575E+00  0.8683E+01
     14.253  0.5243E+00  0.8750E+01
     14.382  0.6613E+00  0.8836E+01
     14.511  0.6097E+00  0.8914E+01
     14.640  0.6886E+00  0.9003E+01
     14.769  0.5915E+00  0.9079E+01
     14.898  0.8394E+00  0.9188E+01
     15.027  0.6942E+00  0.9277E+01
     15.156  0.7958E+00  0.9380E+01
     15.285  0.7067E+00  0.9471E+01
     15.414  0.1161E+01  0.9621E+01
     15.543  0.1189E+01  0.9774E+01
     15.672  0.1087E+01  0.9914E+01
     15.801  0.1204E+01  0.1007E+02
     15.930  0.1316E+01  0.1024E+02
     16.059  0.1219E+01  0.1040E+02
     16.188  0.1496E+01  0.1059E+02
     16.317  0.7970E+00  0.1069E+02
     16.446  0.1038E+01  0.1083E+02
     16.575  0.7979E+00  0.1093E+02
     16.704  0.1382E+01  0.1111E+02
     16.833  0.1160E+01  0.1126E+02
     16.962  0.7394E+00  0.1135E+02
     17.091  0.8193E+00  0.1146E+02
     17.220  0.8436E+00  0.1157E+02
     17.349  0.7255E+00  0.1166E+02
     17.478  0.6522E+00  0.1174E+02
     17.607  0.8909E+00  0.1186E+02
     17.736  0.1367E+01  0.1204E+02
     17.865  0.8101E+00  0.1214E+02
     17.994  0.6515E+00  0.1222E+02
     18.123  0.5760E+00  0.1230E+02
     18.252  0.4007E+00  0.1235E+02
     18.381  0.8957E+00  0.1247E+02
     18.510  0.5267E+00  0.1253E+02
     18.639  0.9684E+00  0.1266E+02
     18.768  0.1121E+01  0.1280E+02
     18.897  0.1322E+01  0.1297E+02
     19.026  0.4966E+00  0.1304E+02
     19.155  0.4300E+00  0.1309E+02
     19.284  0.5763E+00  0.1317E+02
     19.413  0.8330E+00  0.1328E+02
     19.542  0.7185E+00  0.1337E+02
     19.671  0.1083E+01  0.1351E+02
     19.800  0.1380E+01  0.1369E+02
     19.929  0.8573E+00  0.1380E+02
     20.058  0.1099E+01  0.1394E+02
     20.187  0.1040E+01  0.1407E+02
     20.316  0.4762E+00  0.1413E+02
     20.445  0.8387E+00  0.1424E+02
     20.574  0.8788E+00  0.1436E+02
     20.703  0.8045E+00  0.1446E+02
     20.832  0.5540E+00  0.1453E+02
     20.961  0.6901E+00  0.1462E+02
     21.090  0.1055E+01  0.1476E+02
     21.219  0.1500E+01  0.1495E+02
     21.348  0.1082E+01  0.1509E+02
     21.477  0.5494E+00  0.1516E+02
     21.606  0.5553E+00  0.1523E+02
     21.735  0.8249E+00  0.1534E+02
     21.864  0.7443E+00  0.1543E+02
     21.993  0.8261E+00  0.1554E+02
     22.122  0.7949E+00  0.1564E+02
     22.251  0.4049E+00  0.1570E+02
     22.380  0.3955E+00  0.1575E+02
     22.509  0.5336E+00  0.1582E+02
     22.638  0.4062E+00  0.1587E+02
     22.767  0.5060E+00  0.1593E+02
     22.896  0.1608E+00  0.1595E+02
     23.025  0.1436E+00  0.1597E+02
     23.154  0.9828E-01  0.1599E+02
     23.283  0.1047E+00  0.1600E+02
     23.412  0.1097E-01  0.1600E+02
     23.541  0.1155E-03  0.1600E+02
     23.671  0.1314E-10  0.1600E+02
     23.800  0.0000E+00  0.1600E+02
     23.929  0.0000E+00  0.1600E+02
     24.058  0.0000E+00  0.1600E+02
     24.187  0.0000E+00  0.1600E+02
     24.316  0.0000E+00  0.1600E+02
     24.445  0.0000E+00  0.1600E+02
     24.574  0.0000E+00  0.1600E+02
     24.703  0.0000E+00  0.1600E+02
     24.832  0.0000E+00  0.1600E+02
     24.961  0.0000E+00  0.1600E+02
     25.090  0.0000E+00  0.1600E+02
