[1776478024.196290] [d01:2703746:f]        vfs_fuse.c:281  UCX  ERROR inotify_add_watch(/tmp) failed: No space left on device
 running    1 mpi-ranks, with    2 threads/rank, on    1 nodes
 distrk:  each k-point on    1 cores,    1 groups
 distr:  one band on    1 cores,    1 groups
 OpenACC runtime initialized ...    1 GPUs detected
 vasp.6.4.2 20Jul23 (build Mar  2 2025 11:04:54) complex                         
 POSCAR found type information on POSCAR C 
 POSCAR found :  1 types and       2 ions
 scaLAPACK will be used selectively (only on CPU)
 LDA part: xc-table for Pade appr. of Perdew
 -----------------------------------------------------------------------------
|                                                                             |
|           W    W    AA    RRRRR   N    N  II  N    N   GGGG   !!!           |
|           W    W   A  A   R    R  NN   N  II  NN   N  G    G  !!!           |
|           W    W  A    A  R    R  N N  N  II  N N  N  G       !!!           |
|           W WW W  AAAAAA  RRRRR   N  N N  II  N  N N  G  GGG   !            |
|           WW  WW  A    A  R   R   N   NN  II  N   NN  G    G                |
|           W    W  A    A  R    R  N    N  II  N    N   GGGG   !!!           |
|                                                                             |
|     The requested file  could not be found or opened for reading            |
|     k-point information. Automatic k-point generation is used as a          |
|     fallback, which may lead to unwanted results.                           |
|                                                                             |
 -----------------------------------------------------------------------------

 POSCAR, INCAR and KPOINTS ok, starting setup
 FFT: planning ... GRIDC
 FFT: planning ... GRID_SOFT
 FFT: planning ... GRID
 WAVECAR not read
 entering main loop
       N       E                     dE             d eps       ncg     rms          rms(c)
DAV:   1    -0.512131603237E+01   -0.51213E+01   -0.44760E+03  4368   0.899E+02
DAV:   2    -0.183775603733E+02   -0.13256E+02   -0.12724E+02  6896   0.939E+01
DAV:   3    -0.184627626653E+02   -0.85202E-01   -0.85202E-01  4312   0.912E+00
DAV:   4    -0.184628954796E+02   -0.13281E-03   -0.13281E-03  5720   0.382E-01
DAV:   5    -0.184628956009E+02   -0.12127E-06   -0.12127E-06  4288   0.708E-03    0.480E+00
DAV:   6    -0.181319161397E+02    0.33098E+00   -0.25705E-01  4264   0.394E+00    0.288E+00
DAV:   7    -0.180203838038E+02    0.11153E+00   -0.29289E-01  5040   0.430E+00    0.600E-01
DAV:   8    -0.180215227948E+02   -0.11390E-02   -0.18185E-03  4536   0.468E-01    0.429E-02
DAV:   9    -0.180215547329E+02   -0.31938E-04   -0.12468E-04  6024   0.976E-02    0.265E-02
DAV:  10    -0.180215684617E+02   -0.13729E-04   -0.16392E-05  4112   0.453E-02    0.480E-03
DAV:  11    -0.180215683516E+02    0.11009E-06   -0.40612E-08  3176   0.210E-03
   1 F= -.18021568E+02 E0= -.18021568E+02  d E =-.192202E-18
Warning: ieee_invalid is signaling
Warning: ieee_divide_by_zero is signaling
Warning: ieee_underflow is signaling
Warning: ieee_inexact is signaling
FORTRAN STOP
