   1   1   0   0
  0.1326378E+02  0.2582834E-09  0.2582833E-09  0.2582834E-09  0.5000000E-15
   1.0000000000000000E-004
  CAR 
 V EOS scale_1.000                       
     17.67138594     -1.13057458  301      6.26490007      1.00000000
     -1.131  0.0000E+00  0.0000E+00
     -1.068  0.0000E+00  0.0000E+00
     -1.005  0.0000E+00  0.0000E+00
     -0.943  0.0000E+00  0.0000E+00
     -0.880  0.0000E+00  0.0000E+00
     -0.817  0.0000E+00  0.0000E+00
     -0.755  0.0000E+00  0.0000E+00
     -0.692 -0.8311E-32 -0.5209E-33
     -0.629 -0.1671E-23 -0.1047E-24
     -0.567 -0.1361E-16 -0.8531E-18
     -0.504 -0.4637E-11 -0.2906E-12
     -0.441 -0.6134E-07 -0.3845E-08
     -0.378 -0.2688E-04 -0.1689E-05
     -0.316  0.5865E-04  0.1987E-05
     -0.253  0.2214E-02  0.1407E-03
     -0.190  0.1286E-01  0.9465E-03
     -0.128  0.3663E-01  0.3242E-02
     -0.065  0.1395E-01  0.4116E-02
     -0.002  0.1828E-01  0.5262E-02
      0.060  0.8026E-01  0.1029E-01
      0.123  0.2860E-01  0.1208E-01
      0.186  0.2926E-01  0.1392E-01
      0.248  0.7735E-01  0.1877E-01
      0.311  0.2682E-01  0.2045E-01
      0.374  0.2064E-01  0.2174E-01
      0.436  0.1529E+00  0.3132E-01
      0.499  0.4788E-01  0.3432E-01
      0.562  0.1404E-01  0.3520E-01
      0.624  0.1115E+00  0.4219E-01
      0.687  0.6666E-01  0.4637E-01
      0.750  0.6590E-01  0.5050E-01
      0.812  0.7439E-01  0.5516E-01
      0.875  0.5636E-01  0.5869E-01
      0.938  0.8578E-01  0.6407E-01
      1.000  0.2419E+00  0.7923E-01
      1.063  0.1491E-01  0.8016E-01
      1.126  0.4393E-01  0.8292E-01
      1.188  0.1573E+00  0.9277E-01
      1.251  0.3344E-01  0.9487E-01
      1.314  0.1131E+00  0.1020E+00
      1.376  0.1139E+00  0.1091E+00
      1.439  0.9527E-01  0.1151E+00
      1.502  0.2343E+00  0.1298E+00
      1.564  0.1044E+00  0.1363E+00
      1.627  0.1810E+00  0.1476E+00
      1.690  0.6303E-01  0.1516E+00
      1.752  0.1021E+00  0.1580E+00
      1.815  0.1643E+00  0.1683E+00
      1.878  0.2995E-01  0.1702E+00
      1.940  0.1469E+00  0.1794E+00
      2.003  0.2889E+00  0.1975E+00
      2.066  0.9419E-01  0.2034E+00
      2.128  0.3627E+00  0.2261E+00
      2.191  0.1556E+00  0.2359E+00
      2.254  0.1196E+00  0.2434E+00
      2.316  0.1466E+00  0.2525E+00
      2.379  0.1608E+00  0.2626E+00
      2.442  0.1799E+00  0.2739E+00
      2.504  0.1186E+00  0.2813E+00
      2.567  0.2779E+00  0.2987E+00
      2.630  0.3355E+00  0.3198E+00
      2.692  0.2490E+00  0.3354E+00
      2.755  0.5267E+00  0.3684E+00
      2.818  0.3098E+00  0.3878E+00
      2.881  0.1632E-01  0.3888E+00
      2.943  0.3424E+00  0.4103E+00
      3.006  0.3447E+00  0.4319E+00
      3.069  0.3378E+00  0.4531E+00
      3.131  0.7315E+00  0.4989E+00
      3.194  0.1053E+01  0.5649E+00
      3.257  0.9794E+00  0.6263E+00
      3.319  0.1000E+01  0.6889E+00
      3.382  0.6922E+00  0.7323E+00
      3.445  0.5249E+00  0.7652E+00
      3.507  0.1288E+01  0.8460E+00
      3.570  0.1266E+01  0.9253E+00
      3.633  0.1055E+01  0.9914E+00
      3.695  0.6649E+00  0.1033E+01
      3.758  0.9795E+00  0.1095E+01
      3.821  0.2001E+01  0.1220E+01
      3.883  0.1387E+01  0.1307E+01
      3.946  0.1067E+01  0.1374E+01
      4.009  0.1189E+01  0.1448E+01
      4.071  0.2133E+01  0.1582E+01
      4.134  0.1764E+01  0.1693E+01
      4.197  0.1153E+01  0.1765E+01
      4.259  0.1025E+01  0.1829E+01
      4.322  0.7224E+00  0.1874E+01
      4.385  0.1063E+01  0.1941E+01
      4.447  0.1208E+01  0.2017E+01
      4.510  0.4681E+00  0.2046E+01
      4.573  0.8777E+00  0.2101E+01
      4.635  0.6432E+00  0.2141E+01
      4.698  0.1017E+01  0.2205E+01
      4.761  0.4008E+00  0.2230E+01
      4.823  0.2295E+00  0.2245E+01
      4.886  0.4227E+00  0.2271E+01
      4.949  0.9508E+00  0.2331E+01
      5.011  0.1750E+01  0.2440E+01
      5.074  0.1621E+01  0.2542E+01
      5.137  0.2877E+01  0.2722E+01
      5.199  0.2879E+01  0.2903E+01
      5.262  0.2678E+01  0.3070E+01
      5.325  0.1309E+01  0.3152E+01
      5.387  0.1758E+01  0.3263E+01
      5.450  0.2214E+01  0.3401E+01
      5.513  0.1828E+01  0.3516E+01
      5.575  0.1342E+01  0.3600E+01
      5.638  0.2257E+01  0.3741E+01
      5.701  0.1853E+01  0.3858E+01
      5.763  0.1677E+01  0.3963E+01
      5.826  0.1587E+01  0.4062E+01
      5.889  0.1932E+01  0.4183E+01
      5.951  0.1992E+01  0.4308E+01
      6.014  0.1949E+01  0.4430E+01
      6.077  0.2407E+01  0.4581E+01
      6.140  0.2576E+01  0.4743E+01
      6.202  0.1928E+01  0.4863E+01
      6.265  0.2179E+01  0.5000E+01
      6.328  0.1584E+01  0.5099E+01
      6.390  0.1214E+01  0.5175E+01
      6.453  0.1619E+01  0.5277E+01
      6.516  0.1200E+01  0.5352E+01
      6.578  0.1514E+01  0.5447E+01
      6.641  0.1335E+01  0.5530E+01
      6.704  0.9141E+00  0.5588E+01
      6.766  0.7543E+00  0.5635E+01
      6.829  0.4193E+00  0.5661E+01
      6.892  0.3998E+00  0.5686E+01
      6.954  0.2944E+00  0.5705E+01
      7.017  0.1289E+00  0.5713E+01
      7.080  0.6113E+00  0.5751E+01
      7.142  0.5995E+00  0.5789E+01
      7.205  0.9230E+00  0.5847E+01
      7.268  0.7239E+00  0.5892E+01
      7.330  0.7215E+00  0.5937E+01
      7.393  0.5059E+00  0.5969E+01
      7.456  0.2650E-01  0.5971E+01
      7.518  0.4243E+00  0.5997E+01
      7.581  0.7847E+00  0.6046E+01
      7.644  0.7564E+00  0.6094E+01
      7.706  0.8476E+00  0.6147E+01
      7.769  0.7647E+00  0.6195E+01
      7.832  0.1009E+01  0.6258E+01
      7.894  0.1338E+01  0.6342E+01
      7.957  0.1717E+01  0.6450E+01
      8.020  0.1267E+01  0.6529E+01
      8.082  0.1510E+01  0.6624E+01
      8.145  0.1518E+01  0.6719E+01
      8.208  0.1812E+01  0.6832E+01
      8.270  0.1627E+01  0.6934E+01
      8.333  0.1919E+01  0.7055E+01
      8.396  0.1635E+01  0.7157E+01
      8.458  0.1962E+01  0.7280E+01
      8.521  0.2228E+01  0.7420E+01
      8.584  0.2226E+01  0.7559E+01
      8.646  0.3160E+01  0.7757E+01
      8.709  0.2776E+01  0.7931E+01
      8.772  0.2659E+01  0.8098E+01
      8.834  0.2184E+01  0.8235E+01
      8.897  0.2189E+01  0.8372E+01
      8.960  0.2500E+01  0.8529E+01
      9.022  0.3164E+01  0.8727E+01
      9.085  0.4401E+01  0.9003E+01
      9.148  0.3893E+01  0.9247E+01
      9.211  0.2100E+01  0.9378E+01
      9.273  0.2478E+01  0.9533E+01
      9.336  0.2515E+01  0.9691E+01
      9.399  0.1472E+01  0.9783E+01
      9.461  0.1272E+01  0.9863E+01
      9.524  0.1144E+01  0.9935E+01
      9.587  0.1208E+01  0.1001E+02
      9.649  0.1439E+01  0.1010E+02
      9.712  0.4835E+00  0.1013E+02
      9.775  0.7224E+00  0.1018E+02
      9.837  0.1456E+01  0.1027E+02
      9.900  0.1480E+01  0.1036E+02
      9.963  0.1407E+01  0.1045E+02
     10.025  0.1372E+01  0.1053E+02
     10.088  0.6588E+00  0.1058E+02
     10.151  0.8605E+00  0.1063E+02
     10.213  0.3138E+00  0.1065E+02
     10.276  0.2671E+00  0.1067E+02
     10.339  0.6108E+00  0.1070E+02
     10.401  0.4868E+00  0.1073E+02
     10.464  0.4142E+00  0.1076E+02
     10.527  0.1916E+00  0.1077E+02
     10.589  0.3791E+00  0.1080E+02
     10.652  0.2921E+00  0.1081E+02
     10.715  0.7935E+00  0.1086E+02
     10.777  0.6400E+00  0.1090E+02
     10.840  0.3762E+00  0.1093E+02
     10.903  0.2469E+00  0.1094E+02
     10.965  0.3910E+00  0.1097E+02
     11.028  0.1241E+00  0.1098E+02
     11.091  0.1331E+00  0.1098E+02
     11.153  0.2838E+00  0.1100E+02
     11.216  0.5582E+00  0.1104E+02
     11.279  0.5376E+00  0.1107E+02
     11.341  0.1221E+00  0.1108E+02
     11.404  0.2118E+00  0.1109E+02
     11.467  0.3197E+00  0.1111E+02
     11.529  0.2782E+00  0.1113E+02
     11.592  0.5353E+00  0.1116E+02
     11.655  0.6112E+00  0.1120E+02
     11.717  0.3164E+00  0.1122E+02
     11.780  0.2990E+00  0.1124E+02
     11.843  0.3275E+00  0.1126E+02
     11.905  0.1372E+00  0.1127E+02
     11.968  0.1989E+00  0.1128E+02
     12.031  0.6533E-01  0.1129E+02
     12.093  0.3465E+00  0.1131E+02
     12.156  0.3500E+00  0.1133E+02
     12.219  0.4083E+00  0.1135E+02
     12.281  0.1827E+00  0.1137E+02
     12.344  0.4059E+00  0.1139E+02
     12.407  0.3334E+00  0.1141E+02
     12.470  0.3542E+00  0.1143E+02
     12.532  0.4438E+00  0.1146E+02
     12.595  0.2590E+00  0.1148E+02
     12.658  0.3938E-02  0.1148E+02
     12.720  0.1211E+00  0.1149E+02
     12.783  0.3072E+00  0.1151E+02
     12.846  0.3771E+00  0.1153E+02
     12.908  0.4031E+00  0.1155E+02
     12.971  0.8773E-01  0.1156E+02
     13.034  0.3488E+00  0.1158E+02
     13.096  0.2432E+00  0.1160E+02
     13.159  0.1310E+00  0.1161E+02
     13.222  0.5449E-01  0.1161E+02
     13.284  0.1912E+00  0.1162E+02
     13.347  0.3061E+00  0.1164E+02
     13.410  0.2052E+00  0.1165E+02
     13.472  0.3500E+00  0.1167E+02
     13.535  0.4807E+00  0.1170E+02
     13.598  0.3105E+00  0.1172E+02
     13.660  0.6253E-01  0.1173E+02
     13.723  0.7339E-01  0.1173E+02
     13.786  0.1223E+00  0.1174E+02
     13.848  0.2079E+00  0.1175E+02
     13.911  0.2309E+00  0.1177E+02
     13.974  0.8167E-01  0.1177E+02
     14.036  0.2064E+00  0.1179E+02
     14.099  0.1444E+00  0.1180E+02
     14.162  0.3239E+00  0.1182E+02
     14.224  0.6297E-01  0.1182E+02
     14.287  0.1648E+00  0.1183E+02
     14.350  0.1225E+00  0.1184E+02
     14.412  0.7299E-01  0.1184E+02
     14.475  0.1975E+00  0.1185E+02
     14.538  0.2232E+00  0.1187E+02
     14.600  0.1275E+00  0.1188E+02
     14.663  0.9914E-01  0.1188E+02
     14.726  0.3633E+00  0.1191E+02
     14.788  0.2018E+00  0.1192E+02
     14.851  0.5148E-02  0.1192E+02
     14.914  0.7986E-01  0.1192E+02
     14.976  0.1778E-01  0.1192E+02
     15.039  0.7755E-01  0.1193E+02
     15.102  0.5384E-01  0.1193E+02
     15.164  0.5043E-01  0.1194E+02
     15.227  0.2780E-01  0.1194E+02
     15.290  0.4407E-01  0.1194E+02
     15.352  0.1863E+00  0.1195E+02
     15.415  0.1181E+00  0.1196E+02
     15.478  0.1397E+00  0.1197E+02
     15.540 -0.8519E-02  0.1197E+02
     15.603  0.9823E-02  0.1197E+02
     15.666  0.1058E+00  0.1197E+02
     15.729  0.4440E-01  0.1198E+02
     15.791  0.6608E-01  0.1198E+02
     15.854  0.9974E-02  0.1198E+02
     15.917  0.3185E-01  0.1198E+02
     15.979  0.1042E-01  0.1199E+02
     16.042  0.7265E-01  0.1199E+02
     16.105  0.7666E-01  0.1199E+02
     16.167 -0.3572E-02  0.1199E+02
     16.230 -0.2597E-03  0.1199E+02
     16.293 -0.2993E-06  0.1199E+02
     16.355 -0.3124E-04  0.1199E+02
     16.418 -0.1301E-02  0.1199E+02
     16.481  0.1578E-01  0.1200E+02
     16.543  0.5558E-01  0.1200E+02
     16.606  0.1088E-01  0.1200E+02
     16.669 -0.1134E-02  0.1200E+02
     16.731  0.3082E-02  0.1200E+02
     16.794  0.2231E-02  0.1200E+02
     16.857  0.6574E-02  0.1200E+02
     16.919  0.1374E-03  0.1200E+02
     16.982 -0.5376E-04  0.1200E+02
     17.045 -0.1227E-06  0.1200E+02
     17.107 -0.9275E-11  0.1200E+02
     17.170 -0.2657E-16  0.1200E+02
     17.233  0.0000E+00  0.1200E+02
     17.295  0.0000E+00  0.1200E+02
     17.358  0.0000E+00  0.1200E+02
     17.421  0.0000E+00  0.1200E+02
     17.483  0.0000E+00  0.1200E+02
     17.546  0.0000E+00  0.1200E+02
     17.609  0.0000E+00  0.1200E+02
     17.671  0.0000E+00  0.1200E+02
