   1   1   0   0
  0.1789858E+02  0.2936147E-09  0.2936148E-09  0.2936148E-09  0.5000000E-15
   1.0000000000000000E-004
  CAR 
 Pd FCC EOS static single-point          
     29.35638578     -0.24134486  301      6.84217664      1.00000000
     -0.241  0.0000E+00  0.0000E+00
     -0.143  0.0000E+00  0.0000E+00
     -0.044  0.0000E+00  0.0000E+00
      0.055  0.0000E+00  0.0000E+00
      0.153  0.0000E+00  0.0000E+00
      0.252 -0.7347E-34 -0.7248E-35
      0.351 -0.4952E-27 -0.4886E-28
      0.449 -0.4729E-21 -0.4665E-22
      0.548 -0.6258E-16 -0.6174E-17
      0.647 -0.1222E-11 -0.1206E-12
      0.745 -0.3592E-08 -0.3545E-09
      0.844 -0.1643E-05 -0.1624E-06
      0.943 -0.1112E-03 -0.1113E-04
      1.041 -0.6107E-03 -0.7139E-04
      1.140  0.6107E-02  0.5311E-03
      1.239  0.2668E-01  0.3164E-02
      1.337  0.4001E-01  0.7111E-02
      1.436  0.5612E-01  0.1265E-01
      1.535  0.5578E-01  0.1815E-01
      1.633  0.8027E-01  0.2607E-01
      1.732  0.7185E-01  0.3316E-01
      1.830  0.8986E-01  0.4202E-01
      1.929  0.1086E+00  0.5274E-01
      2.028  0.8888E-01  0.6151E-01
      2.126  0.1253E+00  0.7387E-01
      2.225  0.1420E+00  0.8787E-01
      2.324  0.1101E+00  0.9874E-01
      2.422  0.1637E+00  0.1149E+00
      2.521  0.1917E+00  0.1338E+00
      2.620  0.1478E+00  0.1484E+00
      2.718  0.2170E+00  0.1698E+00
      2.817  0.2666E+00  0.1961E+00
      2.916  0.3627E+00  0.2319E+00
      3.014  0.9588E+00  0.3265E+00
      3.113  0.1311E+01  0.4558E+00
      3.212  0.1650E+01  0.6186E+00
      3.310  0.2182E+01  0.8339E+00
      3.409  0.2703E+01  0.1101E+01
      3.508  0.2996E+01  0.1396E+01
      3.606  0.2743E+01  0.1667E+01
      3.705  0.2509E+01  0.1914E+01
      3.804  0.2364E+01  0.2148E+01
      3.902  0.2136E+01  0.2358E+01
      4.001  0.1783E+01  0.2534E+01
      4.100  0.1862E+01  0.2718E+01
      4.198  0.2045E+01  0.2920E+01
      4.297  0.2218E+01  0.3139E+01
      4.396  0.2260E+01  0.3362E+01
      4.494  0.2287E+01  0.3587E+01
      4.593  0.2300E+01  0.3814E+01
      4.692  0.2468E+01  0.4058E+01
      4.790  0.2496E+01  0.4304E+01
      4.889  0.3031E+01  0.4603E+01
      4.988  0.3823E+01  0.4980E+01
      5.086  0.4415E+01  0.5416E+01
      5.185  0.3140E+01  0.5725E+01
      5.284  0.2307E+01  0.5953E+01
      5.382  0.2288E+01  0.6179E+01
      5.481  0.2154E+01  0.6391E+01
      5.580  0.2102E+01  0.6599E+01
      5.678  0.2359E+01  0.6831E+01
      5.777  0.2655E+01  0.7093E+01
      5.876  0.2829E+01  0.7372E+01
      5.974  0.2790E+01  0.7648E+01
      6.073  0.2630E+01  0.7907E+01
      6.171  0.2298E+01  0.8134E+01
      6.270  0.2296E+01  0.8360E+01
      6.369  0.2202E+01  0.8578E+01
      6.467  0.2259E+01  0.8801E+01
      6.566  0.2313E+01  0.9029E+01
      6.665  0.2903E+01  0.9315E+01
      6.763  0.3906E+01  0.9700E+01
      6.862  0.3668E+01  0.1006E+02
      6.961  0.2260E+01  0.1029E+02
      7.059  0.1397E+01  0.1042E+02
      7.158  0.4552E+00  0.1047E+02
      7.257  0.9307E-01  0.1048E+02
      7.355  0.1695E+00  0.1049E+02
      7.454  0.3250E+00  0.1053E+02
      7.553  0.3886E+00  0.1056E+02
      7.651  0.2201E+00  0.1059E+02
      7.750  0.2067E+00  0.1061E+02
      7.849  0.2093E+00  0.1063E+02
      7.947  0.3266E+00  0.1066E+02
      8.046  0.3717E+00  0.1070E+02
      8.145  0.2302E+00  0.1072E+02
      8.243  0.2092E+00  0.1074E+02
      8.342  0.2316E+00  0.1076E+02
      8.441  0.2575E+00  0.1079E+02
      8.539  0.4275E+00  0.1083E+02
      8.638  0.3209E+00  0.1086E+02
      8.737  0.2649E+00  0.1089E+02
      8.835  0.2096E+00  0.1091E+02
      8.934  0.2379E+00  0.1093E+02
      9.033  0.2317E+00  0.1095E+02
      9.131  0.3751E+00  0.1099E+02
      9.230  0.3863E+00  0.1103E+02
      9.329  0.2724E+00  0.1106E+02
      9.427  0.2964E+00  0.1109E+02
      9.526  0.1881E+00  0.1110E+02
      9.625  0.2170E+00  0.1113E+02
      9.723  0.2396E+00  0.1115E+02
      9.822  0.4024E+00  0.1119E+02
      9.921  0.3714E+00  0.1123E+02
     10.019  0.2772E+00  0.1125E+02
     10.118  0.2507E+00  0.1128E+02
     10.217  0.1838E+00  0.1130E+02
     10.315  0.3084E+00  0.1133E+02
     10.414  0.3226E+00  0.1136E+02
     10.512  0.1946E+00  0.1138E+02
     10.611  0.3346E+00  0.1141E+02
     10.710  0.3343E+00  0.1144E+02
     10.808  0.3056E+00  0.1147E+02
     10.907  0.2372E+00  0.1150E+02
     11.006  0.2653E+00  0.1152E+02
     11.104  0.1992E+00  0.1154E+02
     11.203  0.1396E+00  0.1156E+02
     11.302  0.3007E+00  0.1159E+02
     11.400  0.3642E+00  0.1162E+02
     11.499  0.2107E+00  0.1164E+02
     11.598  0.2320E+00  0.1167E+02
     11.696  0.2723E+00  0.1169E+02
     11.795  0.1815E+00  0.1171E+02
     11.894  0.1626E+00  0.1173E+02
     11.992  0.1438E+00  0.1174E+02
     12.091  0.2054E+00  0.1176E+02
     12.190  0.2460E+00  0.1179E+02
     12.288  0.2324E+00  0.1181E+02
     12.387  0.2300E+00  0.1183E+02
     12.486  0.1314E+00  0.1184E+02
     12.584  0.1602E+00  0.1186E+02
     12.683  0.1181E+00  0.1187E+02
     12.782  0.1471E+00  0.1189E+02
     12.880  0.3037E+00  0.1192E+02
     12.979  0.4166E+00  0.1196E+02
     13.078  0.4292E+00  0.1200E+02
     13.176  0.4298E+00  0.1204E+02
     13.275  0.4465E+00  0.1209E+02
     13.374  0.3390E+00  0.1212E+02
     13.472  0.3529E+00  0.1215E+02
     13.571  0.3009E+00  0.1218E+02
     13.670  0.3551E+00  0.1222E+02
     13.768  0.3550E+00  0.1225E+02
     13.867  0.2774E+00  0.1228E+02
     13.966  0.3791E+00  0.1232E+02
     14.064  0.3955E+00  0.1236E+02
     14.163  0.2966E+00  0.1239E+02
     14.262  0.2918E+00  0.1242E+02
     14.360  0.3595E+00  0.1245E+02
     14.459  0.2377E+00  0.1247E+02
     14.558  0.2022E+00  0.1249E+02
     14.656  0.3058E+00  0.1252E+02
     14.755  0.3805E+00  0.1256E+02
     14.853  0.4004E+00  0.1260E+02
     14.952  0.2034E+00  0.1262E+02
     15.051  0.2968E+00  0.1265E+02
     15.149  0.2849E+00  0.1268E+02
     15.248  0.2175E+00  0.1270E+02
     15.347  0.2774E+00  0.1273E+02
     15.445  0.3725E+00  0.1276E+02
     15.544  0.3113E+00  0.1280E+02
     15.643  0.2331E+00  0.1282E+02
     15.741  0.3533E+00  0.1285E+02
     15.840  0.4317E+00  0.1290E+02
     15.939  0.4163E+00  0.1294E+02
     16.037  0.3719E+00  0.1297E+02
     16.136  0.3886E+00  0.1301E+02
     16.235  0.5252E+00  0.1306E+02
     16.333  0.4819E+00  0.1311E+02
     16.432  0.4449E+00  0.1316E+02
     16.531  0.4777E+00  0.1320E+02
     16.629  0.4540E+00  0.1325E+02
     16.728  0.5957E+00  0.1331E+02
     16.827  0.3429E+00  0.1334E+02
     16.925  0.3782E+00  0.1338E+02
     17.024  0.4607E+00  0.1342E+02
     17.123  0.3970E+00  0.1346E+02
     17.221  0.5729E+00  0.1352E+02
     17.320  0.5806E+00  0.1358E+02
     17.419  0.4127E+00  0.1362E+02
     17.517  0.3038E+00  0.1365E+02
     17.616  0.4073E+00  0.1369E+02
     17.715  0.4839E+00  0.1373E+02
     17.813  0.5394E+00  0.1379E+02
     17.912  0.6714E+00  0.1385E+02
     18.011  0.4633E+00  0.1390E+02
     18.109  0.3257E+00  0.1393E+02
     18.208  0.4819E+00  0.1398E+02
     18.307  0.5109E+00  0.1403E+02
     18.405  0.5306E+00  0.1408E+02
     18.504  0.4599E+00  0.1413E+02
     18.603  0.5512E+00  0.1418E+02
     18.701  0.6321E+00  0.1424E+02
     18.800  0.4468E+00  0.1429E+02
     18.899  0.4632E+00  0.1433E+02
     18.997  0.5533E+00  0.1439E+02
     19.096  0.5923E+00  0.1445E+02
     19.194  0.6873E+00  0.1451E+02
     19.293  0.6342E+00  0.1458E+02
     19.392  0.4211E+00  0.1462E+02
     19.490  0.4809E+00  0.1467E+02
     19.589  0.6047E+00  0.1473E+02
     19.688  0.6486E+00  0.1479E+02
     19.786  0.5818E+00  0.1485E+02
     19.885  0.5098E+00  0.1490E+02
     19.984  0.6945E+00  0.1497E+02
     20.082  0.5816E+00  0.1502E+02
     20.181  0.3435E+00  0.1506E+02
     20.280  0.4044E+00  0.1510E+02
     20.378  0.6814E+00  0.1516E+02
     20.477  0.7126E+00  0.1523E+02
     20.576  0.6152E+00  0.1530E+02
     20.674  0.5348E+00  0.1535E+02
     20.773  0.4294E+00  0.1539E+02
     20.872  0.3263E+00  0.1542E+02
     20.970  0.5223E+00  0.1547E+02
     21.069  0.7505E+00  0.1555E+02
     21.168  0.6765E+00  0.1561E+02
     21.266  0.5472E+00  0.1567E+02
     21.365  0.3917E+00  0.1571E+02
     21.464  0.4067E+00  0.1575E+02
     21.562  0.4333E+00  0.1579E+02
     21.661  0.6263E+00  0.1585E+02
     21.760  0.6762E+00  0.1592E+02
     21.858  0.5362E+00  0.1597E+02
     21.957  0.4380E+00  0.1602E+02
     22.056  0.5069E+00  0.1607E+02
     22.154  0.4808E+00  0.1611E+02
     22.253  0.5098E+00  0.1616E+02
     22.352  0.6202E+00  0.1622E+02
     22.450  0.4419E+00  0.1627E+02
     22.549  0.4511E+00  0.1631E+02
     22.648  0.6194E+00  0.1637E+02
     22.746  0.6275E+00  0.1644E+02
     22.845  0.4059E+00  0.1648E+02
     22.944  0.5856E+00  0.1653E+02
     23.042  0.5501E+00  0.1659E+02
     23.141  0.7468E+00  0.1666E+02
     23.240  0.6734E+00  0.1673E+02
     23.338  0.4910E+00  0.1678E+02
     23.437  0.4493E+00  0.1682E+02
     23.535  0.6255E+00  0.1688E+02
     23.634  0.4449E+00  0.1693E+02
     23.733  0.4736E+00  0.1697E+02
     23.831  0.4392E+00  0.1702E+02
     23.930  0.6571E+00  0.1708E+02
     24.029  0.7056E+00  0.1715E+02
     24.127  0.3550E+00  0.1719E+02
     24.226  0.3806E+00  0.1722E+02
     24.325  0.3954E+00  0.1726E+02
     24.423  0.3819E+00  0.1730E+02
     24.522  0.4961E+00  0.1735E+02
     24.621  0.5705E+00  0.1740E+02
     24.719  0.4470E+00  0.1745E+02
     24.818  0.3628E+00  0.1748E+02
     24.917  0.2903E+00  0.1751E+02
     25.015  0.2911E+00  0.1754E+02
     25.114  0.2322E+00  0.1756E+02
     25.213  0.2520E+00  0.1759E+02
     25.311  0.3494E+00  0.1762E+02
     25.410  0.3042E+00  0.1765E+02
     25.509  0.1951E+00  0.1767E+02
     25.607  0.2319E+00  0.1770E+02
     25.706  0.1658E+00  0.1771E+02
     25.805  0.2298E+00  0.1774E+02
     25.903  0.2735E+00  0.1776E+02
     26.002  0.1745E+00  0.1778E+02
     26.101  0.1438E+00  0.1779E+02
     26.199  0.2195E+00  0.1782E+02
     26.298  0.1789E+00  0.1783E+02
     26.397  0.1366E+00  0.1785E+02
     26.495  0.2071E+00  0.1787E+02
     26.594  0.1596E+00  0.1788E+02
     26.693  0.1445E+00  0.1790E+02
     26.791  0.1864E+00  0.1792E+02
     26.890  0.2729E+00  0.1794E+02
     26.989  0.1603E+00  0.1796E+02
     27.087  0.5836E-01  0.1796E+02
     27.186  0.7475E-01  0.1797E+02
     27.285  0.1564E+00  0.1799E+02
     27.383  0.6933E-01  0.1799E+02
     27.482  0.3324E-02  0.1799E+02
     27.581  0.1225E-01  0.1799E+02
     27.679  0.1159E-01  0.1800E+02
     27.778  0.5644E-02  0.1800E+02
     27.876  0.9036E-02  0.1800E+02
     27.975  0.1411E-01  0.1800E+02
     28.074  0.1035E-01  0.1800E+02
     28.172  0.5661E-03  0.1800E+02
     28.271 -0.2663E-03  0.1800E+02
     28.370 -0.7339E-05  0.1800E+02
     28.468 -0.2221E-07  0.1800E+02
     28.567 -0.8840E-11  0.1800E+02
     28.666 -0.4830E-15  0.1800E+02
     28.764  0.0000E+00  0.1800E+02
     28.863  0.0000E+00  0.1800E+02
     28.962  0.0000E+00  0.1800E+02
     29.060  0.0000E+00  0.1800E+02
     29.159  0.0000E+00  0.1800E+02
     29.258  0.0000E+00  0.1800E+02
     29.356  0.0000E+00  0.1800E+02
