   1   1   0   0
  0.1689540E+02  0.2799820E-09  0.2799820E-09  0.2799820E-09  0.5000000E-15
   1.0000000000000000E-004
  CAR 
 unknown system                          
     18.70286216     -3.92269181  301      0.97070181      1.00000000
     -3.923  0.0000E+00  0.0000E+00
     -3.847  0.0000E+00  0.0000E+00
     -3.772  0.0000E+00  0.0000E+00
     -3.696  0.0000E+00  0.0000E+00
     -3.621  0.0000E+00  0.0000E+00
     -3.546  0.0000E+00  0.0000E+00
     -3.470  0.0000E+00  0.0000E+00
     -3.395  0.0000E+00  0.0000E+00
     -3.319  0.0000E+00  0.0000E+00
     -3.244  0.0000E+00  0.0000E+00
     -3.169  0.3402E-16  0.2566E-17
     -3.093  0.7340E-10  0.5536E-11
     -3.018  0.1893E-05  0.1428E-06
     -2.942  0.6888E-03  0.5209E-04
     -2.867  0.9127E-02  0.7404E-03
     -2.791  0.5951E-01  0.5229E-02
     -2.716  0.5593E-01  0.9447E-02
     -2.641  0.8517E-01  0.1587E-01
     -2.565  0.1374E+00  0.2623E-01
     -2.490  0.9317E-01  0.3326E-01
     -2.414  0.1447E+00  0.4417E-01
     -2.339  0.8428E-01  0.5053E-01
     -2.263  0.2075E+00  0.6618E-01
     -2.188  0.1925E+00  0.8069E-01
     -2.113  0.9137E-01  0.8758E-01
     -2.037  0.2203E+00  0.1042E+00
     -1.962  0.1713E+00  0.1171E+00
     -1.886  0.1622E+00  0.1293E+00
     -1.811  0.1544E+00  0.1410E+00
     -1.736  0.2770E+00  0.1619E+00
     -1.660  0.3505E+00  0.1883E+00
     -1.585  0.5843E-01  0.1927E+00
     -1.509  0.2688E+00  0.2130E+00
     -1.434  0.1541E+00  0.2246E+00
     -1.358  0.2248E+00  0.2416E+00
     -1.283  0.2501E+00  0.2604E+00
     -1.208  0.2462E+00  0.2790E+00
     -1.132  0.4125E+00  0.3101E+00
     -1.057  0.2284E+00  0.3273E+00
     -0.981  0.3233E+00  0.3517E+00
     -0.906  0.1557E+00  0.3635E+00
     -0.831  0.2333E+00  0.3810E+00
     -0.755  0.2519E+00  0.4000E+00
     -0.680  0.1512E+00  0.4115E+00
     -0.604  0.4329E+00  0.4441E+00
     -0.529  0.3161E+00  0.4679E+00
     -0.453  0.3540E+00  0.4946E+00
     -0.378  0.5804E+00  0.5384E+00
     -0.303  0.2334E+00  0.5560E+00
     -0.227  0.1459E+00  0.5670E+00
     -0.152  0.2230E+00  0.5838E+00
     -0.076  0.4030E+00  0.6142E+00
     -0.001  0.1688E+00  0.6270E+00
      0.074  0.3551E+00  0.6537E+00
      0.150  0.3716E+00  0.6818E+00
      0.225  0.4971E+00  0.7193E+00
      0.301  0.4197E+00  0.7509E+00
      0.376  0.2401E+00  0.7690E+00
      0.452  0.6616E+00  0.8189E+00
      0.527  0.5334E+00  0.8592E+00
      0.602  0.2453E+00  0.8777E+00
      0.678  0.1579E+00  0.8896E+00
      0.753  0.3045E+00  0.9125E+00
      0.829  0.3294E+00  0.9374E+00
      0.904  0.3798E+00  0.9660E+00
      0.980  0.5250E+00  0.1006E+01
      1.055  0.5315E+00  0.1046E+01
      1.130  0.6736E+00  0.1096E+01
      1.206  0.7718E+00  0.1155E+01
      1.281  0.3813E+00  0.1183E+01
      1.357  0.4684E+00  0.1219E+01
      1.432  0.1082E+01  0.1300E+01
      1.507  0.4818E+00  0.1337E+01
      1.583  0.4177E-01  0.1340E+01
      1.658  0.4682E-01  0.1343E+01
      1.734  0.3931E+00  0.1373E+01
      1.809  0.3157E+00  0.1397E+01
      1.885  0.3571E+00  0.1424E+01
      1.960  0.5587E+00  0.1466E+01
      2.035  0.7495E+00  0.1522E+01
      2.111  0.9210E+00  0.1592E+01
      2.186  0.2870E+00  0.1614E+01
      2.262  0.1178E+00  0.1622E+01
      2.337  0.2984E+00  0.1645E+01
      2.412  0.4104E+00  0.1676E+01
      2.488  0.3210E+00  0.1700E+01
      2.563  0.4735E-01  0.1704E+01
      2.639  0.8298E-02  0.1704E+01
      2.714  0.1872E+00  0.1718E+01
      2.790  0.1788E+00  0.1732E+01
      2.865  0.1741E+00  0.1745E+01
      2.940  0.5120E+00  0.1784E+01
      3.016  0.4190E+00  0.1815E+01
      3.091  0.2873E+00  0.1837E+01
      3.167  0.4752E+00  0.1873E+01
      3.242  0.1785E+00  0.1886E+01
      3.317  0.3133E-01  0.1889E+01
      3.393  0.2119E-02  0.1889E+01
      3.468  0.5962E-01  0.1893E+01
      3.544  0.6196E-01  0.1898E+01
      3.619  0.5878E-02  0.1898E+01
      3.695  0.9579E-01  0.1906E+01
      3.770  0.8651E-01  0.1912E+01
      3.845  0.2888E-02  0.1912E+01
      3.921  0.4170E-01  0.1915E+01
      3.996  0.2412E+00  0.1934E+01
      4.072  0.2403E+00  0.1952E+01
      4.147  0.2610E+00  0.1971E+01
      4.223  0.2769E+00  0.1992E+01
      4.298  0.1924E+00  0.2007E+01
      4.373  0.1381E+00  0.2017E+01
      4.449  0.9068E-01  0.2024E+01
      4.524  0.4617E+00  0.2059E+01
      4.600  0.3052E+00  0.2082E+01
      4.675  0.2490E+00  0.2101E+01
      4.750  0.1768E+00  0.2114E+01
      4.826  0.4046E+00  0.2145E+01
      4.901  0.5029E+00  0.2183E+01
      4.977  0.7652E+00  0.2240E+01
      5.052  0.1275E+01  0.2336E+01
      5.128  0.5315E+00  0.2376E+01
      5.203  0.7045E+00  0.2430E+01
      5.278  0.3948E+00  0.2459E+01
      5.354  0.3888E+00  0.2489E+01
      5.429  0.4412E+00  0.2522E+01
      5.505  0.8488E+00  0.2586E+01
      5.580  0.8733E+00  0.2652E+01
      5.655  0.2926E+00  0.2674E+01
      5.731  0.4318E+00  0.2706E+01
      5.806  0.2899E+00  0.2728E+01
      5.882  0.7832E-01  0.2734E+01
      5.957  0.1674E+00  0.2747E+01
      6.033  0.2765E+00  0.2768E+01
      6.108  0.1407E+00  0.2778E+01
      6.183  0.3583E+00  0.2805E+01
      6.259  0.8543E+00  0.2870E+01
      6.334  0.1071E+01  0.2951E+01
      6.410  0.8312E+00  0.3013E+01
      6.485  0.3181E+00  0.3037E+01
      6.560  0.7278E-01  0.3043E+01
      6.636  0.4945E-01  0.3047E+01
      6.711  0.2502E+00  0.3065E+01
      6.787  0.2415E+00  0.3084E+01
      6.862  0.2222E+00  0.3100E+01
      6.938  0.2212E+00  0.3117E+01
      7.013  0.4442E+00  0.3151E+01
      7.088  0.4145E+00  0.3182E+01
      7.164  0.6903E+00  0.3234E+01
      7.239  0.4052E+00  0.3264E+01
      7.315  0.1623E+00  0.3277E+01
      7.390  0.2637E+00  0.3297E+01
      7.466  0.2664E+00  0.3317E+01
      7.541  0.4465E+00  0.3350E+01
      7.616  0.5871E+00  0.3395E+01
      7.692  0.4477E+00  0.3428E+01
      7.767  0.5177E+00  0.3467E+01
      7.843  0.2709E+00  0.3488E+01
      7.918  0.2575E+00  0.3507E+01
      7.993  0.2419E+00  0.3525E+01
      8.069  0.7832E+00  0.3585E+01
      8.144  0.1026E+01  0.3662E+01
      8.220  0.1093E+01  0.3744E+01
      8.295  0.4625E+00  0.3779E+01
      8.371  0.1352E+00  0.3789E+01
      8.446  0.2552E+00  0.3809E+01
      8.521  0.5042E+00  0.3847E+01
      8.597  0.2351E+00  0.3864E+01
      8.672  0.6362E+00  0.3912E+01
      8.748  0.6808E+00  0.3964E+01
      8.823  0.2774E+00  0.3985E+01
      8.898  0.7289E+00  0.4040E+01
      8.974  0.9632E+00  0.4112E+01
      9.049  0.5438E+00  0.4153E+01
      9.125  0.6034E+00  0.4199E+01
      9.200  0.8076E+00  0.4260E+01
      9.276  0.5151E+00  0.4299E+01
      9.351  0.3545E+00  0.4325E+01
      9.426  0.5519E+00  0.4367E+01
      9.502  0.5020E+00  0.4405E+01
      9.577  0.2603E+00  0.4424E+01
      9.653  0.1929E+00  0.4439E+01
      9.728  0.1957E+00  0.4454E+01
      9.803  0.3749E+00  0.4482E+01
      9.879  0.5496E+00  0.4523E+01
      9.954  0.5947E+00  0.4568E+01
     10.030  0.7322E+00  0.4624E+01
     10.105  0.5438E+00  0.4665E+01
     10.181  0.6263E+00  0.4712E+01
     10.256  0.5803E+00  0.4756E+01
     10.331  0.3913E+00  0.4785E+01
     10.407  0.6084E+00  0.4831E+01
     10.482  0.4204E+00  0.4863E+01
     10.558  0.4953E+00  0.4900E+01
     10.633  0.1113E+00  0.4908E+01
     10.708  0.3466E-01  0.4911E+01
     10.784  0.3181E+00  0.4935E+01
     10.859  0.4080E+00  0.4966E+01
     10.935  0.1912E+00  0.4980E+01
     11.010  0.3819E+00  0.5009E+01
     11.086  0.7305E+00  0.5064E+01
     11.161  0.9302E+00  0.5134E+01
     11.236  0.7170E+00  0.5188E+01
     11.312  0.2346E+00  0.5206E+01
     11.387  0.6662E+00  0.5256E+01
     11.463  0.7995E+00  0.5317E+01
     11.538  0.9900E+00  0.5391E+01
     11.614  0.2629E+00  0.5411E+01
     11.689  0.2695E+00  0.5431E+01
     11.764  0.3725E+00  0.5459E+01
     11.840  0.4539E+00  0.5494E+01
     11.915  0.2705E+00  0.5514E+01
     11.991  0.3341E+00  0.5539E+01
     12.066  0.7359E+00  0.5595E+01
     12.141  0.8196E+00  0.5657E+01
     12.217  0.9103E+00  0.5725E+01
     12.292  0.1103E+01  0.5808E+01
     12.368  0.6819E+00  0.5860E+01
     12.443  0.4357E+00  0.5893E+01
     12.519  0.6009E+00  0.5938E+01
     12.594  0.6331E+00  0.5986E+01
     12.669  0.4465E+00  0.6019E+01
     12.745  0.6003E+00  0.6065E+01
     12.820  0.4471E+00  0.6098E+01
     12.896  0.4378E+00  0.6131E+01
     12.971  0.6057E+00  0.6177E+01
     13.046  0.3219E+00  0.6201E+01
     13.122  0.6834E+00  0.6253E+01
     13.197  0.7362E+00  0.6309E+01
     13.273  0.1000E+01  0.6384E+01
     13.348  0.2784E+00  0.6405E+01
     13.424  0.3327E+00  0.6430E+01
     13.499  0.9462E+00  0.6501E+01
     13.574  0.6110E+00  0.6547E+01
     13.650  0.2936E+00  0.6570E+01
     13.725  0.1645E+00  0.6582E+01
     13.801  0.2383E+00  0.6600E+01
     13.876  0.6277E+00  0.6647E+01
     13.951  0.5202E+00  0.6687E+01
     14.027  0.9371E+00  0.6757E+01
     14.102  0.6199E+00  0.6804E+01
     14.178  0.7886E+00  0.6863E+01
     14.253  0.5867E+00  0.6908E+01
     14.329  0.8077E+00  0.6969E+01
     14.404  0.1270E+01  0.7064E+01
     14.479  0.9286E+00  0.7134E+01
     14.555  0.9335E+00  0.7205E+01
     14.630  0.8936E+00  0.7272E+01
     14.706  0.4579E+00  0.7307E+01
     14.781  0.1983E+00  0.7322E+01
     14.857  0.4790E+00  0.7358E+01
     14.932  0.7570E+00  0.7415E+01
     15.007  0.7224E+00  0.7469E+01
     15.083  0.6351E+00  0.7517E+01
     15.158  0.3879E+00  0.7547E+01
     15.234  0.5560E+00  0.7589E+01
     15.309  0.7961E+00  0.7649E+01
     15.384  0.3300E+00  0.7673E+01
     15.460  0.2464E+00  0.7692E+01
     15.535  0.5169E+00  0.7731E+01
     15.611  0.4354E+00  0.7764E+01
     15.686  0.2919E-01  0.7766E+01
     15.762  0.1447E+00  0.7777E+01
     15.837  0.3893E+00  0.7806E+01
     15.912  0.8464E-01  0.7813E+01
     15.988  0.7200E-01  0.7818E+01
     16.063  0.4136E+00  0.7849E+01
     16.139  0.4979E+00  0.7887E+01
     16.214  0.1644E+00  0.7899E+01
     16.289  0.1575E+00  0.7911E+01
     16.365  0.1035E+00  0.7919E+01
     16.440  0.1142E+00  0.7928E+01
     16.516  0.4115E-01  0.7931E+01
     16.591  0.6170E-01  0.7935E+01
     16.667  0.3195E-01  0.7938E+01
     16.742  0.3714E-02  0.7938E+01
     16.817  0.9277E-01  0.7945E+01
     16.893  0.1530E+00  0.7957E+01
     16.968  0.2087E+00  0.7972E+01
     17.044  0.1044E+00  0.7980E+01
     17.119  0.1875E-01  0.7982E+01
     17.194  0.7390E-01  0.7987E+01
     17.270  0.4572E-01  0.7991E+01
     17.345  0.6786E-02  0.7991E+01
     17.421  0.2976E-02  0.7991E+01
     17.496  0.5425E-01  0.7995E+01
     17.572  0.3637E-01  0.7998E+01
     17.647  0.5884E-02  0.7999E+01
     17.722  0.1635E-01  0.8000E+01
     17.798  0.2052E-02  0.8000E+01
     17.873  0.5678E-05  0.8000E+01
     17.949  0.2201E-09  0.8000E+01
     18.024  0.1021E-15  0.8000E+01
     18.100  0.0000E+00  0.8000E+01
     18.175  0.0000E+00  0.8000E+01
     18.250  0.0000E+00  0.8000E+01
     18.326  0.0000E+00  0.8000E+01
     18.401  0.0000E+00  0.8000E+01
     18.477  0.0000E+00  0.8000E+01
     18.552  0.0000E+00  0.8000E+01
     18.627  0.0000E+00  0.8000E+01
     18.703  0.0000E+00  0.8000E+01
