   1   1   0   0
  0.3836301E+02  0.3785668E-09  0.3785667E-09  0.3785669E-09  0.5000000E-15
   1.0000000000000000E-004
  CAR 
 FCC Ca EOS                              
      9.25767219    -22.24989918  301      2.62475697      1.00000000
    -22.250  0.0000E+00  0.0000E+00
    -22.145  0.0000E+00  0.0000E+00
    -22.040  0.0000E+00  0.0000E+00
    -21.935 -0.2689E-30 -0.2824E-31
    -21.830 -0.2639E-26 -0.2772E-27
    -21.725 -0.8419E-23 -0.8845E-24
    -21.620 -0.1549E-19 -0.1628E-20
    -21.515 -0.1644E-16 -0.1728E-17
    -21.410 -0.9886E-14 -0.1040E-14
    -21.305 -0.3426E-11 -0.3608E-12
    -21.200 -0.6901E-09 -0.7284E-10
    -21.095 -0.7976E-07 -0.8450E-08
    -20.990 -0.5275E-05 -0.5624E-06
    -20.885 -0.1987E-03 -0.2143E-04
    -20.780 -0.4227E-02 -0.4653E-03
    -20.675 -0.4983E-01 -0.5698E-02
    -20.569 -0.3097E+00 -0.3822E-01
    -20.464 -0.8408E+00 -0.1265E+00
    -20.359  0.3309E+00 -0.9177E-01
    -20.254  0.7715E+01  0.7185E+00
    -20.149  0.1903E+02  0.2717E+01
    -20.044  0.2098E+02  0.4921E+01
    -19.939  0.1055E+02  0.6029E+01
    -19.834  0.1200E+01  0.6155E+01
    -19.729 -0.9712E+00  0.6053E+01
    -19.624 -0.4230E+00  0.6008E+01
    -19.519 -0.7199E-01  0.6001E+01
    -19.414 -0.6229E-02  0.6000E+01
    -19.309 -0.2932E-03  0.6000E+01
    -19.204 -0.7715E-05  0.6000E+01
    -19.099 -0.1149E-06  0.6000E+01
    -18.994 -0.9766E-09  0.6000E+01
    -18.889 -0.4752E-11  0.6000E+01
    -18.784 -0.1312E-13  0.6000E+01
    -18.679  0.0000E+00  0.6000E+01
    -18.574  0.0000E+00  0.6000E+01
    -18.469  0.0000E+00  0.6000E+01
    -18.364  0.0000E+00  0.6000E+01
    -18.259  0.0000E+00  0.6000E+01
    -18.154  0.0000E+00  0.6000E+01
    -18.049  0.0000E+00  0.6000E+01
    -17.944  0.0000E+00  0.6000E+01
    -17.839  0.0000E+00  0.6000E+01
    -17.734  0.0000E+00  0.6000E+01
    -17.629  0.0000E+00  0.6000E+01
    -17.524  0.0000E+00  0.6000E+01
    -17.419  0.0000E+00  0.6000E+01
    -17.314  0.0000E+00  0.6000E+01
    -17.209  0.0000E+00  0.6000E+01
    -17.104  0.0000E+00  0.6000E+01
    -16.999  0.0000E+00  0.6000E+01
    -16.894  0.0000E+00  0.6000E+01
    -16.789  0.0000E+00  0.6000E+01
    -16.684  0.0000E+00  0.6000E+01
    -16.579  0.0000E+00  0.6000E+01
    -16.474  0.0000E+00  0.6000E+01
    -16.368  0.0000E+00  0.6000E+01
    -16.263  0.0000E+00  0.6000E+01
    -16.158  0.0000E+00  0.6000E+01
    -16.053  0.0000E+00  0.6000E+01
    -15.948  0.0000E+00  0.6000E+01
    -15.843  0.0000E+00  0.6000E+01
    -15.738  0.0000E+00  0.6000E+01
    -15.633  0.0000E+00  0.6000E+01
    -15.528  0.0000E+00  0.6000E+01
    -15.423  0.0000E+00  0.6000E+01
    -15.318  0.0000E+00  0.6000E+01
    -15.213  0.0000E+00  0.6000E+01
    -15.108  0.0000E+00  0.6000E+01
    -15.003  0.0000E+00  0.6000E+01
    -14.898  0.0000E+00  0.6000E+01
    -14.793  0.0000E+00  0.6000E+01
    -14.688  0.0000E+00  0.6000E+01
    -14.583  0.0000E+00  0.6000E+01
    -14.478  0.0000E+00  0.6000E+01
    -14.373  0.0000E+00  0.6000E+01
    -14.268  0.0000E+00  0.6000E+01
    -14.163  0.0000E+00  0.6000E+01
    -14.058  0.0000E+00  0.6000E+01
    -13.953  0.0000E+00  0.6000E+01
    -13.848  0.0000E+00  0.6000E+01
    -13.743  0.0000E+00  0.6000E+01
    -13.638  0.0000E+00  0.6000E+01
    -13.533  0.0000E+00  0.6000E+01
    -13.428  0.0000E+00  0.6000E+01
    -13.323  0.0000E+00  0.6000E+01
    -13.218  0.0000E+00  0.6000E+01
    -13.113  0.0000E+00  0.6000E+01
    -13.008  0.0000E+00  0.6000E+01
    -12.903  0.0000E+00  0.6000E+01
    -12.798  0.0000E+00  0.6000E+01
    -12.693  0.0000E+00  0.6000E+01
    -12.588  0.0000E+00  0.6000E+01
    -12.483  0.0000E+00  0.6000E+01
    -12.378  0.0000E+00  0.6000E+01
    -12.273  0.0000E+00  0.6000E+01
    -12.167  0.0000E+00  0.6000E+01
    -12.062  0.0000E+00  0.6000E+01
    -11.957  0.0000E+00  0.6000E+01
    -11.852  0.0000E+00  0.6000E+01
    -11.747  0.0000E+00  0.6000E+01
    -11.642  0.0000E+00  0.6000E+01
    -11.537  0.0000E+00  0.6000E+01
    -11.432  0.0000E+00  0.6000E+01
    -11.327  0.0000E+00  0.6000E+01
    -11.222  0.0000E+00  0.6000E+01
    -11.117  0.0000E+00  0.6000E+01
    -11.012  0.0000E+00  0.6000E+01
    -10.907  0.0000E+00  0.6000E+01
    -10.802  0.0000E+00  0.6000E+01
    -10.697  0.0000E+00  0.6000E+01
    -10.592  0.0000E+00  0.6000E+01
    -10.487  0.0000E+00  0.6000E+01
    -10.382  0.0000E+00  0.6000E+01
    -10.277  0.0000E+00  0.6000E+01
    -10.172  0.0000E+00  0.6000E+01
    -10.067  0.0000E+00  0.6000E+01
     -9.962  0.0000E+00  0.6000E+01
     -9.857  0.0000E+00  0.6000E+01
     -9.752  0.0000E+00  0.6000E+01
     -9.647  0.0000E+00  0.6000E+01
     -9.542  0.0000E+00  0.6000E+01
     -9.437  0.0000E+00  0.6000E+01
     -9.332  0.0000E+00  0.6000E+01
     -9.227  0.0000E+00  0.6000E+01
     -9.122  0.0000E+00  0.6000E+01
     -9.017  0.0000E+00  0.6000E+01
     -8.912  0.0000E+00  0.6000E+01
     -8.807  0.0000E+00  0.6000E+01
     -8.702  0.0000E+00  0.6000E+01
     -8.597  0.0000E+00  0.6000E+01
     -8.492  0.0000E+00  0.6000E+01
     -8.387  0.0000E+00  0.6000E+01
     -8.282  0.0000E+00  0.6000E+01
     -8.177  0.0000E+00  0.6000E+01
     -8.071  0.0000E+00  0.6000E+01
     -7.966  0.0000E+00  0.6000E+01
     -7.861  0.0000E+00  0.6000E+01
     -7.756  0.0000E+00  0.6000E+01
     -7.651  0.0000E+00  0.6000E+01
     -7.546  0.0000E+00  0.6000E+01
     -7.441  0.0000E+00  0.6000E+01
     -7.336  0.0000E+00  0.6000E+01
     -7.231  0.0000E+00  0.6000E+01
     -7.126  0.0000E+00  0.6000E+01
     -7.021  0.0000E+00  0.6000E+01
     -6.916  0.0000E+00  0.6000E+01
     -6.811  0.0000E+00  0.6000E+01
     -6.706  0.0000E+00  0.6000E+01
     -6.601  0.0000E+00  0.6000E+01
     -6.496  0.0000E+00  0.6000E+01
     -6.391  0.0000E+00  0.6000E+01
     -6.286  0.0000E+00  0.6000E+01
     -6.181  0.0000E+00  0.6000E+01
     -6.076  0.0000E+00  0.6000E+01
     -5.971  0.0000E+00  0.6000E+01
     -5.866  0.0000E+00  0.6000E+01
     -5.761  0.0000E+00  0.6000E+01
     -5.656  0.0000E+00  0.6000E+01
     -5.551  0.0000E+00  0.6000E+01
     -5.446  0.0000E+00  0.6000E+01
     -5.341  0.0000E+00  0.6000E+01
     -5.236  0.0000E+00  0.6000E+01
     -5.131  0.0000E+00  0.6000E+01
     -5.026  0.0000E+00  0.6000E+01
     -4.921  0.0000E+00  0.6000E+01
     -4.816  0.0000E+00  0.6000E+01
     -4.711  0.0000E+00  0.6000E+01
     -4.606  0.0000E+00  0.6000E+01
     -4.501  0.0000E+00  0.6000E+01
     -4.396  0.0000E+00  0.6000E+01
     -4.291  0.0000E+00  0.6000E+01
     -4.186  0.0000E+00  0.6000E+01
     -4.081  0.0000E+00  0.6000E+01
     -3.976  0.0000E+00  0.6000E+01
     -3.870  0.0000E+00  0.6000E+01
     -3.765  0.0000E+00  0.6000E+01
     -3.660  0.0000E+00  0.6000E+01
     -3.555  0.0000E+00  0.6000E+01
     -3.450  0.0000E+00  0.6000E+01
     -3.345  0.0000E+00  0.6000E+01
     -3.240 -0.5231E-32  0.6000E+01
     -3.135 -0.2514E-28  0.6000E+01
     -3.030 -0.6708E-25  0.6000E+01
     -2.925 -0.1035E-21  0.6000E+01
     -2.820 -0.9252E-19  0.6000E+01
     -2.715 -0.4699E-16  0.6000E+01
     -2.610 -0.1404E-13  0.6000E+01
     -2.505 -0.2467E-11  0.6000E+01
     -2.400 -0.2534E-09  0.6000E+01
     -2.295 -0.1521E-07  0.6000E+01
     -2.190 -0.5315E-06  0.6000E+01
     -2.085 -0.1069E-04  0.6000E+01
     -1.980 -0.1214E-03  0.6000E+01
     -1.875 -0.7434E-03  0.6000E+01
     -1.770 -0.2147E-02  0.6000E+01
     -1.665 -0.6784E-03  0.6000E+01
     -1.560  0.1367E-01  0.6001E+01
     -1.455  0.4522E-01  0.6006E+01
     -1.350  0.8062E-01  0.6014E+01
     -1.245  0.1087E+00  0.6026E+01
     -1.140  0.1340E+00  0.6040E+01
     -1.035  0.1489E+00  0.6055E+01
     -0.930  0.1621E+00  0.6072E+01
     -0.825  0.1932E+00  0.6093E+01
     -0.720  0.2056E+00  0.6114E+01
     -0.615  0.1992E+00  0.6135E+01
     -0.510  0.2325E+00  0.6160E+01
     -0.405  0.2736E+00  0.6188E+01
     -0.300  0.2601E+00  0.6216E+01
     -0.195  0.2497E+00  0.6242E+01
     -0.090  0.2939E+00  0.6273E+01
      0.015  0.3458E+00  0.6309E+01
      0.120  0.3447E+00  0.6345E+01
      0.226  0.3034E+00  0.6377E+01
      0.331  0.3291E+00  0.6412E+01
      0.436  0.4168E+00  0.6456E+01
      0.541  0.4447E+00  0.6502E+01
      0.646  0.4067E+00  0.6545E+01
      0.751  0.3809E+00  0.6585E+01
      0.856  0.4385E+00  0.6631E+01
      0.961  0.5373E+00  0.6687E+01
      1.066  0.5577E+00  0.6746E+01
      1.171  0.5179E+00  0.6800E+01
      1.276  0.4981E+00  0.6853E+01
      1.381  0.5731E+00  0.6913E+01
      1.486  0.7160E+00  0.6988E+01
      1.591  0.7761E+00  0.7070E+01
      1.696  0.7245E+00  0.7146E+01
      1.801  0.6928E+00  0.7218E+01
      1.906  0.7978E+00  0.7302E+01
      2.011  0.9226E+00  0.7399E+01
      2.116  0.8865E+00  0.7492E+01
      2.221  0.7949E+00  0.7576E+01
      2.326  0.8086E+00  0.7661E+01
      2.431  0.9292E+00  0.7758E+01
      2.536  0.1162E+01  0.7880E+01
      2.641  0.1351E+01  0.8022E+01
      2.746  0.1226E+01  0.8151E+01
      2.851  0.9795E+00  0.8254E+01
      2.956  0.9899E+00  0.8358E+01
      3.061  0.1374E+01  0.8502E+01
      3.166  0.1980E+01  0.8710E+01
      3.271  0.2293E+01  0.8951E+01
      3.376  0.2130E+01  0.9174E+01
      3.481  0.1985E+01  0.9383E+01
      3.586  0.2141E+01  0.9608E+01
      3.691  0.2313E+01  0.9851E+01
      3.796  0.2234E+01  0.1009E+02
      3.901  0.1999E+01  0.1030E+02
      4.006  0.1767E+01  0.1048E+02
      4.111  0.1559E+01  0.1064E+02
      4.216  0.1453E+01  0.1080E+02
      4.321  0.1386E+01  0.1094E+02
      4.427  0.1277E+01  0.1108E+02
      4.532  0.1220E+01  0.1120E+02
      4.637  0.1174E+01  0.1133E+02
      4.742  0.1101E+01  0.1144E+02
      4.847  0.1053E+01  0.1155E+02
      4.952  0.1076E+01  0.1167E+02
      5.057  0.1323E+01  0.1181E+02
      5.162  0.1846E+01  0.1200E+02
      5.267  0.2293E+01  0.1224E+02
      5.372  0.2356E+01  0.1249E+02
      5.477  0.2356E+01  0.1274E+02
      5.582  0.2593E+01  0.1301E+02
      5.687  0.2710E+01  0.1329E+02
      5.792  0.2423E+01  0.1355E+02
      5.897  0.2020E+01  0.1376E+02
      6.002  0.1810E+01  0.1395E+02
      6.107  0.1686E+01  0.1413E+02
      6.212  0.1513E+01  0.1429E+02
      6.317  0.1413E+01  0.1443E+02
      6.422  0.1360E+01  0.1458E+02
      6.527  0.1305E+01  0.1471E+02
      6.632  0.1410E+01  0.1486E+02
      6.737  0.1694E+01  0.1504E+02
      6.842  0.2050E+01  0.1526E+02
      6.947  0.2363E+01  0.1550E+02
      7.052  0.2230E+01  0.1574E+02
      7.157  0.1545E+01  0.1590E+02
      7.262  0.7695E+00  0.1598E+02
      7.367  0.2363E+00  0.1601E+02
      7.472 -0.1730E-02  0.1601E+02
      7.577 -0.3612E-01  0.1600E+02
      7.682 -0.1403E-01  0.1600E+02
      7.787 -0.2452E-02  0.1600E+02
      7.892 -0.2239E-03  0.1600E+02
      7.997 -0.1118E-04  0.1600E+02
      8.102 -0.3119E-06  0.1600E+02
      8.207 -0.4911E-08  0.1600E+02
      8.312 -0.4398E-10  0.1600E+02
      8.417 -0.2250E-12  0.1600E+02
      8.522 -0.6920E-15  0.1600E+02
      8.628  0.0000E+00  0.1600E+02
      8.733  0.0000E+00  0.1600E+02
      8.838  0.0000E+00  0.1600E+02
      8.943  0.0000E+00  0.1600E+02
      9.048  0.0000E+00  0.1600E+02
      9.153  0.0000E+00  0.1600E+02
      9.258  0.0000E+00  0.1600E+02
