B7 N8                                   
    1.000000000000000     
    -0.0000000000000000    3.6316182263220491    3.6316182263220491
     3.6316182263220491   -0.0000000000000000    3.6316182263220491
     3.6316182263220491    3.6316182263220491    0.0000000000000000
   B    N 
     7     8
Direct
 -0.0014269955196317 -0.0014269955196317  0.5014269955196317
 -0.0014269955196317  0.5014269955196317 -0.0014269955196317
 -0.0014269955196317  0.5014269955196317  0.5014269955196317
  0.5014269955196317 -0.0014269955196317 -0.0014269955196317
  0.5014269955196317 -0.0014269955196317  0.5014269955196317
  0.5014269955196317  0.5014269955196317 -0.0014269955196317
  0.5000000000000000  0.5000000000000000  0.5000000000000000
  0.1342257557440343  0.1342257557440343  0.1342257557440343
  0.1342257557440343  0.1342257557440343  0.5973227327678972
  0.1342257557440343  0.5973227327678972  0.1342257557440343
  0.1255979218401438  0.6248006927199521  0.6248006927199521
  0.5973227327678972  0.1342257557440343  0.1342257557440343
  0.6248006927199521  0.1255979218401438  0.6248006927199521
  0.6248006927199521  0.6248006927199521  0.1255979218401438
  0.6248006927199521  0.6248006927199521  0.6248006927199521
 
  0.00000000E+00  0.00000000E+00  0.00000000E+00
  0.00000000E+00  0.00000000E+00  0.00000000E+00
  0.00000000E+00  0.00000000E+00  0.00000000E+00
  0.00000000E+00  0.00000000E+00  0.00000000E+00
  0.00000000E+00  0.00000000E+00  0.00000000E+00
  0.00000000E+00  0.00000000E+00  0.00000000E+00
  0.00000000E+00  0.00000000E+00  0.00000000E+00
  0.00000000E+00  0.00000000E+00  0.00000000E+00
  0.00000000E+00  0.00000000E+00  0.00000000E+00
  0.00000000E+00  0.00000000E+00  0.00000000E+00
  0.00000000E+00  0.00000000E+00  0.00000000E+00
  0.00000000E+00  0.00000000E+00  0.00000000E+00
  0.00000000E+00  0.00000000E+00  0.00000000E+00
  0.00000000E+00  0.00000000E+00  0.00000000E+00
  0.00000000E+00  0.00000000E+00  0.00000000E+00
