  15  15   0   0
  0.6356570E+01  0.5127941E-09  0.5127941E-09  0.5127941E-09  0.5000000E-15
   1.0000000000000000E-004
  CAR 
 Full Structural Relaxation (atoms + cell
     17.94433005    -15.06682627  301      6.94883854      1.00000000
    -15.067  0.0000E+00  0.0000E+00
    -14.957  0.0000E+00  0.0000E+00
    -14.847  0.0000E+00  0.0000E+00
    -14.737  0.0000E+00  0.0000E+00
    -14.627  0.0000E+00  0.0000E+00
    -14.517  0.0000E+00  0.0000E+00
    -14.407  0.0000E+00  0.0000E+00
    -14.297  0.0000E+00  0.0000E+00
    -14.187  0.0000E+00  0.0000E+00
    -14.076  0.0000E+00  0.0000E+00
    -13.966  0.0000E+00  0.0000E+00
    -13.856  0.1971E-19  0.2168E-20
    -13.746  0.3130E-10  0.3444E-11
    -13.636  0.4233E-05  0.4658E-06
    -13.526  0.2853E-03  0.3186E-04
    -13.416  0.2137E-02  0.2670E-03
    -13.306  0.2031E-02  0.4905E-03
    -13.196  0.5231E-02  0.1066E-02
    -13.086  0.1580E-02  0.1240E-02
    -12.976  0.6595E-02  0.1966E-02
    -12.866  0.4914E-02  0.2506E-02
    -12.756  0.6322E-02  0.3202E-02
    -12.646  0.2427E-02  0.3469E-02
    -12.536  0.1195E-01  0.4784E-02
    -12.426  0.6932E-02  0.5547E-02
    -12.316  0.8171E-02  0.6446E-02
    -12.206  0.4563E-02  0.6948E-02
    -12.096  0.1289E-01  0.8367E-02
    -11.986  0.6104E-02  0.9039E-02
    -11.876  0.6353E-02  0.9738E-02
    -11.766  0.4801E-02  0.1027E-01
    -11.656  0.7198E-02  0.1106E-01
    -11.546  0.8808E-02  0.1203E-01
    -11.436  0.1255E-01  0.1341E-01
    -11.326  0.1155E-01  0.1468E-01
    -11.216  0.1107E-01  0.1590E-01
    -11.105  0.5629E-02  0.1652E-01
    -10.995  0.8161E-02  0.1741E-01
    -10.885  0.1650E-01  0.1923E-01
    -10.775  0.8646E-02  0.2018E-01
    -10.665  0.1397E-01  0.2172E-01
    -10.555  0.7633E-02  0.2256E-01
    -10.445  0.7059E-02  0.2333E-01
    -10.335  0.1533E-01  0.2502E-01
    -10.225  0.8602E-02  0.2597E-01
    -10.115  0.8907E-02  0.2695E-01
    -10.005  0.1413E-01  0.2850E-01
     -9.895  0.1950E-01  0.3065E-01
     -9.785  0.1549E-01  0.3235E-01
     -9.675  0.2629E-01  0.3525E-01
     -9.565  0.1548E-01  0.3695E-01
     -9.455  0.2527E-01  0.3973E-01
     -9.345  0.2431E-01  0.4240E-01
     -9.235  0.2993E-01  0.4570E-01
     -9.125  0.2311E-01  0.4824E-01
     -9.015  0.1210E-01  0.4957E-01
     -8.905  0.3880E-02  0.5000E-01
     -8.795  0.2102E-02  0.5023E-01
     -8.685  0.9011E-02  0.5122E-01
     -8.575  0.2504E-01  0.5398E-01
     -8.465  0.3283E-01  0.5759E-01
     -8.355  0.2884E-01  0.6076E-01
     -8.245  0.3095E-01  0.6417E-01
     -8.134  0.2558E-01  0.6698E-01
     -8.024  0.3735E-01  0.7109E-01
     -7.914  0.4720E-01  0.7629E-01
     -7.804  0.2703E-01  0.7926E-01
     -7.694  0.6539E-02  0.7998E-01
     -7.584  0.1816E-03  0.8000E-01
     -7.474  0.1705E-07  0.8000E-01
     -7.364  0.1888E-15  0.8000E-01
     -7.254  0.0000E+00  0.8000E-01
     -7.144  0.0000E+00  0.8000E-01
     -7.034  0.0000E+00  0.8000E-01
     -6.924  0.0000E+00  0.8000E-01
     -6.814  0.0000E+00  0.8000E-01
     -6.704  0.0000E+00  0.8000E-01
     -6.594  0.0000E+00  0.8000E-01
     -6.484  0.0000E+00  0.8000E-01
     -6.374  0.0000E+00  0.8000E-01
     -6.264  0.0000E+00  0.8000E-01
     -6.154  0.0000E+00  0.8000E-01
     -6.044  0.0000E+00  0.8000E-01
     -5.934  0.0000E+00  0.8000E-01
     -5.824  0.0000E+00  0.8000E-01
     -5.714  0.0000E+00  0.8000E-01
     -5.604  0.0000E+00  0.8000E-01
     -5.494  0.0000E+00  0.8000E-01
     -5.384  0.0000E+00  0.8000E-01
     -5.274  0.0000E+00  0.8000E-01
     -5.163  0.0000E+00  0.8000E-01
     -5.053  0.0000E+00  0.8000E-01
     -4.943  0.0000E+00  0.8000E-01
     -4.833  0.0000E+00  0.8000E-01
     -4.723  0.0000E+00  0.8000E-01
     -4.613  0.0000E+00  0.8000E-01
     -4.503  0.0000E+00  0.8000E-01
     -4.393  0.0000E+00  0.8000E-01
     -4.283  0.0000E+00  0.8000E-01
     -4.173  0.5912E-19  0.8000E-01
     -4.063  0.8173E-10  0.8000E-01
     -3.953  0.1192E-04  0.8000E-01
     -3.843  0.4728E-03  0.8005E-01
     -3.733  0.2571E-02  0.8034E-01
     -3.623  0.5282E-02  0.8092E-01
     -3.513  0.6582E-02  0.8164E-01
     -3.403  0.3114E-02  0.8198E-01
     -3.293  0.7650E-02  0.8283E-01
     -3.183  0.1529E-01  0.8451E-01
     -3.073  0.1127E-01  0.8575E-01
     -2.963  0.5959E-02  0.8640E-01
     -2.853  0.9185E-02  0.8742E-01
     -2.743  0.1690E-01  0.8928E-01
     -2.633  0.1713E-01  0.9116E-01
     -2.523  0.1827E-01  0.9317E-01
     -2.413  0.1407E-01  0.9472E-01
     -2.303  0.2660E-01  0.9765E-01
     -2.192  0.2421E-01  0.1003E+00
     -2.082  0.2519E-01  0.1031E+00
     -1.972  0.1625E-01  0.1049E+00
     -1.862  0.4264E-01  0.1096E+00
     -1.752  0.3260E-01  0.1131E+00
     -1.642  0.2739E-01  0.1162E+00
     -1.532  0.2792E-01  0.1192E+00
     -1.422  0.2358E-01  0.1218E+00
     -1.312  0.2055E-01  0.1241E+00
     -1.202  0.1251E-01  0.1255E+00
     -1.092  0.2197E-01  0.1279E+00
     -0.982  0.1165E-01  0.1292E+00
     -0.872  0.1035E-01  0.1303E+00
     -0.762  0.1789E-01  0.1323E+00
     -0.652  0.1129E-01  0.1335E+00
     -0.542  0.1528E-01  0.1352E+00
     -0.432  0.2526E-01  0.1380E+00
     -0.322  0.2012E-01  0.1402E+00
     -0.212  0.1583E-01  0.1419E+00
     -0.102  0.2040E-01  0.1442E+00
      0.008  0.2310E-01  0.1467E+00
      0.118  0.1742E-01  0.1486E+00
      0.228  0.2724E-01  0.1516E+00
      0.338  0.2292E-01  0.1542E+00
      0.448  0.1778E-01  0.1561E+00
      0.558  0.1506E-01  0.1578E+00
      0.668  0.2267E-01  0.1603E+00
      0.779  0.2080E-01  0.1626E+00
      0.889  0.2890E-01  0.1657E+00
      0.999  0.2196E-01  0.1681E+00
      1.109  0.2549E-01  0.1710E+00
      1.219  0.3214E-01  0.1745E+00
      1.329  0.2425E-01  0.1772E+00
      1.439  0.3535E-01  0.1810E+00
      1.549  0.2909E-01  0.1842E+00
      1.659  0.3854E-01  0.1885E+00
      1.769  0.3750E-01  0.1926E+00
      1.879  0.3701E-01  0.1967E+00
      1.989  0.2869E-01  0.1998E+00
      2.099  0.3910E-01  0.2041E+00
      2.209  0.4343E-01  0.2089E+00
      2.319  0.3973E-01  0.2133E+00
      2.429  0.3633E-01  0.2173E+00
      2.539  0.3559E-01  0.2212E+00
      2.649  0.1716E-01  0.2231E+00
      2.759  0.2440E-01  0.2258E+00
      2.869  0.3781E-01  0.2299E+00
      2.979  0.5240E-01  0.2357E+00
      3.089  0.4206E-01  0.2403E+00
      3.199  0.2634E-01  0.2432E+00
      3.309  0.1788E-01  0.2452E+00
      3.419  0.3906E-01  0.2495E+00
      3.529  0.3612E-01  0.2535E+00
      3.639  0.4163E-01  0.2581E+00
      3.750  0.2682E-01  0.2610E+00
      3.860  0.2973E-01  0.2643E+00
      3.970  0.2400E-01  0.2669E+00
      4.080  0.2069E-01  0.2692E+00
      4.190  0.2037E-01  0.2714E+00
      4.300  0.1798E-01  0.2734E+00
      4.410  0.3312E-01  0.2771E+00
      4.520  0.1363E-01  0.2786E+00
      4.630  0.1305E-01  0.2800E+00
      4.740  0.2326E-01  0.2826E+00
      4.850  0.1471E-01  0.2842E+00
      4.960  0.1870E-01  0.2862E+00
      5.070  0.1926E-01  0.2884E+00
      5.180  0.1524E-01  0.2900E+00
      5.290  0.7098E-02  0.2908E+00
      5.400  0.1342E-01  0.2923E+00
      5.510  0.1610E-01  0.2941E+00
      5.620  0.1225E-01  0.2954E+00
      5.730  0.3848E-02  0.2958E+00
      5.840  0.7083E-02  0.2966E+00
      5.950  0.3649E-02  0.2970E+00
      6.060  0.6966E-02  0.2978E+00
      6.170  0.1870E-03  0.2978E+00
      6.280  0.3620E-02  0.2982E+00
      6.390  0.4656E-02  0.2987E+00
      6.500  0.6601E-03  0.2988E+00
      6.610  0.2955E-02  0.2991E+00
      6.721  0.1508E-01  0.3008E+00
      6.831  0.1231E-01  0.3021E+00
      6.941  0.2465E-01  0.3048E+00
      7.051  0.1661E-01  0.3067E+00
      7.161  0.3479E-01  0.3105E+00
      7.271  0.3221E-01  0.3140E+00
      7.381  0.3194E-01  0.3175E+00
      7.491  0.1613E-01  0.3193E+00
      7.601  0.5990E-02  0.3200E+00
      7.711  0.1606E-03  0.3200E+00
      7.821  0.5510E-08  0.3200E+00
      7.931  0.3784E-16  0.3200E+00
      8.041  0.0000E+00  0.3200E+00
      8.151  0.0000E+00  0.3200E+00
      8.261  0.0000E+00  0.3200E+00
      8.371  0.0000E+00  0.3200E+00
      8.481  0.0000E+00  0.3200E+00
      8.591  0.0000E+00  0.3200E+00
      8.701  0.0000E+00  0.3200E+00
      8.811  0.0000E+00  0.3200E+00
      8.921  0.0000E+00  0.3200E+00
      9.031  0.0000E+00  0.3200E+00
      9.141  0.0000E+00  0.3200E+00
      9.251  0.0000E+00  0.3200E+00
      9.361  0.0000E+00  0.3200E+00
      9.471  0.0000E+00  0.3200E+00
      9.582  0.0000E+00  0.3200E+00
      9.692  0.0000E+00  0.3200E+00
      9.802  0.0000E+00  0.3200E+00
      9.912  0.0000E+00  0.3200E+00
     10.022  0.0000E+00  0.3200E+00
     10.132  0.0000E+00  0.3200E+00
     10.242  0.0000E+00  0.3200E+00
     10.352  0.0000E+00  0.3200E+00
     10.462  0.0000E+00  0.3200E+00
     10.572  0.0000E+00  0.3200E+00
     10.682  0.0000E+00  0.3200E+00
     10.792  0.0000E+00  0.3200E+00
     10.902  0.0000E+00  0.3200E+00
     11.012  0.0000E+00  0.3200E+00
     11.122  0.0000E+00  0.3200E+00
     11.232  0.1158E-10  0.3200E+00
     11.342  0.4817E-05  0.3200E+00
     11.452  0.4068E-03  0.3200E+00
     11.562  0.2754E-03  0.3201E+00
     11.672  0.1269E-02  0.3202E+00
     11.782  0.3707E-02  0.3206E+00
     11.892  0.3614E-03  0.3207E+00
     12.002  0.2211E-02  0.3209E+00
     12.112  0.6961E-02  0.3217E+00
     12.222  0.2401E-02  0.3219E+00
     12.332  0.1745E-02  0.3221E+00
     12.442  0.2227E-02  0.3224E+00
     12.553  0.3673E-02  0.3228E+00
     12.663  0.1232E-01  0.3241E+00
     12.773  0.3651E-02  0.3245E+00
     12.883  0.5014E-02  0.3251E+00
     12.993  0.8521E-02  0.3260E+00
     13.103  0.2756E-02  0.3263E+00
     13.213  0.2284E-02  0.3266E+00
     13.323  0.1123E-01  0.3278E+00
     13.433  0.1138E-01  0.3291E+00
     13.543  0.1959E-01  0.3312E+00
     13.653  0.4707E-02  0.3317E+00
     13.763  0.7354E-02  0.3325E+00
     13.873  0.9924E-02  0.3336E+00
     13.983  0.6119E-02  0.3343E+00
     14.093  0.1568E-01  0.3360E+00
     14.203  0.2162E-01  0.3384E+00
     14.313  0.1004E-01  0.3395E+00
     14.423  0.1294E-01  0.3409E+00
     14.533  0.1384E-01  0.3425E+00
     14.643  0.5887E-02  0.3431E+00
     14.753  0.9609E-02  0.3442E+00
     14.863  0.2276E-01  0.3467E+00
     14.973  0.2580E-01  0.3495E+00
     15.083  0.1792E-01  0.3515E+00
     15.193  0.7862E-02  0.3524E+00
     15.303  0.2878E-01  0.3555E+00
     15.413  0.2546E-01  0.3583E+00
     15.524  0.1272E-01  0.3597E+00
     15.634  0.1946E-01  0.3619E+00
     15.744  0.1284E-01  0.3633E+00
     15.854  0.3509E-01  0.3671E+00
     15.964  0.3073E-01  0.3705E+00
     16.074  0.3406E-01  0.3743E+00
     16.184  0.1918E-01  0.3764E+00
     16.294  0.1947E-01  0.3785E+00
     16.404  0.8719E-02  0.3795E+00
     16.514  0.4610E-02  0.3800E+00
     16.624  0.1018E-03  0.3800E+00
     16.734  0.7511E-09  0.3800E+00
     16.844  0.0000E+00  0.3800E+00
     16.954  0.0000E+00  0.3800E+00
     17.064  0.0000E+00  0.3800E+00
     17.174  0.0000E+00  0.3800E+00
     17.284  0.0000E+00  0.3800E+00
     17.394  0.0000E+00  0.3800E+00
     17.504  0.0000E+00  0.3800E+00
     17.614  0.0000E+00  0.3800E+00
     17.724  0.0000E+00  0.3800E+00
     17.834  0.0000E+00  0.3800E+00
     17.944  0.0000E+00  0.3800E+00
