       N       E                     dE             d eps       ncg     rms          rms(c)
DAV:   1     0.182407364597E+02    0.18241E+02   -0.27497E+03  2640   0.725E+02
DAV:   2    -0.717135898955E+01   -0.25412E+02   -0.24670E+02  3704   0.774E+01
DAV:   3    -0.774111875919E+01   -0.56976E+00   -0.56953E+00  3512   0.156E+01
DAV:   4    -0.774288341847E+01   -0.17647E-02   -0.17614E-02  3720   0.940E-01
DAV:   5    -0.774288642466E+01   -0.30062E-05   -0.30059E-05  3568   0.312E-02    0.316E+00
DAV:   6    -0.768468536466E+01    0.58201E-01   -0.20911E-02  3000   0.962E-01    0.193E+00
DAV:   7    -0.765448922072E+01    0.30196E-01   -0.47754E-02  2976   0.153E+00    0.112E-01
DAV:   8    -0.765569974596E+01   -0.12105E-02   -0.14538E-03  2784   0.221E-01    0.302E-02
DAV:   9    -0.765595685528E+01   -0.25711E-03   -0.32229E-04  3768   0.116E-01    0.168E-02
DAV:  10    -0.765596701694E+01   -0.10162E-04   -0.34867E-05  2752   0.402E-02    0.336E-03
DAV:  11    -0.765596730792E+01   -0.29098E-06   -0.38876E-07  3904   0.397E-03
   1 F= -.76559673E+01 E0= -.76558611E+01  d E =-.212350E-03
