    1    1    1    1
  0.8710429E+02  0.4836752E-09  0.4836752E-09  0.4836752E-09  0.5000000E-15
   1.0000000000000000E-004
  CAR 
 BCC Rb K-test                           
      9    145      8
 
  0.1262379E-14  0.1262379E-14  0.1262379E-14  0.2441406E-03
      1        -28.769052   1.000000
      2        -12.806682   1.000000
      3        -12.806682   1.000000
      4        -12.806682   1.000000
      5         -1.917611   1.000000
      6          3.831817   0.000000
      7          3.831817   0.000000
      8          3.831817   0.000000
 
  0.6250000E-01  0.1270911E-14  0.1270225E-14  0.2929688E-02
      1        -28.768854   1.000000
      2        -12.811042   1.000000
      3        -12.808101   1.000000
      4        -12.806682   1.000000
      5         -1.869401   1.000000
      6          3.761864   0.000000
      7          3.765278   0.000000
      8          3.876746   0.000000
 
  0.1250000E+00  0.1286515E-14  0.1269998E-14  0.2929688E-02
      1        -28.768294   1.000000
      2        -12.823402   1.000000
      3        -12.812130   1.000000
      4        -12.806692   1.000000
      5         -1.726611   1.000000
      6          3.507414   0.000000
      7          3.585388   0.000000
      8          4.010711   0.000000
 
  0.1875000E+00  0.1297210E-14  0.1285090E-14  0.2929688E-02
      1        -28.767455   1.000000
      2        -12.841740   1.000000
      3        -12.818141   1.000000
      4        -12.806707   1.000000
      5         -1.494698   1.000000
      6          3.079632   0.000000
      7          3.364781   0.000000
      8          4.231263   0.000000
 
  0.2500000E+00  0.1310655E-14  0.1318248E-14  0.2929688E-02
      1        -28.766467   1.000000
      2        -12.863139   1.000000
      3        -12.825218   1.000000
      4        -12.806733   1.000000
      5         -1.182781   1.000000
      6          2.599896  -0.000000
      7          3.147671   0.000000
      8          4.541586   0.000000
 
  0.3125000E+00  0.1290844E-14  0.1287517E-14  0.2929688E-02
      1        -28.765479   1.000000
      2        -12.884278   1.000000
      3        -12.832267   1.000000
      4        -12.806753   1.000000
      5         -0.804073   1.000000
      6          2.121239  -0.000000
      7          2.961580   0.000000
      8          4.664595   0.000000
 
  0.3750000E+00  0.1326545E-14  0.1312297E-14  0.2929688E-02
      1        -28.764636   1.000000
      2        -12.902016   1.000000
      3        -12.838226   1.000000
      4        -12.806771   1.000000
      5         -0.377643   1.000000
      6          1.653485  -0.000000
      7          2.821306   0.000000
      8          4.614687   0.000000
 
  0.4375000E+00  0.1315114E-14  0.1328698E-14  0.2929688E-02
      1        -28.764074   1.000000
      2        -12.913754   1.000000
      3        -12.842201   1.000000
      4        -12.806785   1.000000
      5          0.061263   0.888063
      6          1.205825  -0.000000
      7          2.734640  -0.000000
      8          4.510007   0.000000
 
  0.5000000E+00  0.1359194E-14  0.1289588E-14  0.1464844E-02
      1        -28.763876   1.000000
      2        -12.917871   1.000000
      3        -12.843598   1.000000
      4        -12.806790   1.000000
      5          0.342077  -0.002988
      6          0.925162  -0.000000
      7          2.705374  -0.000000
      8          4.459146   0.000000
 
  0.6250000E-01  0.6250000E-01  0.1278377E-14  0.5859375E-02
      1        -28.768474   1.000000
      2        -12.819582   1.000000
      3        -12.809567   1.000000
      4        -12.807757   1.000000
      5         -1.773892   1.000000
      6          3.611921   0.000000
      7          3.629764   0.000000
      8          3.965676   0.000000
 
  0.1250000E+00  0.6250000E-01  0.1298967E-14  0.1171875E-01
      1        -28.767777   1.000000
      2        -12.834737   1.000000
      3        -12.814353   1.000000
      4        -12.808205   1.000000
      5         -1.586436   1.000000
      6          3.277779   0.000000
      7          3.415027   0.000000
      8          4.137875   0.000000
 
  0.1875000E+00  0.6250000E-01  0.1301491E-14  0.1171875E-01
      1        -28.766863   1.000000
      2        -12.854087   1.000000
      3        -12.821303   1.000000
      4        -12.808321   1.000000
      5         -1.314164   1.000000
      6          2.830151   0.000000
      7          3.191714   0.000000
      8          4.388371   0.000000
 
  0.2500000E+00  0.6250000E-01  0.1334649E-14  0.1171875E-01
      1        -28.765873   1.000000
      2        -12.874719   1.000000
      3        -12.828942   1.000000
      4        -12.808391   1.000000
      5         -0.967938   1.000000
      6          2.359517  -0.000000
      7          2.991822   0.000000
      8          4.492012   0.000000
 
  0.3125000E+00  0.6250000E-01  0.1312297E-14  0.1171875E-01
      1        -28.764959   1.000000
      2        -12.893546   1.000000
      3        -12.836016   1.000000
      4        -12.808446   1.000000
      5         -0.563186   1.000000
      6          1.894004  -0.000000
      7          2.832099   0.000000
      8          4.511154   0.000000
 
  0.3750000E+00  0.6250000E-01  0.1300942E-14  0.1171875E-01
      1        -28.764256   1.000000
      2        -12.907802   1.000000
      3        -12.841428   1.000000
      4        -12.808486   1.000000
      5         -0.123678   1.001921
      6          1.437711  -0.000000
      7          2.721622  -0.000000
      8          4.445831   0.000000
 
  0.4375000E+00  0.6250000E-01  0.1323103E-14  0.1171875E-01
      1        -28.763877   1.000000
      2        -12.915469   1.000000
      3        -12.844352   1.000000
      4        -12.808504   1.000000
      5          0.287204  -0.017443
      6          1.027213  -0.000000
      7          2.665286  -0.000000
      8          4.364260   0.000000
 
  0.1250000E+00  0.1250000E+00  0.1301491E-14  0.5859375E-02
      1        -28.767000   1.000000
      2        -12.850689   1.000000
      3        -12.818379   1.000000
      4        -12.810649   1.000000
      5         -1.358366   1.000000
      6          2.961344   0.000000
      7          3.160484   0.000000
      8          4.334763   0.000000
 
  0.1875000E+00  0.1250000E+00  0.1306894E-14  0.1171875E-01
      1        -28.766086   1.000000
      2        -12.868483   1.000000
      3        -12.825710   1.000000
      4        -12.811772   1.000000
      5         -1.050819   1.000000
      6          2.562198  -0.000000
      7          2.930900   0.000000
      8          4.391267   0.000000
 
  0.2500000E+00  0.1250000E+00  0.1312297E-14  0.1171875E-01
      1        -28.765171   1.000000
      2        -12.885614   1.000000
      3        -12.834152   1.000000
      4        -12.812245   1.000000
      5         -0.676046   1.000000
      6          2.132335  -0.000000
      7          2.748554  -0.000000
      8          4.427337   0.000000
 
  0.3125000E+00  0.1250000E+00  0.1356453E-14  0.1171875E-01
      1        -28.764396   1.000000
      2        -12.899763   1.000000
      3        -12.841678   1.000000
      4        -12.812498   1.000000
      5         -0.251632   1.000001
      6          1.695115  -0.000000
      7          2.614200  -0.000000
      8          4.378961   0.000000
 
  0.3750000E+00  0.1250000E+00  0.1345099E-14  0.1171875E-01
      1        -28.763878   1.000000
      2        -12.909066   1.000000
      3        -12.846816   1.000000
      4        -12.812630   1.000000
      5          0.191707   0.017833
      6          1.259578  -0.000000
      7          2.531207  -0.000000
      8          4.262262   0.000000
 
  0.4375000E+00  0.1250000E+00  0.1339504E-14  0.5859375E-02
      1        -28.763692   1.000000
      2        -12.912299   1.000000
      3        -12.848631   1.000000
      4        -12.812665   1.000000
      5          0.494694  -0.000001
      6          0.962194  -0.000000
      7          2.503047  -0.000000
      8          4.205644   0.000000
 
  0.1875000E+00  0.1875000E+00  0.1362049E-14  0.5859375E-02
      1        -28.765249   1.000000
      2        -12.882260   1.000000
      3        -12.833180   1.000000
      4        -12.814496   1.000000
      5         -0.713910   1.000000
      6          2.266286  -0.000000
      7          2.663541  -0.000000
      8          4.435608   0.000000
 
  0.2500000E+00  0.1875000E+00  0.1356453E-14  0.1171875E-01
      1        -28.764471   1.000000
      2        -12.893567   1.000000
      3        -12.842454   1.000000
      4        -12.815913   1.000000
      5         -0.316716   1.000000
      6          1.923644  -0.000000
      7          2.451924  -0.000000
      8          4.460499   0.000000
 
  0.3125000E+00  0.1875000E+00  0.1345099E-14  0.1171875E-01
      1        -28.763876   1.000000
      2        -12.901334   1.000000
      3        -12.850747   1.000000
      4        -12.816609   1.000000
      5          0.121166   0.444871
      6          1.535048  -0.000000
      7          2.310605  -0.000000
      8          4.305320   0.000000
 
  0.3750000E+00  0.1875000E+00  0.1378257E-14  0.1171875E-01
      1        -28.763554   1.000000
      2        -12.905205   1.000000
      3        -12.855616   1.000000
      4        -12.816904   1.000000
      5          0.556325  -0.000000
      6          1.129407  -0.000000
      7          2.239366  -0.000000
      8          4.175871   0.000000
 
  0.2500000E+00  0.2500000E+00  0.1417368E-14  0.5859375E-02
      1        -28.763878   1.000000
      2        -12.897472   1.000000
      3        -12.853118   1.000000
      4        -12.818168   1.000000
      5          0.096159   0.653452
      6          1.712360  -0.000000
      7          2.147384  -0.000000
      8          4.430341   0.000000
 
  0.3125000E+00  0.2500000E+00  0.1433769E-14  0.1171875E-01
      1        -28.763480   1.000000
      2        -12.897753   1.000000
      3        -12.862958   1.000000
      4        -12.819280   1.000000
      5          0.541240  -0.000000
      6          1.419978  -0.000000
      7          1.932863  -0.000000
      8          4.254262   0.000000
 
  0.3750000E+00  0.2500000E+00  0.1411416E-14  0.5859375E-02
      1        -28.763339   1.000000
      2        -12.897023   1.000000
      3        -12.867285   1.000000
      4        -12.819610   1.000000
      5          0.920469  -0.000000
      6          1.085465  -0.000000
      7          1.867125  -0.000000
      8          4.186878   0.000000
 
  0.3125000E+00  0.3125000E+00  0.1411416E-14  0.5859375E-02
      1        -28.763263   1.000000
      2        -12.889876   1.000000
      3        -12.875750   1.000000
      4        -12.820475   1.000000
      5          0.984093  -0.000000
      6          1.324750  -0.000000
      7          1.542891  -0.000000
      8          4.215028   0.000000
 
  0.6250000E-01  0.6250000E-01  0.6250000E-01  0.1953125E-02
      1        -28.767951   1.000000
      2        -12.832815   1.000000
      3        -12.809708   1.000000
      4        -12.809708   1.000000
      5         -1.632916   1.000000
      6          3.381931   0.000000
      7          3.381931   0.000000
      8          4.115348   0.000000
 
  0.1250000E+00  0.6250000E-01  0.6250000E-01  0.5859375E-02
      1        -28.767174   1.000000
      2        -12.849712   1.000000
      3        -12.815407   1.000000
      4        -12.809919   1.000000
      5         -1.403577   1.000000
      6          3.006588   0.000000
      7          3.141804   0.000000
      8          4.317168   0.000000
 
  0.1875000E+00  0.6250000E-01  0.6250000E-01  0.5859375E-02
      1        -28.766250   1.000000
      2        -12.868198   1.000000
      3        -12.823349   1.000000
      4        -12.810174   1.000000
      5         -1.094410   1.000000
      6          2.572402  -0.000000
      7          2.927347   0.000000
      8          4.557566   0.000000
 
  0.2500000E+00  0.6250000E-01  0.6250000E-01  0.5859375E-02
      1        -28.765328   1.000000
      2        -12.885919   1.000000
      3        -12.831866   1.000000
      4        -12.810428   1.000000
      5         -0.717908   1.000000
      6          2.126323  -0.000000
      7          2.752585  -0.000000
      8          4.676955   0.000000
 
  0.3125000E+00  0.6250000E-01  0.6250000E-01  0.5859375E-02
      1        -28.764544   1.000000
      2        -12.900521   1.000000
      3        -12.839317   1.000000
      4        -12.810636   1.000000
      5         -0.292197   1.000000
      6          1.680576  -0.000000
      7          2.624292  -0.000000
      8          4.581809   0.000000
 
  0.3750000E+00  0.6250000E-01  0.6250000E-01  0.5859375E-02
      1        -28.764019   1.000000
      2        -12.910122   1.000000
      3        -12.844380   1.000000
      4        -12.810780   1.000000
      5          0.150220   0.218961
      6          1.242540  -0.000000
      7          2.546089  -0.000000
      8          4.433525   0.000000
 
  0.4375000E+00  0.6250000E-01  0.6250000E-01  0.2929688E-02
      1        -28.763835   1.000000
      2        -12.913461   1.000000
      3        -12.846163   1.000000
      4        -12.810833   1.000000
      5          0.445221  -0.000015
      6          0.952175  -0.000000
      7          2.519830  -0.000000
      8          4.367853   0.000000
 
 -0.6250000E-01  0.6250000E-01  0.6250000E-01  0.1464844E-02
      1        -28.768660   1.000000
      2        -12.812471   1.000000
      3        -12.809524   1.000000
      4        -12.809524   1.000000
      5         -1.821445   1.000000
      6          3.726750   0.000000
      7          3.726750   0.000000
      8          3.891480   0.000000
 
  0.1250000E+00  0.1250000E+00  0.6250000E-01  0.5859375E-02
      1        -28.766382   1.000000
      2        -12.865870   1.000000
      3        -12.819143   1.000000
      4        -12.813078   1.000000
      5         -1.136957   1.000000
      6          2.705654  -0.000000
      7          2.846762   0.000000
      8          4.506413   0.000000
 
  0.1875000E+00  0.1250000E+00  0.6250000E-01  0.1171875E-01
      1        -28.765527   1.000000
      2        -12.881137   1.000000
      3        -12.827333   1.000000
      4        -12.814430   1.000000
      5         -0.796182   1.000000
      6          2.329286  -0.000000
      7          2.633300  -0.000000
      8          4.641364   0.000000
 
  0.2500000E+00  0.1250000E+00  0.6250000E-01  0.1171875E-01
      1        -28.764737   1.000000
      2        -12.893809   1.000000
      3        -12.836746   1.000000
      4        -12.815128   1.000000
      5         -0.395225   1.000000
      6          1.923985  -0.000000
      7          2.481605  -0.000000
      8          4.556502   0.000000
 
  0.3125000E+00  0.1250000E+00  0.6250000E-01  0.1171875E-01
      1        -28.764130   1.000000
      2        -12.902724   1.000000
      3        -12.844732   1.000000
      4        -12.815574   1.000000
      5          0.044661   0.959788
      6          1.504976  -0.000000
      7          2.380838  -0.000000
      8          4.353899   0.000000
 
  0.3750000E+00  0.1250000E+00  0.6250000E-01  0.1171875E-01
      1        -28.763802   1.000000
      2        -12.907282   1.000000
      3        -12.849303   1.000000
      4        -12.815800   1.000000
      5          0.472478  -0.000003
      6          1.096957  -0.000000
      7          2.330201  -0.000000
      8          4.206635   0.000000
 
 -0.1250000E+00  0.1250000E+00  0.6250000E-01  0.5859375E-02
      1        -28.768104   1.000000
      2        -12.823790   1.000000
      3        -12.813577   1.000000
      4        -12.810295   1.000000
      5         -1.679382   1.000000
      6          3.516252   0.000000
      7          3.575825   0.000000
      8          4.009927   0.000000
 
  0.1875000E+00  0.1875000E+00  0.6250000E-01  0.5859375E-02
      1        -28.764804   1.000000
      2        -12.891040   1.000000
      3        -12.835065   1.000000
      4        -12.817903   1.000000
      5         -0.429864   1.000000
      6          2.071224  -0.000000
      7          2.370096  -0.000000
      8          4.547202   0.000000
 
  0.2500000E+00  0.1875000E+00  0.6250000E-01  0.1171875E-01
      1        -28.764188   1.000000
      2        -12.897033   1.000000
      3        -12.845067   1.000000
      4        -12.819737   1.000000
      5         -0.010862   1.035323
      6          1.752653  -0.000000
      7          2.189575  -0.000000
      8          4.297142   0.000000
 
  0.3125000E+00  0.1875000E+00  0.6250000E-01  0.1171875E-01
      1        -28.763778   1.000000
      2        -12.899498   1.000000
      3        -12.853599   1.000000
      4        -12.820631   1.000000
      5          0.435911  -0.000027
      6          1.373945  -0.000000
      7          2.089331  -0.000000
      8          4.068425   0.000000
 
  0.3750000E+00  0.1875000E+00  0.6250000E-01  0.5859375E-02
      1        -28.763636   1.000000
      2        -12.899964   1.000000
      3        -12.857034   1.000000
      4        -12.820906   1.000000
      5          0.785238  -0.000000
      6          1.049149  -0.000000
      7          2.056800  -0.000000
      8          3.981253   0.000000
 
 -0.1875000E+00  0.1875000E+00  0.6250000E-01  0.5859375E-02
      1        -28.767274   1.000000
      2        -12.841758   1.000000
      3        -12.819630   1.000000
      4        -12.810272   1.000000
      5         -1.448625   1.000000
      6          3.093382   0.000000
      7          3.369095   0.000000
      8          4.146733   0.000000
 
 -0.1250000E+00  0.1875000E+00  0.6250000E-01  0.5859375E-02
      1        -28.767417   1.000000
      2        -12.836291   1.000000
      3        -12.817867   1.000000
      4        -12.813247   1.000000
      5         -1.493871   1.000000
      6          3.257721   0.000000
      7          3.402738   0.000000
      8          4.003991   0.000000
 
  0.2500000E+00  0.2500000E+00  0.6250000E-01  0.5859375E-02
      1        -28.763772   1.000000
      2        -12.895486   1.000000
      3        -12.856169   1.000000
      4        -12.822560   1.000000
      5          0.418153  -0.000077
      6          1.582713  -0.000000
      7          1.898810  -0.000000
      8          4.019973   0.000000
 
  0.3125000E+00  0.2500000E+00  0.6250000E-01  0.1171875E-01
      1        -28.763546   1.000000
      2        -12.891253   1.000000
      3        -12.865864   1.000000
      4        -12.823800   1.000000
      5          0.862676  -0.000000
      6          1.292761  -0.000000
      7          1.733815  -0.000000
      8          3.855159   0.000000
 
 -0.2500000E+00  0.2500000E+00  0.6250000E-01  0.5859375E-02
      1        -28.766291   1.000000
      2        -12.862787   1.000000
      3        -12.826744   1.000000
      4        -12.810169   1.000000
      5         -1.138191   1.000000
      6          2.612117  -0.000000
      7          3.161314   0.000000
      8          4.180623   0.000000
 
 -0.1875000E+00  0.2500000E+00  0.6250000E-01  0.1171875E-01
      1        -28.766514   1.000000
      2        -12.854321   1.000000
      3        -12.824588   1.000000
      4        -12.814098   1.000000
      5         -1.224347   1.000000
      6          2.835951   0.000000
      7          3.196064   0.000000
      8          3.998649   0.000000
 
  0.3125000E+00  0.3125000E+00  0.6250000E-01  0.1953125E-02
      1        -28.763465   1.000000
      2        -12.879323   1.000000
      3        -12.879323   1.000000
      4        -12.824804   1.000000
      5          1.249156  -0.000000
      6          1.249156  -0.000000
      7          1.387929  -0.000000
      8          3.779083   0.000000
 
 -0.3125000E+00  0.3125000E+00  0.6250000E-01  0.5859375E-02
      1        -28.765306   1.000000
      2        -12.883594   1.000000
      3        -12.833829   1.000000
      4        -12.810060   1.000000
      5         -0.761064   1.000000
      6          2.134928  -0.000000
      7          2.981535   0.000000
      8          4.222761   0.000000
 
 -0.2500000E+00  0.3125000E+00  0.6250000E-01  0.1171875E-01
      1        -28.765541   1.000000
      2        -12.873992   1.000000
      3        -12.832294   1.000000
      4        -12.814195   1.000000
      5         -0.881387   1.000000
      6          2.376681  -0.000000
      7          3.007353   0.000000
      8          4.042873   0.000000
 
 -0.1875000E+00  0.3125000E+00  0.6250000E-01  0.5859375E-02
      1        -28.765625   1.000000
      2        -12.869732   1.000000
      3        -12.831579   1.000000
      4        -12.816731   1.000000
      5         -0.921749   1.000000
      6          2.510964  -0.000000
      7          2.955908   0.000000
      8          4.008517   0.000000
 
 -0.3750000E+00  0.3750000E+00  0.6250000E-01  0.5859375E-02
      1        -28.764474   1.000000
      2        -12.901049   1.000000
      3        -12.839822   1.000000
      4        -12.809966   1.000000
      5         -0.335766   1.000000
      6          1.669621  -0.000000
      7          2.845319   0.000000
      8          4.216428   0.000000
 
 -0.3125000E+00  0.3750000E+00  0.6250000E-01  0.1171875E-01
      1        -28.764642   1.000000
      2        -12.892061   1.000000
      3        -12.839481   1.000000
      4        -12.814111   1.000000
      5         -0.479782   1.000000
      6          1.920896  -0.000000
      7          2.853073   0.000000
      8          4.059774   0.000000
 
 -0.2500000E+00  0.3750000E+00  0.6250000E-01  0.1171875E-01
      1        -28.764729   1.000000
      2        -12.884983   1.000000
      3        -12.840119   1.000000
      4        -12.817759   1.000000
      5         -0.552493   1.000000
      6          2.136389  -0.000000
      7          2.742756  -0.000000
      8          4.068444   0.000000
 
 -0.4375000E+00  0.4375000E+00  0.6250000E-01  0.5859375E-02
      1        -28.763915   1.000000
      2        -12.912615   1.000000
      3        -12.843817   1.000000
      4        -12.809898   1.000000
      5          0.104340   0.586631
      6          1.222035  -0.000000
      7          2.760925  -0.000000
      8          4.155016   0.000000
 
 -0.3750000E+00  0.4375000E+00  0.6250000E-01  0.1171875E-01
      1        -28.763950   1.000000
      2        -12.905775   1.000000
      3        -12.844984   1.000000
      4        -12.814003   1.000000
      5         -0.041491   1.024858
      6          1.470963  -0.000000
      7          2.744102  -0.000000
      8          4.005627   0.000000
 
 -0.3125000E+00  0.4375000E+00  0.6250000E-01  0.1171875E-01
      1        -28.763974   1.000000
      2        -12.897701   1.000000
      3        -12.847983   1.000000
      4        -12.818093   1.000000
      5         -0.132794   1.001298
      6          1.732836  -0.000000
      7          2.579695  -0.000000
      8          4.066642   0.000000
 
 -0.2500000E+00  0.4375000E+00  0.6250000E-01  0.5859375E-02
      1        -28.763981   1.000000
      2        -12.893679   1.000000
      3        -12.850064   1.000000
      4        -12.819683   1.000000
      5         -0.163731   1.000297
      6          1.883987  -0.000000
      7          2.446239  -0.000000
      8          4.186308   0.000000
 
  0.5000000E+00  0.5000000E+00  0.6250000E-01  0.2929688E-02
      1        -28.763719   1.000000
      2        -12.916659   1.000000
      3        -12.845217   1.000000
      4        -12.809876   1.000000
      5          0.392544  -0.000304
      6          0.934467  -0.000000
      7          2.732388  -0.000000
      8          4.118561   0.000000
 
 -0.4375000E+00  0.5000000E+00  0.6250000E-01  0.1171875E-01
      1        -28.763578   1.000000
      2        -12.913160   1.000000
      3        -12.847961   1.000000
      4        -12.813938   1.000000
      5          0.378014  -0.000624
      6          1.054558  -0.000000
      7          2.687619  -0.000000
      8          3.937348   0.000000
 
 -0.3750000E+00  0.5000000E+00  0.6250000E-01  0.1171875E-01
      1        -28.763467   1.000000
      2        -12.906072   1.000000
      3        -12.853409   1.000000
      4        -12.818176   1.000000
      5          0.311361  -0.008875
      6          1.310754  -0.000000
      7          2.475289  -0.000000
      8          3.984793   0.000000
 
 -0.3125000E+00  0.5000000E+00  0.6250000E-01  0.1171875E-01
      1        -28.763408   1.000000
      2        -12.899102   1.000000
      3        -12.859493   1.000000
      4        -12.820514   1.000000
      5          0.267751  -0.026244
      6          1.578811  -0.000000
      7          2.204705  -0.000000
      8          4.219513   0.000000
 
 -0.4375000E+00 -0.4375000E+00  0.6250000E-01  0.5859375E-02
      1        -28.763287   1.000000
      2        -12.909000   1.000000
      3        -12.855344   1.000000
      4        -12.818193   1.000000
      5          0.639134  -0.000000
      6          0.992649  -0.000000
      7          2.439036  -0.000000
      8          3.940011   0.000000
 
 -0.3750000E+00 -0.4375000E+00  0.6250000E-01  0.1171875E-01
      1        -28.763096   1.000000
      2        -12.901416   1.000000
      3        -12.865333   1.000000
      4        -12.820804   1.000000
      5          0.711016  -0.000000
      6          1.198581  -0.000000
      7          2.081251  -0.000000
      8          4.144610   0.000000
 
 -0.3125000E+00 -0.4375000E+00  0.6250000E-01  0.5859375E-02
      1        -28.763030   1.000000
      2        -12.896181   1.000000
      3        -12.871537   1.000000
      4        -12.821616   1.000000
      5          0.703658  -0.000000
      6          1.433678  -0.000000
      7          1.818892  -0.000000
      8          4.478132   0.000000
 
 -0.3750000E+00 -0.3750000E+00  0.6250000E-01  0.5859375E-02
      1        -28.762895   1.000000
      2        -12.892623   1.000000
      3        -12.878372   1.000000
      4        -12.821920   1.000000
      5          1.125561  -0.000000
      6          1.147436  -0.000000
      7          1.648698  -0.000000
      8          4.427800   0.000000
 
  0.1250000E+00  0.1250000E+00  0.1250000E+00  0.1953125E-02
      1        -28.765649   1.000000
      2        -12.879597   1.000000
      3        -12.820052   1.000000
      4        -12.820052   1.000000
      5         -0.836625   1.000000
      6          2.497107  -0.000000
      7          2.497107  -0.000000
      8          4.597730   0.000000
 
  0.1875000E+00  0.1250000E+00  0.1250000E+00  0.5859375E-02
      1        -28.764922   1.000000
      2        -12.890252   1.000000
      3        -12.830022   1.000000
      4        -12.820961   1.000000
      5         -0.468048   1.000000
      6          2.132542  -0.000000
      7          2.336581  -0.000000
      8          4.503664   0.000000
 
  0.2500000E+00  0.1250000E+00  0.1250000E+00  0.5859375E-02
      1        -28.764298   1.000000
      2        -12.897019   1.000000
      3        -12.840667   1.000000
      4        -12.821729   1.000000
      5         -0.047217   1.022211
      6          1.754718  -0.000000
      7          2.223273  -0.000000
      8          4.241644   0.000000
 
  0.3125000E+00  0.1250000E+00  0.1250000E+00  0.5859375E-02
      1        -28.763886   1.000000
      2        -12.900197   1.000000
      3        -12.849087   1.000000
      4        -12.822241   1.000000
      5          0.399522  -0.000212
      6          1.356326  -0.000000
      7          2.155951  -0.000000
      8          3.996122   0.000000
 
  0.3750000E+00  0.1250000E+00  0.1250000E+00  0.2929688E-02
      1        -28.763738   1.000000
      2        -12.901001   1.000000
      3        -12.852365   1.000000
      4        -12.822427   1.000000
      5          0.739106  -0.000000
      6          1.037234  -0.000000
      7          2.133633  -0.000000
      8          3.900915   0.000000
 
 -0.1250000E+00  0.1250000E+00  0.1250000E+00  0.1464844E-02
      1        -28.767561   1.000000
      2        -12.827700   1.000000
      3        -12.817691   1.000000
      4        -12.817691   1.000000
      5         -1.539475   1.000000
      6          3.507356   0.000000
      7          3.507356   0.000000
      8          3.729269   0.000000
 
  0.1875000E+00  0.1875000E+00  0.1250000E+00  0.5859375E-02
      1        -28.764360   1.000000
      2        -12.894744   1.000000
      3        -12.836956   1.000000
      4        -12.826454   1.000000
      5         -0.078350   1.009961
      6          1.924416  -0.000000
      7          2.091972  -0.000000
      8          4.177130   0.000000
 
  0.2500000E+00  0.1875000E+00  0.1250000E+00  0.1171875E-01
      1        -28.763931   1.000000
      2        -12.894787   1.000000
      3        -12.847793   1.000000
      4        -12.828530   1.000000
      5          0.354077  -0.001832
      6          1.622466  -0.000000
      7          1.964854  -0.000000
      8          3.829269   0.000000
 
  0.3125000E+00  0.1875000E+00  0.1250000E+00  0.1171875E-01
      1        -28.763698   1.000000
      2        -12.892592   1.000000
      3        -12.856195   1.000000
      4        -12.829324   1.000000
      5          0.795746  -0.000000
      6          1.253835  -0.000000
      7          1.910968  -0.000000
      8          3.617219   0.000000
 
 -0.1875000E+00  0.1875000E+00  0.1250000E+00  0.5859375E-02
      1        -28.766748   1.000000
      2        -12.842325   1.000000
      3        -12.823843   1.000000
      4        -12.819835   1.000000
      5         -1.312194   1.000000
      6          3.126907   0.000000
      7          3.362902   0.000000
      8          3.650764   0.000000
 
  0.2500000E+00  0.2500000E+00  0.1250000E+00  0.5859375E-02
      1        -28.763682   1.000000
      2        -12.887922   1.000000
      3        -12.858756   1.000000
      4        -12.832253   1.000000
      5          0.784511  -0.000000
      6          1.493412  -0.000000
      7          1.709125  -0.000000
      8          3.506861   0.000000
 
  0.3125000E+00  0.2500000E+00  0.1250000E+00  0.5859375E-02
      1        -28.763595   1.000000
      2        -12.881703   1.000000
      3        -12.866689   1.000000
      4        -12.833300   1.000000
      5          1.194040  -0.000000
      6          1.205129  -0.000000
      7          1.610536  -0.000000
      8          3.387174   0.000000
 
 -0.2500000E+00  0.2500000E+00  0.1250000E+00  0.5859375E-02
      1        -28.765789   1.000000
      2        -12.861943   1.000000
      3        -12.831069   1.000000
      4        -12.819794   1.000000
      5         -1.006331   1.000000
      6          2.638581  -0.000000
      7          3.192310   0.000000
      8          3.709061   0.000000
 
 -0.1875000E+00  0.2500000E+00  0.1250000E+00  0.5859375E-02
      1        -28.765873   1.000000
      2        -12.855817   1.000000
      3        -12.830508   1.000000
      4        -12.823786   1.000000
      5         -1.048252   1.000000
      6          2.800452   0.000000
      7          3.203148   0.000000
      8          3.594750   0.000000
 
 -0.3125000E+00  0.3125000E+00  0.1250000E+00  0.5859375E-02
      1        -28.764828   1.000000
      2        -12.881686   1.000000
      3        -12.838275   1.000000
      4        -12.819412   1.000000
      5         -0.634321   1.000000
      6          2.168954  -0.000000
      7          3.035431   0.000000
      8          3.750273   0.000000
 
 -0.2500000E+00  0.3125000E+00  0.1250000E+00  0.1171875E-01
      1        -28.764929   1.000000
      2        -12.872999   1.000000
      3        -12.838370   1.000000
      4        -12.824629   1.000000
      5         -0.712257   1.000000
      6          2.384913  -0.000000
      7          3.028321   0.000000
      8          3.653557   0.000000
 
 -0.3750000E+00  0.3750000E+00  0.1250000E+00  0.5859375E-02
      1        -28.764014   1.000000
      2        -12.898313   1.000000
      3        -12.844365   1.000000
      4        -12.819015   1.000000
      5         -0.213314   1.000018
      6          1.714667  -0.000000
      7          2.913225   0.000000
      8          3.722327   0.000000
 
 -0.3125000E+00  0.3750000E+00  0.1250000E+00  0.1171875E-01
      1        -28.764055   1.000000
      2        -12.889418   1.000000
      3        -12.845794   1.000000
      4        -12.824497   1.000000
      5         -0.318103   1.000000
      6          1.960525  -0.000000
      7          2.876723   0.000000
      8          3.678818   0.000000
 
 -0.2500000E+00  0.3750000E+00  0.1250000E+00  0.5859375E-02
      1        -28.764070   1.000000
      2        -12.884851   1.000000
      3        -12.847474   1.000000
      4        -12.826686   1.000000
      5         -0.353283   1.000000
      6          2.093821  -0.000000
      7          2.772493  -0.000000
      8          3.752204   0.000000
 
 -0.4375000E+00  0.4375000E+00  0.1250000E+00  0.5859375E-02
      1        -28.763468   1.000000
      2        -12.909367   1.000000
      3        -12.848430   1.000000
      4        -12.818733   1.000000
      5          0.228440  -0.034158
      6          1.271127  -0.000000
      7          2.836475   0.000000
      8          3.642658   0.000000
 
 -0.3750000E+00  0.4375000E+00  0.1250000E+00  0.1171875E-01
      1        -28.763384   1.000000
      2        -12.902057   1.000000
      3        -12.851481   1.000000
      4        -12.824182   1.000000
      5          0.115029   0.496683
      6          1.532875  -0.000000
      7          2.760786  -0.000000
      8          3.620688   0.000000
 
 -0.3125000E+00  0.4375000E+00  0.1250000E+00  0.1171875E-01
      1        -28.763341   1.000000
      2        -12.894987   1.000000
      3        -12.856216   1.000000
      4        -12.827199   1.000000
      5          0.055740   0.915004
      6          1.766784  -0.000000
      7          2.535807  -0.000000
      8          3.829711   0.000000
 
  0.5000000E+00  0.5000000E+00  0.1250000E+00  0.2929688E-02
      1        -28.763275   1.000000
      2        -12.913216   1.000000
      3        -12.849846   1.000000
      4        -12.818628   1.000000
      5          0.539600  -0.000000
      6          0.962711  -0.000000
      7          2.810375   0.000000
      8          3.601322   0.000000
 
 -0.4375000E+00  0.5000000E+00  0.1250000E+00  0.1171875E-01
      1        -28.763022   1.000000
      2        -12.908889   1.000000
      3        -12.854560   1.000000
      4        -12.823967   1.000000
      5          0.546784  -0.000000
      6          1.113072  -0.000000
      7          2.696346  -0.000000
      8          3.551271   0.000000
 
 -0.3750000E+00  0.5000000E+00  0.1250000E+00  0.1171875E-01
      1        -28.762854   1.000000
      2        -12.901696   1.000000
      3        -12.862372   1.000000
      4        -12.827217   1.000000
      5          0.493937  -0.000001
      6          1.391360  -0.000000
      7          2.372854  -0.000000
      8          3.803592   0.000000
 
 -0.3125000E+00  0.5000000E+00  0.1250000E+00  0.5859375E-02
      1        -28.762795   1.000000
      2        -12.897189   1.000000
      3        -12.867316   1.000000
      4        -12.828149   1.000000
      5          0.471414  -0.000003
      6          1.574917  -0.000000
      7          2.165115  -0.000000
      8          4.042127   0.000000
 
 -0.4375000E+00 -0.4375000E+00  0.1250000E+00  0.5859375E-02
      1        -28.762683   1.000000
      2        -12.904038   1.000000
      3        -12.864581   1.000000
      4        -12.827183   1.000000
      5          0.863108  -0.000000
      6          1.044274  -0.000000
      7          2.315692  -0.000000
      8          3.775462   0.000000
 
 -0.3750000E+00 -0.4375000E+00  0.1250000E+00  0.1171875E-01
      1        -28.762498   1.000000
      2        -12.896675   1.000000
      3        -12.875269   1.000000
      4        -12.828393   1.000000
      5          0.903806  -0.000000
      6          1.300751  -0.000000
      7          1.924607  -0.000000
      8          4.113089   0.000000
 
 -0.3750000E+00 -0.3750000E+00  0.1250000E+00  0.1953125E-02
      1        -28.762376   1.000000
      2        -12.887426   1.000000
      3        -12.887426   1.000000
      4        -12.828668   1.000000
      5          1.235529  -0.000000
      6          1.235529  -0.000000
      7          1.611070  -0.000000
      8          4.422295   0.000000
 
  0.1875000E+00  0.1875000E+00  0.1875000E+00  0.1953125E-02
      1        -28.763984   1.000000
      2        -12.893067   1.000000
      3        -12.838558   1.000000
      4        -12.838558   1.000000
      5          0.325748  -0.005493
      6          1.822893  -0.000000
      7          1.822893  -0.000000
      8          3.721827   0.000000
 
  0.2500000E+00  0.1875000E+00  0.1875000E+00  0.5859375E-02
      1        -28.763732   1.000000
      2        -12.887179   1.000000
      3        -12.851442   1.000000
      4        -12.839635   1.000000
      5          0.756595  -0.000000
      6          1.530240  -0.000000
      7          1.763536  -0.000000
      8          3.354989   0.000000
 
  0.3125000E+00  0.1875000E+00  0.1875000E+00  0.2929688E-02
      1        -28.763644   1.000000
      2        -12.882536   1.000000
      3        -12.858542   1.000000
      4        -12.840010   1.000000
      5          1.155845  -0.000000
      6          1.190717  -0.000000
      7          1.744034  -0.000000
      8          3.214009   0.000000
 
 -0.1875000E+00  0.1875000E+00  0.1875000E+00  0.1464844E-02
      1        -28.765965   1.000000
      2        -12.847072   1.000000
      3        -12.830137   1.000000
      4        -12.830137   1.000000
      5         -1.090703   1.000000
      6          3.039989   0.000000
      7          3.311429   0.000000
      8          3.311429   0.000000
 
  0.2500000E+00  0.2500000E+00  0.1875000E+00  0.5859375E-02
      1        -28.763622   1.000000
      2        -12.875869   1.000000
      3        -12.860484   1.000000
      4        -12.845784   1.000000
      5          1.151537  -0.000000
      6          1.441493  -0.000000
      7          1.570950  -0.000000
      8          3.044938   0.000000
 
 -0.2500000E+00  0.2500000E+00  0.1875000E+00  0.5859375E-02
      1        -28.765037   1.000000
      2        -12.861457   1.000000
      3        -12.837536   1.000000
      4        -12.833307   1.000000
      5         -0.792836   1.000000
      6          2.623601  -0.000000
      7          3.215149   0.000000
      8          3.341871   0.000000
 
 -0.3125000E+00  0.3125000E+00  0.1875000E+00  0.5859375E-02
      1        -28.764110   1.000000
      2        -12.878978   1.000000
      3        -12.844911   1.000000
      4        -12.833148   1.000000
      5         -0.430626   1.000000
      6          2.192257  -0.000000
      7          3.106128   0.000000
      8          3.380257   0.000000
 
 -0.2500000E+00  0.3125000E+00  0.1875000E+00  0.5859375E-02
      1        -28.764130   1.000000
      2        -12.872984   1.000000
      3        -12.845751   1.000000
      4        -12.837383   1.000000
      5         -0.468338   1.000000
      6          2.317474  -0.000000
      7          3.070060   0.000000
      8          3.382848   0.000000
 
 -0.3750000E+00  0.3750000E+00  0.1875000E+00  0.5859375E-02
      1        -28.763322   1.000000
      2        -12.894240   1.000000
      3        -12.851144   1.000000
      4        -12.832442   1.000000
      5         -0.019853   1.033579
      6          1.772835  -0.000000
      7          3.012694   0.000000
      8          3.320932   0.000000
 
 -0.3125000E+00  0.3750000E+00  0.1875000E+00  0.1171875E-01
      1        -28.763290   1.000000
      2        -12.886354   1.000000
      3        -12.853723   1.000000
      4        -12.837861   1.000000
      5         -0.088288   1.007265
      6          1.970626  -0.000000
      7          2.893032   0.000000
      8          3.449532   0.000000
 
 -0.4375000E+00  0.4375000E+00  0.1875000E+00  0.5859375E-02
      1        -28.762796   1.000000
      2        -12.904476   1.000000
      3        -12.855304   1.000000
      4        -12.831858   1.000000
      5          0.417304  -0.000080
      6          1.351493  -0.000000
      7          2.951318   0.000000
      8          3.204752   0.000000
 
 -0.3750000E+00  0.4375000E+00  0.1875000E+00  0.1171875E-01
      1        -28.762648   1.000000
      2        -12.897286   1.000000
      3        -12.859779   1.000000
      4        -12.837455   1.000000
      5          0.329924  -0.004731
      6          1.603508  -0.000000
      7          2.729144  -0.000000
      8          3.422275   0.000000
 
 -0.3125000E+00  0.4375000E+00  0.1875000E+00  0.5859375E-02
      1        -28.762597   1.000000
      2        -12.892815   1.000000
      3        -12.863734   1.000000
      4        -12.838975   1.000000
      5          0.299776  -0.012535
      6          1.739007  -0.000000
      7          2.562729  -0.000000
      8          3.640873   0.000000
 
  0.5000000E+00  0.5000000E+00  0.1875000E+00  0.2929688E-02
      1        -28.762611   1.000000
      2        -12.908069   1.000000
      3        -12.856766   1.000000
      4        -12.831649   1.000000
      5          0.767392  -0.000000
      6          1.010444  -0.000000
      7          2.930058   0.000000
      8          3.150188   0.000000
 
 -0.4375000E+00  0.5000000E+00  0.1875000E+00  0.1171875E-01
      1        -28.762300   1.000000
      2        -12.903316   1.000000
      3        -12.863036   1.000000
      4        -12.837099   1.000000
      5          0.761065  -0.000000
      6          1.208915  -0.000000
      7          2.625640  -0.000000
      8          3.371781   0.000000
 
 -0.3750000E+00  0.5000000E+00  0.1875000E+00  0.1171875E-01
      1        -28.762130   1.000000
      2        -12.896866   1.000000
      3        -12.871379   1.000000
      4        -12.838984   1.000000
      5          0.713000  -0.000000
      6          1.469185  -0.000000
      7          2.293449  -0.000000
      8          3.727981   0.000000
 
 -0.4375000E+00 -0.4375000E+00  0.1875000E+00  0.5859375E-02
      1        -28.761968   1.000000
      2        -12.898179   1.000000
      3        -12.874246   1.000000
      4        -12.838899   1.000000
      5          1.116726  -0.000000
      6          1.121545  -0.000000
      7          2.191925  -0.000000
      8          3.730761   0.000000
 
 -0.3750000E+00 -0.4375000E+00  0.1875000E+00  0.5859375E-02
      1        -28.761850   1.000000
      2        -12.892635   1.000000
      3        -12.882216   1.000000
      4        -12.839235   1.000000
      5          1.087436  -0.000000
      6          1.346661  -0.000000
      7          1.938283  -0.000000
      8          4.013645   0.000000
 
  0.2500000E+00  0.2500000E+00  0.2500000E+00  0.4882813E-03
      1        -28.763604   1.000000
      2        -12.861094   1.000000
      3        -12.861094   1.000000
      4        -12.861094   1.000000
      5          1.424497  -0.000000
      6          1.424498  -0.000000
      7          1.424498  -0.000000
      8          2.836514   0.000000
 
 -0.2500000E+00  0.2500000E+00  0.2500000E+00  0.1464844E-02
      1        -28.764149   1.000000
      2        -12.864825   1.000000
      3        -12.845143   1.000000
      4        -12.845143   1.000000
      5         -0.506893   1.000000
      6          2.442788  -0.000000
      7          3.207224   0.000000
      8          3.207224   0.000000
 
 -0.3125000E+00  0.3125000E+00  0.2500000E+00  0.5859375E-02
      1        -28.763263   1.000000
      2        -12.876447   1.000000
      3        -12.852722   1.000000
      4        -12.848538   1.000000
      5         -0.161019   1.000341
      6          2.135087  -0.000000
      7          3.170250   0.000000
      8          3.201794   0.000000
 
 -0.3750000E+00  0.3750000E+00  0.2500000E+00  0.5859375E-02
      1        -28.762513   1.000000
      2        -12.889526   1.000000
      3        -12.859131   1.000000
      4        -12.848065   1.000000
      5          0.228863  -0.034288
      6          1.800678  -0.000000
      7          3.090314   0.000000
      8          3.124268   0.000000
 
 -0.3125000E+00  0.3750000E+00  0.2500000E+00  0.5859375E-02
      1        -28.762460   1.000000
      2        -12.884227   1.000000
      3        -12.861340   1.000000
      4        -12.851919   1.000000
      5          0.194781   0.009583
      6          1.894067  -0.000000
      7          2.969810   0.000000
      8          3.333971   0.000000
 
 -0.4375000E+00  0.4375000E+00  0.2500000E+00  0.5859375E-02
      1        -28.762008   1.000000
      2        -12.898715   1.000000
      3        -12.863400   1.000000
      4        -12.847224   1.000000
      5          0.642739  -0.000000
      6          1.446130  -0.000000
      7          2.910943   0.000000
      8          3.088911   0.000000
 
 -0.3750000E+00  0.4375000E+00  0.2500000E+00  0.1171875E-01
      1        -28.761849   1.000000
      2        -12.892406   1.000000
      3        -12.868260   1.000000
      4        -12.851863   1.000000
      5          0.579818  -0.000000
      6          1.631104  -0.000000
      7          2.717985  -0.000000
      8          3.395729   0.000000
 
  0.5000000E+00  0.5000000E+00  0.2500000E+00  0.2929688E-02
      1        -28.761833   1.000000
      2        -12.901986   1.000000
      3        -12.864904   1.000000
      4        -12.846877   1.000000
      5          1.036921  -0.000000
      6          1.077078  -0.000000
      7          2.832641   0.000000
      8          3.075887   0.000000
 
 -0.4375000E+00  0.5000000E+00  0.2500000E+00  0.1171875E-01
      1        -28.761517   1.000000
      2        -12.897296   1.000000
      3        -12.871901   1.000000
      4        -12.851429   1.000000
      5          0.967210  -0.000000
      6          1.329253  -0.000000
      7          2.543501  -0.000000
      8          3.386232   0.000000
 
 -0.3750000E+00  0.5000000E+00  0.2500000E+00  0.5859375E-02
      1        -28.761407   1.000000
      2        -12.893086   1.000000
      3        -12.877796   1.000000
      4        -12.852161   1.000000
      5          0.935565  -0.000000
      6          1.469198  -0.000000
      7          2.378049  -0.000000
      8          3.654231   0.000000
 
 -0.4375000E+00 -0.4375000E+00  0.2500000E+00  0.5859375E-02
      1        -28.761254   1.000000
      2        -12.892311   1.000000
      3        -12.882359   1.000000
      4        -12.852058   1.000000
      5          1.206072  -0.000000
      6          1.295794  -0.000000
      7          2.228510  -0.000000
      8          3.740195   0.000000
 
 -0.3125000E+00  0.3125000E+00  0.3125000E+00  0.1464844E-02
      1        -28.762413   1.000000
      2        -12.877170   1.000000
      3        -12.860501   1.000000
      4        -12.860501   1.000000
      5          0.159472   0.159573
      6          1.965474  -0.000000
      7          3.210457   0.000000
      8          3.210457   0.000000
 
 -0.3750000E+00  0.3750000E+00  0.3125000E+00  0.5859375E-02
      1        -28.761697   1.000000
      2        -12.885135   1.000000
      3        -12.867078   1.000000
      4        -12.863187   1.000000
      5          0.511653  -0.000000
      6          1.744172  -0.000000
      7          3.098022   0.000000
      8          3.225865   0.000000
 
 -0.4375000E+00  0.4375000E+00  0.3125000E+00  0.5859375E-02
      1        -28.761217   1.000000
      2        -12.892958   1.000000
      3        -12.871462   1.000000
      4        -12.862410   1.000000
      5          0.870008  -0.000000
      6          1.502010  -0.000000
      7          2.841029   0.000000
      8          3.227556   0.000000
 
 -0.3750000E+00  0.4375000E+00  0.3125000E+00  0.5859375E-02
      1        -28.761112   1.000000
      2        -12.888837   1.000000
      3        -12.874842   1.000000
      4        -12.865337   1.000000
      5          0.836711  -0.000000
      6          1.575168  -0.000000
      7          2.856135   0.000000
      8          3.397147   0.000000
 
  0.5000000E+00  0.5000000E+00  0.3125000E+00  0.2929688E-02
      1        -28.761051   1.000000
      2        -12.895890   1.000000
      3        -12.873005   1.000000
      4        -12.861957   1.000000
      5          1.158530  -0.000000
      6          1.263524  -0.000000
      7          2.730724  -0.000000
      8          3.226692   0.000000
 
 -0.4375000E+00  0.5000000E+00  0.3125000E+00  0.1171875E-01
      1        -28.760796   1.000000
      2        -12.891822   1.000000
      3        -12.879514   1.000000
      4        -12.865014   1.000000
      5          1.129972  -0.000000
      6          1.396690  -0.000000
      7          2.645985  -0.000000
      8          3.463943   0.000000
 
 -0.4375000E+00 -0.4375000E+00  0.3125000E+00  0.1953125E-02
      1        -28.760647   1.000000
      2        -12.887325   1.000000
      3        -12.887325   1.000000
      4        -12.865023   1.000000
      5          1.301014  -0.000000
      6          1.301014  -0.000000
      7          2.529165  -0.000000
      8          3.729043   0.000000
 
 -0.3750000E+00  0.3750000E+00  0.3750000E+00  0.1464844E-02
      1        -28.761006   1.000000
      2        -12.883516   1.000000
      3        -12.873798   1.000000
      4        -12.873798   1.000000
      5          0.802783  -0.000000
      6          1.619513  -0.000000
      7          3.301009   0.000000
      8          3.301074   0.000000
 
 -0.4375000E+00  0.4375000E+00  0.3750000E+00  0.5859375E-02
      1        -28.760549   1.000000
      2        -12.888130   1.000000
      3        -12.878279   1.000000
      4        -12.875133   1.000000
      5          1.070528  -0.000000
      6          1.476798  -0.000000
      7          3.027161   0.000000
      8          3.344366   0.000000
 
  0.5000000E+00  0.5000000E+00  0.3750000E+00  0.2929688E-02
      1        -28.760385   1.000000
      2        -12.890703   1.000000
      3        -12.879847   1.000000
      4        -12.874638   1.000000
      5          1.243949  -0.000000
      6          1.355710  -0.000000
      7          2.912602   0.000000
      8          3.358168   0.000000
 
 -0.4375000E+00  0.5000000E+00  0.3750000E+00  0.5859375E-02
      1        -28.760245   1.000000
      2        -12.888171   1.000000
      3        -12.883994   1.000000
      4        -12.876124   1.000000
      5          1.249342  -0.000000
      6          1.379051  -0.000000
      7          2.956980   0.000000
      8          3.503191   0.000000
 
 -0.4375000E+00  0.4375000E+00  0.4375000E+00  0.1464844E-02
      1        -28.760100   1.000000
      2        -12.885654   1.000000
      3        -12.882818   1.000000
      4        -12.882818   1.000000
      5          1.225524  -0.000000
      6          1.410291  -0.000000
      7          3.305391   0.000000
      8          3.421083   0.000000
 
  0.5000000E+00  0.5000000E+00  0.4375000E+00  0.2929688E-02
      1        -28.759946   1.000000
      2        -12.887238   1.000000
      3        -12.884411   1.000000
      4        -12.883071   1.000000
      5          1.313014  -0.000000
      6          1.351796  -0.000000
      7          3.267484   0.000000
      8          3.447614   0.000000
 
  0.5000000E+00  0.5000000E+00  0.5000000E+00  0.2441406E-03
      1        -28.759782   1.000000
      2        -12.886000   1.000000
      3        -12.886000   1.000000
      4        -12.886000   1.000000
      5          1.340308  -0.000000
      6          1.340308  -0.000000
      7          3.479274   0.000000
      8          3.479275   0.000000
