<?xml version="1.0" encoding="ISO-8859-1"?>
<modeling>
 <generator>
  <i name="program" type="string">vasp </i>
  <i name="version" type="string">6.4.2  </i>
  <i name="subversion" type="string">20Jul23 (build Mar  2 2025 11:04:54) complex                          parallel </i>
  <i name="platform" type="string">LinuxNV </i>
  <i name="date" type="string">2026 04 06 </i>
  <i name="time" type="string">23:17:19 </i>
 </generator>
 <incar>
  <i type="string" name="SYSTEM">BCC Rb K-test</i>
  <i type="string" name="PREC">Accurate</i>
  <i type="int" name="IBRION">    -1</i>
  <i name="EDIFF">      0.00000100</i>
  <i type="int" name="NSW">     0</i>
  <i name="ENCUT">    400.00000000</i>
  <i type="int" name="ISMEAR">     1</i>
  <i name="SIGMA">      0.10000000</i>
  <i name="KSPACING">      0.10000000</i>
  <i type="logical" name="KGAMMA"> T  </i>
  <i type="logical" name="LWAVE"> F  </i>
  <i type="logical" name="LCHARG"> F  </i>
 </incar>
 <primitive_cell>
  <structure name="primitive_cell" >
   <crystal>
    <varray name="basis" >
     <v>      -2.79250000       2.79250000       2.79250000 </v>
     <v>       2.79250000      -2.79250000       2.79250000 </v>
     <v>       2.79250000       2.79250000      -2.79250000 </v>
    </varray>
    <i name="volume">     87.10428831 </i>
    <varray name="rec_basis" >
     <v>      -0.00000000       0.17905103       0.17905103 </v>
     <v>       0.17905103      -0.00000000       0.17905103 </v>
     <v>       0.17905103       0.17905103      -0.00000000 </v>
    </varray>
   </crystal>
   <varray name="positions" >
    <v>       0.00000000       0.00000000       0.00000000 </v>
   </varray>
  </structure>
  <varray name="primitive_index" >
   <v type="int" >        1 </v>
  </varray>
 </primitive_cell>
 <kpoints>
  <generation param="Gamma">
   <v type="int" name="divisions">      16       16       16 </v>
   <v name="usershift">      0.00000000       0.00000000       0.00000000 </v>
   <v name="genvec1">      0.06250000      -0.00000000      -0.00000000 </v>
   <v name="genvec2">      0.00000000       0.06250000      -0.00000000 </v>
   <v name="genvec3">      0.00000000      -0.00000000       0.06250000 </v>
   <v name="shift">      0.00000000       0.00000000       0.00000000 </v>
  </generation>
  <varray name="kpointlist" >
   <v>       0.00000000       0.00000000       0.00000000 </v>
   <v>       0.06250000       0.00000000       0.00000000 </v>
   <v>       0.12500000       0.00000000       0.00000000 </v>
   <v>       0.18750000       0.00000000       0.00000000 </v>
   <v>       0.25000000       0.00000000       0.00000000 </v>
   <v>       0.31250000       0.00000000       0.00000000 </v>
   <v>       0.37500000       0.00000000       0.00000000 </v>
   <v>       0.43750000       0.00000000       0.00000000 </v>
   <v>       0.50000000       0.00000000       0.00000000 </v>
   <v>       0.06250000       0.06250000       0.00000000 </v>
   <v>       0.12500000       0.06250000       0.00000000 </v>
   <v>       0.18750000       0.06250000       0.00000000 </v>
   <v>       0.25000000       0.06250000       0.00000000 </v>
   <v>       0.31250000       0.06250000       0.00000000 </v>
   <v>       0.37500000       0.06250000       0.00000000 </v>
   <v>       0.43750000       0.06250000       0.00000000 </v>
   <v>       0.12500000       0.12500000       0.00000000 </v>
   <v>       0.18750000       0.12500000       0.00000000 </v>
   <v>       0.25000000       0.12500000       0.00000000 </v>
   <v>       0.31250000       0.12500000       0.00000000 </v>
   <v>       0.37500000       0.12500000       0.00000000 </v>
   <v>       0.43750000       0.12500000       0.00000000 </v>
   <v>       0.18750000       0.18750000       0.00000000 </v>
   <v>       0.25000000       0.18750000       0.00000000 </v>
   <v>       0.31250000       0.18750000       0.00000000 </v>
   <v>       0.37500000       0.18750000       0.00000000 </v>
   <v>       0.25000000       0.25000000       0.00000000 </v>
   <v>       0.31250000       0.25000000       0.00000000 </v>
   <v>       0.37500000       0.25000000       0.00000000 </v>
   <v>       0.31250000       0.31250000       0.00000000 </v>
   <v>       0.06250000       0.06250000       0.06250000 </v>
   <v>       0.12500000       0.06250000       0.06250000 </v>
   <v>       0.18750000       0.06250000       0.06250000 </v>
   <v>       0.25000000       0.06250000       0.06250000 </v>
   <v>       0.31250000       0.06250000       0.06250000 </v>
   <v>       0.37500000       0.06250000       0.06250000 </v>
   <v>       0.43750000       0.06250000       0.06250000 </v>
   <v>      -0.06250000       0.06250000       0.06250000 </v>
   <v>       0.12500000       0.12500000       0.06250000 </v>
   <v>       0.18750000       0.12500000       0.06250000 </v>
   <v>       0.25000000       0.12500000       0.06250000 </v>
   <v>       0.31250000       0.12500000       0.06250000 </v>
   <v>       0.37500000       0.12500000       0.06250000 </v>
   <v>      -0.12500000       0.12500000       0.06250000 </v>
   <v>       0.18750000       0.18750000       0.06250000 </v>
   <v>       0.25000000       0.18750000       0.06250000 </v>
   <v>       0.31250000       0.18750000       0.06250000 </v>
   <v>       0.37500000       0.18750000       0.06250000 </v>
   <v>      -0.18750000       0.18750000       0.06250000 </v>
   <v>      -0.12500000       0.18750000       0.06250000 </v>
   <v>       0.25000000       0.25000000       0.06250000 </v>
   <v>       0.31250000       0.25000000       0.06250000 </v>
   <v>      -0.25000000       0.25000000       0.06250000 </v>
   <v>      -0.18750000       0.25000000       0.06250000 </v>
   <v>       0.31250000       0.31250000       0.06250000 </v>
   <v>      -0.31250000       0.31250000       0.06250000 </v>
   <v>      -0.25000000       0.31250000       0.06250000 </v>
   <v>      -0.18750000       0.31250000       0.06250000 </v>
   <v>      -0.37500000       0.37500000       0.06250000 </v>
   <v>      -0.31250000       0.37500000       0.06250000 </v>
   <v>      -0.25000000       0.37500000       0.06250000 </v>
   <v>      -0.43750000       0.43750000       0.06250000 </v>
   <v>      -0.37500000       0.43750000       0.06250000 </v>
   <v>      -0.31250000       0.43750000       0.06250000 </v>
   <v>      -0.25000000       0.43750000       0.06250000 </v>
   <v>       0.50000000       0.50000000       0.06250000 </v>
   <v>      -0.43750000       0.50000000       0.06250000 </v>
   <v>      -0.37500000       0.50000000       0.06250000 </v>
   <v>      -0.31250000       0.50000000       0.06250000 </v>
   <v>      -0.43750000      -0.43750000       0.06250000 </v>
   <v>      -0.37500000      -0.43750000       0.06250000 </v>
   <v>      -0.31250000      -0.43750000       0.06250000 </v>
   <v>      -0.37500000      -0.37500000       0.06250000 </v>
   <v>       0.12500000       0.12500000       0.12500000 </v>
   <v>       0.18750000       0.12500000       0.12500000 </v>
   <v>       0.25000000       0.12500000       0.12500000 </v>
   <v>       0.31250000       0.12500000       0.12500000 </v>
   <v>       0.37500000       0.12500000       0.12500000 </v>
   <v>      -0.12500000       0.12500000       0.12500000 </v>
   <v>       0.18750000       0.18750000       0.12500000 </v>
   <v>       0.25000000       0.18750000       0.12500000 </v>
   <v>       0.31250000       0.18750000       0.12500000 </v>
   <v>      -0.18750000       0.18750000       0.12500000 </v>
   <v>       0.25000000       0.25000000       0.12500000 </v>
   <v>       0.31250000       0.25000000       0.12500000 </v>
   <v>      -0.25000000       0.25000000       0.12500000 </v>
   <v>      -0.18750000       0.25000000       0.12500000 </v>
   <v>      -0.31250000       0.31250000       0.12500000 </v>
   <v>      -0.25000000       0.31250000       0.12500000 </v>
   <v>      -0.37500000       0.37500000       0.12500000 </v>
   <v>      -0.31250000       0.37500000       0.12500000 </v>
   <v>      -0.25000000       0.37500000       0.12500000 </v>
   <v>      -0.43750000       0.43750000       0.12500000 </v>
   <v>      -0.37500000       0.43750000       0.12500000 </v>
   <v>      -0.31250000       0.43750000       0.12500000 </v>
   <v>       0.50000000       0.50000000       0.12500000 </v>
   <v>      -0.43750000       0.50000000       0.12500000 </v>
   <v>      -0.37500000       0.50000000       0.12500000 </v>
   <v>      -0.31250000       0.50000000       0.12500000 </v>
   <v>      -0.43750000      -0.43750000       0.12500000 </v>
   <v>      -0.37500000      -0.43750000       0.12500000 </v>
   <v>      -0.37500000      -0.37500000       0.12500000 </v>
   <v>       0.18750000       0.18750000       0.18750000 </v>
   <v>       0.25000000       0.18750000       0.18750000 </v>
   <v>       0.31250000       0.18750000       0.18750000 </v>
   <v>      -0.18750000       0.18750000       0.18750000 </v>
   <v>       0.25000000       0.25000000       0.18750000 </v>
   <v>      -0.25000000       0.25000000       0.18750000 </v>
   <v>      -0.31250000       0.31250000       0.18750000 </v>
   <v>      -0.25000000       0.31250000       0.18750000 </v>
   <v>      -0.37500000       0.37500000       0.18750000 </v>
   <v>      -0.31250000       0.37500000       0.18750000 </v>
   <v>      -0.43750000       0.43750000       0.18750000 </v>
   <v>      -0.37500000       0.43750000       0.18750000 </v>
   <v>      -0.31250000       0.43750000       0.18750000 </v>
   <v>       0.50000000       0.50000000       0.18750000 </v>
   <v>      -0.43750000       0.50000000       0.18750000 </v>
   <v>      -0.37500000       0.50000000       0.18750000 </v>
   <v>      -0.43750000      -0.43750000       0.18750000 </v>
   <v>      -0.37500000      -0.43750000       0.18750000 </v>
   <v>       0.25000000       0.25000000       0.25000000 </v>
   <v>      -0.25000000       0.25000000       0.25000000 </v>
   <v>      -0.31250000       0.31250000       0.25000000 </v>
   <v>      -0.37500000       0.37500000       0.25000000 </v>
   <v>      -0.31250000       0.37500000       0.25000000 </v>
   <v>      -0.43750000       0.43750000       0.25000000 </v>
   <v>      -0.37500000       0.43750000       0.25000000 </v>
   <v>       0.50000000       0.50000000       0.25000000 </v>
   <v>      -0.43750000       0.50000000       0.25000000 </v>
   <v>      -0.37500000       0.50000000       0.25000000 </v>
   <v>      -0.43750000      -0.43750000       0.25000000 </v>
   <v>      -0.31250000       0.31250000       0.31250000 </v>
   <v>      -0.37500000       0.37500000       0.31250000 </v>
   <v>      -0.43750000       0.43750000       0.31250000 </v>
   <v>      -0.37500000       0.43750000       0.31250000 </v>
   <v>       0.50000000       0.50000000       0.31250000 </v>
   <v>      -0.43750000       0.50000000       0.31250000 </v>
   <v>      -0.43750000      -0.43750000       0.31250000 </v>
   <v>      -0.37500000       0.37500000       0.37500000 </v>
   <v>      -0.43750000       0.43750000       0.37500000 </v>
   <v>       0.50000000       0.50000000       0.37500000 </v>
   <v>      -0.43750000       0.50000000       0.37500000 </v>
   <v>      -0.43750000       0.43750000       0.43750000 </v>
   <v>       0.50000000       0.50000000       0.43750000 </v>
   <v>       0.50000000       0.50000000       0.50000000 </v>
  </varray>
  <varray name="weights" >
   <v>       0.00024414 </v>
   <v>       0.00292969 </v>
   <v>       0.00292969 </v>
   <v>       0.00292969 </v>
   <v>       0.00292969 </v>
   <v>       0.00292969 </v>
   <v>       0.00292969 </v>
   <v>       0.00292969 </v>
   <v>       0.00146484 </v>
   <v>       0.00585938 </v>
   <v>       0.01171875 </v>
   <v>       0.01171875 </v>
   <v>       0.01171875 </v>
   <v>       0.01171875 </v>
   <v>       0.01171875 </v>
   <v>       0.01171875 </v>
   <v>       0.00585938 </v>
   <v>       0.01171875 </v>
   <v>       0.01171875 </v>
   <v>       0.01171875 </v>
   <v>       0.01171875 </v>
   <v>       0.00585938 </v>
   <v>       0.00585938 </v>
   <v>       0.01171875 </v>
   <v>       0.01171875 </v>
   <v>       0.01171875 </v>
   <v>       0.00585938 </v>
   <v>       0.01171875 </v>
   <v>       0.00585938 </v>
   <v>       0.00585938 </v>
   <v>       0.00195313 </v>
   <v>       0.00585938 </v>
   <v>       0.00585938 </v>
   <v>       0.00585938 </v>
   <v>       0.00585938 </v>
   <v>       0.00585938 </v>
   <v>       0.00292969 </v>
   <v>       0.00146484 </v>
   <v>       0.00585938 </v>
   <v>       0.01171875 </v>
   <v>       0.01171875 </v>
   <v>       0.01171875 </v>
   <v>       0.01171875 </v>
   <v>       0.00585938 </v>
   <v>       0.00585938 </v>
   <v>       0.01171875 </v>
   <v>       0.01171875 </v>
   <v>       0.00585938 </v>
   <v>       0.00585938 </v>
   <v>       0.00585938 </v>
   <v>       0.00585938 </v>
   <v>       0.01171875 </v>
   <v>       0.00585938 </v>
   <v>       0.01171875 </v>
   <v>       0.00195313 </v>
   <v>       0.00585938 </v>
   <v>       0.01171875 </v>
   <v>       0.00585938 </v>
   <v>       0.00585938 </v>
   <v>       0.01171875 </v>
   <v>       0.01171875 </v>
   <v>       0.00585938 </v>
   <v>       0.01171875 </v>
   <v>       0.01171875 </v>
   <v>       0.00585938 </v>
   <v>       0.00292969 </v>
   <v>       0.01171875 </v>
   <v>       0.01171875 </v>
   <v>       0.01171875 </v>
   <v>       0.00585938 </v>
   <v>       0.01171875 </v>
   <v>       0.00585938 </v>
   <v>       0.00585938 </v>
   <v>       0.00195313 </v>
   <v>       0.00585938 </v>
   <v>       0.00585938 </v>
   <v>       0.00585938 </v>
   <v>       0.00292969 </v>
   <v>       0.00146484 </v>
   <v>       0.00585938 </v>
   <v>       0.01171875 </v>
   <v>       0.01171875 </v>
   <v>       0.00585938 </v>
   <v>       0.00585938 </v>
   <v>       0.00585938 </v>
   <v>       0.00585938 </v>
   <v>       0.00585938 </v>
   <v>       0.00585938 </v>
   <v>       0.01171875 </v>
   <v>       0.00585938 </v>
   <v>       0.01171875 </v>
   <v>       0.00585938 </v>
   <v>       0.00585938 </v>
   <v>       0.01171875 </v>
   <v>       0.01171875 </v>
   <v>       0.00292969 </v>
   <v>       0.01171875 </v>
   <v>       0.01171875 </v>
   <v>       0.00585938 </v>
   <v>       0.00585938 </v>
   <v>       0.01171875 </v>
   <v>       0.00195313 </v>
   <v>       0.00195313 </v>
   <v>       0.00585938 </v>
   <v>       0.00292969 </v>
   <v>       0.00146484 </v>
   <v>       0.00585938 </v>
   <v>       0.00585938 </v>
   <v>       0.00585938 </v>
   <v>       0.00585938 </v>
   <v>       0.00585938 </v>
   <v>       0.01171875 </v>
   <v>       0.00585938 </v>
   <v>       0.01171875 </v>
   <v>       0.00585938 </v>
   <v>       0.00292969 </v>
   <v>       0.01171875 </v>
   <v>       0.01171875 </v>
   <v>       0.00585938 </v>
   <v>       0.00585938 </v>
   <v>       0.00048828 </v>
   <v>       0.00146484 </v>
   <v>       0.00585938 </v>
   <v>       0.00585938 </v>
   <v>       0.00585938 </v>
   <v>       0.00585938 </v>
   <v>       0.01171875 </v>
   <v>       0.00292969 </v>
   <v>       0.01171875 </v>
   <v>       0.00585938 </v>
   <v>       0.00585938 </v>
   <v>       0.00146484 </v>
   <v>       0.00585938 </v>
   <v>       0.00585938 </v>
   <v>       0.00585938 </v>
   <v>       0.00292969 </v>
   <v>       0.01171875 </v>
   <v>       0.00195313 </v>
   <v>       0.00146484 </v>
   <v>       0.00585938 </v>
   <v>       0.00292969 </v>
   <v>       0.00585938 </v>
   <v>       0.00146484 </v>
   <v>       0.00292969 </v>
   <v>       0.00024414 </v>
  </varray>
 </kpoints>
 <parameters>
  <separator name="general" >
   <i type="string" name="SYSTEM">BCC Rb K-test</i>
   <i type="logical" name="LCOMPAT"> F  </i>
  </separator>
  <separator name="electronic" >
   <i type="string" name="PREC">accura</i>
   <i name="ENMAX">    400.00000000</i>
   <i name="ENAUG">    423.86100000</i>
   <i name="EDIFF">      0.00000100</i>
   <i type="int" name="IALGO">    38</i>
   <i type="int" name="IWAVPR">    10</i>
   <i type="int" name="NBANDS">     8</i>
   <i type="int" name="NBANDSLOW">    -1</i>
   <i type="int" name="NBANDSHIGH">    -1</i>
   <i name="NELECT">      9.00000000</i>
   <i type="int" name="TURBO">     0</i>
   <i type="int" name="IRESTART">     0</i>
   <i type="int" name="NREBOOT">     0</i>
   <i type="int" name="NMIN">     0</i>
   <i name="EREF">      0.00000000</i>
   <separator name="electronic smearing" >
    <i type="int" name="ISMEAR">     1</i>
    <i name="SIGMA">      0.10000000</i>
    <i name="KSPACING">      0.10000000</i>
    <i type="logical" name="KGAMMA"> T  </i>
    <i type="logical" name="KBLOWUP"> T  </i>
   </separator>
   <separator name="electronic projectors" >
    <i type="logical" name="LREAL"> F  </i>
    <v name="ROPT">      0.00000000</v>
    <i type="int" name="LMAXPAW">  -100</i>
    <i type="int" name="LMAXMIX">     2</i>
    <i type="logical" name="NLSPLINE"> F  </i>
   </separator>
   <separator name="electronic startup" >
    <i type="int" name="ISTART">     0</i>
    <i type="int" name="ICHARG">     2</i>
    <i type="int" name="INIWAV">     1</i>
   </separator>
   <separator name="electronic spin" >
    <i type="int" name="ISPIN">     1</i>
    <i type="logical" name="LNONCOLLINEAR"> F  </i>
    <v name="MAGMOM">      1.00000000</v>
    <i name="NUPDOWN">     -1.00000000</i>
    <i type="logical" name="LSORBIT"> F  </i>
    <v name="SAXIS">      0.00000000      0.00000000      1.00000000</v>
    <i type="logical" name="LSPIRAL"> F  </i>
    <v name="QSPIRAL">      0.00000000      0.00000000      0.00000000</v>
    <i type="logical" name="LZEROZ"> F  </i>
   </separator>
   <separator name="electronic exchange-correlation" >
    <i type="logical" name="LASPH"> F  </i>
    <i type="logical" name="LMETAGGA"> F  </i>
   </separator>
   <separator name="electronic convergence" >
    <i type="int" name="NELM">    60</i>
    <i type="int" name="NELMDL">    -5</i>
    <i type="int" name="NELMIN">     2</i>
    <i name="ENINI">    400.00000000</i>
    <separator name="electronic convergence detail" >
     <i type="logical" name="LDIAG"> T  </i>
     <i type="logical" name="LSUBROT"> F  </i>
     <i name="WEIMIN">      0.00000000</i>
     <i name="EBREAK">      0.00000003</i>
     <i name="DEPER">      0.30000000</i>
     <i type="int" name="NRMM">     4</i>
     <i name="TIME">      0.40000000</i>
    </separator>
   </separator>
   <separator name="electronic mixer" >
    <i name="AMIX">      0.40000000</i>
    <i name="BMIX">      1.00000000</i>
    <i name="AMIN">      0.10000000</i>
    <i name="AMIX_MAG">      1.60000000</i>
    <i name="BMIX_MAG">      1.00000000</i>
    <separator name="electronic mixer details" >
     <i type="int" name="IMIX">     4</i>
     <i type="logical" name="MIXFIRST"> F  </i>
     <i type="int" name="MAXMIX">   -45</i>
     <i name="WC">    100.00000000</i>
     <i type="int" name="INIMIX">     1</i>
     <i type="int" name="MIXPRE">     1</i>
     <i type="int" name="MREMOVE">     5</i>
    </separator>
   </separator>
   <separator name="electronic dipolcorrection" >
    <i type="logical" name="LDIPOL"> F  </i>
    <i type="logical" name="LMONO"> F  </i>
    <i type="int" name="IDIPOL">     0</i>
    <i name="EPSILON">      1.00000000</i>
    <v name="DIPOL">   -100.00000000   -100.00000000   -100.00000000</v>
    <i name="EFIELD">      0.00000000</i>
   </separator>
  </separator>
  <separator name="grids" >
   <i type="int" name="NGX">    32</i>
   <i type="int" name="NGY">    32</i>
   <i type="int" name="NGZ">    32</i>
   <i type="int" name="NGXF">    64</i>
   <i type="int" name="NGYF">    64</i>
   <i type="int" name="NGZF">    64</i>
   <i type="logical" name="ADDGRID"> F  </i>
  </separator>
  <separator name="ionic" >
   <i type="int" name="NSW">     0</i>
   <i type="int" name="IBRION">    -1</i>
   <i type="int" name="MDALGO">     0</i>
   <i type="int" name="ISIF">     2</i>
   <i name="PSTRESS">      0.00000000</i>
   <i name="EDIFFG">      0.00001000</i>
   <i type="int" name="NFREE">     0</i>
   <i name="POTIM">      0.50000000</i>
   <i name="SMASS">     -3.00000000</i>
   <i name="SCALEE">      1.00000000</i>
  </separator>
  <separator name="ionic md" >
   <i name="TEBEG">      0.00010000</i>
   <i name="TEEND">      0.00010000</i>
   <i type="int" name="NBLOCK">     1</i>
   <i type="int" name="KBLOCK">     1</i>
   <i type="int" name="NPACO">   256</i>
   <i name="APACO">     10.00000000</i>
  </separator>
  <separator name="symmetry" >
   <i type="int" name="ISYM">     2</i>
   <i name="SYMPREC">      0.00001000</i>
  </separator>
  <separator name="dos" >
   <i type="int" name="LORBIT">     0</i>
   <v name="RWIGS">     -1.00000000</v>
   <i type="int" name="NEDOS">   301</i>
   <i name="EMIN">     10.00000000</i>
   <i name="EMAX">    -10.00000000</i>
   <i name="EFERMI">      0.00000000</i>
  </separator>
  <separator name="writing" >
   <i type="int" name="NWRITE">     2</i>
   <i type="logical" name="LWAVE"> F  </i>
   <i type="logical" name="LDOWNSAMPLE"> F  </i>
   <i type="logical" name="LCHARG"> F  </i>
   <i type="logical" name="LPARD"> F  </i>
   <i type="logical" name="LVTOT"> F  </i>
   <i type="logical" name="LVHAR"> F  </i>
   <i type="logical" name="LELF"> F  </i>
   <i type="logical" name="LOPTICS"> F  </i>
   <v name="STM">      0.00000000      0.00000000      0.00000000      0.00000000      0.00000000      0.00000000      0.00000000</v>
  </separator>
  <separator name="performance" >
   <i type="int" name="NPAR">     1</i>
   <i type="int" name="NSIM">     4</i>
   <i type="int" name="NBLK">    -1</i>
   <i type="logical" name="LPLANE"> T  </i>
   <i type="logical" name="LSCALAPACK"> T  </i>
   <i type="logical" name="LSCAAWARE"> F  </i>
   <i type="logical" name="LSCALU"> F  </i>
   <i type="logical" name="LASYNC"> F  </i>
   <i type="logical" name="LORBITALREAL"> F  </i>
  </separator>
  <separator name="miscellaneous" >
   <i type="int" name="IDIOT">     3</i>
   <i type="int" name="PHON_NSTRUCT">    -1</i>
   <i type="logical" name="LMUSIC"> F  </i>
   <v name="POMASS">     85.46800000</v>
   <v name="DARWINR">      0.00000000</v>
   <v name="DARWINV">      1.00000000</v>
   <i type="logical" name="LCORR"> T  </i>
  </separator>
  <i type="logical" name="GGA_COMPAT"> T  </i>
  <i type="logical" name="LBERRY"> F  </i>
  <i type="int" name="ICORELEVEL">     0</i>
  <i type="logical" name="LDAU"> F  </i>
  <i type="int" name="I_CONSTRAINED_M">     0</i>
  <separator name="electronic exchange-correlation" >
   <i type="string" name="GGA">--</i>
   <i type="int" name="VOSKOWN">     0</i>
   <i type="logical" name="LHFCALC"> F  </i>
   <i type="string" name="PRECFOCK"></i>
   <i type="logical" name="LSYMGRAD"> F  </i>
   <i type="logical" name="LHFONE"> F  </i>
   <i type="logical" name="LRHFCALC"> F  </i>
   <i type="logical" name="LTHOMAS"> F  </i>
   <i type="logical" name="LMODELHF"> F  </i>
   <i type="logical" name="LFOCKACE"> F  </i>
   <i name="ENCUT4O">     -1.00000000</i>
   <i type="int" name="EXXOEP">     0</i>
   <i type="int" name="FOURORBIT">     0</i>
   <i name="AEXX">      0.00000000</i>
   <i name="HFALPHA">      0.00000000</i>
   <i name="MCALPHA">      0.00000000</i>
   <i name="ALDAX">      1.00000000</i>
   <i name="AGGAX">      1.00000000</i>
   <i name="ALDAC">      1.00000000</i>
   <i name="AGGAC">      1.00000000</i>
   <i type="int" name="NKREDX">     1</i>
   <i type="int" name="NKREDY">     1</i>
   <i type="int" name="NKREDZ">     1</i>
   <i type="logical" name="SHIFTRED"> F  </i>
   <i type="logical" name="ODDONLY"> F  </i>
   <i type="logical" name="EVENONLY"> F  </i>
   <i type="int" name="LMAXFOCK">     0</i>
   <i type="int" name="NMAXFOCKAE">     0</i>
   <i type="logical" name="LFOCKAEDFT"> F  </i>
   <i name="HFSCREEN">      0.00000000</i>
   <i name="HFSCREENC">      0.00000000</i>
   <i type="int" name="NBANDSGWLOW">     0</i>
  </separator>
  <separator name="vdW DFT" >
   <i type="logical" name="LUSE_VDW"> F  </i>
   <i type="int" name="IVDW_NL">     1</i>
   <i type="logical" name="LSPIN_VDW"> F  </i>
   <i name="Zab_VDW">     -0.84910000</i>
   <i name="PARAM1">      0.12340000</i>
   <i name="PARAM2">      1.00000000</i>
   <i name="PARAM3">      0.00000000</i>
  </separator>
  <separator name="model GW" >
   <i type="int" name="MODEL_GW">     0</i>
   <i name="MODEL_EPS0">     52.26257299</i>
   <i name="MODEL_ALPHA">      1.00000000</i>
  </separator>
  <separator name="linear response parameters" >
   <i type="logical" name="LEPSILON"> F  </i>
   <i type="logical" name="LRPA"> F  </i>
   <i type="logical" name="LNABLA"> F  </i>
   <i type="logical" name="LVEL"> F  </i>
   <i name="CSHIFT">      0.10000000</i>
   <i name="OMEGAMAX">     -1.00000000</i>
   <i name="DEG_THRESHOLD">      0.00200000</i>
   <i name="RTIME">     -0.10000000</i>
   <i name="WPLASMAI">      0.00000000</i>
   <v name="DFIELD">      0.00000000      0.00000000      0.00000000</v>
   <v name="WPLASMA">      0.00000000      0.00000000      0.00000000      0.00000000      0.00000000      0.00000000      0.00000000      0.00000000      0.00000000</v>
  </separator>
  <separator name="orbital magnetization" >
   <i type="logical" name="NUCIND"> F  </i>
   <v name="MAGPOS">      0.00000000      0.00000000      0.00000000</v>
   <i type="logical" name="LNICSALL"> T  </i>
   <i type="logical" name="ORBITALMAG"> F  </i>
   <i type="logical" name="LMAGBLOCH"> F  </i>
   <i type="logical" name="LCHIMAG"> F  </i>
   <i type="logical" name="LGAUGE"> T  </i>
   <i type="int" name="MAGATOM">     0</i>
   <v name="MAGDIPOL">      0.00000000      0.00000000      0.00000000</v>
   <v name="AVECCONST">      0.00000000      0.00000000      0.00000000</v>
  </separator>
  <separator name="response functions" >
   <i type="logical" name="LALL_IN_ONE"> F  </i>
   <i type="int" name="IALL_IN_ONE">    -1</i>
   <i type="int" name="NBANDS_WAVE">    -1</i>
   <i type="logical" name="LFINITE_TEMPERATURE"> F  </i>
   <i type="logical" name="LADDER"> F  </i>
   <i type="logical" name="LRPAFORCE"> F  </i>
   <i type="logical" name="LFXC"> F  </i>
   <i type="logical" name="LHARTREE"> T  </i>
   <i type="int" name="IBSE">     0</i>
   <v type="int" name="KPOINT">    -1     0     0     0</v>
   <i type="logical" name="LTCTC"> F  </i>
   <i type="logical" name="LTCTE"> F  </i>
   <i type="logical" name="LTETE"> F  </i>
   <i type="logical" name="LTRIPLET"> F  </i>
   <i type="logical" name="LFXCEPS"> F  </i>
   <i type="logical" name="LFXHEG"> F  </i>
   <i type="int" name="NATURALO">     2</i>
   <i type="logical" name="LHOLEGF"> F  </i>
   <i type="logical" name="L2ORDER"> F  </i>
   <i type="logical" name="LDMP1"> F  </i>
   <i type="logical" name="LMP2LT"> F  </i>
   <i type="logical" name="LSMP2LT"> F  </i>
   <i type="logical" name="LGWLF"> F  </i>
   <i name="ENCUTGW">     -1.60000002</i>
   <i name="ENCUTGWSOFT">     -1.60000002</i>
   <i name="ENCUTLF">     -1.00000000</i>
   <i type="logical" name="LESF_SPLINES"> F  </i>
   <i type="int" name="LMAXMP2">    -1</i>
   <i name="SCISSOR">      0.00000000</i>
   <i type="int" name="NOMEGA">     0</i>
   <i type="int" name="NOMEGAR">     0</i>
   <i type="int" name="NBANDSGW">    -1</i>
   <i type="int" name="NBANDSO">    -1</i>
   <i type="int" name="NBANDSV">    -1</i>
   <i type="int" name="NELMGW">     1</i>
   <i type="int" name="NELMHF">     1</i>
   <i type="int" name="DIM">     3</i>
   <i type="int" name="IESPILON">     4</i>
   <i type="int" name="ANTIRES">     0</i>
   <i name="OMEGAMAX">    -30.00000000</i>
   <i name="OMEGAMIN">    -30.00000000</i>
   <i name="OMEGATL">   -200.00000000</i>
   <i type="int" name="OMEGAGRID">     0</i>
   <i name="CSHIFT">     -0.10000000</i>
   <i type="logical" name="LSELFENERGY"> F  </i>
   <i type="logical" name="LSPECTRAL"> F  </i>
   <i type="logical" name="LSPECTRALGW"> F  </i>
   <i type="logical" name="LSINGLES"> F  </i>
   <i type="logical" name="LFERMIGW"> F  </i>
   <i type="logical" name="ODDONLYGW"> F  </i>
   <i type="logical" name="EVENONLYGW"> F  </i>
   <i type="int" name="NKREDLFX">     1</i>
   <i type="int" name="NKREDLFY">     1</i>
   <i type="int" name="NKREDLFZ">     1</i>
   <i type="int" name="MAXMEM">  2800</i>
   <i type="int" name="TELESCOPE">     0</i>
   <i type="int" name="NTAUPAR">    -1</i>
   <i type="int" name="NOMEGAPAR">    -1</i>
   <i name="DAMP_NEWTON">      0.80000001</i>
   <i name="LAMBDA">      1.00000000</i>
  </separator>
  <separator name="External order field" >
   <i name="OFIELD_KAPPA">      0.00000000</i>
   <v name="OFIELD_K">      0.00000000      0.00000000      0.00000000</v>
   <i name="OFIELD_Q6_NEAR">      0.00000000</i>
   <i name="OFIELD_Q6_FAR">      0.00000000</i>
   <i name="OFIELD_A">      0.00000000</i>
  </separator>
  <separator name="optional k-points parameters" >
   <i type="int" name="KPOINTS_OPT_MODE">     1</i>
   <i type="logical" name="LKPOINTS_OPT"> F  </i>
  </separator>
 </parameters>
 <atominfo>
  <atoms>       1 </atoms>
  <types>       1 </types>
  <array name="atoms" >
   <dimension dim="1">ion</dimension>
   <field type="string">element</field>
   <field type="int">atomtype</field>
   <set>
    <rc><c>Rb</c><c>   1</c></rc>
   </set>
  </array>
  <array name="atomtypes" >
   <dimension dim="1">type</dimension>
   <field type="int">atomspertype</field>
   <field type="string">element</field>
   <field>mass</field>
   <field>valence</field>
   <field type="string">pseudopotential</field>
   <set>
    <rc><c>   1</c><c>Rb</c><c>     85.46800000</c><c>      9.00000000</c><c>  PAW_PBE Rb_sv 06Sep2000               </c></rc>
   </set>
  </array>
 </atominfo>
 <structure name="initialpos" >
  <crystal>
   <varray name="basis" >
    <v>      -2.79250000       2.79250000       2.79250000 </v>
    <v>       2.79250000      -2.79250000       2.79250000 </v>
    <v>       2.79250000       2.79250000      -2.79250000 </v>
   </varray>
   <i name="volume">     87.10428831 </i>
   <varray name="rec_basis" >
    <v>      -0.00000000       0.17905103       0.17905103 </v>
    <v>       0.17905103      -0.00000000       0.17905103 </v>
    <v>       0.17905103       0.17905103      -0.00000000 </v>
   </varray>
  </crystal>
  <varray name="positions" >
   <v>       0.00000000       0.00000000       0.00000000 </v>
  </varray>
 </structure>
 <calculation>
  <scstep>
   <time name="dav">    1.49    1.49</time>
   <time name="total">    1.52    1.51</time>
   <energy>
    <i name="alphaZ">     17.94185143 </i>
    <i name="ewald">   -380.01245805 </i>
    <i name="hartreedc">   -200.39246933 </i>
    <i name="XCdc">     28.49103105 </i>
    <i name="pawpsdc">    505.12165471 </i>
    <i name="pawaedc">   -500.59792104 </i>
    <i name="eentropy">     -0.00013566 </i>
    <i name="bandstr">    -92.21391415 </i>
    <i name="atom">    662.50133934 </i>
    <i name="e_fr_energy">     40.83897831 </i>
    <i name="e_wo_entrp">     40.83911397 </i>
    <i name="e_0_energy">     40.83902353 </i>
   </energy>
  </scstep>
  <scstep>
   <time name="dav">    1.41    1.41</time>
   <time name="total">    1.41    1.41</time>
   <energy>
    <i name="e_fr_energy">      1.15586202 </i>
    <i name="e_wo_entrp">      1.15573598 </i>
    <i name="e_0_energy">      1.15582000 </i>
   </energy>
  </scstep>
  <scstep>
   <time name="dav">    1.78    1.78</time>
   <time name="total">    1.78    1.78</time>
   <energy>
    <i name="e_fr_energy">     -0.88694108 </i>
    <i name="e_wo_entrp">     -0.88671892 </i>
    <i name="e_0_energy">     -0.88686702 </i>
   </energy>
  </scstep>
  <scstep>
   <time name="dav">    2.14    2.14</time>
   <time name="total">    2.14    2.15</time>
   <energy>
    <i name="e_fr_energy">     -0.93308302 </i>
    <i name="e_wo_entrp">     -0.93288579 </i>
    <i name="e_0_energy">     -0.93301728 </i>
   </energy>
  </scstep>
  <scstep>
   <time name="dav">    1.99    1.99</time>
   <time name="total">    2.16    2.16</time>
   <energy>
    <i name="e_fr_energy">     -0.93334290 </i>
    <i name="e_wo_entrp">     -0.93314597 </i>
    <i name="e_0_energy">     -0.93327726 </i>
   </energy>
  </scstep>
  <scstep>
   <time name="dav">    2.10    2.10</time>
   <time name="total">    2.28    2.27</time>
   <energy>
    <i name="e_fr_energy">     -0.93373319 </i>
    <i name="e_wo_entrp">     -0.93353646 </i>
    <i name="e_0_energy">     -0.93366761 </i>
   </energy>
  </scstep>
  <scstep>
   <time name="dav">    1.70    1.70</time>
   <time name="total">    1.88    1.87</time>
   <energy>
    <i name="e_fr_energy">     -0.93451292 </i>
    <i name="e_wo_entrp">     -0.93431639 </i>
    <i name="e_0_energy">     -0.93444741 </i>
   </energy>
  </scstep>
  <scstep>
   <time name="dav">    1.87    1.87</time>
   <time name="total">    2.05    2.05</time>
   <energy>
    <i name="e_fr_energy">     -0.93461914 </i>
    <i name="e_wo_entrp">     -0.93442241 </i>
    <i name="e_0_energy">     -0.93455357 </i>
   </energy>
  </scstep>
  <scstep>
   <time name="dav">    2.14    2.14</time>
   <time name="total">    2.32    2.31</time>
   <energy>
    <i name="e_fr_energy">     -0.93462685 </i>
    <i name="e_wo_entrp">     -0.93443005 </i>
    <i name="e_0_energy">     -0.93456125 </i>
   </energy>
  </scstep>
  <scstep>
   <time name="dav">    1.84    1.84</time>
   <time name="total">    1.85    1.85</time>
   <energy>
    <i name="alphaZ">     17.94185143 </i>
    <i name="ewald">   -380.01245805 </i>
    <i name="hartreedc">   -198.88972496 </i>
    <i name="XCdc">     28.42872787 </i>
    <i name="pawpsdc">    509.32282045 </i>
    <i name="pawaedc">   -504.94077750 </i>
    <i name="eentropy">     -0.00019681 </i>
    <i name="bandstr">   -135.28620820 </i>
    <i name="atom">    662.50133934 </i>
    <i name="e_fr_energy">     -0.93462642 </i>
    <i name="e_wo_entrp">     -0.93442962 </i>
    <i name="e_0_energy">     -0.93456082 </i>
   </energy>
  </scstep>
  <structure>
   <crystal>
    <varray name="basis" >
     <v>      -2.79250000       2.79250000       2.79250000 </v>
     <v>       2.79250000      -2.79250000       2.79250000 </v>
     <v>       2.79250000       2.79250000      -2.79250000 </v>
    </varray>
    <i name="volume">     87.10428831 </i>
    <varray name="rec_basis" >
     <v>      -0.00000000       0.17905103       0.17905103 </v>
     <v>       0.17905103      -0.00000000       0.17905103 </v>
     <v>       0.17905103       0.17905103      -0.00000000 </v>
    </varray>
   </crystal>
   <varray name="positions" >
    <v>       0.00000000       0.00000000       0.00000000 </v>
   </varray>
  </structure>
  <varray name="forces" >
   <v>       0.00000000       0.00000000       0.00000000 </v>
  </varray>
  <varray name="stress" >
   <v>       1.31719116       0.00000000      -0.00000000 </v>
   <v>      -0.00000000       1.31719116      -0.00000000 </v>
   <v>       0.00000000       0.00000000       1.31719116 </v>
  </varray>
  <energy>
   <i name="e_fr_energy">     -0.93462642 </i>
   <i name="e_wo_entrp">     -0.93442962 </i>
   <i name="e_0_energy">     -0.93456082 </i>
  </energy>
  <time name="totalsc">   23.75   23.51</time>
  <eigenvalues>
   <array>
    <dimension dim="1">band</dimension>
    <dimension dim="2">kpoint</dimension>
    <dimension dim="3">spin</dimension>
    <field>eigene</field>
    <field>occ</field>
    <set>
     <set comment="spin 1">
      <set comment="kpoint 1">
       <r>  -28.7691    1.0000 </r>
       <r>  -12.8067    1.0000 </r>
       <r>  -12.8067    1.0000 </r>
       <r>  -12.8067    1.0000 </r>
       <r>   -1.9176    1.0000 </r>
       <r>    3.8318    0.0000 </r>
       <r>    3.8318    0.0000 </r>
       <r>    3.8318    0.0000 </r>
      </set>
      <set comment="kpoint 2">
       <r>  -28.7689    1.0000 </r>
       <r>  -12.8110    1.0000 </r>
       <r>  -12.8081    1.0000 </r>
       <r>  -12.8067    1.0000 </r>
       <r>   -1.8694    1.0000 </r>
       <r>    3.7619    0.0000 </r>
       <r>    3.7653    0.0000 </r>
       <r>    3.8767    0.0000 </r>
      </set>
      <set comment="kpoint 3">
       <r>  -28.7683    1.0000 </r>
       <r>  -12.8234    1.0000 </r>
       <r>  -12.8121    1.0000 </r>
       <r>  -12.8067    1.0000 </r>
       <r>   -1.7266    1.0000 </r>
       <r>    3.5074    0.0000 </r>
       <r>    3.5854    0.0000 </r>
       <r>    4.0107    0.0000 </r>
      </set>
      <set comment="kpoint 4">
       <r>  -28.7675    1.0000 </r>
       <r>  -12.8417    1.0000 </r>
       <r>  -12.8181    1.0000 </r>
       <r>  -12.8067    1.0000 </r>
       <r>   -1.4947    1.0000 </r>
       <r>    3.0796    0.0000 </r>
       <r>    3.3648    0.0000 </r>
       <r>    4.2313    0.0000 </r>
      </set>
      <set comment="kpoint 5">
       <r>  -28.7665    1.0000 </r>
       <r>  -12.8631    1.0000 </r>
       <r>  -12.8252    1.0000 </r>
       <r>  -12.8067    1.0000 </r>
       <r>   -1.1828    1.0000 </r>
       <r>    2.5999   -0.0000 </r>
       <r>    3.1477    0.0000 </r>
       <r>    4.5416    0.0000 </r>
      </set>
      <set comment="kpoint 6">
       <r>  -28.7655    1.0000 </r>
       <r>  -12.8843    1.0000 </r>
       <r>  -12.8323    1.0000 </r>
       <r>  -12.8068    1.0000 </r>
       <r>   -0.8041    1.0000 </r>
       <r>    2.1212   -0.0000 </r>
       <r>    2.9616    0.0000 </r>
       <r>    4.6646    0.0000 </r>
      </set>
      <set comment="kpoint 7">
       <r>  -28.7646    1.0000 </r>
       <r>  -12.9020    1.0000 </r>
       <r>  -12.8382    1.0000 </r>
       <r>  -12.8068    1.0000 </r>
       <r>   -0.3776    1.0000 </r>
       <r>    1.6535   -0.0000 </r>
       <r>    2.8213    0.0000 </r>
       <r>    4.6147    0.0000 </r>
      </set>
      <set comment="kpoint 8">
       <r>  -28.7641    1.0000 </r>
       <r>  -12.9138    1.0000 </r>
       <r>  -12.8422    1.0000 </r>
       <r>  -12.8068    1.0000 </r>
       <r>    0.0613    0.8881 </r>
       <r>    1.2058   -0.0000 </r>
       <r>    2.7346   -0.0000 </r>
       <r>    4.5100    0.0000 </r>
      </set>
      <set comment="kpoint 9">
       <r>  -28.7639    1.0000 </r>
       <r>  -12.9179    1.0000 </r>
       <r>  -12.8436    1.0000 </r>
       <r>  -12.8068    1.0000 </r>
       <r>    0.3421   -0.0030 </r>
       <r>    0.9252   -0.0000 </r>
       <r>    2.7054   -0.0000 </r>
       <r>    4.4591    0.0000 </r>
      </set>
      <set comment="kpoint 10">
       <r>  -28.7685    1.0000 </r>
       <r>  -12.8196    1.0000 </r>
       <r>  -12.8096    1.0000 </r>
       <r>  -12.8078    1.0000 </r>
       <r>   -1.7739    1.0000 </r>
       <r>    3.6119    0.0000 </r>
       <r>    3.6298    0.0000 </r>
       <r>    3.9657    0.0000 </r>
      </set>
      <set comment="kpoint 11">
       <r>  -28.7678    1.0000 </r>
       <r>  -12.8347    1.0000 </r>
       <r>  -12.8144    1.0000 </r>
       <r>  -12.8082    1.0000 </r>
       <r>   -1.5864    1.0000 </r>
       <r>    3.2778    0.0000 </r>
       <r>    3.4150    0.0000 </r>
       <r>    4.1379    0.0000 </r>
      </set>
      <set comment="kpoint 12">
       <r>  -28.7669    1.0000 </r>
       <r>  -12.8541    1.0000 </r>
       <r>  -12.8213    1.0000 </r>
       <r>  -12.8083    1.0000 </r>
       <r>   -1.3142    1.0000 </r>
       <r>    2.8302    0.0000 </r>
       <r>    3.1917    0.0000 </r>
       <r>    4.3884    0.0000 </r>
      </set>
      <set comment="kpoint 13">
       <r>  -28.7659    1.0000 </r>
       <r>  -12.8747    1.0000 </r>
       <r>  -12.8289    1.0000 </r>
       <r>  -12.8084    1.0000 </r>
       <r>   -0.9679    1.0000 </r>
       <r>    2.3595   -0.0000 </r>
       <r>    2.9918    0.0000 </r>
       <r>    4.4920    0.0000 </r>
      </set>
      <set comment="kpoint 14">
       <r>  -28.7650    1.0000 </r>
       <r>  -12.8935    1.0000 </r>
       <r>  -12.8360    1.0000 </r>
       <r>  -12.8084    1.0000 </r>
       <r>   -0.5632    1.0000 </r>
       <r>    1.8940   -0.0000 </r>
       <r>    2.8321    0.0000 </r>
       <r>    4.5112    0.0000 </r>
      </set>
      <set comment="kpoint 15">
       <r>  -28.7643    1.0000 </r>
       <r>  -12.9078    1.0000 </r>
       <r>  -12.8414    1.0000 </r>
       <r>  -12.8085    1.0000 </r>
       <r>   -0.1237    1.0019 </r>
       <r>    1.4377   -0.0000 </r>
       <r>    2.7216   -0.0000 </r>
       <r>    4.4458    0.0000 </r>
      </set>
      <set comment="kpoint 16">
       <r>  -28.7639    1.0000 </r>
       <r>  -12.9155    1.0000 </r>
       <r>  -12.8444    1.0000 </r>
       <r>  -12.8085    1.0000 </r>
       <r>    0.2872   -0.0174 </r>
       <r>    1.0272   -0.0000 </r>
       <r>    2.6653   -0.0000 </r>
       <r>    4.3643    0.0000 </r>
      </set>
      <set comment="kpoint 17">
       <r>  -28.7670    1.0000 </r>
       <r>  -12.8507    1.0000 </r>
       <r>  -12.8184    1.0000 </r>
       <r>  -12.8106    1.0000 </r>
       <r>   -1.3584    1.0000 </r>
       <r>    2.9613    0.0000 </r>
       <r>    3.1605    0.0000 </r>
       <r>    4.3348    0.0000 </r>
      </set>
      <set comment="kpoint 18">
       <r>  -28.7661    1.0000 </r>
       <r>  -12.8685    1.0000 </r>
       <r>  -12.8257    1.0000 </r>
       <r>  -12.8118    1.0000 </r>
       <r>   -1.0508    1.0000 </r>
       <r>    2.5622   -0.0000 </r>
       <r>    2.9309    0.0000 </r>
       <r>    4.3913    0.0000 </r>
      </set>
      <set comment="kpoint 19">
       <r>  -28.7652    1.0000 </r>
       <r>  -12.8856    1.0000 </r>
       <r>  -12.8342    1.0000 </r>
       <r>  -12.8122    1.0000 </r>
       <r>   -0.6760    1.0000 </r>
       <r>    2.1323   -0.0000 </r>
       <r>    2.7486   -0.0000 </r>
       <r>    4.4273    0.0000 </r>
      </set>
      <set comment="kpoint 20">
       <r>  -28.7644    1.0000 </r>
       <r>  -12.8998    1.0000 </r>
       <r>  -12.8417    1.0000 </r>
       <r>  -12.8125    1.0000 </r>
       <r>   -0.2516    1.0000 </r>
       <r>    1.6951   -0.0000 </r>
       <r>    2.6142   -0.0000 </r>
       <r>    4.3790    0.0000 </r>
      </set>
      <set comment="kpoint 21">
       <r>  -28.7639    1.0000 </r>
       <r>  -12.9091    1.0000 </r>
       <r>  -12.8468    1.0000 </r>
       <r>  -12.8126    1.0000 </r>
       <r>    0.1917    0.0178 </r>
       <r>    1.2596   -0.0000 </r>
       <r>    2.5312   -0.0000 </r>
       <r>    4.2623    0.0000 </r>
      </set>
      <set comment="kpoint 22">
       <r>  -28.7637    1.0000 </r>
       <r>  -12.9123    1.0000 </r>
       <r>  -12.8486    1.0000 </r>
       <r>  -12.8127    1.0000 </r>
       <r>    0.4947   -0.0000 </r>
       <r>    0.9622   -0.0000 </r>
       <r>    2.5030   -0.0000 </r>
       <r>    4.2056    0.0000 </r>
      </set>
      <set comment="kpoint 23">
       <r>  -28.7652    1.0000 </r>
       <r>  -12.8823    1.0000 </r>
       <r>  -12.8332    1.0000 </r>
       <r>  -12.8145    1.0000 </r>
       <r>   -0.7139    1.0000 </r>
       <r>    2.2663   -0.0000 </r>
       <r>    2.6635   -0.0000 </r>
       <r>    4.4356    0.0000 </r>
      </set>
      <set comment="kpoint 24">
       <r>  -28.7645    1.0000 </r>
       <r>  -12.8936    1.0000 </r>
       <r>  -12.8425    1.0000 </r>
       <r>  -12.8159    1.0000 </r>
       <r>   -0.3167    1.0000 </r>
       <r>    1.9236   -0.0000 </r>
       <r>    2.4519   -0.0000 </r>
       <r>    4.4605    0.0000 </r>
      </set>
      <set comment="kpoint 25">
       <r>  -28.7639    1.0000 </r>
       <r>  -12.9013    1.0000 </r>
       <r>  -12.8507    1.0000 </r>
       <r>  -12.8166    1.0000 </r>
       <r>    0.1212    0.4449 </r>
       <r>    1.5350   -0.0000 </r>
       <r>    2.3106   -0.0000 </r>
       <r>    4.3053    0.0000 </r>
      </set>
      <set comment="kpoint 26">
       <r>  -28.7636    1.0000 </r>
       <r>  -12.9052    1.0000 </r>
       <r>  -12.8556    1.0000 </r>
       <r>  -12.8169    1.0000 </r>
       <r>    0.5563   -0.0000 </r>
       <r>    1.1294   -0.0000 </r>
       <r>    2.2394   -0.0000 </r>
       <r>    4.1759    0.0000 </r>
      </set>
      <set comment="kpoint 27">
       <r>  -28.7639    1.0000 </r>
       <r>  -12.8975    1.0000 </r>
       <r>  -12.8531    1.0000 </r>
       <r>  -12.8182    1.0000 </r>
       <r>    0.0962    0.6535 </r>
       <r>    1.7124   -0.0000 </r>
       <r>    2.1474   -0.0000 </r>
       <r>    4.4303    0.0000 </r>
      </set>
      <set comment="kpoint 28">
       <r>  -28.7635    1.0000 </r>
       <r>  -12.8978    1.0000 </r>
       <r>  -12.8630    1.0000 </r>
       <r>  -12.8193    1.0000 </r>
       <r>    0.5412   -0.0000 </r>
       <r>    1.4200   -0.0000 </r>
       <r>    1.9329   -0.0000 </r>
       <r>    4.2543    0.0000 </r>
      </set>
      <set comment="kpoint 29">
       <r>  -28.7633    1.0000 </r>
       <r>  -12.8970    1.0000 </r>
       <r>  -12.8673    1.0000 </r>
       <r>  -12.8196    1.0000 </r>
       <r>    0.9205   -0.0000 </r>
       <r>    1.0855   -0.0000 </r>
       <r>    1.8671   -0.0000 </r>
       <r>    4.1869    0.0000 </r>
      </set>
      <set comment="kpoint 30">
       <r>  -28.7633    1.0000 </r>
       <r>  -12.8899    1.0000 </r>
       <r>  -12.8758    1.0000 </r>
       <r>  -12.8205    1.0000 </r>
       <r>    0.9841   -0.0000 </r>
       <r>    1.3248   -0.0000 </r>
       <r>    1.5429   -0.0000 </r>
       <r>    4.2150    0.0000 </r>
      </set>
      <set comment="kpoint 31">
       <r>  -28.7680    1.0000 </r>
       <r>  -12.8328    1.0000 </r>
       <r>  -12.8097    1.0000 </r>
       <r>  -12.8097    1.0000 </r>
       <r>   -1.6329    1.0000 </r>
       <r>    3.3819    0.0000 </r>
       <r>    3.3819    0.0000 </r>
       <r>    4.1153    0.0000 </r>
      </set>
      <set comment="kpoint 32">
       <r>  -28.7672    1.0000 </r>
       <r>  -12.8497    1.0000 </r>
       <r>  -12.8154    1.0000 </r>
       <r>  -12.8099    1.0000 </r>
       <r>   -1.4036    1.0000 </r>
       <r>    3.0066    0.0000 </r>
       <r>    3.1418    0.0000 </r>
       <r>    4.3172    0.0000 </r>
      </set>
      <set comment="kpoint 33">
       <r>  -28.7662    1.0000 </r>
       <r>  -12.8682    1.0000 </r>
       <r>  -12.8233    1.0000 </r>
       <r>  -12.8102    1.0000 </r>
       <r>   -1.0944    1.0000 </r>
       <r>    2.5724   -0.0000 </r>
       <r>    2.9273    0.0000 </r>
       <r>    4.5576    0.0000 </r>
      </set>
      <set comment="kpoint 34">
       <r>  -28.7653    1.0000 </r>
       <r>  -12.8859    1.0000 </r>
       <r>  -12.8319    1.0000 </r>
       <r>  -12.8104    1.0000 </r>
       <r>   -0.7179    1.0000 </r>
       <r>    2.1263   -0.0000 </r>
       <r>    2.7526   -0.0000 </r>
       <r>    4.6770    0.0000 </r>
      </set>
      <set comment="kpoint 35">
       <r>  -28.7645    1.0000 </r>
       <r>  -12.9005    1.0000 </r>
       <r>  -12.8393    1.0000 </r>
       <r>  -12.8106    1.0000 </r>
       <r>   -0.2922    1.0000 </r>
       <r>    1.6806   -0.0000 </r>
       <r>    2.6243   -0.0000 </r>
       <r>    4.5818    0.0000 </r>
      </set>
      <set comment="kpoint 36">
       <r>  -28.7640    1.0000 </r>
       <r>  -12.9101    1.0000 </r>
       <r>  -12.8444    1.0000 </r>
       <r>  -12.8108    1.0000 </r>
       <r>    0.1502    0.2190 </r>
       <r>    1.2425   -0.0000 </r>
       <r>    2.5461   -0.0000 </r>
       <r>    4.4335    0.0000 </r>
      </set>
      <set comment="kpoint 37">
       <r>  -28.7638    1.0000 </r>
       <r>  -12.9135    1.0000 </r>
       <r>  -12.8462    1.0000 </r>
       <r>  -12.8108    1.0000 </r>
       <r>    0.4452   -0.0000 </r>
       <r>    0.9522   -0.0000 </r>
       <r>    2.5198   -0.0000 </r>
       <r>    4.3679    0.0000 </r>
      </set>
      <set comment="kpoint 38">
       <r>  -28.7687    1.0000 </r>
       <r>  -12.8125    1.0000 </r>
       <r>  -12.8095    1.0000 </r>
       <r>  -12.8095    1.0000 </r>
       <r>   -1.8214    1.0000 </r>
       <r>    3.7268    0.0000 </r>
       <r>    3.7268    0.0000 </r>
       <r>    3.8915    0.0000 </r>
      </set>
      <set comment="kpoint 39">
       <r>  -28.7664    1.0000 </r>
       <r>  -12.8659    1.0000 </r>
       <r>  -12.8191    1.0000 </r>
       <r>  -12.8131    1.0000 </r>
       <r>   -1.1370    1.0000 </r>
       <r>    2.7057   -0.0000 </r>
       <r>    2.8468    0.0000 </r>
       <r>    4.5064    0.0000 </r>
      </set>
      <set comment="kpoint 40">
       <r>  -28.7655    1.0000 </r>
       <r>  -12.8811    1.0000 </r>
       <r>  -12.8273    1.0000 </r>
       <r>  -12.8144    1.0000 </r>
       <r>   -0.7962    1.0000 </r>
       <r>    2.3293   -0.0000 </r>
       <r>    2.6333   -0.0000 </r>
       <r>    4.6414    0.0000 </r>
      </set>
      <set comment="kpoint 41">
       <r>  -28.7647    1.0000 </r>
       <r>  -12.8938    1.0000 </r>
       <r>  -12.8367    1.0000 </r>
       <r>  -12.8151    1.0000 </r>
       <r>   -0.3952    1.0000 </r>
       <r>    1.9240   -0.0000 </r>
       <r>    2.4816   -0.0000 </r>
       <r>    4.5565    0.0000 </r>
      </set>
      <set comment="kpoint 42">
       <r>  -28.7641    1.0000 </r>
       <r>  -12.9027    1.0000 </r>
       <r>  -12.8447    1.0000 </r>
       <r>  -12.8156    1.0000 </r>
       <r>    0.0447    0.9598 </r>
       <r>    1.5050   -0.0000 </r>
       <r>    2.3808   -0.0000 </r>
       <r>    4.3539    0.0000 </r>
      </set>
      <set comment="kpoint 43">
       <r>  -28.7638    1.0000 </r>
       <r>  -12.9073    1.0000 </r>
       <r>  -12.8493    1.0000 </r>
       <r>  -12.8158    1.0000 </r>
       <r>    0.4725   -0.0000 </r>
       <r>    1.0970   -0.0000 </r>
       <r>    2.3302   -0.0000 </r>
       <r>    4.2066    0.0000 </r>
      </set>
      <set comment="kpoint 44">
       <r>  -28.7681    1.0000 </r>
       <r>  -12.8238    1.0000 </r>
       <r>  -12.8136    1.0000 </r>
       <r>  -12.8103    1.0000 </r>
       <r>   -1.6794    1.0000 </r>
       <r>    3.5163    0.0000 </r>
       <r>    3.5758    0.0000 </r>
       <r>    4.0099    0.0000 </r>
      </set>
      <set comment="kpoint 45">
       <r>  -28.7648    1.0000 </r>
       <r>  -12.8910    1.0000 </r>
       <r>  -12.8351    1.0000 </r>
       <r>  -12.8179    1.0000 </r>
       <r>   -0.4299    1.0000 </r>
       <r>    2.0712   -0.0000 </r>
       <r>    2.3701   -0.0000 </r>
       <r>    4.5472    0.0000 </r>
      </set>
      <set comment="kpoint 46">
       <r>  -28.7642    1.0000 </r>
       <r>  -12.8970    1.0000 </r>
       <r>  -12.8451    1.0000 </r>
       <r>  -12.8197    1.0000 </r>
       <r>   -0.0109    1.0353 </r>
       <r>    1.7527   -0.0000 </r>
       <r>    2.1896   -0.0000 </r>
       <r>    4.2971    0.0000 </r>
      </set>
      <set comment="kpoint 47">
       <r>  -28.7638    1.0000 </r>
       <r>  -12.8995    1.0000 </r>
       <r>  -12.8536    1.0000 </r>
       <r>  -12.8206    1.0000 </r>
       <r>    0.4359   -0.0000 </r>
       <r>    1.3739   -0.0000 </r>
       <r>    2.0893   -0.0000 </r>
       <r>    4.0684    0.0000 </r>
      </set>
      <set comment="kpoint 48">
       <r>  -28.7636    1.0000 </r>
       <r>  -12.9000    1.0000 </r>
       <r>  -12.8570    1.0000 </r>
       <r>  -12.8209    1.0000 </r>
       <r>    0.7852   -0.0000 </r>
       <r>    1.0491   -0.0000 </r>
       <r>    2.0568   -0.0000 </r>
       <r>    3.9813    0.0000 </r>
      </set>
      <set comment="kpoint 49">
       <r>  -28.7673    1.0000 </r>
       <r>  -12.8418    1.0000 </r>
       <r>  -12.8196    1.0000 </r>
       <r>  -12.8103    1.0000 </r>
       <r>   -1.4486    1.0000 </r>
       <r>    3.0934    0.0000 </r>
       <r>    3.3691    0.0000 </r>
       <r>    4.1467    0.0000 </r>
      </set>
      <set comment="kpoint 50">
       <r>  -28.7674    1.0000 </r>
       <r>  -12.8363    1.0000 </r>
       <r>  -12.8179    1.0000 </r>
       <r>  -12.8132    1.0000 </r>
       <r>   -1.4939    1.0000 </r>
       <r>    3.2577    0.0000 </r>
       <r>    3.4027    0.0000 </r>
       <r>    4.0040    0.0000 </r>
      </set>
      <set comment="kpoint 51">
       <r>  -28.7638    1.0000 </r>
       <r>  -12.8955    1.0000 </r>
       <r>  -12.8562    1.0000 </r>
       <r>  -12.8226    1.0000 </r>
       <r>    0.4182   -0.0001 </r>
       <r>    1.5827   -0.0000 </r>
       <r>    1.8988   -0.0000 </r>
       <r>    4.0200    0.0000 </r>
      </set>
      <set comment="kpoint 52">
       <r>  -28.7635    1.0000 </r>
       <r>  -12.8913    1.0000 </r>
       <r>  -12.8659    1.0000 </r>
       <r>  -12.8238    1.0000 </r>
       <r>    0.8627   -0.0000 </r>
       <r>    1.2928   -0.0000 </r>
       <r>    1.7338   -0.0000 </r>
       <r>    3.8552    0.0000 </r>
      </set>
      <set comment="kpoint 53">
       <r>  -28.7663    1.0000 </r>
       <r>  -12.8628    1.0000 </r>
       <r>  -12.8267    1.0000 </r>
       <r>  -12.8102    1.0000 </r>
       <r>   -1.1382    1.0000 </r>
       <r>    2.6121   -0.0000 </r>
       <r>    3.1613    0.0000 </r>
       <r>    4.1806    0.0000 </r>
      </set>
      <set comment="kpoint 54">
       <r>  -28.7665    1.0000 </r>
       <r>  -12.8543    1.0000 </r>
       <r>  -12.8246    1.0000 </r>
       <r>  -12.8141    1.0000 </r>
       <r>   -1.2243    1.0000 </r>
       <r>    2.8360    0.0000 </r>
       <r>    3.1961    0.0000 </r>
       <r>    3.9986    0.0000 </r>
      </set>
      <set comment="kpoint 55">
       <r>  -28.7635    1.0000 </r>
       <r>  -12.8793    1.0000 </r>
       <r>  -12.8793    1.0000 </r>
       <r>  -12.8248    1.0000 </r>
       <r>    1.2492   -0.0000 </r>
       <r>    1.2492   -0.0000 </r>
       <r>    1.3879   -0.0000 </r>
       <r>    3.7791    0.0000 </r>
      </set>
      <set comment="kpoint 56">
       <r>  -28.7653    1.0000 </r>
       <r>  -12.8836    1.0000 </r>
       <r>  -12.8338    1.0000 </r>
       <r>  -12.8101    1.0000 </r>
       <r>   -0.7611    1.0000 </r>
       <r>    2.1349   -0.0000 </r>
       <r>    2.9815    0.0000 </r>
       <r>    4.2228    0.0000 </r>
      </set>
      <set comment="kpoint 57">
       <r>  -28.7655    1.0000 </r>
       <r>  -12.8740    1.0000 </r>
       <r>  -12.8323    1.0000 </r>
       <r>  -12.8142    1.0000 </r>
       <r>   -0.8814    1.0000 </r>
       <r>    2.3767   -0.0000 </r>
       <r>    3.0074    0.0000 </r>
       <r>    4.0429    0.0000 </r>
      </set>
      <set comment="kpoint 58">
       <r>  -28.7656    1.0000 </r>
       <r>  -12.8697    1.0000 </r>
       <r>  -12.8316    1.0000 </r>
       <r>  -12.8167    1.0000 </r>
       <r>   -0.9217    1.0000 </r>
       <r>    2.5110   -0.0000 </r>
       <r>    2.9559    0.0000 </r>
       <r>    4.0085    0.0000 </r>
      </set>
      <set comment="kpoint 59">
       <r>  -28.7645    1.0000 </r>
       <r>  -12.9010    1.0000 </r>
       <r>  -12.8398    1.0000 </r>
       <r>  -12.8100    1.0000 </r>
       <r>   -0.3358    1.0000 </r>
       <r>    1.6696   -0.0000 </r>
       <r>    2.8453    0.0000 </r>
       <r>    4.2164    0.0000 </r>
      </set>
      <set comment="kpoint 60">
       <r>  -28.7646    1.0000 </r>
       <r>  -12.8921    1.0000 </r>
       <r>  -12.8395    1.0000 </r>
       <r>  -12.8141    1.0000 </r>
       <r>   -0.4798    1.0000 </r>
       <r>    1.9209   -0.0000 </r>
       <r>    2.8531    0.0000 </r>
       <r>    4.0598    0.0000 </r>
      </set>
      <set comment="kpoint 61">
       <r>  -28.7647    1.0000 </r>
       <r>  -12.8850    1.0000 </r>
       <r>  -12.8401    1.0000 </r>
       <r>  -12.8178    1.0000 </r>
       <r>   -0.5525    1.0000 </r>
       <r>    2.1364   -0.0000 </r>
       <r>    2.7428   -0.0000 </r>
       <r>    4.0684    0.0000 </r>
      </set>
      <set comment="kpoint 62">
       <r>  -28.7639    1.0000 </r>
       <r>  -12.9126    1.0000 </r>
       <r>  -12.8438    1.0000 </r>
       <r>  -12.8099    1.0000 </r>
       <r>    0.1043    0.5866 </r>
       <r>    1.2220   -0.0000 </r>
       <r>    2.7609   -0.0000 </r>
       <r>    4.1550    0.0000 </r>
      </set>
      <set comment="kpoint 63">
       <r>  -28.7639    1.0000 </r>
       <r>  -12.9058    1.0000 </r>
       <r>  -12.8450    1.0000 </r>
       <r>  -12.8140    1.0000 </r>
       <r>   -0.0415    1.0249 </r>
       <r>    1.4710   -0.0000 </r>
       <r>    2.7441   -0.0000 </r>
       <r>    4.0056    0.0000 </r>
      </set>
      <set comment="kpoint 64">
       <r>  -28.7640    1.0000 </r>
       <r>  -12.8977    1.0000 </r>
       <r>  -12.8480    1.0000 </r>
       <r>  -12.8181    1.0000 </r>
       <r>   -0.1328    1.0013 </r>
       <r>    1.7328   -0.0000 </r>
       <r>    2.5797   -0.0000 </r>
       <r>    4.0666    0.0000 </r>
      </set>
      <set comment="kpoint 65">
       <r>  -28.7640    1.0000 </r>
       <r>  -12.8937    1.0000 </r>
       <r>  -12.8501    1.0000 </r>
       <r>  -12.8197    1.0000 </r>
       <r>   -0.1637    1.0003 </r>
       <r>    1.8840   -0.0000 </r>
       <r>    2.4462   -0.0000 </r>
       <r>    4.1863    0.0000 </r>
      </set>
      <set comment="kpoint 66">
       <r>  -28.7637    1.0000 </r>
       <r>  -12.9167    1.0000 </r>
       <r>  -12.8452    1.0000 </r>
       <r>  -12.8099    1.0000 </r>
       <r>    0.3925   -0.0003 </r>
       <r>    0.9345   -0.0000 </r>
       <r>    2.7324   -0.0000 </r>
       <r>    4.1186    0.0000 </r>
      </set>
      <set comment="kpoint 67">
       <r>  -28.7636    1.0000 </r>
       <r>  -12.9132    1.0000 </r>
       <r>  -12.8480    1.0000 </r>
       <r>  -12.8139    1.0000 </r>
       <r>    0.3780   -0.0006 </r>
       <r>    1.0546   -0.0000 </r>
       <r>    2.6876   -0.0000 </r>
       <r>    3.9373    0.0000 </r>
      </set>
      <set comment="kpoint 68">
       <r>  -28.7635    1.0000 </r>
       <r>  -12.9061    1.0000 </r>
       <r>  -12.8534    1.0000 </r>
       <r>  -12.8182    1.0000 </r>
       <r>    0.3114   -0.0089 </r>
       <r>    1.3108   -0.0000 </r>
       <r>    2.4753   -0.0000 </r>
       <r>    3.9848    0.0000 </r>
      </set>
      <set comment="kpoint 69">
       <r>  -28.7634    1.0000 </r>
       <r>  -12.8991    1.0000 </r>
       <r>  -12.8595    1.0000 </r>
       <r>  -12.8205    1.0000 </r>
       <r>    0.2678   -0.0262 </r>
       <r>    1.5788   -0.0000 </r>
       <r>    2.2047   -0.0000 </r>
       <r>    4.2195    0.0000 </r>
      </set>
      <set comment="kpoint 70">
       <r>  -28.7633    1.0000 </r>
       <r>  -12.9090    1.0000 </r>
       <r>  -12.8553    1.0000 </r>
       <r>  -12.8182    1.0000 </r>
       <r>    0.6391   -0.0000 </r>
       <r>    0.9926   -0.0000 </r>
       <r>    2.4390   -0.0000 </r>
       <r>    3.9400    0.0000 </r>
      </set>
      <set comment="kpoint 71">
       <r>  -28.7631    1.0000 </r>
       <r>  -12.9014    1.0000 </r>
       <r>  -12.8653    1.0000 </r>
       <r>  -12.8208    1.0000 </r>
       <r>    0.7110   -0.0000 </r>
       <r>    1.1986   -0.0000 </r>
       <r>    2.0813   -0.0000 </r>
       <r>    4.1446    0.0000 </r>
      </set>
      <set comment="kpoint 72">
       <r>  -28.7630    1.0000 </r>
       <r>  -12.8962    1.0000 </r>
       <r>  -12.8715    1.0000 </r>
       <r>  -12.8216    1.0000 </r>
       <r>    0.7037   -0.0000 </r>
       <r>    1.4337   -0.0000 </r>
       <r>    1.8189   -0.0000 </r>
       <r>    4.4781    0.0000 </r>
      </set>
      <set comment="kpoint 73">
       <r>  -28.7629    1.0000 </r>
       <r>  -12.8926    1.0000 </r>
       <r>  -12.8784    1.0000 </r>
       <r>  -12.8219    1.0000 </r>
       <r>    1.1256   -0.0000 </r>
       <r>    1.1474   -0.0000 </r>
       <r>    1.6487   -0.0000 </r>
       <r>    4.4278    0.0000 </r>
      </set>
      <set comment="kpoint 74">
       <r>  -28.7656    1.0000 </r>
       <r>  -12.8796    1.0000 </r>
       <r>  -12.8201    1.0000 </r>
       <r>  -12.8201    1.0000 </r>
       <r>   -0.8366    1.0000 </r>
       <r>    2.4971   -0.0000 </r>
       <r>    2.4971   -0.0000 </r>
       <r>    4.5977    0.0000 </r>
      </set>
      <set comment="kpoint 75">
       <r>  -28.7649    1.0000 </r>
       <r>  -12.8903    1.0000 </r>
       <r>  -12.8300    1.0000 </r>
       <r>  -12.8210    1.0000 </r>
       <r>   -0.4680    1.0000 </r>
       <r>    2.1325   -0.0000 </r>
       <r>    2.3366   -0.0000 </r>
       <r>    4.5037    0.0000 </r>
      </set>
      <set comment="kpoint 76">
       <r>  -28.7643    1.0000 </r>
       <r>  -12.8970    1.0000 </r>
       <r>  -12.8407    1.0000 </r>
       <r>  -12.8217    1.0000 </r>
       <r>   -0.0472    1.0222 </r>
       <r>    1.7547   -0.0000 </r>
       <r>    2.2233   -0.0000 </r>
       <r>    4.2416    0.0000 </r>
      </set>
      <set comment="kpoint 77">
       <r>  -28.7639    1.0000 </r>
       <r>  -12.9002    1.0000 </r>
       <r>  -12.8491    1.0000 </r>
       <r>  -12.8222    1.0000 </r>
       <r>    0.3995   -0.0002 </r>
       <r>    1.3563   -0.0000 </r>
       <r>    2.1560   -0.0000 </r>
       <r>    3.9961    0.0000 </r>
      </set>
      <set comment="kpoint 78">
       <r>  -28.7637    1.0000 </r>
       <r>  -12.9010    1.0000 </r>
       <r>  -12.8524    1.0000 </r>
       <r>  -12.8224    1.0000 </r>
       <r>    0.7391   -0.0000 </r>
       <r>    1.0372   -0.0000 </r>
       <r>    2.1336   -0.0000 </r>
       <r>    3.9009    0.0000 </r>
      </set>
      <set comment="kpoint 79">
       <r>  -28.7676    1.0000 </r>
       <r>  -12.8277    1.0000 </r>
       <r>  -12.8177    1.0000 </r>
       <r>  -12.8177    1.0000 </r>
       <r>   -1.5395    1.0000 </r>
       <r>    3.5074    0.0000 </r>
       <r>    3.5074    0.0000 </r>
       <r>    3.7293    0.0000 </r>
      </set>
      <set comment="kpoint 80">
       <r>  -28.7644    1.0000 </r>
       <r>  -12.8947    1.0000 </r>
       <r>  -12.8370    1.0000 </r>
       <r>  -12.8265    1.0000 </r>
       <r>   -0.0783    1.0100 </r>
       <r>    1.9244   -0.0000 </r>
       <r>    2.0920   -0.0000 </r>
       <r>    4.1771    0.0000 </r>
      </set>
      <set comment="kpoint 81">
       <r>  -28.7639    1.0000 </r>
       <r>  -12.8948    1.0000 </r>
       <r>  -12.8478    1.0000 </r>
       <r>  -12.8285    1.0000 </r>
       <r>    0.3541   -0.0018 </r>
       <r>    1.6225   -0.0000 </r>
       <r>    1.9649   -0.0000 </r>
       <r>    3.8293    0.0000 </r>
      </set>
      <set comment="kpoint 82">
       <r>  -28.7637    1.0000 </r>
       <r>  -12.8926    1.0000 </r>
       <r>  -12.8562    1.0000 </r>
       <r>  -12.8293    1.0000 </r>
       <r>    0.7957   -0.0000 </r>
       <r>    1.2538   -0.0000 </r>
       <r>    1.9110   -0.0000 </r>
       <r>    3.6172    0.0000 </r>
      </set>
      <set comment="kpoint 83">
       <r>  -28.7667    1.0000 </r>
       <r>  -12.8423    1.0000 </r>
       <r>  -12.8238    1.0000 </r>
       <r>  -12.8198    1.0000 </r>
       <r>   -1.3122    1.0000 </r>
       <r>    3.1269    0.0000 </r>
       <r>    3.3629    0.0000 </r>
       <r>    3.6508    0.0000 </r>
      </set>
      <set comment="kpoint 84">
       <r>  -28.7637    1.0000 </r>
       <r>  -12.8879    1.0000 </r>
       <r>  -12.8588    1.0000 </r>
       <r>  -12.8323    1.0000 </r>
       <r>    0.7845   -0.0000 </r>
       <r>    1.4934   -0.0000 </r>
       <r>    1.7091   -0.0000 </r>
       <r>    3.5069    0.0000 </r>
      </set>
      <set comment="kpoint 85">
       <r>  -28.7636    1.0000 </r>
       <r>  -12.8817    1.0000 </r>
       <r>  -12.8667    1.0000 </r>
       <r>  -12.8333    1.0000 </r>
       <r>    1.1940   -0.0000 </r>
       <r>    1.2051   -0.0000 </r>
       <r>    1.6105   -0.0000 </r>
       <r>    3.3872    0.0000 </r>
      </set>
      <set comment="kpoint 86">
       <r>  -28.7658    1.0000 </r>
       <r>  -12.8619    1.0000 </r>
       <r>  -12.8311    1.0000 </r>
       <r>  -12.8198    1.0000 </r>
       <r>   -1.0063    1.0000 </r>
       <r>    2.6386   -0.0000 </r>
       <r>    3.1923    0.0000 </r>
       <r>    3.7091    0.0000 </r>
      </set>
      <set comment="kpoint 87">
       <r>  -28.7659    1.0000 </r>
       <r>  -12.8558    1.0000 </r>
       <r>  -12.8305    1.0000 </r>
       <r>  -12.8238    1.0000 </r>
       <r>   -1.0483    1.0000 </r>
       <r>    2.8005    0.0000 </r>
       <r>    3.2031    0.0000 </r>
       <r>    3.5947    0.0000 </r>
      </set>
      <set comment="kpoint 88">
       <r>  -28.7648    1.0000 </r>
       <r>  -12.8817    1.0000 </r>
       <r>  -12.8383    1.0000 </r>
       <r>  -12.8194    1.0000 </r>
       <r>   -0.6343    1.0000 </r>
       <r>    2.1690   -0.0000 </r>
       <r>    3.0354    0.0000 </r>
       <r>    3.7503    0.0000 </r>
      </set>
      <set comment="kpoint 89">
       <r>  -28.7649    1.0000 </r>
       <r>  -12.8730    1.0000 </r>
       <r>  -12.8384    1.0000 </r>
       <r>  -12.8246    1.0000 </r>
       <r>   -0.7123    1.0000 </r>
       <r>    2.3849   -0.0000 </r>
       <r>    3.0283    0.0000 </r>
       <r>    3.6536    0.0000 </r>
      </set>
      <set comment="kpoint 90">
       <r>  -28.7640    1.0000 </r>
       <r>  -12.8983    1.0000 </r>
       <r>  -12.8444    1.0000 </r>
       <r>  -12.8190    1.0000 </r>
       <r>   -0.2133    1.0000 </r>
       <r>    1.7147   -0.0000 </r>
       <r>    2.9132    0.0000 </r>
       <r>    3.7223    0.0000 </r>
      </set>
      <set comment="kpoint 91">
       <r>  -28.7641    1.0000 </r>
       <r>  -12.8894    1.0000 </r>
       <r>  -12.8458    1.0000 </r>
       <r>  -12.8245    1.0000 </r>
       <r>   -0.3181    1.0000 </r>
       <r>    1.9605   -0.0000 </r>
       <r>    2.8767    0.0000 </r>
       <r>    3.6788    0.0000 </r>
      </set>
      <set comment="kpoint 92">
       <r>  -28.7641    1.0000 </r>
       <r>  -12.8849    1.0000 </r>
       <r>  -12.8475    1.0000 </r>
       <r>  -12.8267    1.0000 </r>
       <r>   -0.3533    1.0000 </r>
       <r>    2.0938   -0.0000 </r>
       <r>    2.7725   -0.0000 </r>
       <r>    3.7522    0.0000 </r>
      </set>
      <set comment="kpoint 93">
       <r>  -28.7635    1.0000 </r>
       <r>  -12.9094    1.0000 </r>
       <r>  -12.8484    1.0000 </r>
       <r>  -12.8187    1.0000 </r>
       <r>    0.2284   -0.0342 </r>
       <r>    1.2711   -0.0000 </r>
       <r>    2.8365    0.0000 </r>
       <r>    3.6427    0.0000 </r>
      </set>
      <set comment="kpoint 94">
       <r>  -28.7634    1.0000 </r>
       <r>  -12.9021    1.0000 </r>
       <r>  -12.8515    1.0000 </r>
       <r>  -12.8242    1.0000 </r>
       <r>    0.1150    0.4967 </r>
       <r>    1.5329   -0.0000 </r>
       <r>    2.7608   -0.0000 </r>
       <r>    3.6207    0.0000 </r>
      </set>
      <set comment="kpoint 95">
       <r>  -28.7633    1.0000 </r>
       <r>  -12.8950    1.0000 </r>
       <r>  -12.8562    1.0000 </r>
       <r>  -12.8272    1.0000 </r>
       <r>    0.0557    0.9150 </r>
       <r>    1.7668   -0.0000 </r>
       <r>    2.5358   -0.0000 </r>
       <r>    3.8297    0.0000 </r>
      </set>
      <set comment="kpoint 96">
       <r>  -28.7633    1.0000 </r>
       <r>  -12.9132    1.0000 </r>
       <r>  -12.8498    1.0000 </r>
       <r>  -12.8186    1.0000 </r>
       <r>    0.5396   -0.0000 </r>
       <r>    0.9627   -0.0000 </r>
       <r>    2.8104    0.0000 </r>
       <r>    3.6013    0.0000 </r>
      </set>
      <set comment="kpoint 97">
       <r>  -28.7630    1.0000 </r>
       <r>  -12.9089    1.0000 </r>
       <r>  -12.8546    1.0000 </r>
       <r>  -12.8240    1.0000 </r>
       <r>    0.5468   -0.0000 </r>
       <r>    1.1131   -0.0000 </r>
       <r>    2.6963   -0.0000 </r>
       <r>    3.5513    0.0000 </r>
      </set>
      <set comment="kpoint 98">
       <r>  -28.7629    1.0000 </r>
       <r>  -12.9017    1.0000 </r>
       <r>  -12.8624    1.0000 </r>
       <r>  -12.8272    1.0000 </r>
       <r>    0.4939   -0.0000 </r>
       <r>    1.3914   -0.0000 </r>
       <r>    2.3729   -0.0000 </r>
       <r>    3.8036    0.0000 </r>
      </set>
      <set comment="kpoint 99">
       <r>  -28.7628    1.0000 </r>
       <r>  -12.8972    1.0000 </r>
       <r>  -12.8673    1.0000 </r>
       <r>  -12.8281    1.0000 </r>
       <r>    0.4714   -0.0000 </r>
       <r>    1.5749   -0.0000 </r>
       <r>    2.1651   -0.0000 </r>
       <r>    4.0421    0.0000 </r>
      </set>
      <set comment="kpoint 100">
       <r>  -28.7627    1.0000 </r>
       <r>  -12.9040    1.0000 </r>
       <r>  -12.8646    1.0000 </r>
       <r>  -12.8272    1.0000 </r>
       <r>    0.8631   -0.0000 </r>
       <r>    1.0443   -0.0000 </r>
       <r>    2.3157   -0.0000 </r>
       <r>    3.7755    0.0000 </r>
      </set>
      <set comment="kpoint 101">
       <r>  -28.7625    1.0000 </r>
       <r>  -12.8967    1.0000 </r>
       <r>  -12.8753    1.0000 </r>
       <r>  -12.8284    1.0000 </r>
       <r>    0.9038   -0.0000 </r>
       <r>    1.3008   -0.0000 </r>
       <r>    1.9246   -0.0000 </r>
       <r>    4.1131    0.0000 </r>
      </set>
      <set comment="kpoint 102">
       <r>  -28.7624    1.0000 </r>
       <r>  -12.8874    1.0000 </r>
       <r>  -12.8874    1.0000 </r>
       <r>  -12.8287    1.0000 </r>
       <r>    1.2355   -0.0000 </r>
       <r>    1.2355   -0.0000 </r>
       <r>    1.6111   -0.0000 </r>
       <r>    4.4223    0.0000 </r>
      </set>
      <set comment="kpoint 103">
       <r>  -28.7640    1.0000 </r>
       <r>  -12.8931    1.0000 </r>
       <r>  -12.8386    1.0000 </r>
       <r>  -12.8386    1.0000 </r>
       <r>    0.3257   -0.0055 </r>
       <r>    1.8229   -0.0000 </r>
       <r>    1.8229   -0.0000 </r>
       <r>    3.7218    0.0000 </r>
      </set>
      <set comment="kpoint 104">
       <r>  -28.7637    1.0000 </r>
       <r>  -12.8872    1.0000 </r>
       <r>  -12.8514    1.0000 </r>
       <r>  -12.8396    1.0000 </r>
       <r>    0.7566   -0.0000 </r>
       <r>    1.5302   -0.0000 </r>
       <r>    1.7635   -0.0000 </r>
       <r>    3.3550    0.0000 </r>
      </set>
      <set comment="kpoint 105">
       <r>  -28.7636    1.0000 </r>
       <r>  -12.8825    1.0000 </r>
       <r>  -12.8585    1.0000 </r>
       <r>  -12.8400    1.0000 </r>
       <r>    1.1558   -0.0000 </r>
       <r>    1.1907   -0.0000 </r>
       <r>    1.7440   -0.0000 </r>
       <r>    3.2140    0.0000 </r>
      </set>
      <set comment="kpoint 106">
       <r>  -28.7660    1.0000 </r>
       <r>  -12.8471    1.0000 </r>
       <r>  -12.8301    1.0000 </r>
       <r>  -12.8301    1.0000 </r>
       <r>   -1.0907    1.0000 </r>
       <r>    3.0400    0.0000 </r>
       <r>    3.3114    0.0000 </r>
       <r>    3.3114    0.0000 </r>
      </set>
      <set comment="kpoint 107">
       <r>  -28.7636    1.0000 </r>
       <r>  -12.8759    1.0000 </r>
       <r>  -12.8605    1.0000 </r>
       <r>  -12.8458    1.0000 </r>
       <r>    1.1515   -0.0000 </r>
       <r>    1.4415   -0.0000 </r>
       <r>    1.5710   -0.0000 </r>
       <r>    3.0449    0.0000 </r>
      </set>
      <set comment="kpoint 108">
       <r>  -28.7650    1.0000 </r>
       <r>  -12.8615    1.0000 </r>
       <r>  -12.8375    1.0000 </r>
       <r>  -12.8333    1.0000 </r>
       <r>   -0.7928    1.0000 </r>
       <r>    2.6236   -0.0000 </r>
       <r>    3.2151    0.0000 </r>
       <r>    3.3419    0.0000 </r>
      </set>
      <set comment="kpoint 109">
       <r>  -28.7641    1.0000 </r>
       <r>  -12.8790    1.0000 </r>
       <r>  -12.8449    1.0000 </r>
       <r>  -12.8331    1.0000 </r>
       <r>   -0.4306    1.0000 </r>
       <r>    2.1923   -0.0000 </r>
       <r>    3.1061    0.0000 </r>
       <r>    3.3803    0.0000 </r>
      </set>
      <set comment="kpoint 110">
       <r>  -28.7641    1.0000 </r>
       <r>  -12.8730    1.0000 </r>
       <r>  -12.8458    1.0000 </r>
       <r>  -12.8374    1.0000 </r>
       <r>   -0.4683    1.0000 </r>
       <r>    2.3175   -0.0000 </r>
       <r>    3.0701    0.0000 </r>
       <r>    3.3828    0.0000 </r>
      </set>
      <set comment="kpoint 111">
       <r>  -28.7633    1.0000 </r>
       <r>  -12.8942    1.0000 </r>
       <r>  -12.8511    1.0000 </r>
       <r>  -12.8324    1.0000 </r>
       <r>   -0.0199    1.0336 </r>
       <r>    1.7728   -0.0000 </r>
       <r>    3.0127    0.0000 </r>
       <r>    3.3209    0.0000 </r>
      </set>
      <set comment="kpoint 112">
       <r>  -28.7633    1.0000 </r>
       <r>  -12.8864    1.0000 </r>
       <r>  -12.8537    1.0000 </r>
       <r>  -12.8379    1.0000 </r>
       <r>   -0.0883    1.0073 </r>
       <r>    1.9706   -0.0000 </r>
       <r>    2.8930    0.0000 </r>
       <r>    3.4495    0.0000 </r>
      </set>
      <set comment="kpoint 113">
       <r>  -28.7628    1.0000 </r>
       <r>  -12.9045    1.0000 </r>
       <r>  -12.8553    1.0000 </r>
       <r>  -12.8319    1.0000 </r>
       <r>    0.4173   -0.0001 </r>
       <r>    1.3515   -0.0000 </r>
       <r>    2.9513    0.0000 </r>
       <r>    3.2048    0.0000 </r>
      </set>
      <set comment="kpoint 114">
       <r>  -28.7626    1.0000 </r>
       <r>  -12.8973    1.0000 </r>
       <r>  -12.8598    1.0000 </r>
       <r>  -12.8375    1.0000 </r>
       <r>    0.3299   -0.0047 </r>
       <r>    1.6035   -0.0000 </r>
       <r>    2.7291   -0.0000 </r>
       <r>    3.4223    0.0000 </r>
      </set>
      <set comment="kpoint 115">
       <r>  -28.7626    1.0000 </r>
       <r>  -12.8928    1.0000 </r>
       <r>  -12.8637    1.0000 </r>
       <r>  -12.8390    1.0000 </r>
       <r>    0.2998   -0.0125 </r>
       <r>    1.7390   -0.0000 </r>
       <r>    2.5627   -0.0000 </r>
       <r>    3.6409    0.0000 </r>
      </set>
      <set comment="kpoint 116">
       <r>  -28.7626    1.0000 </r>
       <r>  -12.9081    1.0000 </r>
       <r>  -12.8568    1.0000 </r>
       <r>  -12.8316    1.0000 </r>
       <r>    0.7674   -0.0000 </r>
       <r>    1.0104   -0.0000 </r>
       <r>    2.9301    0.0000 </r>
       <r>    3.1502    0.0000 </r>
      </set>
      <set comment="kpoint 117">
       <r>  -28.7623    1.0000 </r>
       <r>  -12.9033    1.0000 </r>
       <r>  -12.8630    1.0000 </r>
       <r>  -12.8371    1.0000 </r>
       <r>    0.7611   -0.0000 </r>
       <r>    1.2089   -0.0000 </r>
       <r>    2.6256   -0.0000 </r>
       <r>    3.3718    0.0000 </r>
      </set>
      <set comment="kpoint 118">
       <r>  -28.7621    1.0000 </r>
       <r>  -12.8969    1.0000 </r>
       <r>  -12.8714    1.0000 </r>
       <r>  -12.8390    1.0000 </r>
       <r>    0.7130   -0.0000 </r>
       <r>    1.4692   -0.0000 </r>
       <r>    2.2934   -0.0000 </r>
       <r>    3.7280    0.0000 </r>
      </set>
      <set comment="kpoint 119">
       <r>  -28.7620    1.0000 </r>
       <r>  -12.8982    1.0000 </r>
       <r>  -12.8742    1.0000 </r>
       <r>  -12.8389    1.0000 </r>
       <r>    1.1167   -0.0000 </r>
       <r>    1.1215   -0.0000 </r>
       <r>    2.1919   -0.0000 </r>
       <r>    3.7308    0.0000 </r>
      </set>
      <set comment="kpoint 120">
       <r>  -28.7618    1.0000 </r>
       <r>  -12.8926    1.0000 </r>
       <r>  -12.8822    1.0000 </r>
       <r>  -12.8392    1.0000 </r>
       <r>    1.0874   -0.0000 </r>
       <r>    1.3467   -0.0000 </r>
       <r>    1.9383   -0.0000 </r>
       <r>    4.0136    0.0000 </r>
      </set>
      <set comment="kpoint 121">
       <r>  -28.7636    1.0000 </r>
       <r>  -12.8611    1.0000 </r>
       <r>  -12.8611    1.0000 </r>
       <r>  -12.8611    1.0000 </r>
       <r>    1.4245   -0.0000 </r>
       <r>    1.4245   -0.0000 </r>
       <r>    1.4245   -0.0000 </r>
       <r>    2.8365    0.0000 </r>
      </set>
      <set comment="kpoint 122">
       <r>  -28.7641    1.0000 </r>
       <r>  -12.8648    1.0000 </r>
       <r>  -12.8451    1.0000 </r>
       <r>  -12.8451    1.0000 </r>
       <r>   -0.5069    1.0000 </r>
       <r>    2.4428   -0.0000 </r>
       <r>    3.2072    0.0000 </r>
       <r>    3.2072    0.0000 </r>
      </set>
      <set comment="kpoint 123">
       <r>  -28.7633    1.0000 </r>
       <r>  -12.8764    1.0000 </r>
       <r>  -12.8527    1.0000 </r>
       <r>  -12.8485    1.0000 </r>
       <r>   -0.1610    1.0003 </r>
       <r>    2.1351   -0.0000 </r>
       <r>    3.1702    0.0000 </r>
       <r>    3.2018    0.0000 </r>
      </set>
      <set comment="kpoint 124">
       <r>  -28.7625    1.0000 </r>
       <r>  -12.8895    1.0000 </r>
       <r>  -12.8591    1.0000 </r>
       <r>  -12.8481    1.0000 </r>
       <r>    0.2289   -0.0343 </r>
       <r>    1.8007   -0.0000 </r>
       <r>    3.0903    0.0000 </r>
       <r>    3.1243    0.0000 </r>
      </set>
      <set comment="kpoint 125">
       <r>  -28.7625    1.0000 </r>
       <r>  -12.8842    1.0000 </r>
       <r>  -12.8613    1.0000 </r>
       <r>  -12.8519    1.0000 </r>
       <r>    0.1948    0.0096 </r>
       <r>    1.8941   -0.0000 </r>
       <r>    2.9698    0.0000 </r>
       <r>    3.3340    0.0000 </r>
      </set>
      <set comment="kpoint 126">
       <r>  -28.7620    1.0000 </r>
       <r>  -12.8987    1.0000 </r>
       <r>  -12.8634    1.0000 </r>
       <r>  -12.8472    1.0000 </r>
       <r>    0.6427   -0.0000 </r>
       <r>    1.4461   -0.0000 </r>
       <r>    2.9109    0.0000 </r>
       <r>    3.0889    0.0000 </r>
      </set>
      <set comment="kpoint 127">
       <r>  -28.7618    1.0000 </r>
       <r>  -12.8924    1.0000 </r>
       <r>  -12.8683    1.0000 </r>
       <r>  -12.8519    1.0000 </r>
       <r>    0.5798   -0.0000 </r>
       <r>    1.6311   -0.0000 </r>
       <r>    2.7180   -0.0000 </r>
       <r>    3.3957    0.0000 </r>
      </set>
      <set comment="kpoint 128">
       <r>  -28.7618    1.0000 </r>
       <r>  -12.9020    1.0000 </r>
       <r>  -12.8649    1.0000 </r>
       <r>  -12.8469    1.0000 </r>
       <r>    1.0369   -0.0000 </r>
       <r>    1.0771   -0.0000 </r>
       <r>    2.8326    0.0000 </r>
       <r>    3.0759    0.0000 </r>
      </set>
      <set comment="kpoint 129">
       <r>  -28.7615    1.0000 </r>
       <r>  -12.8973    1.0000 </r>
       <r>  -12.8719    1.0000 </r>
       <r>  -12.8514    1.0000 </r>
       <r>    0.9672   -0.0000 </r>
       <r>    1.3293   -0.0000 </r>
       <r>    2.5435   -0.0000 </r>
       <r>    3.3862    0.0000 </r>
      </set>
      <set comment="kpoint 130">
       <r>  -28.7614    1.0000 </r>
       <r>  -12.8931    1.0000 </r>
       <r>  -12.8778    1.0000 </r>
       <r>  -12.8522    1.0000 </r>
       <r>    0.9356   -0.0000 </r>
       <r>    1.4692   -0.0000 </r>
       <r>    2.3780   -0.0000 </r>
       <r>    3.6542    0.0000 </r>
      </set>
      <set comment="kpoint 131">
       <r>  -28.7613    1.0000 </r>
       <r>  -12.8923    1.0000 </r>
       <r>  -12.8824    1.0000 </r>
       <r>  -12.8521    1.0000 </r>
       <r>    1.2061   -0.0000 </r>
       <r>    1.2958   -0.0000 </r>
       <r>    2.2285   -0.0000 </r>
       <r>    3.7402    0.0000 </r>
      </set>
      <set comment="kpoint 132">
       <r>  -28.7624    1.0000 </r>
       <r>  -12.8772    1.0000 </r>
       <r>  -12.8605    1.0000 </r>
       <r>  -12.8605    1.0000 </r>
       <r>    0.1595    0.1596 </r>
       <r>    1.9655   -0.0000 </r>
       <r>    3.2105    0.0000 </r>
       <r>    3.2105    0.0000 </r>
      </set>
      <set comment="kpoint 133">
       <r>  -28.7617    1.0000 </r>
       <r>  -12.8851    1.0000 </r>
       <r>  -12.8671    1.0000 </r>
       <r>  -12.8632    1.0000 </r>
       <r>    0.5117   -0.0000 </r>
       <r>    1.7442   -0.0000 </r>
       <r>    3.0980    0.0000 </r>
       <r>    3.2259    0.0000 </r>
      </set>
      <set comment="kpoint 134">
       <r>  -28.7612    1.0000 </r>
       <r>  -12.8930    1.0000 </r>
       <r>  -12.8715    1.0000 </r>
       <r>  -12.8624    1.0000 </r>
       <r>    0.8700   -0.0000 </r>
       <r>    1.5020   -0.0000 </r>
       <r>    2.8410    0.0000 </r>
       <r>    3.2276    0.0000 </r>
      </set>
      <set comment="kpoint 135">
       <r>  -28.7611    1.0000 </r>
       <r>  -12.8888    1.0000 </r>
       <r>  -12.8748    1.0000 </r>
       <r>  -12.8653    1.0000 </r>
       <r>    0.8367   -0.0000 </r>
       <r>    1.5752   -0.0000 </r>
       <r>    2.8561    0.0000 </r>
       <r>    3.3971    0.0000 </r>
      </set>
      <set comment="kpoint 136">
       <r>  -28.7611    1.0000 </r>
       <r>  -12.8959    1.0000 </r>
       <r>  -12.8730    1.0000 </r>
       <r>  -12.8620    1.0000 </r>
       <r>    1.1585   -0.0000 </r>
       <r>    1.2635   -0.0000 </r>
       <r>    2.7307   -0.0000 </r>
       <r>    3.2267    0.0000 </r>
      </set>
      <set comment="kpoint 137">
       <r>  -28.7608    1.0000 </r>
       <r>  -12.8918    1.0000 </r>
       <r>  -12.8795    1.0000 </r>
       <r>  -12.8650    1.0000 </r>
       <r>    1.1300   -0.0000 </r>
       <r>    1.3967   -0.0000 </r>
       <r>    2.6460   -0.0000 </r>
       <r>    3.4639    0.0000 </r>
      </set>
      <set comment="kpoint 138">
       <r>  -28.7606    1.0000 </r>
       <r>  -12.8873    1.0000 </r>
       <r>  -12.8873    1.0000 </r>
       <r>  -12.8650    1.0000 </r>
       <r>    1.3010   -0.0000 </r>
       <r>    1.3010   -0.0000 </r>
       <r>    2.5292   -0.0000 </r>
       <r>    3.7290    0.0000 </r>
      </set>
      <set comment="kpoint 139">
       <r>  -28.7610    1.0000 </r>
       <r>  -12.8835    1.0000 </r>
       <r>  -12.8738    1.0000 </r>
       <r>  -12.8738    1.0000 </r>
       <r>    0.8028   -0.0000 </r>
       <r>    1.6195   -0.0000 </r>
       <r>    3.3010    0.0000 </r>
       <r>    3.3011    0.0000 </r>
      </set>
      <set comment="kpoint 140">
       <r>  -28.7605    1.0000 </r>
       <r>  -12.8881    1.0000 </r>
       <r>  -12.8783    1.0000 </r>
       <r>  -12.8751    1.0000 </r>
       <r>    1.0705   -0.0000 </r>
       <r>    1.4768   -0.0000 </r>
       <r>    3.0272    0.0000 </r>
       <r>    3.3444    0.0000 </r>
      </set>
      <set comment="kpoint 141">
       <r>  -28.7604    1.0000 </r>
       <r>  -12.8907    1.0000 </r>
       <r>  -12.8798    1.0000 </r>
       <r>  -12.8746    1.0000 </r>
       <r>    1.2439   -0.0000 </r>
       <r>    1.3557   -0.0000 </r>
       <r>    2.9126    0.0000 </r>
       <r>    3.3582    0.0000 </r>
      </set>
      <set comment="kpoint 142">
       <r>  -28.7602    1.0000 </r>
       <r>  -12.8882    1.0000 </r>
       <r>  -12.8840    1.0000 </r>
       <r>  -12.8761    1.0000 </r>
       <r>    1.2493   -0.0000 </r>
       <r>    1.3791   -0.0000 </r>
       <r>    2.9570    0.0000 </r>
       <r>    3.5032    0.0000 </r>
      </set>
      <set comment="kpoint 143">
       <r>  -28.7601    1.0000 </r>
       <r>  -12.8857    1.0000 </r>
       <r>  -12.8828    1.0000 </r>
       <r>  -12.8828    1.0000 </r>
       <r>    1.2255   -0.0000 </r>
       <r>    1.4103   -0.0000 </r>
       <r>    3.3054    0.0000 </r>
       <r>    3.4211    0.0000 </r>
      </set>
      <set comment="kpoint 144">
       <r>  -28.7599    1.0000 </r>
       <r>  -12.8872    1.0000 </r>
       <r>  -12.8844    1.0000 </r>
       <r>  -12.8831    1.0000 </r>
       <r>    1.3130   -0.0000 </r>
       <r>    1.3518   -0.0000 </r>
       <r>    3.2675    0.0000 </r>
       <r>    3.4476    0.0000 </r>
      </set>
      <set comment="kpoint 145">
       <r>  -28.7598    1.0000 </r>
       <r>  -12.8860    1.0000 </r>
       <r>  -12.8860    1.0000 </r>
       <r>  -12.8860    1.0000 </r>
       <r>    1.3403   -0.0000 </r>
       <r>    1.3403   -0.0000 </r>
       <r>    3.4793    0.0000 </r>
       <r>    3.4793    0.0000 </r>
      </set>
     </set>
    </set>
   </array>
  </eigenvalues>
  <separator name="orbital magnetization" >
   <v name="MAGDIPOLOUT">      0.00000000      0.00000000      0.00000000</v>
  </separator>
  <dos>
   <i name="efermi">      0.11463669 </i>
   <total>
    <array>
     <dimension dim="1">gridpoints</dimension>
     <dimension dim="2">spin</dimension>
     <field>energy</field>
     <field>total</field>
     <field>integrated</field>
     <set>
      <set comment="spin 1">
       <r>   -30.4414     0.0000     0.0000 </r>
       <r>   -30.3187     0.0000     0.0000 </r>
       <r>   -30.1961     0.0000     0.0000 </r>
       <r>   -30.0734     0.0000     0.0000 </r>
       <r>   -29.9508     0.0000     0.0000 </r>
       <r>   -29.8282     0.0000     0.0000 </r>
       <r>   -29.7055     0.0000     0.0000 </r>
       <r>   -29.5829    -0.0000    -0.0000 </r>
       <r>   -29.4603    -0.0000    -0.0000 </r>
       <r>   -29.3376    -0.0000    -0.0000 </r>
       <r>   -29.2150    -0.0000    -0.0000 </r>
       <r>   -29.0924    -0.0003    -0.0000 </r>
       <r>   -28.9697    -0.1078    -0.0133 </r>
       <r>   -28.8471     0.1505     0.0052 </r>
       <r>   -28.7245    13.1243     1.6147 </r>
       <r>   -28.6018     3.5015     2.0441 </r>
       <r>   -28.4792    -0.3563     2.0004 </r>
       <r>   -28.3566    -0.0035     2.0000 </r>
       <r>   -28.2339    -0.0000     2.0000 </r>
       <r>   -28.1113    -0.0000     2.0000 </r>
       <r>   -27.9886     0.0000     2.0000 </r>
       <r>   -27.8660     0.0000     2.0000 </r>
       <r>   -27.7434     0.0000     2.0000 </r>
       <r>   -27.6207     0.0000     2.0000 </r>
       <r>   -27.4981     0.0000     2.0000 </r>
       <r>   -27.3755     0.0000     2.0000 </r>
       <r>   -27.2528     0.0000     2.0000 </r>
       <r>   -27.1302     0.0000     2.0000 </r>
       <r>   -27.0076     0.0000     2.0000 </r>
       <r>   -26.8849     0.0000     2.0000 </r>
       <r>   -26.7623     0.0000     2.0000 </r>
       <r>   -26.6397     0.0000     2.0000 </r>
       <r>   -26.5170     0.0000     2.0000 </r>
       <r>   -26.3944     0.0000     2.0000 </r>
       <r>   -26.2717     0.0000     2.0000 </r>
       <r>   -26.1491     0.0000     2.0000 </r>
       <r>   -26.0265     0.0000     2.0000 </r>
       <r>   -25.9038     0.0000     2.0000 </r>
       <r>   -25.7812     0.0000     2.0000 </r>
       <r>   -25.6586     0.0000     2.0000 </r>
       <r>   -25.5359     0.0000     2.0000 </r>
       <r>   -25.4133     0.0000     2.0000 </r>
       <r>   -25.2907     0.0000     2.0000 </r>
       <r>   -25.1680     0.0000     2.0000 </r>
       <r>   -25.0454     0.0000     2.0000 </r>
       <r>   -24.9228     0.0000     2.0000 </r>
       <r>   -24.8001     0.0000     2.0000 </r>
       <r>   -24.6775     0.0000     2.0000 </r>
       <r>   -24.5549     0.0000     2.0000 </r>
       <r>   -24.4322     0.0000     2.0000 </r>
       <r>   -24.3096     0.0000     2.0000 </r>
       <r>   -24.1869     0.0000     2.0000 </r>
       <r>   -24.0643     0.0000     2.0000 </r>
       <r>   -23.9417     0.0000     2.0000 </r>
       <r>   -23.8190     0.0000     2.0000 </r>
       <r>   -23.6964     0.0000     2.0000 </r>
       <r>   -23.5738     0.0000     2.0000 </r>
       <r>   -23.4511     0.0000     2.0000 </r>
       <r>   -23.3285     0.0000     2.0000 </r>
       <r>   -23.2059     0.0000     2.0000 </r>
       <r>   -23.0832     0.0000     2.0000 </r>
       <r>   -22.9606     0.0000     2.0000 </r>
       <r>   -22.8380     0.0000     2.0000 </r>
       <r>   -22.7153     0.0000     2.0000 </r>
       <r>   -22.5927     0.0000     2.0000 </r>
       <r>   -22.4701     0.0000     2.0000 </r>
       <r>   -22.3474     0.0000     2.0000 </r>
       <r>   -22.2248     0.0000     2.0000 </r>
       <r>   -22.1021     0.0000     2.0000 </r>
       <r>   -21.9795     0.0000     2.0000 </r>
       <r>   -21.8569     0.0000     2.0000 </r>
       <r>   -21.7342     0.0000     2.0000 </r>
       <r>   -21.6116     0.0000     2.0000 </r>
       <r>   -21.4890     0.0000     2.0000 </r>
       <r>   -21.3663     0.0000     2.0000 </r>
       <r>   -21.2437     0.0000     2.0000 </r>
       <r>   -21.1211     0.0000     2.0000 </r>
       <r>   -20.9984     0.0000     2.0000 </r>
       <r>   -20.8758     0.0000     2.0000 </r>
       <r>   -20.7532     0.0000     2.0000 </r>
       <r>   -20.6305     0.0000     2.0000 </r>
       <r>   -20.5079     0.0000     2.0000 </r>
       <r>   -20.3853     0.0000     2.0000 </r>
       <r>   -20.2626     0.0000     2.0000 </r>
       <r>   -20.1400     0.0000     2.0000 </r>
       <r>   -20.0173     0.0000     2.0000 </r>
       <r>   -19.8947     0.0000     2.0000 </r>
       <r>   -19.7721     0.0000     2.0000 </r>
       <r>   -19.6494     0.0000     2.0000 </r>
       <r>   -19.5268     0.0000     2.0000 </r>
       <r>   -19.4042     0.0000     2.0000 </r>
       <r>   -19.2815     0.0000     2.0000 </r>
       <r>   -19.1589     0.0000     2.0000 </r>
       <r>   -19.0363     0.0000     2.0000 </r>
       <r>   -18.9136     0.0000     2.0000 </r>
       <r>   -18.7910     0.0000     2.0000 </r>
       <r>   -18.6684     0.0000     2.0000 </r>
       <r>   -18.5457     0.0000     2.0000 </r>
       <r>   -18.4231     0.0000     2.0000 </r>
       <r>   -18.3005     0.0000     2.0000 </r>
       <r>   -18.1778     0.0000     2.0000 </r>
       <r>   -18.0552     0.0000     2.0000 </r>
       <r>   -17.9325     0.0000     2.0000 </r>
       <r>   -17.8099     0.0000     2.0000 </r>
       <r>   -17.6873     0.0000     2.0000 </r>
       <r>   -17.5646     0.0000     2.0000 </r>
       <r>   -17.4420     0.0000     2.0000 </r>
       <r>   -17.3194     0.0000     2.0000 </r>
       <r>   -17.1967     0.0000     2.0000 </r>
       <r>   -17.0741     0.0000     2.0000 </r>
       <r>   -16.9515     0.0000     2.0000 </r>
       <r>   -16.8288     0.0000     2.0000 </r>
       <r>   -16.7062     0.0000     2.0000 </r>
       <r>   -16.5836     0.0000     2.0000 </r>
       <r>   -16.4609     0.0000     2.0000 </r>
       <r>   -16.3383     0.0000     2.0000 </r>
       <r>   -16.2157     0.0000     2.0000 </r>
       <r>   -16.0930     0.0000     2.0000 </r>
       <r>   -15.9704     0.0000     2.0000 </r>
       <r>   -15.8477     0.0000     2.0000 </r>
       <r>   -15.7251     0.0000     2.0000 </r>
       <r>   -15.6025     0.0000     2.0000 </r>
       <r>   -15.4798     0.0000     2.0000 </r>
       <r>   -15.3572     0.0000     2.0000 </r>
       <r>   -15.2346     0.0000     2.0000 </r>
       <r>   -15.1119     0.0000     2.0000 </r>
       <r>   -14.9893     0.0000     2.0000 </r>
       <r>   -14.8667     0.0000     2.0000 </r>
       <r>   -14.7440     0.0000     2.0000 </r>
       <r>   -14.6214     0.0000     2.0000 </r>
       <r>   -14.4988     0.0000     2.0000 </r>
       <r>   -14.3761     0.0000     2.0000 </r>
       <r>   -14.2535     0.0000     2.0000 </r>
       <r>   -14.1308     0.0000     2.0000 </r>
       <r>   -14.0082     0.0000     2.0000 </r>
       <r>   -13.8856     0.0000     2.0000 </r>
       <r>   -13.7629    -0.0000     2.0000 </r>
       <r>   -13.6403    -0.0000     2.0000 </r>
       <r>   -13.5177    -0.0000     2.0000 </r>
       <r>   -13.3950    -0.0000     2.0000 </r>
       <r>   -13.2724    -0.0000     2.0000 </r>
       <r>   -13.1498    -0.0174     1.9979 </r>
       <r>   -13.0271    -0.8724     1.8909 </r>
       <r>   -12.9045     9.2639     3.0270 </r>
       <r>   -12.7819    36.7465     7.5334 </r>
       <r>   -12.6592     4.4046     8.0735 </r>
       <r>   -12.5366    -0.5946     8.0006 </r>
       <r>   -12.4140    -0.0051     8.0000 </r>
       <r>   -12.2913    -0.0000     8.0000 </r>
       <r>   -12.1687    -0.0000     8.0000 </r>
       <r>   -12.0460     0.0000     8.0000 </r>
       <r>   -11.9234     0.0000     8.0000 </r>
       <r>   -11.8008     0.0000     8.0000 </r>
       <r>   -11.6781     0.0000     8.0000 </r>
       <r>   -11.5555     0.0000     8.0000 </r>
       <r>   -11.4329     0.0000     8.0000 </r>
       <r>   -11.3102     0.0000     8.0000 </r>
       <r>   -11.1876     0.0000     8.0000 </r>
       <r>   -11.0650     0.0000     8.0000 </r>
       <r>   -10.9423     0.0000     8.0000 </r>
       <r>   -10.8197     0.0000     8.0000 </r>
       <r>   -10.6971     0.0000     8.0000 </r>
       <r>   -10.5744     0.0000     8.0000 </r>
       <r>   -10.4518     0.0000     8.0000 </r>
       <r>   -10.3292     0.0000     8.0000 </r>
       <r>   -10.2065     0.0000     8.0000 </r>
       <r>   -10.0839     0.0000     8.0000 </r>
       <r>    -9.9612     0.0000     8.0000 </r>
       <r>    -9.8386     0.0000     8.0000 </r>
       <r>    -9.7160     0.0000     8.0000 </r>
       <r>    -9.5933     0.0000     8.0000 </r>
       <r>    -9.4707     0.0000     8.0000 </r>
       <r>    -9.3481     0.0000     8.0000 </r>
       <r>    -9.2254     0.0000     8.0000 </r>
       <r>    -9.1028     0.0000     8.0000 </r>
       <r>    -8.9802     0.0000     8.0000 </r>
       <r>    -8.8575     0.0000     8.0000 </r>
       <r>    -8.7349     0.0000     8.0000 </r>
       <r>    -8.6123     0.0000     8.0000 </r>
       <r>    -8.4896     0.0000     8.0000 </r>
       <r>    -8.3670     0.0000     8.0000 </r>
       <r>    -8.2444     0.0000     8.0000 </r>
       <r>    -8.1217     0.0000     8.0000 </r>
       <r>    -7.9991     0.0000     8.0000 </r>
       <r>    -7.8764     0.0000     8.0000 </r>
       <r>    -7.7538     0.0000     8.0000 </r>
       <r>    -7.6312     0.0000     8.0000 </r>
       <r>    -7.5085     0.0000     8.0000 </r>
       <r>    -7.3859     0.0000     8.0000 </r>
       <r>    -7.2633     0.0000     8.0000 </r>
       <r>    -7.1406     0.0000     8.0000 </r>
       <r>    -7.0180     0.0000     8.0000 </r>
       <r>    -6.8954     0.0000     8.0000 </r>
       <r>    -6.7727     0.0000     8.0000 </r>
       <r>    -6.6501     0.0000     8.0000 </r>
       <r>    -6.5275     0.0000     8.0000 </r>
       <r>    -6.4048     0.0000     8.0000 </r>
       <r>    -6.2822     0.0000     8.0000 </r>
       <r>    -6.1596     0.0000     8.0000 </r>
       <r>    -6.0369     0.0000     8.0000 </r>
       <r>    -5.9143     0.0000     8.0000 </r>
       <r>    -5.7916     0.0000     8.0000 </r>
       <r>    -5.6690     0.0000     8.0000 </r>
       <r>    -5.5464     0.0000     8.0000 </r>
       <r>    -5.4237     0.0000     8.0000 </r>
       <r>    -5.3011     0.0000     8.0000 </r>
       <r>    -5.1785     0.0000     8.0000 </r>
       <r>    -5.0558     0.0000     8.0000 </r>
       <r>    -4.9332     0.0000     8.0000 </r>
       <r>    -4.8106     0.0000     8.0000 </r>
       <r>    -4.6879     0.0000     8.0000 </r>
       <r>    -4.5653     0.0000     8.0000 </r>
       <r>    -4.4427     0.0000     8.0000 </r>
       <r>    -4.3200     0.0000     8.0000 </r>
       <r>    -4.1974     0.0000     8.0000 </r>
       <r>    -4.0748     0.0000     8.0000 </r>
       <r>    -3.9521     0.0000     8.0000 </r>
       <r>    -3.8295     0.0000     8.0000 </r>
       <r>    -3.7068     0.0000     8.0000 </r>
       <r>    -3.5842     0.0000     8.0000 </r>
       <r>    -3.4616     0.0000     8.0000 </r>
       <r>    -3.3389     0.0000     8.0000 </r>
       <r>    -3.2163     0.0000     8.0000 </r>
       <r>    -3.0937     0.0000     8.0000 </r>
       <r>    -2.9710     0.0000     8.0000 </r>
       <r>    -2.8484     0.0000     8.0000 </r>
       <r>    -2.7258    -0.0000     8.0000 </r>
       <r>    -2.6031    -0.0000     8.0000 </r>
       <r>    -2.4805    -0.0000     8.0000 </r>
       <r>    -2.3579    -0.0000     8.0000 </r>
       <r>    -2.2352    -0.0000     8.0000 </r>
       <r>    -2.1126    -0.0001     8.0000 </r>
       <r>    -1.9899    -0.0024     7.9997 </r>
       <r>    -1.8673     0.0300     8.0034 </r>
       <r>    -1.7447     0.1360     8.0201 </r>
       <r>    -1.6220     0.2000     8.0446 </r>
       <r>    -1.4994     0.2659     8.0772 </r>
       <r>    -1.3768     0.2891     8.1126 </r>
       <r>    -1.2541     0.3822     8.1595 </r>
       <r>    -1.1315     0.3409     8.2013 </r>
       <r>    -1.0089     0.4998     8.2626 </r>
       <r>    -0.8862     0.4205     8.3142 </r>
       <r>    -0.7636     0.5108     8.3768 </r>
       <r>    -0.6410     0.6426     8.4556 </r>
       <r>    -0.5183     0.4788     8.5143 </r>
       <r>    -0.3957     0.6949     8.5996 </r>
       <r>    -0.2731     0.7780     8.6950 </r>
       <r>    -0.1504     0.5678     8.7646 </r>
       <r>    -0.0278     0.8841     8.8730 </r>
       <r>     0.0949     0.8835     8.9814 </r>
       <r>     0.2175     0.8493     9.0855 </r>
       <r>     0.3401     1.0077     9.2091 </r>
       <r>     0.4628     1.1513     9.3503 </r>
       <r>     0.5854     1.1722     9.4941 </r>
       <r>     0.7080     0.6672     9.5759 </r>
       <r>     0.8307     1.0218     9.7012 </r>
       <r>     0.9533     0.9766     9.8210 </r>
       <r>     1.0759     1.3788     9.9901 </r>
       <r>     1.1986     1.9132    10.2247 </r>
       <r>     1.3212     2.1024    10.4825 </r>
       <r>     1.4438     1.9836    10.7258 </r>
       <r>     1.5665     1.8575    10.9536 </r>
       <r>     1.6891     1.6399    11.1547 </r>
       <r>     1.8117     1.5933    11.3501 </r>
       <r>     1.9344     1.6604    11.5537 </r>
       <r>     2.0570     1.3732    11.7221 </r>
       <r>     2.1797     1.7047    11.9312 </r>
       <r>     2.3023     1.4956    12.1146 </r>
       <r>     2.4249     1.7847    12.3334 </r>
       <r>     2.5476     1.6123    12.5312 </r>
       <r>     2.6702     2.1362    12.7931 </r>
       <r>     2.7928     2.3940    13.0867 </r>
       <r>     2.9155     2.0557    13.3388 </r>
       <r>     3.0381     1.7604    13.5547 </r>
       <r>     3.1607     1.5526    13.7451 </r>
       <r>     3.2834     1.5586    13.9363 </r>
       <r>     3.4060     1.8495    14.1631 </r>
       <r>     3.5286     1.4319    14.3387 </r>
       <r>     3.6513     1.2921    14.4971 </r>
       <r>     3.7739     1.5318    14.6850 </r>
       <r>     3.8965     0.9693    14.8039 </r>
       <r>     4.0192     1.4505    14.9817 </r>
       <r>     4.1418     1.9657    15.2228 </r>
       <r>     4.2645     1.8655    15.4516 </r>
       <r>     4.3871     1.5171    15.6376 </r>
       <r>     4.5097     1.7695    15.8546 </r>
       <r>     4.6324     0.9524    15.9714 </r>
       <r>     4.7550     0.2466    16.0017 </r>
       <r>     4.8776    -0.0122    16.0002 </r>
       <r>     5.0003    -0.0015    16.0000 </r>
       <r>     5.1229    -0.0000    16.0000 </r>
       <r>     5.2455    -0.0000    16.0000 </r>
       <r>     5.3682    -0.0000    16.0000 </r>
       <r>     5.4908     0.0000    16.0000 </r>
       <r>     5.6134     0.0000    16.0000 </r>
       <r>     5.7361     0.0000    16.0000 </r>
       <r>     5.8587     0.0000    16.0000 </r>
       <r>     5.9813     0.0000    16.0000 </r>
       <r>     6.1040     0.0000    16.0000 </r>
       <r>     6.2266     0.0000    16.0000 </r>
       <r>     6.3493     0.0000    16.0000 </r>
      </set>
     </set>
    </array>
   </total>
  </dos>
 </calculation>
 <structure name="finalpos" >
  <crystal>
   <varray name="basis" >
    <v>      -2.79250000       2.79250000       2.79250000 </v>
    <v>       2.79250000      -2.79250000       2.79250000 </v>
    <v>       2.79250000       2.79250000      -2.79250000 </v>
   </varray>
   <i name="volume">     87.10428831 </i>
   <varray name="rec_basis" >
    <v>      -0.00000000       0.17905103       0.17905103 </v>
    <v>       0.17905103      -0.00000000       0.17905103 </v>
    <v>       0.17905103       0.17905103      -0.00000000 </v>
   </varray>
  </crystal>
  <varray name="positions" >
   <v>       0.00000000       0.00000000       0.00000000 </v>
  </varray>
 </structure>
</modeling>
