 vasp.6.4.2 20Jul23 (build Mar  2 2025 11:04:54) complex                         
 executed on              LinuxNV date 2026.04.18  11:11:04
 running    1 mpi-ranks, with    1 threads/rank, on    1 nodes
 distrk:  each k-point on    1 cores,    1 groups
 distr:  one band on NCORE=   1 cores,    1 groups
 OpenACC runtime initialized ...    1 GPUs detected


--------------------------------------------------------------------------------------------------------


 INCAR:
   SYSTEM = Ge diamond structure - EOS calculation
   PREC = Accurate
   ENCUT = 300
   KSPACING = 0.15
   KGAMMA = .TRUE.
   ISMEAR = 0
   SIGMA = 0.05
   EDIFF = 1E-6
   NELM = 100
   NSW = 0
   ISIF = 2
   IBRION = -1
   LWAVE = .FALSE.
   LCHARG = .FALSE.

 POTCAR:    PAW_PBE Ge 05Jan2001                  
 POTCAR:    PAW_PBE Ge 05Jan2001                  
   SHA256 =  7ff11deedcda39f1950abeda971a84a1f98a719a97bc9679a0df455c008734f8 Ge/POTCAR             
   COPYR  = (c) Copyright 05Jan2001 Georg Kresse                                                    
   COPYR  = This file is part of the software VASP. Any use, copying, and all other rights are regul
   COPYR  = If you do not have a valid VASP license, you may not use, copy or distribute this file. 
   VRHFIN =Ge: s2p2                                                                                 
   LEXCH  = PE                                                                                      
   EATOM  =   104.9960 eV,    7.7170 Ry                                                             
                                                                                                    
   TITEL  = PAW_PBE Ge 05Jan2001                                                                    
   LULTRA =        F    use ultrasoft PP ?                                                          
   IUNSCR =        1    unscreen: 0-lin 1-nonlin 2-no                                               
   RPACOR =    2.170    partial core radius                                                         
   POMASS =   72.610; ZVAL   =    4.000    mass and valenz                                          
   RCORE  =    2.300    outmost cutoff radius                                                       
   RWIGS  =    2.300; RWIGS  =    1.217    wigner-seitz radius (au A)                               
   ENMAX  =  173.807; ENMIN  =  130.355 eV                                                          
   ICORE  =        3    local potential                                                             
   LCOR   =        T    correct aug charges                                                         
   LPAW   =        T    paw PP                                                                      
   EAUG   =  385.843                                                                                
   DEXC   =    0.000                                                                                
   RMAX   =    2.342    core radius for proj-oper                                                   
   RAUG   =    1.300    factor for augmentation sphere                                              
   RDEP   =    2.318    radius for radial grids                                                     
   RDEPT  =    2.103    core radius for aug-charge                                                  
                                                                                                    
   Atomic configuration                                                                             
   10 entries                                                                                       
     n  l   j            E        occ.                                                              
     1  0  0.50    -10959.8463   2.0000                                                             
     2  0  0.50     -1371.6056   2.0000                                                             
     2  1  1.50     -1198.4791   6.0000                                                             
     3  0  0.50      -168.4733   2.0000                                                             
     3  1  1.50      -115.6019   6.0000                                                             
     3  2  2.50       -29.3106  10.0000                                                             
     4  0  0.50       -11.7309   2.0000                                                             
     4  1  0.50        -3.8952   2.0000                                                             
     4  2  1.50        -4.0817   0.0000                                                             
     4  3  2.50        -4.0817   0.0000                                                             
   Description                                                                                      
     l       E           TYP  RCUT    TYP  RCUT                                                     
     0    -11.7309493     23  2.300                                                                 
     0     -7.4578696     23  2.300                                                                 
     1     -3.8952261     23  2.300                                                                 
     1      6.1178114     23  2.300                                                                 
     2     -4.0817478     23  2.300                                                                 
     3     -1.3605826      7  2.300                                                                 
  local pseudopotential read in
  partial core-charges read in
  partial kinetic energy density read in
  atomic valenz-charges read in
  non local Contribution for L=            0  read in
    real space projection operators read in
  non local Contribution for L=            0  read in
    real space projection operators read in
  non local Contribution for L=            1  read in
    real space projection operators read in
  non local Contribution for L=            1  read in
    real space projection operators read in
  non local Contribution for L=            2  read in
    real space projection operators read in
    PAW grid and wavefunctions read in
 
   number of l-projection  operators is LMAX  =            5
   number of lm-projection operators is LMMAX =           13
 
  PAW_PBE Ge 05Jan2001                  :
 energy of atom  1       EATOM= -104.9960
 kinetic energy error for atom=    0.0010 (will be added to EATOM!!)
 
 
 POSCAR: Ge8
  positions in direct lattice
  No initial velocities read in
 exchange correlation table for  LEXCH =        8
   RHO(1)=    0.500       N(1)  =     2000
   RHO(2)=  100.500       N(2)  =     4000
 


--------------------------------------------------------------------------------------------------------


 ion  position               nearest neighbor table
   1  0.000  0.000  0.000-   5 2.45   6 2.45   7 2.45   8 2.45
   2  0.500  0.500  0.000-   5 2.45   6 2.45   7 2.45   8 2.45
   3  0.500  0.000  0.500-   5 2.45   6 2.45   7 2.45   8 2.45
   4  0.000  0.500  0.500-   5 2.45   6 2.45   7 2.45   8 2.45
   5  0.250  0.250  0.250-   1 2.45   2 2.45   3 2.45   4 2.45
   6  0.750  0.750  0.250-   1 2.45   2 2.45   3 2.45   4 2.45
   7  0.750  0.250  0.750-   1 2.45   2 2.45   3 2.45   4 2.45
   8  0.250  0.750  0.750-   1 2.45   2 2.45   3 2.45   4 2.45
 
  LATTYP: Found a simple cubic cell.
 ALAT       =     5.6575000000
  
  Lattice vectors:
  
 A1 = (   5.6575000000,   0.0000000000,   0.0000000000)
 A2 = (   0.0000000000,   5.6575000000,   0.0000000000)
 A3 = (   0.0000000000,   0.0000000000,   5.6575000000)


Analysis of symmetry for initial positions (statically):
=====================================================================
 Subroutine PRICEL returns following result:
 
  LATTYP: Found a face centered cubic cell.
 ALAT       =     5.6575000000
  
  Lattice vectors:
  
 A1 = (   2.8287500000,  -2.8287500000,   0.0000000000)
 A2 = (   2.8287500000,   0.0000000000,   2.8287500000)
 A3 = (   0.0000000000,  -2.8287500000,   2.8287500000)
 
   4 primitive cells build up your supercell.
 

 Routine SETGRP: Setting up the symmetry group for a 
 simple cubic supercell.


 Subroutine GETGRP returns: Found 48 space group operations
 (whereof 24 operations were pure point group operations)
 out of a pool of 48 trial point group operations.


The static configuration has the point symmetry T_d .
 The point group associated with its full space group is O_h .


Analysis of symmetry for dynamics (positions and initial velocities):
=====================================================================
 Subroutine PRICEL returns following result:
 
  LATTYP: Found a face centered cubic cell.
 ALAT       =     5.6575000000
  
  Lattice vectors:
  
 A1 = (   2.8287500000,  -2.8287500000,   0.0000000000)
 A2 = (   2.8287500000,   0.0000000000,   2.8287500000)
 A3 = (   0.0000000000,  -2.8287500000,   2.8287500000)
 
   4 primitive cells build up your supercell.
 

 Routine SETGRP: Setting up the symmetry group for a 
 simple cubic supercell.


 Subroutine GETGRP returns: Found 48 space group operations
 (whereof 24 operations were pure point group operations)
 out of a pool of 48 trial point group operations.


The dynamic configuration has the point symmetry T_d .
 The point group associated with its full space group is O_h .


 Subroutine INISYM returns: Found 48 space group operations
 (whereof 24 operations are pure point group operations),
 and found     4 'primitive' translations


----------------------------------------------------------------------------------------

                                     Primitive cell                                     

  volume of cell :      45.2703

  direct lattice vectors                    reciprocal lattice vectors
     2.828750000 -2.828750000  0.000000000     0.176756518 -0.176756518 -0.176756518
     2.828750000  0.000000000  2.828750000     0.176756518  0.176756518  0.176756518
     0.000000000 -2.828750000  2.828750000    -0.176756518 -0.176756518  0.176756518

  length of vectors
     4.000456615  4.000456615  4.000456615     0.306151270  0.306151270  0.306151270

  position of ions in fractional coordinates (direct lattice)
     0.000000000  0.000000000  0.000000000
     0.750000000  0.750000000  0.750000000

  ion indices of the primitive-cell ions
   primitive index   ion index
                 1           1
                 2           5

----------------------------------------------------------------------------------------

 
 -----------------------------------------------------------------------------
|                                                                             |
|           W    W    AA    RRRRR   N    N  II  N    N   GGGG   !!!           |
|           W    W   A  A   R    R  NN   N  II  NN   N  G    G  !!!           |
|           W    W  A    A  R    R  N N  N  II  N N  N  G       !!!           |
|           W WW W  AAAAAA  RRRRR   N  N N  II  N  N N  G  GGG   !            |
|           WW  WW  A    A  R   R   N   NN  II  N   NN  G    G                |
|           W    W  A    A  R    R  N    N  II  N    N   GGGG   !!!           |
|                                                                             |
|     The requested file  could not be found or opened for reading            |
|     k-point information. Automatic k-point generation is used as a          |
|     fallback, which may lead to unwanted results.                           |
|                                                                             |
 -----------------------------------------------------------------------------

 

Automatic generation of k-mesh.
 Grid dimensions derived from KSPACING:
 generate k-points for:    8    8    8

 Generating k-lattice:

  Cartesian coordinates                     Fractional coordinates (reciprocal lattice)
     0.022094565  0.000000000  0.000000000     0.125000000  0.000000000  0.000000000
     0.000000000  0.022094565  0.000000000     0.000000000  0.125000000  0.000000000
     0.000000000  0.000000000  0.022094565     0.000000000  0.000000000  0.125000000

  Length of vectors
     0.022094565  0.022094565  0.022094565

  Shift w.r.t. Gamma in fractional coordinates (k-lattice)
     0.000000000  0.000000000  0.000000000

 
 Subroutine IBZKPT returns following result:
 ===========================================
 
 Found     35 irreducible k-points:
 
 Following reciprocal coordinates:
            Coordinates               Weight
  0.000000  0.000000  0.000000      1.000000
  0.125000  0.000000  0.000000      6.000000
  0.250000  0.000000  0.000000      6.000000
  0.375000  0.000000  0.000000      6.000000
  0.500000  0.000000  0.000000      3.000000
  0.125000  0.125000  0.000000     12.000000
  0.250000  0.125000  0.000000     24.000000
  0.375000  0.125000  0.000000     24.000000
  0.500000  0.125000  0.000000     12.000000
  0.250000  0.250000  0.000000     12.000000
  0.375000  0.250000  0.000000     24.000000
  0.500000  0.250000  0.000000     12.000000
  0.375000  0.375000  0.000000     12.000000
  0.500000  0.375000  0.000000     12.000000
  0.500000  0.500000  0.000000      3.000000
  0.125000  0.125000  0.125000      8.000000
  0.250000  0.125000  0.125000     24.000000
  0.375000  0.125000  0.125000     24.000000
  0.500000  0.125000  0.125000     12.000000
  0.250000  0.250000  0.125000     24.000000
  0.375000  0.250000  0.125000     48.000000
  0.500000  0.250000  0.125000     24.000000
  0.375000  0.375000  0.125000     24.000000
  0.500000  0.375000  0.125000     24.000000
  0.500000  0.500000  0.125000      6.000000
  0.250000  0.250000  0.250000      8.000000
  0.375000  0.250000  0.250000     24.000000
  0.500000  0.250000  0.250000     12.000000
  0.375000  0.375000  0.250000     24.000000
  0.500000  0.375000  0.250000     24.000000
  0.500000  0.500000  0.250000      6.000000
  0.375000  0.375000  0.375000      8.000000
  0.500000  0.375000  0.375000     12.000000
  0.500000  0.500000  0.375000      6.000000
  0.500000  0.500000  0.500000      1.000000
 
 Following cartesian coordinates:
            Coordinates               Weight
  0.000000  0.000000  0.000000      1.000000
  0.022095  0.000000  0.000000      6.000000
  0.044189  0.000000  0.000000      6.000000
  0.066284  0.000000  0.000000      6.000000
  0.088378  0.000000  0.000000      3.000000
  0.022095  0.022095  0.000000     12.000000
  0.044189  0.022095  0.000000     24.000000
  0.066284  0.022095  0.000000     24.000000
  0.088378  0.022095  0.000000     12.000000
  0.044189  0.044189  0.000000     12.000000
  0.066284  0.044189  0.000000     24.000000
  0.088378  0.044189  0.000000     12.000000
  0.066284  0.066284  0.000000     12.000000
  0.088378  0.066284  0.000000     12.000000
  0.088378  0.088378  0.000000      3.000000
  0.022095  0.022095  0.022095      8.000000
  0.044189  0.022095  0.022095     24.000000
  0.066284  0.022095  0.022095     24.000000
  0.088378  0.022095  0.022095     12.000000
  0.044189  0.044189  0.022095     24.000000
  0.066284  0.044189  0.022095     48.000000
  0.088378  0.044189  0.022095     24.000000
  0.066284  0.066284  0.022095     24.000000
  0.088378  0.066284  0.022095     24.000000
  0.088378  0.088378  0.022095      6.000000
  0.044189  0.044189  0.044189      8.000000
  0.066284  0.044189  0.044189     24.000000
  0.088378  0.044189  0.044189     12.000000
  0.066284  0.066284  0.044189     24.000000
  0.088378  0.066284  0.044189     24.000000
  0.088378  0.088378  0.044189      6.000000
  0.066284  0.066284  0.066284      8.000000
  0.088378  0.066284  0.066284     12.000000
  0.088378  0.088378  0.066284      6.000000
  0.088378  0.088378  0.088378      1.000000
 


--------------------------------------------------------------------------------------------------------




 Dimension of arrays:
   k-points           NKPTS =     35   k-points in BZ     NKDIM =     35   number of bands    NBANDS=     21
   number of dos      NEDOS =    301   number of ions     NIONS =      8
   non local maximal  LDIM  =      5   non local SUM 2l+1 LMDIM =     13
   total plane-waves  NPLWV =  32768
   max r-space proj   IRMAX =      1   max aug-charges    IRDMAX=  10033
   dimension x,y,z NGX =    32 NGY =   32 NGZ =   32
   dimension x,y,z NGXF=    64 NGYF=   64 NGZF=   64
   support grid    NGXF=    64 NGYF=   64 NGZF=   64
   ions per type =               8
   NGX,Y,Z   is equivalent  to a cutoff of   9.40,  9.40,  9.40 a.u.
   NGXF,Y,Z  is equivalent  to a cutoff of  18.81, 18.81, 18.81 a.u.

 SYSTEM =  Ge diamond structure - EOS calculation  
 POSCAR =  Ge8                                     

 Startparameter for this run:
   NWRITE =      2    write-flag & timer
   PREC   = accura    normal or accurate (medium, high low for compatibility)
   ISTART =      0    job   : 0-new  1-cont  2-samecut
   ICHARG =      2    charge: 1-file 2-atom 10-const
   ISPIN  =      1    spin polarized calculation?
   LNONCOLLINEAR =      F non collinear calculations
   LSORBIT =      F    spin-orbit coupling
   INIWAV =      1    electr: 0-lowe 1-rand  2-diag
   LASPH  =      F    aspherical Exc in radial PAW
 Electronic Relaxation 1
   ENCUT  =  300.0 eV  22.05 Ry    4.70 a.u.   7.99  7.99  7.99*2*pi/ulx,y,z
   ENINI  =  300.0     initial cutoff
   ENAUG  =  385.8 eV  augmentation charge cutoff
   NELM   =    100;   NELMIN=  2; NELMDL= -5     # of ELM steps 
   EDIFF  = 0.1E-05   stopping-criterion for ELM
   LREAL  =      F    real-space projection
   NLSPLINE    = F    spline interpolate recip. space projectors
   LCOMPAT=      F    compatible to vasp.4.4
   GGA_COMPAT  = T    GGA compatible to vasp.4.4-vasp.4.6
   LMAXPAW     = -100 max onsite density
   LMAXMIX     =    2 max onsite mixed and CHGCAR
   VOSKOWN=      0    Vosko Wilk Nusair interpolation
   ROPT   =    0.00000
 Ionic relaxation
   EDIFFG = 0.1E-04   stopping-criterion for IOM
   NSW    =      0    number of steps for IOM
   NBLOCK =      1;   KBLOCK =      1    inner block; outer block 
   IBRION =     -1    ionic relax: 0-MD 1-quasi-New 2-CG
   NFREE  =      0    steps in history (QN), initial steepest desc. (CG)
   ISIF   =      2    stress and relaxation
   IWAVPR =     10    prediction:  0-non 1-charg 2-wave 3-comb
   ISYM   =      2    0-nonsym 1-usesym 2-fastsym
   LCORR  =      T    Harris-Foulkes like correction to forces

   POTIM  = 0.5000    time-step for ionic-motion
   TEIN   =    0.0    initial temperature
   TEBEG  =    0.0;   TEEND  =   0.0 temperature during run
   SMASS  =  -3.00    Nose mass-parameter (am)
   estimated Nose-frequenzy (Omega)   =  0.10E-29 period in steps = 0.13E+47 mass=  -0.731E-27a.u.
   SCALEE = 1.0000    scale energy and forces
   NPACO  =    256;   APACO  = 10.0  distance and # of slots for P.C.
   PSTRESS=    0.0 pullay stress

  Mass of Ions in am
   POMASS =  72.61
  Ionic Valenz
   ZVAL   =   4.00
  Atomic Wigner-Seitz radii
   RWIGS  =  -1.00
  virtual crystal weights 
   VCA    =   1.00
   NELECT =      32.0000    total number of electrons
   NUPDOWN=      -1.0000    fix difference up-down

 DOS related values:
   EMIN   =  10.00;   EMAX   =-10.00  energy-range for DOS
   EFERMI =   0.00;   METHOD = LEGACY      
   ISMEAR =     0;   SIGMA  =   0.05  broadening in eV -4-tet -1-fermi 0-gaus

 Electronic relaxation 2 (details)
   IALGO  =     38    algorithm
   LDIAG  =      T    sub-space diagonalisation (order eigenvalues)
   LSUBROT=      F    optimize rotation matrix (better conditioning)
   TURBO    =      0    0=normal 1=particle mesh
   IRESTART =      0    0=no restart 2=restart with 2 vectors
   NREBOOT  =      0    no. of reboots
   NMIN     =      0    reboot dimension
   EREF     =   0.00    reference energy to select bands
   IMIX   =      4    mixing-type and parameters
     AMIX     =   0.40;   BMIX     =  1.00
     AMIX_MAG =   1.60;   BMIX_MAG =  1.00
     AMIN     =   0.10
     WC   =   100.;   INIMIX=   1;  MIXPRE=   1;  MAXMIX= -45

 Intra band minimization:
   WEIMIN = 0.0000     energy-eigenvalue tresh-hold
   EBREAK =  0.12E-07  absolut break condition
   DEPER  =   0.30     relativ break condition  

   TIME   =   0.40     timestep for ELM

  volume/ion in A,a.u.               =      22.64       152.75
  Fermi-wavevector in a.u.,A,eV,Ry     =   0.918686  1.736064 11.483090  0.843983
  Thomas-Fermi vector in A             =   2.043795
 
 Write flags
   LWAVE        =      F    write WAVECAR
   LDOWNSAMPLE  =      F    k-point downsampling of WAVECAR
   LCHARG       =      F    write CHGCAR
   LVTOT        =      F    write LOCPOT, total local potential
   LVHAR        =      F    write LOCPOT, Hartree potential only
   LELF         =      F    write electronic localiz. function (ELF)
   LORBIT       =      0    0 simple, 1 ext, 2 COOP (PROOUT), +10 PAW based schemes


 Dipole corrections
   LMONO  =      F    monopole corrections only (constant potential shift)
   LDIPOL =      F    correct potential (dipole corrections)
   IDIPOL =      0    1-x, 2-y, 3-z, 4-all directions 
   EPSILON=  1.0000000 bulk dielectric constant

 Exchange correlation treatment:
   GGA     =    --    GGA type
   LEXCH   =     8    internal setting for exchange type
   LIBXC   =     F    Libxc                    
   VOSKOWN =     0    Vosko Wilk Nusair interpolation
   LHFCALC =     F    Hartree Fock is set to
   LHFONE  =     F    Hartree Fock one center treatment
   AEXX    =    0.0000 exact exchange contribution

 Linear response parameters
   LEPSILON=     F    determine dielectric tensor
   LRPA    =     F    only Hartree local field effects (RPA)
   LNABLA  =     F    use nabla operator in PAW spheres
   LVEL    =     F    velocity operator in full k-point grid
   CSHIFT  =0.1000    complex shift for real part using Kramers Kronig
   OMEGAMAX=  -1.0    maximum frequency
   DEG_THRESHOLD= 0.2000000E-02 threshold for treating states as degnerate
   RTIME   =   -0.100 relaxation time in fs
  (WPLASMAI=    0.000 imaginary part of plasma frequency in eV, 0.658/RTIME)
   DFIELD  = 0.0000000 0.0000000 0.0000000 field for delta impulse in time
 
  Optional k-point grid parameters
   LKPOINTS_OPT  =     F    use optional k-point grid
   KPOINTS_OPT_MODE=     1    mode for optional k-point grid
 
 Orbital magnetization related:
   ORBITALMAG=     F  switch on orbital magnetization
   LCHIMAG   =     F  perturbation theory with respect to B field
   DQ        =  0.001000  dq finite difference perturbation B field
   LLRAUG    =     F  two centre corrections for induced B field
   LBONE     =     F  B-component reconstruction in AE one-centre
   LVGVCALC  =     T  calculate vGv susceptibility
   LVGVAPPL  =     F  apply vGv susceptibility instead of pGv for G=0

 Random number generation:
   RANDOM_GENERATOR = DEFAULT
   PCG_SEED         = not used


--------------------------------------------------------------------------------------------------------


 Static calculation
 charge density and potential will be updated during run
 non-spin polarized calculation
 Variant of blocked Davidson
 Davidson routine will perform the subspace rotation
 perform sub-space diagonalisation
    after iterative eigenvector-optimisation
 modified Broyden-mixing scheme, WC =      100.0
 initial mixing is a Kerker type mixing with AMIX =  0.4000 and BMIX =      1.0000
 Hartree-type preconditioning will be used
 using additional bands             5
 reciprocal scheme for non local part
 use partial core corrections
 calculate Harris-corrections to forces 
   (improved forces if not selfconsistent)
 use gradient corrections 
 use of overlap-Matrix (Vanderbilt PP)
 Gauss-broadening in eV      SIGMA  =   0.05


--------------------------------------------------------------------------------------------------------


  energy-cutoff  :      300.00
  volume of cell :      181.08
      direct lattice vectors                 reciprocal lattice vectors
     5.657500000  0.000000000  0.000000000     0.176756518  0.000000000  0.000000000
     0.000000000  5.657500000  0.000000000     0.000000000  0.176756518  0.000000000
     0.000000000  0.000000000  5.657500000     0.000000000  0.000000000  0.176756518

  length of vectors
     5.657500000  5.657500000  5.657500000     0.176756518  0.176756518  0.176756518


 
 k-points in units of 2pi/SCALE and weight: read from INCAR                         
   0.00000000  0.00000000  0.00000000       0.002
   0.02209456  0.00000000  0.00000000       0.012
   0.04418913  0.00000000  0.00000000       0.012
   0.06628369  0.00000000  0.00000000       0.012
   0.08837826  0.00000000  0.00000000       0.006
   0.02209456  0.02209456  0.00000000       0.023
   0.04418913  0.02209456  0.00000000       0.047
   0.06628369  0.02209456  0.00000000       0.047
   0.08837826  0.02209456  0.00000000       0.023
   0.04418913  0.04418913  0.00000000       0.023
   0.06628369  0.04418913  0.00000000       0.047
   0.08837826  0.04418913  0.00000000       0.023
   0.06628369  0.06628369  0.00000000       0.023
   0.08837826  0.06628369  0.00000000       0.023
   0.08837826  0.08837826  0.00000000       0.006
   0.02209456  0.02209456  0.02209456       0.016
   0.04418913  0.02209456  0.02209456       0.047
   0.06628369  0.02209456  0.02209456       0.047
   0.08837826  0.02209456  0.02209456       0.023
   0.04418913  0.04418913  0.02209456       0.047
   0.06628369  0.04418913  0.02209456       0.094
   0.08837826  0.04418913  0.02209456       0.047
   0.06628369  0.06628369  0.02209456       0.047
   0.08837826  0.06628369  0.02209456       0.047
   0.08837826  0.08837826  0.02209456       0.012
   0.04418913  0.04418913  0.04418913       0.016
   0.06628369  0.04418913  0.04418913       0.047
   0.08837826  0.04418913  0.04418913       0.023
   0.06628369  0.06628369  0.04418913       0.047
   0.08837826  0.06628369  0.04418913       0.047
   0.08837826  0.08837826  0.04418913       0.012
   0.06628369  0.06628369  0.06628369       0.016
   0.08837826  0.06628369  0.06628369       0.023
   0.08837826  0.08837826  0.06628369       0.012
   0.08837826  0.08837826  0.08837826       0.002
 
 k-points in reciprocal lattice and weights: read from INCAR                         
   0.00000000  0.00000000  0.00000000       0.002
   0.12500000  0.00000000  0.00000000       0.012
   0.25000000  0.00000000  0.00000000       0.012
   0.37500000  0.00000000  0.00000000       0.012
   0.50000000  0.00000000  0.00000000       0.006
   0.12500000  0.12500000  0.00000000       0.023
   0.25000000  0.12500000  0.00000000       0.047
   0.37500000  0.12500000  0.00000000       0.047
   0.50000000  0.12500000  0.00000000       0.023
   0.25000000  0.25000000  0.00000000       0.023
   0.37500000  0.25000000  0.00000000       0.047
   0.50000000  0.25000000  0.00000000       0.023
   0.37500000  0.37500000  0.00000000       0.023
   0.50000000  0.37500000  0.00000000       0.023
   0.50000000  0.50000000  0.00000000       0.006
   0.12500000  0.12500000  0.12500000       0.016
   0.25000000  0.12500000  0.12500000       0.047
   0.37500000  0.12500000  0.12500000       0.047
   0.50000000  0.12500000  0.12500000       0.023
   0.25000000  0.25000000  0.12500000       0.047
   0.37500000  0.25000000  0.12500000       0.094
   0.50000000  0.25000000  0.12500000       0.047
   0.37500000  0.37500000  0.12500000       0.047
   0.50000000  0.37500000  0.12500000       0.047
   0.50000000  0.50000000  0.12500000       0.012
   0.25000000  0.25000000  0.25000000       0.016
   0.37500000  0.25000000  0.25000000       0.047
   0.50000000  0.25000000  0.25000000       0.023
   0.37500000  0.37500000  0.25000000       0.047
   0.50000000  0.37500000  0.25000000       0.047
   0.50000000  0.50000000  0.25000000       0.012
   0.37500000  0.37500000  0.37500000       0.016
   0.50000000  0.37500000  0.37500000       0.023
   0.50000000  0.50000000  0.37500000       0.012
   0.50000000  0.50000000  0.50000000       0.002
 
 position of ions in fractional coordinates (direct lattice) 
   0.00000000  0.00000000  0.00000000
   0.50000000  0.50000000  0.00000000
   0.50000000  0.00000000  0.50000000
   0.00000000  0.50000000  0.50000000
   0.25000000  0.25000000  0.25000000
   0.75000000  0.75000000  0.25000000
   0.75000000  0.25000000  0.75000000
   0.25000000  0.75000000  0.75000000
 
 position of ions in cartesian coordinates  (Angst):
   0.00000000  0.00000000  0.00000000
   2.82875000  2.82875000  0.00000000
   2.82875000  0.00000000  2.82875000
   0.00000000  2.82875000  2.82875000
   1.41437500  1.41437500  1.41437500
   4.24312500  4.24312500  1.41437500
   4.24312500  1.41437500  4.24312500
   1.41437500  4.24312500  4.24312500
 


--------------------------------------------------------------------------------------------------------


 k-point   1 :   0.0000 0.0000 0.0000  plane waves:    2103
 k-point   2 :   0.1250 0.0000 0.0000  plane waves:    2128
 k-point   3 :   0.2500 0.0000 0.0000  plane waves:    2120
 k-point   4 :   0.3750 0.0000 0.0000  plane waves:    2128
 k-point   5 :   0.5000 0.0000 0.0000  plane waves:    2104
 k-point   6 :   0.1250 0.1250 0.0000  plane waves:    2133
 k-point   7 :   0.2500 0.1250 0.0000  plane waves:    2131
 k-point   8 :   0.3750 0.1250 0.0000  plane waves:    2129
 k-point   9 :   0.5000 0.1250 0.0000  plane waves:    2138
 k-point  10 :   0.2500 0.2500 0.0000  plane waves:    2125
 k-point  11 :   0.3750 0.2500 0.0000  plane waves:    2137
 k-point  12 :   0.5000 0.2500 0.0000  plane waves:    2142
 k-point  13 :   0.3750 0.3750 0.0000  plane waves:    2134
 k-point  14 :   0.5000 0.3750 0.0000  plane waves:    2132
 k-point  15 :   0.5000 0.5000 0.0000  plane waves:    2160
 k-point  16 :   0.1250 0.1250 0.1250  plane waves:    2127
 k-point  17 :   0.2500 0.1250 0.1250  plane waves:    2127
 k-point  18 :   0.3750 0.1250 0.1250  plane waves:    2131
 k-point  19 :   0.5000 0.1250 0.1250  plane waves:    2138
 k-point  20 :   0.2500 0.2500 0.1250  plane waves:    2132
 k-point  21 :   0.3750 0.2500 0.1250  plane waves:    2135
 k-point  22 :   0.5000 0.2500 0.1250  plane waves:    2144
 k-point  23 :   0.3750 0.3750 0.1250  plane waves:    2136
 k-point  24 :   0.5000 0.3750 0.1250  plane waves:    2130
 k-point  25 :   0.5000 0.5000 0.1250  plane waves:    2148
 k-point  26 :   0.2500 0.2500 0.2500  plane waves:    2157
 k-point  27 :   0.3750 0.2500 0.2500  plane waves:    2150
 k-point  28 :   0.5000 0.2500 0.2500  plane waves:    2134
 k-point  29 :   0.3750 0.3750 0.2500  plane waves:    2136
 k-point  30 :   0.5000 0.3750 0.2500  plane waves:    2140
 k-point  31 :   0.5000 0.5000 0.2500  plane waves:    2136
 k-point  32 :   0.3750 0.3750 0.3750  plane waves:    2145
 k-point  33 :   0.5000 0.3750 0.3750  plane waves:    2162
 k-point  34 :   0.5000 0.5000 0.3750  plane waves:    2152
 k-point  35 :   0.5000 0.5000 0.5000  plane waves:    2176

 maximum and minimum number of plane-waves per node :      2176     2103

 maximum number of plane-waves:      2176
 maximum index in each direction: 
   IXMAX=    7   IYMAX=    7   IZMAX=    7
   IXMIN=   -8   IYMIN=   -8   IZMIN=   -8


 serial   3D FFT for wavefunctions
 parallel 3D FFT for charge:
    minimum data exchange during FFTs selected (reduces bandwidth)


 total amount of memory used by VASP MPI-rank0    88451. kBytes
=======================================================================

   base      :      30000. kBytes
   nonl-proj :       8199. kBytes
   fftplans  :       9204. kBytes
   grid      :      14172. kBytes
   one-center:         64. kBytes
   wavefun   :      26812. kBytes
 
     INWAV:  cpu time      0.0000: real time      0.0000
 Broyden mixing: mesh for mixing (old mesh)
   NGX = 15   NGY = 15   NGZ = 15
  (NGX  = 64   NGY  = 64   NGZ  = 64)
  gives a total of   3375 points

 initial charge density was supplied:
 charge density of overlapping atoms calculated
 number of electron      32.0000000 magnetization 
 keeping initial charge density in first step


--------------------------------------------------------------------------------------------------------


 Maximum index for augmentation-charges          9627 (set IRDMAX)


--------------------------------------------------------------------------------------------------------


 First call to EWALD:  gamma=   0.313
 Maximum number of real-space cells 3x 3x 3
 Maximum number of reciprocal cells 3x 3x 3

    FEWALD:  cpu time      0.0012: real time      0.0012


--------------------------------------- Ionic step        1  -------------------------------------------




--------------------------------------- Iteration      1(   1)  ---------------------------------------


    POTLOK:  cpu time      0.0254: real time      0.1109
    SETDIJ:  cpu time      0.0161: real time      0.0486
     EDDAV:  cpu time      1.5169: real time      6.1267
       DOS:  cpu time      0.0013: real time      0.0013
    --------------------------------------------
      LOOP:  cpu time      1.5597: real time      6.2876

 eigenvalue-minimisations  :  1470
 total energy-change (2. order) : 0.8346816E+02  (-0.8670552E+03)
 number of electron      32.0000000 magnetization 
 augmentation part       32.0000000 magnetization 

 Free energy of the ion-electron system (eV)
  ---------------------------------------------------
  alpha Z        PSCENC =        67.55234170
  Ewald energy   TEWEN  =      -877.49004679
  -Hartree energ DENC   =       -50.54450675
  -exchange      EXHF   =         0.00000000
  -V(xc)+E(xc)   XCENC  =       -60.09375958
  PAW double counting   =       705.16156159     -589.26100038
  entropy T*S    EENTRO =        -0.00456714
  eigenvalues    EBANDS =        48.18783400
  atomic energy  EATOM  =       839.96030784
  Solvation  Ediel_sol  =         0.00000000
  ---------------------------------------------------
  free energy    TOTEN  =        83.46816449 eV

  energy without entropy =       83.47273163  energy(sigma->0) =       83.47044806


--------------------------------------------------------------------------------------------------------




--------------------------------------- Iteration      1(   2)  ---------------------------------------


     EDDAV:  cpu time      1.6388: real time      6.6016
       DOS:  cpu time      0.0013: real time      0.0013
    --------------------------------------------
      LOOP:  cpu time      1.6401: real time      6.6029

 eigenvalue-minimisations  :  1979
 total energy-change (2. order) :-0.1132162E+03  (-0.1083662E+03)
 number of electron      32.0000000 magnetization 
 augmentation part       32.0000000 magnetization 

 Free energy of the ion-electron system (eV)
  ---------------------------------------------------
  alpha Z        PSCENC =        67.55234170
  Ewald energy   TEWEN  =      -877.49004679
  -Hartree energ DENC   =       -50.54450675
  -exchange      EXHF   =         0.00000000
  -V(xc)+E(xc)   XCENC  =       -60.09375958
  PAW double counting   =       705.16156159     -589.26100038
  entropy T*S    EENTRO =        -0.00041429
  eigenvalues    EBANDS =       -65.03253126
  atomic energy  EATOM  =       839.96030784
  Solvation  Ediel_sol  =         0.00000000
  ---------------------------------------------------
  free energy    TOTEN  =       -29.74804792 eV

  energy without entropy =      -29.74763363  energy(sigma->0) =      -29.74784077


--------------------------------------------------------------------------------------------------------




--------------------------------------- Iteration      1(   3)  ---------------------------------------


     EDDAV:  cpu time      1.5468: real time      6.1789
       DOS:  cpu time      0.0013: real time      0.0013
    --------------------------------------------
      LOOP:  cpu time      1.5481: real time      6.1802

 eigenvalue-minimisations  :  1840
 total energy-change (2. order) :-0.6303716E+01  (-0.6210398E+01)
 number of electron      32.0000000 magnetization 
 augmentation part       32.0000000 magnetization 

 Free energy of the ion-electron system (eV)
  ---------------------------------------------------
  alpha Z        PSCENC =        67.55234170
  Ewald energy   TEWEN  =      -877.49004679
  -Hartree energ DENC   =       -50.54450675
  -exchange      EXHF   =         0.00000000
  -V(xc)+E(xc)   XCENC  =       -60.09375958
  PAW double counting   =       705.16156159     -589.26100038
  entropy T*S    EENTRO =        -0.00009227
  eigenvalues    EBANDS =       -71.33656932
  atomic energy  EATOM  =       839.96030784
  Solvation  Ediel_sol  =         0.00000000
  ---------------------------------------------------
  free energy    TOTEN  =       -36.05176397 eV

  energy without entropy =      -36.05167170  energy(sigma->0) =      -36.05171783


--------------------------------------------------------------------------------------------------------




--------------------------------------- Iteration      1(   4)  ---------------------------------------


     EDDAV:  cpu time      1.5334: real time      6.1326
       DOS:  cpu time      0.0014: real time      0.0254
    --------------------------------------------
      LOOP:  cpu time      1.5347: real time      6.1579

 eigenvalue-minimisations  :  1856
 total energy-change (2. order) :-0.9131817E-01  (-0.9104457E-01)
 number of electron      32.0000000 magnetization 
 augmentation part       32.0000000 magnetization 

 Free energy of the ion-electron system (eV)
  ---------------------------------------------------
  alpha Z        PSCENC =        67.55234170
  Ewald energy   TEWEN  =      -877.49004679
  -Hartree energ DENC   =       -50.54450675
  -exchange      EXHF   =         0.00000000
  -V(xc)+E(xc)   XCENC  =       -60.09375958
  PAW double counting   =       705.16156159     -589.26100038
  entropy T*S    EENTRO =        -0.00014298
  eigenvalues    EBANDS =       -71.42783678
  atomic energy  EATOM  =       839.96030784
  Solvation  Ediel_sol  =         0.00000000
  ---------------------------------------------------
  free energy    TOTEN  =       -36.14308214 eV

  energy without entropy =      -36.14293916  energy(sigma->0) =      -36.14301065


--------------------------------------------------------------------------------------------------------




--------------------------------------- Iteration      1(   5)  ---------------------------------------


     EDDAV:  cpu time      1.5100: real time      6.0395
       DOS:  cpu time      0.0012: real time      0.0012
    CHARGE:  cpu time      0.1359: real time      0.5486
    MIXING:  cpu time      0.0031: real time      0.0142
    --------------------------------------------
      LOOP:  cpu time      1.6503: real time      6.6035

 eigenvalue-minimisations  :  1792
 total energy-change (2. order) :-0.1345757E-02  (-0.1344580E-02)
 number of electron      31.9999979 magnetization 
 augmentation part       -5.2281080 magnetization 

 Broyden mixing:
  rms(total) = 0.61151E+00    rms(broyden)= 0.61149E+00
  rms(prec ) = 0.92191E+00
  weight for this iteration     100.00

 Free energy of the ion-electron system (eV)
  ---------------------------------------------------
  alpha Z        PSCENC =        67.55234170
  Ewald energy   TEWEN  =      -877.49004679
  -Hartree energ DENC   =       -50.54450675
  -exchange      EXHF   =         0.00000000
  -V(xc)+E(xc)   XCENC  =       -60.09375958
  PAW double counting   =       705.16156159     -589.26100038
  entropy T*S    EENTRO =        -0.00014857
  eigenvalues    EBANDS =       -71.42917696
  atomic energy  EATOM  =       839.96030784
  Solvation  Ediel_sol  =         0.00000000
  ---------------------------------------------------
  free energy    TOTEN  =       -36.14442790 eV

  energy without entropy =      -36.14427933  energy(sigma->0) =      -36.14435361


--------------------------------------------------------------------------------------------------------




--------------------------------------- Iteration      1(   6)  ---------------------------------------


    POTLOK:  cpu time      0.0072: real time      0.0072
    SETDIJ:  cpu time      0.0160: real time      0.0776
     EDDAV:  cpu time      1.4589: real time      5.8724
       DOS:  cpu time      0.0011: real time      0.0011
    CHARGE:  cpu time      0.1303: real time      0.5210
    MIXING:  cpu time      0.0033: real time      0.0033
    --------------------------------------------
      LOOP:  cpu time      1.6169: real time      6.4826

 eigenvalue-minimisations  :  1715
 total energy-change (2. order) : 0.2611347E+00  (-0.1255851E-01)
 number of electron      31.9999980 magnetization 
 augmentation part       -5.1925477 magnetization 

 Broyden mixing:
  rms(total) = 0.37555E+00    rms(broyden)= 0.37555E+00
  rms(prec ) = 0.56279E+00
  weight for this iteration     100.00

 eigenvalues of (default mixing * dielectric matrix)
  average eigenvalue GAMMA=   2.5789
  2.5789

 Free energy of the ion-electron system (eV)
  ---------------------------------------------------
  alpha Z        PSCENC =        67.55234170
  Ewald energy   TEWEN  =      -877.49004679
  -Hartree energ DENC   =       -54.85109848
  -exchange      EXHF   =         0.00000000
  -V(xc)+E(xc)   XCENC  =       -59.27508944
  PAW double counting   =      1079.46451425     -964.15020377
  entropy T*S    EENTRO =        -0.00013236
  eigenvalues    EBANDS =       -67.09388619
  atomic energy  EATOM  =       839.96030784
  Solvation  Ediel_sol  =         0.00000000
  ---------------------------------------------------
  free energy    TOTEN  =       -35.88329324 eV

  energy without entropy =      -35.88316088  energy(sigma->0) =      -35.88322706


--------------------------------------------------------------------------------------------------------




--------------------------------------- Iteration      1(   7)  ---------------------------------------


    POTLOK:  cpu time      0.0073: real time      0.0310
    SETDIJ:  cpu time      0.0159: real time      0.0790
     EDDAV:  cpu time      1.4240: real time      5.7217
       DOS:  cpu time      0.0011: real time      0.0011
    CHARGE:  cpu time      0.1262: real time      0.4908
    MIXING:  cpu time      0.0035: real time      0.0412
    --------------------------------------------
      LOOP:  cpu time      1.5782: real time      6.3648

 eigenvalue-minimisations  :  1678
 total energy-change (2. order) : 0.1168586E+00  (-0.2628885E-01)
 number of electron      31.9999980 magnetization 
 augmentation part       -5.1444732 magnetization 

 Broyden mixing:
  rms(total) = 0.24610E-01    rms(broyden)= 0.24610E-01
  rms(prec ) = 0.40785E-01
  weight for this iteration     100.00

 eigenvalues of (default mixing * dielectric matrix)
  average eigenvalue GAMMA=   2.4266
  2.4266  2.4266

 Free energy of the ion-electron system (eV)
  ---------------------------------------------------
  alpha Z        PSCENC =        67.55234170
  Ewald energy   TEWEN  =      -877.49004679
  -Hartree energ DENC   =       -62.23218275
  -exchange      EXHF   =         0.00000000
  -V(xc)+E(xc)   XCENC  =       -57.81323862
  PAW double counting   =      1857.90373793    -1743.43557404
  entropy T*S    EENTRO =        -0.00012711
  eigenvalues    EBANDS =       -60.21165282
  atomic energy  EATOM  =       839.96030784
  Solvation  Ediel_sol  =         0.00000000
  ---------------------------------------------------
  free energy    TOTEN  =       -35.76643466 eV

  energy without entropy =      -35.76630755  energy(sigma->0) =      -35.76637111


--------------------------------------------------------------------------------------------------------




--------------------------------------- Iteration      1(   8)  ---------------------------------------


    POTLOK:  cpu time      0.0065: real time      0.0065
    SETDIJ:  cpu time      0.0156: real time      0.0625
     EDDAV:  cpu time      1.4807: real time      5.9467
       DOS:  cpu time      0.0012: real time      0.0012
    CHARGE:  cpu time      0.1282: real time      0.4951
    MIXING:  cpu time      0.0035: real time      0.0275
    --------------------------------------------
      LOOP:  cpu time      1.6357: real time      6.5395

 eigenvalue-minimisations  :  1752
 total energy-change (2. order) :-0.4421383E-02  (-0.1015631E-02)
 number of electron      31.9999980 magnetization 
 augmentation part       -5.1469922 magnetization 

 Broyden mixing:
  rms(total) = 0.57845E-02    rms(broyden)= 0.57844E-02
  rms(prec ) = 0.10815E-01
  weight for this iteration     100.00

 eigenvalues of (default mixing * dielectric matrix)
  average eigenvalue GAMMA=   2.1643
  1.4055  2.7444  2.3431

 Free energy of the ion-electron system (eV)
  ---------------------------------------------------
  alpha Z        PSCENC =        67.55234170
  Ewald energy   TEWEN  =      -877.49004679
  -Hartree energ DENC   =       -62.15683141
  -exchange      EXHF   =         0.00000000
  -V(xc)+E(xc)   XCENC  =       -57.73863328
  PAW double counting   =      1853.18916054    -1738.65541275
  entropy T*S    EENTRO =        -0.00012977
  eigenvalues    EBANDS =       -60.43161212
  atomic energy  EATOM  =       839.96030784
  Solvation  Ediel_sol  =         0.00000000
  ---------------------------------------------------
  free energy    TOTEN  =       -35.77085604 eV

  energy without entropy =      -35.77072627  energy(sigma->0) =      -35.77079116


--------------------------------------------------------------------------------------------------------




--------------------------------------- Iteration      1(   9)  ---------------------------------------


    POTLOK:  cpu time      0.0073: real time      0.0393
    SETDIJ:  cpu time      0.0152: real time      0.0431
     EDDAV:  cpu time      1.5328: real time      6.1968
       DOS:  cpu time      0.0012: real time      0.0012
    CHARGE:  cpu time      0.1260: real time      0.5003
    MIXING:  cpu time      0.0032: real time      0.0032
    --------------------------------------------
      LOOP:  cpu time      1.6857: real time      6.7839

 eigenvalue-minimisations  :  1846
 total energy-change (2. order) :-0.5951951E-03  (-0.6027985E-04)
 number of electron      31.9999980 magnetization 
 augmentation part       -5.1473382 magnetization 

 Broyden mixing:
  rms(total) = 0.33766E-02    rms(broyden)= 0.33766E-02
  rms(prec ) = 0.48320E-02
  weight for this iteration     100.00

 eigenvalues of (default mixing * dielectric matrix)
  average eigenvalue GAMMA=   2.1459
  0.9498  2.9847  2.5509  2.0983

 Free energy of the ion-electron system (eV)
  ---------------------------------------------------
  alpha Z        PSCENC =        67.55234170
  Ewald energy   TEWEN  =      -877.49004679
  -Hartree energ DENC   =       -62.26808388
  -exchange      EXHF   =         0.00000000
  -V(xc)+E(xc)   XCENC  =       -57.70898015
  PAW double counting   =      1852.92083113    -1738.38181505
  entropy T*S    EENTRO =        -0.00012942
  eigenvalues    EBANDS =       -60.35587660
  atomic energy  EATOM  =       839.96030784
  Solvation  Ediel_sol  =         0.00000000
  ---------------------------------------------------
  free energy    TOTEN  =       -35.77145124 eV

  energy without entropy =      -35.77132181  energy(sigma->0) =      -35.77138653


--------------------------------------------------------------------------------------------------------




--------------------------------------- Iteration      1(  10)  ---------------------------------------


    POTLOK:  cpu time      0.0071: real time      0.0286
    SETDIJ:  cpu time      0.0157: real time      0.0737
     EDDAV:  cpu time      1.4868: real time      5.9463
       DOS:  cpu time      0.0014: real time      0.0217
    CHARGE:  cpu time      0.1292: real time      0.5003
    MIXING:  cpu time      0.0037: real time      0.0281
    --------------------------------------------
      LOOP:  cpu time      1.6438: real time      6.5988

 eigenvalue-minimisations  :  1782
 total energy-change (2. order) :-0.6687387E-04  (-0.1127109E-04)
 number of electron      31.9999980 magnetization 
 augmentation part       -5.1468508 magnetization 

 Broyden mixing:
  rms(total) = 0.46869E-03    rms(broyden)= 0.46868E-03
  rms(prec ) = 0.56790E-03
  weight for this iteration     100.00

 eigenvalues of (default mixing * dielectric matrix)
  average eigenvalue GAMMA=   1.9605
  3.0957  2.4506  2.1520  1.0520  1.0520

 Free energy of the ion-electron system (eV)
  ---------------------------------------------------
  alpha Z        PSCENC =        67.55234170
  Ewald energy   TEWEN  =      -877.49004679
  -Hartree energ DENC   =       -62.33126229
  -exchange      EXHF   =         0.00000000
  -V(xc)+E(xc)   XCENC  =       -57.70669570
  PAW double counting   =      1844.86660760    -1730.32590062
  entropy T*S    EENTRO =        -0.00012828
  eigenvalues    EBANDS =       -60.29674156
  atomic energy  EATOM  =       839.96030784
  Solvation  Ediel_sol  =         0.00000000
  ---------------------------------------------------
  free energy    TOTEN  =       -35.77151811 eV

  energy without entropy =      -35.77138983  energy(sigma->0) =      -35.77145397


--------------------------------------------------------------------------------------------------------




--------------------------------------- Iteration      1(  11)  ---------------------------------------


    POTLOK:  cpu time      0.0067: real time      0.0271
    SETDIJ:  cpu time      0.0158: real time      0.0515
     EDDAV:  cpu time      1.1827: real time      4.7416
       DOS:  cpu time      0.0012: real time      0.0012
    CHARGE:  cpu time      0.1269: real time      0.5080
    MIXING:  cpu time      0.0034: real time      0.0106
    --------------------------------------------
      LOOP:  cpu time      1.3367: real time      5.3400

 eigenvalue-minimisations  :  1259
 total energy-change (2. order) :-0.2699831E-05  (-0.8124362E-07)
 number of electron      31.9999980 magnetization 
 augmentation part       -5.1468039 magnetization 

 Broyden mixing:
  rms(total) = 0.19413E-03    rms(broyden)= 0.19413E-03
  rms(prec ) = 0.31558E-03
  weight for this iteration     100.00

 eigenvalues of (default mixing * dielectric matrix)
  average eigenvalue GAMMA=   2.1286
  3.3591  2.6947  2.5141  2.1926  1.0055  1.0055

 Free energy of the ion-electron system (eV)
  ---------------------------------------------------
  alpha Z        PSCENC =        67.55234170
  Ewald energy   TEWEN  =      -877.49004679
  -Hartree energ DENC   =       -62.33636439
  -exchange      EXHF   =         0.00000000
  -V(xc)+E(xc)   XCENC  =       -57.70590498
  PAW double counting   =      1845.99416817    -1731.45397560
  entropy T*S    EENTRO =        -0.00012822
  eigenvalues    EBANDS =       -60.29191853
  atomic energy  EATOM  =       839.96030784
  Solvation  Ediel_sol  =         0.00000000
  ---------------------------------------------------
  free energy    TOTEN  =       -35.77152081 eV

  energy without entropy =      -35.77139259  energy(sigma->0) =      -35.77145670


--------------------------------------------------------------------------------------------------------




--------------------------------------- Iteration      1(  12)  ---------------------------------------


    POTLOK:  cpu time      0.0067: real time      0.0267
    SETDIJ:  cpu time      0.0158: real time      0.0771
     EDDAV:  cpu time      1.1296: real time      4.5120
       DOS:  cpu time      0.0012: real time      0.0012
    --------------------------------------------
      LOOP:  cpu time      1.1533: real time      4.6169

 eigenvalue-minimisations  :  1200
 total energy-change (2. order) :-0.7059918E-06  (-0.1096302E-06)
 number of electron      31.9999980 magnetization 
 augmentation part       -5.1468039 magnetization 

 Free energy of the ion-electron system (eV)
  ---------------------------------------------------
  alpha Z        PSCENC =        67.55234170
  Ewald energy   TEWEN  =      -877.49004679
  -Hartree energ DENC   =       -62.33915621
  -exchange      EXHF   =         0.00000000
  -V(xc)+E(xc)   XCENC  =       -57.70639781
  PAW double counting   =      1846.17816940    -1731.63786263
  entropy T*S    EENTRO =        -0.00012806
  eigenvalues    EBANDS =       -60.28874894
  atomic energy  EATOM  =       839.96030784
  Solvation  Ediel_sol  =         0.00000000
  ---------------------------------------------------
  free energy    TOTEN  =       -35.77152152 eV

  energy without entropy =      -35.77139345  energy(sigma->0) =      -35.77145748


--------------------------------------------------------------------------------------------------------




 average (electrostatic) potential at core
  the test charge radii are     1.1631
  (the norm of the test charge is              1.0000)
       1 -32.9877       2 -32.9877       3 -32.9877       4 -32.9877       5 -32.9877
       6 -32.9877       7 -32.9877       8 -32.9877
 
 
 
 E-fermi :   3.8182     XC(G=0):  -9.1359     alpha+bet : -9.1581

 Fermi energy:         3.8182458381

 k-point     1 :       0.0000    0.0000    0.0000
  band No.  band energies     occupation 
      1      -9.0088      2.00000
      2      -5.1243      2.00000
      3      -5.1243      2.00000
      4      -5.1243      2.00000
      5      -5.1243      2.00000
      6      -5.1243      2.00000
      7      -5.1243      2.00000
      8       0.6832      2.00000
      9       0.6832      2.00000
     10       0.6832      2.00000
     11       0.6832      2.00000
     12       0.6832      2.00000
     13       0.6832      2.00000
     14       3.7747      1.78140
     15       3.7747      1.78140
     16       3.7747      1.78140
     17       3.8339      0.65704
     18       4.5024      0.00000
     19       4.5024      0.00000
     20       4.5024      0.00000
     21       4.5024      0.00000

 k-point     2 :       0.1250    0.0000    0.0000
  band No.  band energies     occupation 
      1      -8.9452      2.00000
      2      -5.9963      2.00000
      3      -5.1105      2.00000
      4      -5.1105      2.00000
      5      -5.1105      2.00000
      6      -5.1105      2.00000
      7      -4.1685      2.00000
      8       0.5296      2.00000
      9       0.5296      2.00000
     10       0.5296      2.00000
     11       0.5296      2.00000
     12       0.7500      2.00000
     13       0.7500      2.00000
     14       2.5961      2.00000
     15       3.4838      2.00000
     16       3.4838      2.00000
     17       4.3352      0.00000
     18       4.8348      0.00000
     19       4.8361      0.00000
     20       4.8361      0.00000
     21       4.8362      0.00000

 k-point     3 :       0.2500    0.0000    0.0000
  band No.  band energies     occupation 
      1      -8.7547      2.00000
      2      -6.7725      2.00000
      3      -5.0764      2.00000
      4      -5.0764      2.00000
      5      -5.0764      2.00000
      6      -5.0764      2.00000
      7      -3.1429      2.00000
      8       0.2138      2.00000
      9       0.2138      2.00000
     10       0.2138      2.00000
     11       0.2138      2.00000
     12       0.9492      2.00000
     13       0.9492      2.00000
     14       1.3962      2.00000
     15       2.8918      2.00000
     16       2.8918      2.00000
     17       4.3298      0.00000
     18       5.3230      0.00000
     19       5.6623      0.00000
     20       5.6954      0.00000
     21       5.6954      0.00000

 k-point     4 :       0.3750    0.0000    0.0000
  band No.  band energies     occupation 
      1      -8.4389      2.00000
      2      -7.4431      2.00000
      3      -5.0411      2.00000
      4      -5.0411      2.00000
      5      -5.0411      2.00000
      6      -5.0411      2.00000
      7      -2.0621      2.00000
      8      -0.0524      2.00000
      9      -0.0524      2.00000
     10      -0.0524      2.00000
     11      -0.0524      2.00000
     12       0.2159      2.00000
     13       1.2764      2.00000
     14       1.2764      2.00000
     15       2.2733      2.00000
     16       2.2733      2.00000
     17       4.4783      0.00000
     18       5.1757      0.00000
     19       5.9286      0.00000
     20       6.6557      0.00000
     21       6.8728      0.00000

 k-point     5 :       0.5000    0.0000    0.0000
  band No.  band energies     occupation 
      1      -8.0004      2.00000
      2      -8.0004      2.00000
      3      -5.0261      2.00000
      4      -5.0261      2.00000
      5      -5.0261      2.00000
      6      -5.0261      2.00000
      7      -0.9390      2.00000
      8      -0.9390      2.00000
      9      -0.1528      2.00000
     10      -0.1528      2.00000
     11      -0.1528      2.00000
     12      -0.1528      2.00000
     13       1.7232      2.00000
     14       1.7232      2.00000
     15       1.7232      2.00000
     16       1.7232      2.00000
     17       4.7677      0.00000
     18       4.7677      0.00000
     19       6.5080      0.00000
     20       6.5080      0.00000
     21       8.0846      0.00000

 k-point     6 :       0.1250    0.1250    0.0000
  band No.  band energies     occupation 
      1      -8.8819      2.00000
      2      -5.9646      2.00000
      3      -5.9646      2.00000
      4      -5.2234      2.00000
      5      -4.9761      2.00000
      6      -4.1817      2.00000
      7      -4.1817      2.00000
      8       0.1019      2.00000
      9       0.5556      2.00000
     10       0.5556      2.00000
     11       0.6481      2.00000
     12       0.6481      2.00000
     13       0.7963      2.00000
     14       1.9518      2.00000
     15       3.1937      2.00000
     16       3.6835      1.99986
     17       4.6088      0.00000
     18       4.6946      0.00000
     19       4.6946      0.00000
     20       5.0206      0.00000
     21       5.1371      0.00000

 k-point     7 :       0.2500    0.1250    0.0000
  band No.  band energies     occupation 
      1      -8.6926      2.00000
      2      -6.7289      2.00000
      3      -5.8750      2.00000
      4      -5.3315      2.00000
      5      -4.8148      2.00000
      6      -4.2282      2.00000
      7      -3.1963      2.00000
      8      -0.2723      2.00000
      9       0.1501      2.00000
     10       0.4507      2.00000
     11       0.7226      2.00000
     12       0.7522      2.00000
     13       0.9120      2.00000
     14       0.9536      2.00000
     15       2.6039      2.00000
     16       3.2143      2.00000
     17       4.7098      0.00000
     18       5.0458      0.00000
     19       5.5880      0.00000
     20       5.5971      0.00000
     21       5.6948      0.00000

 k-point     8 :       0.3750    0.1250    0.0000
  band No.  band energies     occupation 
      1      -8.3789      2.00000
      2      -7.3916      2.00000
      3      -5.7436      2.00000
      4      -5.4532      2.00000
      5      -4.6360      2.00000
      6      -4.3207      2.00000
      7      -2.1736      2.00000
      8      -0.4728      2.00000
      9      -0.2283      2.00000
     10      -0.0855      2.00000
     11       0.3270      2.00000
     12       0.5377      2.00000
     13       1.0250      2.00000
     14       1.3189      2.00000
     15       1.9918      2.00000
     16       2.5136      2.00000
     17       4.8731      0.00000
     18       5.5791      0.00000
     19       6.0004      0.00000
     20       6.1387      0.00000
     21       6.4362      0.00000

 k-point     9 :       0.5000    0.1250    0.0000
  band No.  band energies     occupation 
      1      -7.9438      2.00000
      2      -7.9438      2.00000
      3      -5.5948      2.00000
      4      -5.5948      2.00000
      5      -4.4622      2.00000
      6      -4.4622      2.00000
      7      -1.1320      2.00000
      8      -1.1320      2.00000
      9      -0.4550      2.00000
     10      -0.4550      2.00000
     11       0.3602      2.00000
     12       0.3602      2.00000
     13       1.4536      2.00000
     14       1.4536      2.00000
     15       1.8603      2.00000
     16       1.8603      2.00000
     17       5.1708      0.00000
     18       5.1708      0.00000
     19       6.5892      0.00000
     20       6.5892      0.00000
     21       7.2346      0.00000

 k-point    10 :       0.2500    0.2500    0.0000
  band No.  band energies     occupation 
      1      -8.5069      2.00000
      2      -6.6019      2.00000
      3      -6.6019      2.00000
      4      -5.5960      2.00000
      5      -4.5317      2.00000
      6      -3.3539      2.00000
      7      -3.3539      2.00000
      8      -0.5842      2.00000
      9       0.1450      2.00000
     10       0.2509      2.00000
     11       0.2509      2.00000
     12       0.8638      2.00000
     13       0.8638      2.00000
     14       1.1251      2.00000
     15       2.0191      2.00000
     16       3.3897      2.00000
     17       4.9117      0.00000
     18       5.4973      0.00000
     19       5.6421      0.00000
     20       5.6421      0.00000
     21       6.3004      0.00000

 k-point    11 :       0.3750    0.2500    0.0000
  band No.  band energies     occupation 
      1      -8.1998      2.00000
      2      -7.2397      2.00000
      3      -6.4030      2.00000
      4      -5.8741      2.00000
      5      -4.2239      2.00000
      6      -3.6008      2.00000
      7      -2.4733      2.00000
      8      -0.7218      2.00000
      9      -0.6730      2.00000
     10      -0.2097      2.00000
     11       0.5057      2.00000
     12       0.8989      2.00000
     13       1.1746      2.00000
     14       1.4183      2.00000
     15       1.4419      2.00000
     16       2.8865      2.00000
     17       5.4286      0.00000
     18       5.8219      0.00000
     19       5.9741      0.00000
     20       6.5130      0.00000
     21       6.6658      0.00000

 k-point    12 :       0.5000    0.2500    0.0000
  band No.  band energies     occupation 
      1      -7.7754      2.00000
      2      -7.7754      2.00000
      3      -6.1517      2.00000
      4      -6.1517      2.00000
      5      -3.9038      2.00000
      6      -3.9038      2.00000
      7      -1.5960      2.00000
      8      -1.5960      2.00000
      9      -0.5378      2.00000
     10      -0.5378      2.00000
     11       0.9012      2.00000
     12       0.9012      2.00000
     13       1.0329      2.00000
     14       1.0329      2.00000
     15       2.1473      2.00000
     16       2.1473      2.00000
     17       6.1214      0.00000
     18       6.1214      0.00000
     19       6.4284      0.00000
     20       6.4286      0.00000
     21       6.5786      0.00000

 k-point    13 :       0.3750    0.3750    0.0000
  band No.  band energies     occupation 
      1      -7.9050      2.00000
      2      -6.9949      2.00000
      3      -6.9949      2.00000
      4      -6.2887      2.00000
      5      -3.7920      2.00000
      6      -2.8853      2.00000
      7      -2.8853      2.00000
      8      -1.4412      2.00000
      9      -0.6471      2.00000
     10      -0.0129      2.00000
     11      -0.0129      2.00000
     12       0.8340      2.00000
     13       1.6152      2.00000
     14       1.6152      2.00000
     15       1.6352      2.00000
     16       2.8878      2.00000
     17       5.3443      0.00000
     18       5.7751      0.00000
     19       6.7076      0.00000
     20       6.7076      0.00000
     21       7.0530      0.00000

 k-point    14 :       0.5000    0.3750    0.0000
  band No.  band energies     occupation 
      1      -7.5002      2.00000
      2      -7.5002      2.00000
      3      -6.6711      2.00000
      4      -6.6711      2.00000
      5      -3.3396      2.00000
      6      -3.3396      2.00000
      7      -2.1674      2.00000
      8      -2.1674      2.00000
      9      -0.4154      2.00000
     10      -0.4154      2.00000
     11       0.3430      2.00000
     12       0.3430      2.00000
     13       1.7435      2.00000
     14       1.7435      2.00000
     15       2.3611      2.00000
     16       2.3611      2.00000
     17       5.8692      0.00000
     18       5.8692      0.00000
     19       6.0995      0.00000
     20       6.0995      0.00000
     21       7.3321      0.00000

 k-point    15 :       0.5000    0.5000    0.0000
  band No.  band energies     occupation 
      1      -7.1274      2.00000
      2      -7.1274      2.00000
      3      -7.1274      2.00000
      4      -7.1274      2.00000
      5      -2.7594      2.00000
      6      -2.7594      2.00000
      7      -2.7594      2.00000
      8      -2.7594      2.00000
      9      -0.1117      2.00000
     10      -0.1117      2.00000
     11      -0.1117      2.00000
     12      -0.1117      2.00000
     13       2.2592      2.00000
     14       2.2592      2.00000
     15       2.2592      2.00000
     16       2.2592      2.00000
     17       5.7265      0.00000
     18       5.7265      0.00000
     19       5.7265      0.00000
     20       5.7265      0.00000
     21       8.5374      0.00000

 k-point    16 :       0.1250    0.1250    0.1250
  band No.  band energies     occupation 
      1      -8.8190      2.00000
      2      -5.9425      2.00000
      3      -5.9425      2.00000
      4      -5.9425      2.00000
      5      -4.1931      2.00000
      6      -4.1931      2.00000
      7      -4.1931      2.00000
      8       0.1911      2.00000
      9       0.1911      2.00000
     10       0.1911      2.00000
     11       0.8613      2.00000
     12       0.8613      2.00000
     13       0.8613      2.00000
     14       1.4228      2.00000
     15       3.4362      2.00000
     16       3.4362      2.00000
     17       4.6516      0.00000
     18       4.6516      0.00000
     19       4.6516      0.00000
     20       4.8178      0.00000
     21       5.7020      0.00000

 k-point    17 :       0.2500    0.1250    0.1250
  band No.  band energies     occupation 
      1      -8.6310      2.00000
      2      -6.6895      2.00000
      3      -5.8862      2.00000
      4      -5.8862      2.00000
      5      -4.2254      2.00000
      6      -4.2254      2.00000
      7      -3.2585      2.00000
      8      -0.1679      2.00000
      9      -0.1679      2.00000
     10       0.4588      2.00000
     11       0.5316      2.00000
     12       0.8326      2.00000
     13       0.8326      2.00000
     14       1.0548      2.00000
     15       2.9040      2.00000
     16       3.0268      2.00000
     17       4.7878      0.00000
     18       5.1066      0.00000
     19       5.1066      0.00000
     20       5.2618      0.00000
     21       6.0203      0.00000

 k-point    18 :       0.3750    0.1250    0.1250
  band No.  band energies     occupation 
      1      -8.3197      2.00000
      2      -7.3424      2.00000
      3      -5.8249      2.00000
      4      -5.8249      2.00000
      5      -4.2657      2.00000
      6      -4.2657      2.00000
      7      -2.3036      2.00000
      8      -0.4036      2.00000
      9      -0.3865      2.00000
     10      -0.3865      2.00000
     11       0.6706      2.00000
     12       0.6706      2.00000
     13       0.9023      2.00000
     14       1.3717      2.00000
     15       2.2491      2.00000
     16       2.3261      2.00000
     17       5.0269      0.00000
     18       5.6748      0.00000
     19       6.0535      0.00000
     20       6.0535      0.00000
     21       6.3964      0.00000

 k-point    19 :       0.5000    0.1250    0.1250
  band No.  band energies     occupation 
      1      -7.8884      2.00000
      2      -7.8884      2.00000
      3      -5.7977      2.00000
      4      -5.7977      2.00000
      5      -4.2851      2.00000
      6      -4.2851      2.00000
      7      -1.3493      2.00000
      8      -1.3493      2.00000
      9      -0.4553      2.00000
     10      -0.4553      2.00000
     11       0.5890      2.00000
     12       0.5890      2.00000
     13       1.5102      2.00000
     14       1.5102      2.00000
     15       1.8019      2.00000
     16       1.8019      2.00000
     17       5.3588      0.00000
     18       5.3588      0.00000
     19       6.7270      0.00000
     20       6.7270      0.00000
     21       7.1020      0.00000

 k-point    20 :       0.2500    0.2500    0.1250
  band No.  band energies     occupation 
      1      -8.4470      2.00000
      2      -6.5769      2.00000
      3      -6.5769      2.00000
      4      -5.9348      2.00000
      5      -4.1973      2.00000
      6      -3.4317      2.00000
      7      -3.4317      2.00000
      8      -0.4257      2.00000
      9      -0.2384      2.00000
     10       0.1343      2.00000
     11       0.1343      2.00000
     12       1.0775      2.00000
     13       1.0775      2.00000
     14       1.1838      2.00000
     15       2.4070      2.00000
     16       3.2446      2.00000
     17       4.9801      0.00000
     18       5.0077      0.00000
     19       5.2824      0.00000
     20       5.2824      0.00000
     21       6.9624      0.00000

 k-point    21 :       0.3750    0.2500    0.1250
  band No.  band energies     occupation 
      1      -8.1432      2.00000
      2      -7.1979      2.00000
      3      -6.4086      2.00000
      4      -6.0461      2.00000
      5      -4.1008      2.00000
      6      -3.6727      2.00000
      7      -2.6352      2.00000
      8      -1.0469      2.00000
      9      -0.4846      2.00000
     10      -0.1467      2.00000
     11       0.5973      2.00000
     12       1.0620      2.00000
     13       1.2430      2.00000
     14       1.4963      2.00000
     15       1.7790      2.00000
     16       2.7667      2.00000
     17       5.4819      0.00000
     18       5.4868      0.00000
     19       5.5449      0.00000
     20       6.1877      0.00000
     21       6.8017      0.00000

 k-point    22 :       0.5000    0.2500    0.1250
  band No.  band energies     occupation 
      1      -7.7242      2.00000
      2      -7.7242      2.00000
      3      -6.2169      2.00000
      4      -6.2169      2.00000
      5      -3.9162      2.00000
      6      -3.9162      2.00000
      7      -1.8443      2.00000
      8      -1.8443      2.00000
      9      -0.3710      2.00000
     10      -0.3710      2.00000
     11       1.1365      2.00000
     12       1.1365      2.00000
     13       1.1622      2.00000
     14       1.1622      2.00000
     15       2.0843      2.00000
     16       2.0843      2.00000
     17       5.7712      0.00000
     18       5.7712      0.00000
     19       6.4165      0.00000
     20       6.4165      0.00000
     21       6.8853      0.00000

 k-point    23 :       0.3750    0.3750    0.1250
  band No.  band energies     occupation 
      1      -7.8534      2.00000
      2      -6.9688      2.00000
      3      -6.9688      2.00000
      4      -6.3507      2.00000
      5      -3.8310      2.00000
      6      -3.0551      2.00000
      7      -3.0551      2.00000
      8      -1.7425      2.00000
      9      -0.3951      2.00000
     10       0.2129      2.00000
     11       0.2129      2.00000
     12       1.2069      2.00000
     13       1.6641      2.00000
     14       1.6641      2.00000
     15       1.6797      2.00000
     16       2.8412      2.00000
     17       5.3780      0.00000
     18       5.4102      0.00000
     19       6.2245      0.00000
     20       6.2245      0.00000
     21       7.1749      0.00000

 k-point    24 :       0.5000    0.3750    0.1250
  band No.  band energies     occupation 
      1      -7.4577      2.00000
      2      -7.4577      2.00000
      3      -6.6751      2.00000
      4      -6.6751      2.00000
      5      -3.4722      2.00000
      6      -3.4722      2.00000
      7      -2.4154      2.00000
      8      -2.4154      2.00000
      9      -0.1443      2.00000
     10      -0.1443      2.00000
     11       0.6707      2.00000
     12       0.6707      2.00000
     13       1.7866      2.00000
     14       1.7866      2.00000
     15       2.3483      2.00000
     16       2.3483      2.00000
     17       5.8091      0.00000
     18       5.8091      0.00000
     19       5.8378      0.00000
     20       5.8378      0.00000
     21       7.2460      0.00000

 k-point    25 :       0.5000    0.5000    0.1250
  band No.  band energies     occupation 
      1      -7.1009      2.00000
      2      -7.1009      2.00000
      3      -7.1009      2.00000
      4      -7.1009      2.00000
      5      -2.9691      2.00000
      6      -2.9691      2.00000
      7      -2.9691      2.00000
      8      -2.9691      2.00000
      9       0.2143      2.00000
     10       0.2143      2.00000
     11       0.2143      2.00000
     12       0.2143      2.00000
     13       2.2734      2.00000
     14       2.2734      2.00000
     15       2.2734      2.00000
     16       2.2734      2.00000
     17       5.6194      0.00000
     18       5.6194      0.00000
     19       5.6194      0.00000
     20       5.6194      0.00000
     21       8.0267      0.00000

 k-point    26 :       0.2500    0.2500    0.2500
  band No.  band energies     occupation 
      1      -8.2685      2.00000
      2      -6.5127      2.00000
      3      -6.5127      2.00000
      4      -6.5127      2.00000
      5      -3.6186      2.00000
      6      -3.6186      2.00000
      7      -3.6186      2.00000
      8      -0.9494      2.00000
      9       0.0299      2.00000
     10       0.0299      2.00000
     11       0.0299      2.00000
     12       1.3574      2.00000
     13       1.3574      2.00000
     14       1.3574      2.00000
     15       2.8851      2.00000
     16       2.8851      2.00000
     17       4.4445      0.00000
     18       5.1698      0.00000
     19       5.1698      0.00000
     20       5.1698      0.00000
     21       7.3823      0.00000

 k-point    27 :       0.3750    0.2500    0.2500
  band No.  band energies     occupation 
      1      -7.9751      2.00000
      2      -7.0787      2.00000
      3      -6.4424      2.00000
      4      -6.4424      2.00000
      5      -3.8051      2.00000
      6      -3.8051      2.00000
      7      -3.0061      2.00000
      8      -1.6793      2.00000
      9       0.0194      2.00000
     10       0.0194      2.00000
     11       0.7241      2.00000
     12       1.4508      2.00000
     13       1.4508      2.00000
     14       1.6379      2.00000
     15       2.4343      2.00000
     16       2.4424      2.00000
     17       4.8260      0.00000
     18       5.4049      0.00000
     19       5.6043      0.00000
     20       5.6043      0.00000
     21       7.1246      0.00000

 k-point    28 :       0.5000    0.2500    0.2500
  band No.  band energies     occupation 
      1      -7.5742      2.00000
      2      -7.5742      2.00000
      3      -6.4111      2.00000
      4      -6.4111      2.00000
      5      -3.8827      2.00000
      6      -3.8827      2.00000
      7      -2.3654      2.00000
      8      -2.3654      2.00000
      9       0.0318      2.00000
     10       0.0318      2.00000
     11       1.4474      2.00000
     12       1.4474      2.00000
     13       1.5687      2.00000
     14       1.5687      2.00000
     15       2.0091      2.00000
     16       2.0091      2.00000
     17       5.3940      0.00000
     18       5.3940      0.00000
     19       6.1603      0.00000
     20       6.1603      0.00000
     21       7.0699      0.00000

 k-point    29 :       0.3750    0.3750    0.2500
  band No.  band energies     occupation 
      1      -7.7019      2.00000
      2      -6.9017      2.00000
      3      -6.9017      2.00000
      4      -6.5385      2.00000
      5      -3.8458      2.00000
      6      -3.4046      2.00000
      7      -3.4046      2.00000
      8      -2.3280      2.00000
      9       0.2521      2.00000
     10       0.6951      2.00000
     11       0.6951      2.00000
     12       1.8065      2.00000
     13       1.8065      2.00000
     14       1.8084      2.00000
     15       1.9646      2.00000
     16       2.7049      2.00000
     17       4.6375      0.00000
     18       5.4097      0.00000
     19       5.5992      0.00000
     20       5.5992      0.00000
     21       7.2659      0.00000

 k-point    30 :       0.5000    0.3750    0.2500
  band No.  band energies     occupation 
      1      -7.3364      2.00000
      2      -7.3364      2.00000
      3      -6.7045      2.00000
      4      -6.7045      2.00000
      5      -3.7087      2.00000
      6      -3.7087      2.00000
      7      -2.9108      2.00000
      8      -2.9108      2.00000
      9       0.5048      2.00000
     10       0.5048      2.00000
     11       1.3781      2.00000
     12       1.3781      2.00000
     13       1.9128      2.00000
     14       1.9128      2.00000
     15       2.3000      2.00000
     16       2.3000      2.00000
     17       5.1483      0.00000
     18       5.1483      0.00000
     19       5.6024      0.00000
     20       5.6024      0.00000
     21       7.2351      0.00000

 k-point    31 :       0.5000    0.5000    0.2500
  band No.  band energies     occupation 
      1      -7.0331      2.00000
      2      -7.0331      2.00000
      3      -7.0331      2.00000
      4      -7.0331      2.00000
      5      -3.3755      2.00000
      6      -3.3755      2.00000
      7      -3.3755      2.00000
      8      -3.3755      2.00000
      9       0.9655      2.00000
     10       0.9655      2.00000
     11       0.9655      2.00000
     12       0.9655      2.00000
     13       2.3085      2.00000
     14       2.3085      2.00000
     15       2.3085      2.00000
     16       2.3085      2.00000
     17       5.1864      0.00000
     18       5.1864      0.00000
     19       5.1864      0.00000
     20       5.1864      0.00000
     21       7.5258      0.00000

 k-point    32 :       0.3750    0.3750    0.3750
  band No.  band energies     occupation 
      1      -7.4621      2.00000
      2      -6.8281      2.00000
      3      -6.8281      2.00000
      4      -6.8281      2.00000
      5      -3.7055      2.00000
      6      -3.7055      2.00000
      7      -3.7055      2.00000
      8      -2.9081      2.00000
      9       1.1095      2.00000
     10       1.1095      2.00000
     11       1.1095      2.00000
     12       2.0067      2.00000
     13       2.0067      2.00000
     14       2.0067      2.00000
     15       2.4956      2.00000
     16       2.4956      2.00000
     17       4.0839      0.00000
     18       5.1696      0.00000
     19       5.1696      0.00000
     20       5.1696      0.00000
     21       7.2916      0.00000

 k-point    33 :       0.5000    0.3750    0.3750
  band No.  band energies     occupation 
      1      -7.1569      2.00000
      2      -7.1569      2.00000
      3      -6.7953      2.00000
      4      -6.7953      2.00000
      5      -3.8217      2.00000
      6      -3.8217      2.00000
      7      -3.3834      2.00000
      8      -3.3834      2.00000
      9       1.2601      2.00000
     10       1.2601      2.00000
     11       2.0034      2.00000
     12       2.0034      2.00000
     13       2.1165      2.00000
     14       2.1165      2.00000
     15       2.2484      2.00000
     16       2.2484      2.00000
     17       4.5181      0.00000
     18       4.5181      0.00000
     19       5.0213      0.00000
     20       5.0213      0.00000
     21       7.2555      0.00000

 k-point    34 :       0.5000    0.5000    0.3750
  band No.  band energies     occupation 
      1      -6.9587      2.00000
      2      -6.9587      2.00000
      3      -6.9587      2.00000
      4      -6.9587      2.00000
      5      -3.7099      2.00000
      6      -3.7099      2.00000
      7      -3.7099      2.00000
      8      -3.7099      2.00000
      9       1.8350      2.00000
     10       1.8350      2.00000
     11       1.8350      2.00000
     12       1.8350      2.00000
     13       2.3448      2.00000
     14       2.3448      2.00000
     15       2.3448      2.00000
     16       2.3448      2.00000
     17       4.4518      0.00000
     18       4.4518      0.00000
     19       4.4518      0.00000
     20       4.4518      0.00000
     21       7.4527      0.00000

 k-point    35 :       0.5000    0.5000    0.5000
  band No.  band energies     occupation 
      1      -6.9255      2.00000
      2      -6.9255      2.00000
      3      -6.9255      2.00000
      4      -6.9255      2.00000
      5      -3.8366      2.00000
      6      -3.8366      2.00000
      7      -3.8366      2.00000
      8      -3.8366      2.00000
      9       2.3603      2.00000
     10       2.3603      2.00000
     11       2.3603      2.00000
     12       2.3603      2.00000
     13       2.3603      2.00000
     14       2.3603      2.00000
     15       2.3603      2.00000
     16       2.3603      2.00000
     17       3.9552      0.00011
     18       3.9552      0.00011
     19       3.9552      0.00011
     20       3.9552      0.00011
     21       7.4874      0.00000


--------------------------------------------------------------------------------------------------------


 soft charge-density along one line, spin component            1
         0         1         2         3         4         5         6         7         8         9
 total charge-density along one line
 
 pseudopotential strength for first ion, spin component:            1
 14.495  18.086  -0.000  -0.000   0.000  -0.000  -0.000   0.000
 18.086  22.579  -0.000  -0.000   0.000  -0.000  -0.000   0.000
 -0.000  -0.000   3.229  -0.000   0.000   5.501  -0.000   0.000
 -0.000  -0.000  -0.000   3.229   0.000  -0.000   5.501   0.000
  0.000   0.000   0.000   0.000   3.229   0.000   0.000   5.501
 -0.000  -0.000   5.501  -0.000   0.000   9.428  -0.000   0.000
 -0.000  -0.000  -0.000   5.501   0.000  -0.000   9.428   0.000
  0.000   0.000   0.000   0.000   5.501   0.000   0.000   9.428
  0.000   0.000   0.000   0.003  -0.000   0.000   0.005  -0.000
 -0.000  -0.000  -0.000  -0.000   0.003  -0.000  -0.000   0.005
  0.000   0.000   0.000  -0.000  -0.000   0.000  -0.000  -0.000
  0.000   0.000   0.003   0.000  -0.000   0.005   0.000  -0.000
 -0.000  -0.000   0.000   0.000   0.000   0.000   0.000   0.000
 total augmentation occupancy for first ion, spin component:            1
  3.699  -1.135  -0.000  -0.000  -0.000   0.000   0.000  -0.000  -0.000  -0.000   0.000  -0.000  -0.000
 -1.135   0.507   0.000  -0.000  -0.000   0.000   0.000   0.000   0.000   0.000   0.000  -0.000  -0.000
 -0.000   0.000   2.070  -0.000   0.000  -0.355  -0.000   0.000  -0.000   0.000   0.000   0.180   0.000
 -0.000  -0.000  -0.000   2.070  -0.000   0.000  -0.355  -0.000   0.180  -0.000   0.000   0.000   0.000
  0.000  -0.000   0.000  -0.000   2.070  -0.000  -0.000  -0.355  -0.000   0.180   0.000  -0.000  -0.000
 -0.000   0.000  -0.355   0.000   0.000   0.068   0.000  -0.000   0.000  -0.000   0.000  -0.032   0.000
 -0.000  -0.000   0.000  -0.355  -0.000  -0.000   0.068  -0.000  -0.032  -0.000  -0.000  -0.000  -0.000
 -0.000  -0.000   0.000  -0.000  -0.355  -0.000   0.000   0.068   0.000  -0.032  -0.000  -0.000  -0.000
 -0.000   0.000  -0.000   0.180   0.000   0.000  -0.032  -0.000   0.029  -0.000   0.000  -0.000   0.000
 -0.000   0.000  -0.000  -0.000   0.180   0.000  -0.000  -0.032  -0.000   0.029   0.000  -0.000   0.000
  0.000   0.000  -0.000  -0.000   0.000  -0.000   0.000  -0.000   0.000  -0.000   0.009  -0.000  -0.000
 -0.000   0.000   0.180  -0.000   0.000  -0.032  -0.000   0.000   0.000  -0.000   0.000   0.029  -0.000
  0.000   0.000   0.000   0.000  -0.000  -0.000   0.000  -0.000  -0.000   0.000  -0.000   0.000   0.009


------------------------ aborting loop because EDIFF is reached ----------------------------------------


    CHARGE:  cpu time      0.1384: real time      0.5654
    FORLOC:  cpu time      0.0031: real time      0.0031
    FORNL :  cpu time      0.4356: real time      1.7490
    STRESS:  cpu time      2.2685: real time      8.1835
    FORCOR:  cpu time      0.0070: real time      0.0190
    FORHAR:  cpu time      0.0018: real time      0.0018
    MIXING:  cpu time      0.0048: real time      0.0048
    OFIELD:  cpu time      0.0000: real time      0.0000

  FORCE on cell =-STRESS in cart. coord.  units (eV):
  Direction    XX          YY          ZZ          XY          YZ          ZX
  --------------------------------------------------------------------------------------
  Alpha Z    67.55234    67.55234    67.55234
  Ewald    -292.49718  -292.49718  -292.49718    -0.00000     0.00000     0.00000
  Hartree    20.77937    20.77937    20.77937    -0.00000    -0.00000    -0.00000
  E(xc)    -110.96462  -110.96462  -110.96462    -0.00000     0.00000    -0.00000
  Local     -92.27977   -92.27977   -92.27977    -0.00000     0.00000    -0.00000
  n-local   159.14066   161.60712   158.30139    -1.54386    -1.21754    -0.64098
  augment     9.58415     9.58415     9.58415     0.00000    -0.00000     0.00000
  Kinetic   236.02861   249.20701   244.63319    -3.82404    -6.15243    -2.53495
  Fock        0.00000     0.00000     0.00000     0.00000     0.00000     0.00000
  -------------------------------------------------------------------------------------
  Total       5.14694     5.14694     5.14694     0.00000    -0.00000     0.00000
  in kB      45.53923    45.53923    45.53923     0.00000    -0.00000     0.00000
  external pressure =       45.54 kB  Pullay stress =        0.00 kB


 VOLUME and BASIS-vectors are now :
 -----------------------------------------------------------------------------
  energy-cutoff  :      300.00
  volume of cell :      181.08
      direct lattice vectors                 reciprocal lattice vectors
     5.657500000  0.000000000  0.000000000     0.176756518  0.000000000  0.000000000
     0.000000000  5.657500000  0.000000000     0.000000000  0.176756518  0.000000000
     0.000000000  0.000000000  5.657500000     0.000000000  0.000000000  0.176756518

  length of vectors
     5.657500000  5.657500000  5.657500000     0.176756518  0.176756518  0.176756518


 FORCES acting on ions
    electron-ion (+dipol)            ewald-force                    non-local-force                 convergence-correction
 -----------------------------------------------------------------------------------------------
   0.112E-15 0.387E-14 -.492E-14   0.142E-13 0.355E-14 -.711E-14   -.415E-17 -.323E-16 -.867E-17   0.716E-14 -.518E-14 0.777E-14
   0.163E-13 -.146E-12 -.159E-12   0.142E-13 0.355E-14 -.711E-14   -.142E-16 0.781E-17 -.143E-16   0.443E-15 -.176E-15 0.716E-14
   0.110E-13 0.518E-14 -.301E-12   0.142E-13 0.355E-14 -.355E-14   -.759E-18 -.150E-16 -.520E-17   0.239E-15 -.482E-14 0.336E-14
   -.695E-14 0.218E-14 0.536E-14   0.142E-13 0.355E-14 -.355E-14   -.745E-17 -.867E-18 0.434E-18   0.780E-14 0.393E-15 0.362E-14
   0.208E-14 0.806E-13 -.265E-14   -.138E-13 -.348E-14 0.712E-14   -.283E-17 0.239E-16 0.239E-17   -.426E-14 0.585E-14 0.500E-14
   0.174E-13 0.848E-13 0.339E-12   -.139E-13 -.271E-14 0.712E-14   0.431E-17 0.607E-17 0.152E-17   -.463E-14 0.422E-14 0.470E-14
   0.621E-14 0.258E-12 0.191E-12   -.139E-13 -.431E-14 0.348E-14   0.402E-17 0.169E-16 0.141E-16   -.534E-14 0.605E-14 -.262E-14
   0.119E-14 0.105E-12 0.129E-13   -.153E-13 -.355E-14 0.348E-14   0.112E-16 -.260E-17 0.976E-17   -.454E-14 0.353E-14 -.307E-14
 -----------------------------------------------------------------------------------------------
   0.474E-13 0.394E-12 0.816E-13   -.408E-16 0.165E-15 -.117E-15   -.988E-17 0.390E-17 0.000E+00   -.312E-14 0.987E-14 0.259E-13
 
 
 POSITION                                       TOTAL-FORCE (eV/Angst)
 -----------------------------------------------------------------------------------
      0.00000      0.00000      0.00000        -0.000000      0.000000      0.000000
      2.82875      2.82875      0.00000         0.000000      0.000000      0.000000
      2.82875      0.00000      2.82875         0.000000     -0.000000      0.000000
      0.00000      2.82875      2.82875         0.000000      0.000000      0.000000
      1.41437      1.41437      1.41437        -0.000000     -0.000000     -0.000000
      4.24313      4.24313      1.41437        -0.000000      0.000000     -0.000000
      4.24313      1.41437      4.24313        -0.000000      0.000000     -0.000000
      1.41437      4.24313      4.24313        -0.000000     -0.000000     -0.000000
 -----------------------------------------------------------------------------------
    total drift:                                0.000000      0.000000      0.000000


--------------------------------------------------------------------------------------------------------



  FREE ENERGIE OF THE ION-ELECTRON SYSTEM (eV)
  ---------------------------------------------------
  free  energy   TOTEN  =       -35.77152152 eV

  energy  without entropy=      -35.77139345  energy(sigma->0) =      -35.77145748
 


--------------------------------------------------------------------------------------------------------


    POTLOK:  cpu time      0.0253: real time      0.0693


--------------------------------------------------------------------------------------------------------


     LOOP+:  cpu time     21.5420: real time     85.4482
    4ORBIT:  cpu time      0.0000: real time      0.0000

 total amount of memory used by VASP MPI-rank0    88451. kBytes
=======================================================================

   base      :      30000. kBytes
   nonl-proj :       8199. kBytes
   fftplans  :       9204. kBytes
   grid      :      14172. kBytes
   one-center:         64. kBytes
   wavefun   :      26812. kBytes
 
  
  
 General timing and accounting informations for this job:
 ========================================================
  
                  Total CPU time used (sec):       22.944
                            User time (sec):       22.075
                          System time (sec):        0.869
                         Elapsed time (sec):       90.874
  
                   Maximum memory used (kb):     1567068.
                   Average memory used (kb):          N/A
  
                          Minor page faults:       414244
                          Major page faults:            0
                 Voluntary context switches:         2477
