   1   1   0   0
  0.5583497E+02  0.4290164E-09  0.4290161E-09  0.4290164E-09  0.5000000E-15
   1.0000000000000000E-004
  CAR 
 static single-point for EOS             
      8.79084117    -37.20682748  301      1.54441295      1.00000000
    -37.207  0.0000E+00  0.0000E+00
    -37.054  0.0000E+00  0.0000E+00
    -36.900  0.0000E+00  0.0000E+00
    -36.747  0.0000E+00  0.0000E+00
    -36.594  0.0000E+00  0.0000E+00
    -36.440  0.0000E+00  0.0000E+00
    -36.287  0.0000E+00  0.0000E+00
    -36.134  0.0000E+00  0.0000E+00
    -35.980  0.0000E+00  0.0000E+00
    -35.827  0.0000E+00  0.0000E+00
    -35.674  0.0000E+00  0.0000E+00
    -35.520  0.0000E+00  0.0000E+00
    -35.367  0.8361E-12  0.1282E-12
    -35.214  0.1241E-01  0.1902E-02
    -35.060  0.1155E+02  0.1772E+01
    -34.907  0.1486E+01  0.2000E+01
    -34.754  0.2153E-06  0.2000E+01
    -34.600  0.0000E+00  0.2000E+01
    -34.447  0.0000E+00  0.2000E+01
    -34.294  0.0000E+00  0.2000E+01
    -34.140  0.0000E+00  0.2000E+01
    -33.987  0.0000E+00  0.2000E+01
    -33.834  0.0000E+00  0.2000E+01
    -33.680  0.0000E+00  0.2000E+01
    -33.527  0.0000E+00  0.2000E+01
    -33.374  0.0000E+00  0.2000E+01
    -33.220  0.0000E+00  0.2000E+01
    -33.067  0.0000E+00  0.2000E+01
    -32.914  0.0000E+00  0.2000E+01
    -32.760  0.0000E+00  0.2000E+01
    -32.607  0.0000E+00  0.2000E+01
    -32.454  0.0000E+00  0.2000E+01
    -32.300  0.0000E+00  0.2000E+01
    -32.147  0.0000E+00  0.2000E+01
    -31.994  0.0000E+00  0.2000E+01
    -31.840  0.0000E+00  0.2000E+01
    -31.687  0.0000E+00  0.2000E+01
    -31.534  0.0000E+00  0.2000E+01
    -31.380  0.0000E+00  0.2000E+01
    -31.227  0.0000E+00  0.2000E+01
    -31.074  0.0000E+00  0.2000E+01
    -30.920  0.0000E+00  0.2000E+01
    -30.767  0.0000E+00  0.2000E+01
    -30.614  0.0000E+00  0.2000E+01
    -30.461  0.0000E+00  0.2000E+01
    -30.307  0.0000E+00  0.2000E+01
    -30.154  0.0000E+00  0.2000E+01
    -30.001  0.0000E+00  0.2000E+01
    -29.847  0.0000E+00  0.2000E+01
    -29.694  0.0000E+00  0.2000E+01
    -29.541  0.0000E+00  0.2000E+01
    -29.387  0.0000E+00  0.2000E+01
    -29.234  0.0000E+00  0.2000E+01
    -29.081  0.0000E+00  0.2000E+01
    -28.927  0.0000E+00  0.2000E+01
    -28.774  0.0000E+00  0.2000E+01
    -28.621  0.0000E+00  0.2000E+01
    -28.467  0.0000E+00  0.2000E+01
    -28.314  0.0000E+00  0.2000E+01
    -28.161  0.0000E+00  0.2000E+01
    -28.007  0.0000E+00  0.2000E+01
    -27.854  0.0000E+00  0.2000E+01
    -27.701  0.0000E+00  0.2000E+01
    -27.547  0.0000E+00  0.2000E+01
    -27.394  0.0000E+00  0.2000E+01
    -27.241  0.0000E+00  0.2000E+01
    -27.087  0.0000E+00  0.2000E+01
    -26.934  0.0000E+00  0.2000E+01
    -26.781  0.0000E+00  0.2000E+01
    -26.627  0.0000E+00  0.2000E+01
    -26.474  0.0000E+00  0.2000E+01
    -26.321  0.0000E+00  0.2000E+01
    -26.167  0.0000E+00  0.2000E+01
    -26.014  0.0000E+00  0.2000E+01
    -25.861  0.0000E+00  0.2000E+01
    -25.707  0.0000E+00  0.2000E+01
    -25.554  0.0000E+00  0.2000E+01
    -25.401  0.0000E+00  0.2000E+01
    -25.247  0.0000E+00  0.2000E+01
    -25.094  0.0000E+00  0.2000E+01
    -24.941  0.0000E+00  0.2000E+01
    -24.787  0.0000E+00  0.2000E+01
    -24.634  0.0000E+00  0.2000E+01
    -24.481  0.0000E+00  0.2000E+01
    -24.327  0.0000E+00  0.2000E+01
    -24.174  0.0000E+00  0.2000E+01
    -24.021  0.0000E+00  0.2000E+01
    -23.868  0.0000E+00  0.2000E+01
    -23.714  0.0000E+00  0.2000E+01
    -23.561  0.0000E+00  0.2000E+01
    -23.408  0.0000E+00  0.2000E+01
    -23.254  0.0000E+00  0.2000E+01
    -23.101  0.0000E+00  0.2000E+01
    -22.948  0.0000E+00  0.2000E+01
    -22.794  0.0000E+00  0.2000E+01
    -22.641  0.0000E+00  0.2000E+01
    -22.488  0.0000E+00  0.2000E+01
    -22.334  0.0000E+00  0.2000E+01
    -22.181  0.0000E+00  0.2000E+01
    -22.028  0.0000E+00  0.2000E+01
    -21.874  0.0000E+00  0.2000E+01
    -21.721  0.0000E+00  0.2000E+01
    -21.568  0.0000E+00  0.2000E+01
    -21.414  0.0000E+00  0.2000E+01
    -21.261  0.0000E+00  0.2000E+01
    -21.108  0.0000E+00  0.2000E+01
    -20.954  0.0000E+00  0.2000E+01
    -20.801  0.0000E+00  0.2000E+01
    -20.648  0.0000E+00  0.2000E+01
    -20.494  0.0000E+00  0.2000E+01
    -20.341  0.0000E+00  0.2000E+01
    -20.188  0.0000E+00  0.2000E+01
    -20.034  0.0000E+00  0.2000E+01
    -19.881  0.0000E+00  0.2000E+01
    -19.728  0.0000E+00  0.2000E+01
    -19.574  0.0000E+00  0.2000E+01
    -19.421  0.0000E+00  0.2000E+01
    -19.268  0.0000E+00  0.2000E+01
    -19.114  0.0000E+00  0.2000E+01
    -18.961  0.0000E+00  0.2000E+01
    -18.808  0.0000E+00  0.2000E+01
    -18.654  0.0000E+00  0.2000E+01
    -18.501  0.0000E+00  0.2000E+01
    -18.348  0.0000E+00  0.2000E+01
    -18.194  0.0000E+00  0.2000E+01
    -18.041  0.0000E+00  0.2000E+01
    -17.888  0.0000E+00  0.2000E+01
    -17.734  0.0000E+00  0.2000E+01
    -17.581  0.0000E+00  0.2000E+01
    -17.428  0.1626E-11  0.2000E+01
    -17.275  0.7365E-02  0.2001E+01
    -17.121  0.1087E+02  0.3667E+01
    -16.968  0.2772E+02  0.7917E+01
    -16.815  0.5412E+00  0.8000E+01
    -16.661  0.2346E-07  0.8000E+01
    -16.508  0.0000E+00  0.8000E+01
    -16.355  0.0000E+00  0.8000E+01
    -16.201  0.0000E+00  0.8000E+01
    -16.048  0.0000E+00  0.8000E+01
    -15.895  0.0000E+00  0.8000E+01
    -15.741  0.0000E+00  0.8000E+01
    -15.588  0.0000E+00  0.8000E+01
    -15.435  0.0000E+00  0.8000E+01
    -15.281  0.0000E+00  0.8000E+01
    -15.128  0.0000E+00  0.8000E+01
    -14.975  0.0000E+00  0.8000E+01
    -14.821  0.0000E+00  0.8000E+01
    -14.668  0.0000E+00  0.8000E+01
    -14.515  0.0000E+00  0.8000E+01
    -14.361  0.0000E+00  0.8000E+01
    -14.208  0.0000E+00  0.8000E+01
    -14.055  0.0000E+00  0.8000E+01
    -13.901  0.0000E+00  0.8000E+01
    -13.748  0.0000E+00  0.8000E+01
    -13.595  0.0000E+00  0.8000E+01
    -13.441  0.0000E+00  0.8000E+01
    -13.288  0.0000E+00  0.8000E+01
    -13.135  0.0000E+00  0.8000E+01
    -12.981  0.0000E+00  0.8000E+01
    -12.828  0.0000E+00  0.8000E+01
    -12.675  0.0000E+00  0.8000E+01
    -12.521  0.0000E+00  0.8000E+01
    -12.368  0.0000E+00  0.8000E+01
    -12.215  0.0000E+00  0.8000E+01
    -12.061  0.0000E+00  0.8000E+01
    -11.908  0.0000E+00  0.8000E+01
    -11.755  0.0000E+00  0.8000E+01
    -11.601  0.0000E+00  0.8000E+01
    -11.448  0.0000E+00  0.8000E+01
    -11.295  0.0000E+00  0.8000E+01
    -11.141  0.0000E+00  0.8000E+01
    -10.988  0.0000E+00  0.8000E+01
    -10.835  0.0000E+00  0.8000E+01
    -10.682  0.0000E+00  0.8000E+01
    -10.528  0.0000E+00  0.8000E+01
    -10.375  0.0000E+00  0.8000E+01
    -10.222  0.0000E+00  0.8000E+01
    -10.068  0.0000E+00  0.8000E+01
     -9.915  0.0000E+00  0.8000E+01
     -9.762  0.0000E+00  0.8000E+01
     -9.608  0.0000E+00  0.8000E+01
     -9.455  0.0000E+00  0.8000E+01
     -9.302  0.0000E+00  0.8000E+01
     -9.148  0.0000E+00  0.8000E+01
     -8.995  0.0000E+00  0.8000E+01
     -8.842  0.0000E+00  0.8000E+01
     -8.688  0.0000E+00  0.8000E+01
     -8.535  0.0000E+00  0.8000E+01
     -8.382  0.0000E+00  0.8000E+01
     -8.228  0.0000E+00  0.8000E+01
     -8.075  0.0000E+00  0.8000E+01
     -7.922  0.0000E+00  0.8000E+01
     -7.768  0.0000E+00  0.8000E+01
     -7.615  0.0000E+00  0.8000E+01
     -7.462  0.0000E+00  0.8000E+01
     -7.308  0.0000E+00  0.8000E+01
     -7.155  0.0000E+00  0.8000E+01
     -7.002  0.0000E+00  0.8000E+01
     -6.848  0.0000E+00  0.8000E+01
     -6.695  0.0000E+00  0.8000E+01
     -6.542  0.0000E+00  0.8000E+01
     -6.388  0.0000E+00  0.8000E+01
     -6.235  0.0000E+00  0.8000E+01
     -6.082  0.0000E+00  0.8000E+01
     -5.928  0.0000E+00  0.8000E+01
     -5.775  0.0000E+00  0.8000E+01
     -5.622  0.0000E+00  0.8000E+01
     -5.468  0.0000E+00  0.8000E+01
     -5.315  0.0000E+00  0.8000E+01
     -5.162  0.0000E+00  0.8000E+01
     -5.008  0.0000E+00  0.8000E+01
     -4.855  0.0000E+00  0.8000E+01
     -4.702  0.0000E+00  0.8000E+01
     -4.548  0.0000E+00  0.8000E+01
     -4.395  0.0000E+00  0.8000E+01
     -4.242  0.0000E+00  0.8000E+01
     -4.089  0.0000E+00  0.8000E+01
     -3.935  0.0000E+00  0.8000E+01
     -3.782  0.0000E+00  0.8000E+01
     -3.629  0.0000E+00  0.8000E+01
     -3.475  0.0000E+00  0.8000E+01
     -3.322  0.0000E+00  0.8000E+01
     -3.169  0.0000E+00  0.8000E+01
     -3.015  0.0000E+00  0.8000E+01
     -2.862  0.0000E+00  0.8000E+01
     -2.709  0.0000E+00  0.8000E+01
     -2.555  0.0000E+00  0.8000E+01
     -2.402  0.0000E+00  0.8000E+01
     -2.249  0.9313E-08  0.8000E+01
     -2.095  0.2502E-02  0.8000E+01
     -1.942  0.6208E-01  0.8010E+01
     -1.789  0.1195E+00  0.8028E+01
     -1.635  0.1765E+00  0.8055E+01
     -1.482  0.2183E+00  0.8089E+01
     -1.329  0.1940E+00  0.8119E+01
     -1.175  0.3312E+00  0.8169E+01
     -1.022  0.2473E+00  0.8207E+01
     -0.869  0.3488E+00  0.8261E+01
     -0.715  0.3697E+00  0.8317E+01
     -0.562  0.4016E+00  0.8379E+01
     -0.409  0.4804E+00  0.8453E+01
     -0.255  0.3772E+00  0.8510E+01
     -0.102  0.6553E+00  0.8611E+01
      0.051  0.5925E+00  0.8702E+01
      0.205  0.5359E+00  0.8784E+01
      0.358  0.8463E+00  0.8914E+01
      0.511  0.7499E+00  0.9029E+01
      0.665  0.9786E+00  0.9179E+01
      0.818  0.8941E+00  0.9316E+01
      0.971  0.8697E+00  0.9449E+01
      1.125  0.1092E+01  0.9617E+01
      1.278  0.8456E+00  0.9746E+01
      1.431  0.7851E+00  0.9867E+01
      1.585  0.1373E+01  0.1008E+02
      1.738  0.1558E+01  0.1032E+02
      1.891  0.1791E+01  0.1059E+02
      2.045  0.2726E+01  0.1101E+02
      2.198  0.1962E+01  0.1131E+02
      2.351  0.2232E+01  0.1165E+02
      2.504  0.2668E+01  0.1206E+02
      2.658  0.2215E+01  0.1240E+02
      2.811  0.1900E+01  0.1269E+02
      2.964  0.1329E+01  0.1290E+02
      3.118  0.1338E+01  0.1310E+02
      3.271  0.1161E+01  0.1328E+02
      3.424  0.1023E+01  0.1344E+02
      3.578  0.9873E+00  0.1359E+02
      3.731  0.9914E+00  0.1374E+02
      3.884  0.1454E+01  0.1396E+02
      4.038  0.2444E+01  0.1434E+02
      4.191  0.2464E+01  0.1471E+02
      4.344  0.3037E+01  0.1518E+02
      4.498  0.2213E+01  0.1552E+02
      4.651  0.1500E+01  0.1575E+02
      4.804  0.1526E+01  0.1598E+02
      4.958  0.1247E+01  0.1617E+02
      5.111  0.1306E+01  0.1637E+02
      5.264  0.1060E+01  0.1654E+02
      5.418  0.1280E+01  0.1673E+02
      5.571  0.1280E+01  0.1693E+02
      5.724  0.2577E+01  0.1732E+02
      5.878  0.1590E+01  0.1757E+02
      6.031  0.1303E+01  0.1777E+02
      6.184  0.5553E+00  0.1785E+02
      6.338  0.7534E+00  0.1797E+02
      6.491  0.8916E-01  0.1798E+02
      6.644  0.4056E-01  0.1799E+02
      6.798  0.7346E-01  0.1800E+02
      6.951  0.4862E-04  0.1800E+02
      7.104  0.0000E+00  0.1800E+02
      7.258  0.0000E+00  0.1800E+02
      7.411  0.0000E+00  0.1800E+02
      7.564  0.0000E+00  0.1800E+02
      7.718  0.0000E+00  0.1800E+02
      7.871  0.0000E+00  0.1800E+02
      8.024  0.0000E+00  0.1800E+02
      8.178  0.0000E+00  0.1800E+02
      8.331  0.0000E+00  0.1800E+02
      8.484  0.0000E+00  0.1800E+02
      8.638  0.0000E+00  0.1800E+02
      8.791  0.0000E+00  0.1800E+02
