       N       E                     dE             d eps       ncg     rms          ort
SDA:   1    -0.414465024559E+02   -0.41447E+02   -0.98883E-01  2880   0.247E+00 0.000E+00
DMP:   2    -0.415231930282E+02   -0.76691E-01   -0.57773E-01  2880   0.935E-01 0.133E+00
DMP:   3    -0.415644921444E+02   -0.41299E-01   -0.21117E-01  2880   0.301E-01 0.595E-01
DMP:   4    -0.415795407151E+02   -0.15049E-01   -0.77052E-02  2880   0.112E-01 0.212E-01
DMP:   5    -0.415852505467E+02   -0.57098E-02   -0.33704E-02  2880   0.514E-02 0.860E-02
DMP:   6    -0.415878790014E+02   -0.26285E-02   -0.17082E-02  2880   0.256E-02 0.447E-02
DMP:   7    -0.415892299086E+02   -0.13509E-02   -0.88163E-03  2880   0.126E-02 0.248E-02
DMP:   8    -0.415899377040E+02   -0.70780E-03   -0.45668E-03  2880   0.613E-03 0.139E-02
DMP:   9    -0.415903119570E+02   -0.37425E-03   -0.23601E-03  2880   0.298E-03 0.766E-03
DMP:  10    -0.415905088360E+02   -0.19688E-03   -0.12084E-03  2880   0.145E-03 0.412E-03
DMP:  11    -0.415906099056E+02   -0.10107E-03   -0.60018E-04  2880   0.690E-04 0.212E-03
DMP:  12    -0.415906599248E+02   -0.50019E-04   -0.29072E-04  2880   0.326E-04 0.105E-03
DMP:  13    -0.415906838880E+02   -0.23963E-04   -0.13454E-04  2880   0.147E-04 0.497E-04
DMP:  14    -0.415906947782E+02   -0.10890E-04   -0.59186E-05  2880   0.634E-05 0.221E-04
DMP:  15    -0.415906994704E+02   -0.46922E-05   -0.25081E-05  2880   0.266E-05 0.944E-05
   1 F= -.41590699E+02 E0= -.41590699E+02  d E =-.183350E-12
