Rb8
1.0
   8.2076700099999993    0.2911710300000000   -0.0085127200000000
  -0.3472659500000000    8.1734723599999999   -0.0812684200000000
  -3.9054918100000000   -4.2558678600000004   11.2902179700000005
Rb
8
direct
   0.4339878800000000    0.6880098000000000    0.8747810500000001 Rb
   0.0580947900000000    0.8103277900000000    0.1233907500000000 Rb
   0.3095971100000000    0.0660361800000000    0.6253118700000000 Rb
   0.5587144900000001    0.3103161000000000    0.1248488600000000 Rb
   0.6822490999999991    0.9334289200000000    0.3735420400000000 Rb
   0.1859536200000000    0.4429199400000000    0.3777466500000000 Rb
   0.9333904200000001    0.1840824600000000    0.8750122200000000 Rb
   0.8078815800000000    0.5566438000000000    0.6237205400000000 Rb
