<?xml version="1.0" encoding="ISO-8859-1"?>
<modeling>
 <generator>
  <i name="program" type="string">vasp </i>
  <i name="version" type="string">6.4.2  </i>
  <i name="subversion" type="string">20Jul23 (build Mar  2 2025 11:04:54) complex                          parallel </i>
  <i name="platform" type="string">LinuxNV </i>
  <i name="date" type="string">2026 05 09 </i>
  <i name="time" type="string">02:31:11 </i>
 </generator>
 <incar>
  <i type="string" name="SYSTEM">CO/Pt(111) adsorption geometry optimization</i>
  <i type="string" name="PREC">Normal</i>
  <i type="int" name="IBRION">     2</i>
  <i name="EDIFF">      0.00001000</i>
  <i name="EDIFFG">     -0.05000000</i>
  <i type="int" name="NSW">   200</i>
  <i type="int" name="ISIF">     2</i>
  <i name="ENCUT">    400.00000000</i>
  <i type="int" name="ISMEAR">     1</i>
  <i name="SIGMA">      0.10000000</i>
  <i name="KSPACING">      0.20000000</i>
  <i type="logical" name="KGAMMA"> T  </i>
  <i type="logical" name="LWAVE"> F  </i>
  <i type="logical" name="LCHARG"> F  </i>
 </incar>
 <primitive_cell>
  <structure name="primitive_cell" >
   <crystal>
    <varray name="basis" >
     <v>       5.54371716       0.00000000       0.00000000 </v>
     <v>       2.77185858       4.80099990       0.00000000 </v>
     <v>       0.00000000       0.00000000      36.78963917 </v>
    </varray>
    <i name="volume">    979.17042988 </i>
    <varray name="rec_basis" >
     <v>       0.18038438      -0.10414497       0.00000000 </v>
     <v>       0.00000000       0.20828994       0.00000000 </v>
     <v>       0.00000000       0.00000000       0.02718157 </v>
    </varray>
   </crystal>
   <varray name="positions" >
    <v>       0.00000000       0.00000000       0.40772349 </v>
    <v>       0.50000000       0.00000000       0.40772349 </v>
    <v>       1.00000000       0.50000000       0.40772349 </v>
    <v>       0.50000000       0.50000000       0.40772349 </v>
    <v>       0.16666667       0.16666667       0.46924116 </v>
    <v>       0.66666667       0.16666667       0.46924116 </v>
    <v>       0.16666667       0.66666667       0.46924116 </v>
    <v>       0.66666667       0.66666667       0.46924116 </v>
    <v>       0.83333333       0.33333333       0.53075884 </v>
    <v>       0.33333333       0.33333333       0.53075884 </v>
    <v>       0.83333333       0.83333333       0.53075884 </v>
    <v>       0.33333333       0.83333333       0.53075884 </v>
    <v>       0.00000000       0.00000000       0.59227651 </v>
    <v>       0.50000000       0.00000000       0.59227651 </v>
    <v>       1.00000000       0.50000000       0.59227651 </v>
    <v>       0.50000000       0.50000000       0.59227651 </v>
    <v>       0.25137956       0.99724087       0.66467225 </v>
    <v>       0.16666667       0.16666667       0.64256241 </v>
   </varray>
  </structure>
  <varray name="primitive_index" >
   <v type="int" >        1 </v>
   <v type="int" >        2 </v>
   <v type="int" >        3 </v>
   <v type="int" >        4 </v>
   <v type="int" >        5 </v>
   <v type="int" >        6 </v>
   <v type="int" >        7 </v>
   <v type="int" >        8 </v>
   <v type="int" >        9 </v>
   <v type="int" >       10 </v>
   <v type="int" >       11 </v>
   <v type="int" >       12 </v>
   <v type="int" >       13 </v>
   <v type="int" >       14 </v>
   <v type="int" >       15 </v>
   <v type="int" >       16 </v>
   <v type="int" >       17 </v>
   <v type="int" >       18 </v>
  </varray>
 </primitive_cell>
 <kpoints>
  <generation param="Gamma">
   <v type="int" name="divisions">       7        7        1 </v>
   <v name="usershift">      0.00000000       0.00000000       0.00000000 </v>
   <v name="genvec1">      0.14285714       0.00000000       0.00000000 </v>
   <v name="genvec2">      0.00000000       0.14285714       0.00000000 </v>
   <v name="genvec3">      0.00000000       0.00000000       1.00000000 </v>
   <v name="shift">      0.00000000       0.00000000       0.00000000 </v>
  </generation>
  <varray name="kpointlist" >
   <v>       0.00000000       0.00000000       0.00000000 </v>
   <v>       0.14285714       0.00000000       0.00000000 </v>
   <v>       0.00000000       0.14285714       0.00000000 </v>
   <v>       0.28571429       0.00000000       0.00000000 </v>
   <v>       0.00000000       0.28571429       0.00000000 </v>
   <v>       0.42857143       0.00000000       0.00000000 </v>
   <v>       0.00000000       0.42857143       0.00000000 </v>
   <v>       0.28571429       0.14285714       0.00000000 </v>
   <v>       0.14285714       0.28571429       0.00000000 </v>
   <v>       0.42857143       0.14285714       0.00000000 </v>
   <v>       0.28571429       0.42857143       0.00000000 </v>
   <v>      -0.14285714       0.28571429       0.00000000 </v>
   <v>      -0.42857143       0.14285714       0.00000000 </v>
   <v>      -0.14285714       0.42857143       0.00000000 </v>
   <v>      -0.42857143       0.28571429       0.00000000 </v>
   <v>       0.28571429      -0.42857143       0.00000000 </v>
  </varray>
  <varray name="weights" >
   <v>       0.02040816 </v>
   <v>       0.08163265 </v>
   <v>       0.04081633 </v>
   <v>       0.08163265 </v>
   <v>       0.04081633 </v>
   <v>       0.08163265 </v>
   <v>       0.04081633 </v>
   <v>       0.04081633 </v>
   <v>       0.08163265 </v>
   <v>       0.08163265 </v>
   <v>       0.08163265 </v>
   <v>       0.08163265 </v>
   <v>       0.08163265 </v>
   <v>       0.04081633 </v>
   <v>       0.04081633 </v>
   <v>       0.08163265 </v>
  </varray>
 </kpoints>
 <parameters>
  <separator name="general" >
   <i type="string" name="SYSTEM">CO/Pt(111) adsorption geometry optimizat</i>
   <i type="logical" name="LCOMPAT"> F  </i>
  </separator>
  <separator name="electronic" >
   <i type="string" name="PREC">normal</i>
   <i name="ENMAX">    400.00000000</i>
   <i name="ENAUG">    644.87300000</i>
   <i name="EDIFF">      0.00001000</i>
   <i type="int" name="IALGO">    38</i>
   <i type="int" name="IWAVPR">    11</i>
   <i type="int" name="NBANDS">   102</i>
   <i type="int" name="NBANDSLOW">    -1</i>
   <i type="int" name="NBANDSHIGH">    -1</i>
   <i name="NELECT">    170.00000000</i>
   <i type="int" name="TURBO">     0</i>
   <i type="int" name="IRESTART">     0</i>
   <i type="int" name="NREBOOT">     0</i>
   <i type="int" name="NMIN">     0</i>
   <i name="EREF">      0.00000000</i>
   <separator name="electronic smearing" >
    <i type="int" name="ISMEAR">     1</i>
    <i name="SIGMA">      0.10000000</i>
    <i name="KSPACING">      0.20000000</i>
    <i type="logical" name="KGAMMA"> T  </i>
    <i type="logical" name="KBLOWUP"> T  </i>
   </separator>
   <separator name="electronic projectors" >
    <i type="logical" name="LREAL"> F  </i>
    <v name="ROPT">      0.00000000      0.00000000      0.00000000</v>
    <i type="int" name="LMAXPAW">  -100</i>
    <i type="int" name="LMAXMIX">     2</i>
    <i type="logical" name="NLSPLINE"> F  </i>
   </separator>
   <separator name="electronic startup" >
    <i type="int" name="ISTART">     0</i>
    <i type="int" name="ICHARG">     2</i>
    <i type="int" name="INIWAV">     1</i>
   </separator>
   <separator name="electronic spin" >
    <i type="int" name="ISPIN">     1</i>
    <i type="logical" name="LNONCOLLINEAR"> F  </i>
    <v name="MAGMOM">      1.00000000      1.00000000      1.00000000      1.00000000      1.00000000      1.00000000      1.00000000      1.00000000      1.00000000      1.00000000      1.00000000      1.00000000      1.00000000      1.00000000      1.00000000      1.00000000      1.00000000      1.00000000</v>
    <i name="NUPDOWN">     -1.00000000</i>
    <i type="logical" name="LSORBIT"> F  </i>
    <v name="SAXIS">      0.00000000      0.00000000      1.00000000</v>
    <i type="logical" name="LSPIRAL"> F  </i>
    <v name="QSPIRAL">      0.00000000      0.00000000      0.00000000</v>
    <i type="logical" name="LZEROZ"> F  </i>
   </separator>
   <separator name="electronic exchange-correlation" >
    <i type="logical" name="LASPH"> F  </i>
    <i type="logical" name="LMETAGGA"> F  </i>
   </separator>
   <separator name="electronic convergence" >
    <i type="int" name="NELM">    60</i>
    <i type="int" name="NELMDL">    -5</i>
    <i type="int" name="NELMIN">     2</i>
    <i name="ENINI">    400.00000000</i>
    <separator name="electronic convergence detail" >
     <i type="logical" name="LDIAG"> T  </i>
     <i type="logical" name="LSUBROT"> F  </i>
     <i name="WEIMIN">      0.00100000</i>
     <i name="EBREAK">      0.00000002</i>
     <i name="DEPER">      0.30000000</i>
     <i type="int" name="NRMM">     4</i>
     <i name="TIME">      0.40000000</i>
    </separator>
   </separator>
   <separator name="electronic mixer" >
    <i name="AMIX">      0.40000000</i>
    <i name="BMIX">      1.00000000</i>
    <i name="AMIN">      0.10000000</i>
    <i name="AMIX_MAG">      1.60000000</i>
    <i name="BMIX_MAG">      1.00000000</i>
    <separator name="electronic mixer details" >
     <i type="int" name="IMIX">     4</i>
     <i type="logical" name="MIXFIRST"> F  </i>
     <i type="int" name="MAXMIX">   -45</i>
     <i name="WC">    100.00000000</i>
     <i type="int" name="INIMIX">     1</i>
     <i type="int" name="MIXPRE">     1</i>
     <i type="int" name="MREMOVE">     5</i>
    </separator>
   </separator>
   <separator name="electronic dipolcorrection" >
    <i type="logical" name="LDIPOL"> F  </i>
    <i type="logical" name="LMONO"> F  </i>
    <i type="int" name="IDIPOL">     0</i>
    <i name="EPSILON">      1.00000000</i>
    <v name="DIPOL">   -100.00000000   -100.00000000   -100.00000000</v>
    <i name="EFIELD">      0.00000000</i>
   </separator>
  </separator>
  <separator name="grids" >
   <i type="int" name="NGX">    28</i>
   <i type="int" name="NGY">    28</i>
   <i type="int" name="NGZ">   180</i>
   <i type="int" name="NGXF">    56</i>
   <i type="int" name="NGYF">    56</i>
   <i type="int" name="NGZF">   360</i>
   <i type="logical" name="ADDGRID"> F  </i>
  </separator>
  <separator name="ionic" >
   <i type="int" name="NSW">   200</i>
   <i type="int" name="IBRION">     2</i>
   <i type="int" name="MDALGO">     0</i>
   <i type="int" name="ISIF">     2</i>
   <i name="PSTRESS">      0.00000000</i>
   <i name="EDIFFG">     -0.05000000</i>
   <i type="int" name="NFREE">     1</i>
   <i name="POTIM">      0.50000000</i>
   <i name="SMASS">     -3.00000000</i>
   <i name="SCALEE">      1.00000000</i>
  </separator>
  <separator name="ionic md" >
   <i name="TEBEG">      0.00010000</i>
   <i name="TEEND">      0.00010000</i>
   <i type="int" name="NBLOCK">     1</i>
   <i type="int" name="KBLOCK">   200</i>
   <i type="int" name="NPACO">   256</i>
   <i name="APACO">     10.00000000</i>
  </separator>
  <separator name="symmetry" >
   <i type="int" name="ISYM">     2</i>
   <i name="SYMPREC">      0.00001000</i>
  </separator>
  <separator name="dos" >
   <i type="int" name="LORBIT">     0</i>
   <v name="RWIGS">     -1.00000000     -1.00000000     -1.00000000</v>
   <i type="int" name="NEDOS">   301</i>
   <i name="EMIN">     10.00000000</i>
   <i name="EMAX">    -10.00000000</i>
   <i name="EFERMI">      0.00000000</i>
  </separator>
  <separator name="writing" >
   <i type="int" name="NWRITE">     2</i>
   <i type="logical" name="LWAVE"> F  </i>
   <i type="logical" name="LDOWNSAMPLE"> F  </i>
   <i type="logical" name="LCHARG"> F  </i>
   <i type="logical" name="LPARD"> F  </i>
   <i type="logical" name="LVTOT"> F  </i>
   <i type="logical" name="LVHAR"> F  </i>
   <i type="logical" name="LELF"> F  </i>
   <i type="logical" name="LOPTICS"> F  </i>
   <v name="STM">      0.00000000      0.00000000      0.00000000      0.00000000      0.00000000      0.00000000      0.00000000</v>
  </separator>
  <separator name="performance" >
   <i type="int" name="NPAR">     1</i>
   <i type="int" name="NSIM">     4</i>
   <i type="int" name="NBLK">    -1</i>
   <i type="logical" name="LPLANE"> T  </i>
   <i type="logical" name="LSCALAPACK"> T  </i>
   <i type="logical" name="LSCAAWARE"> F  </i>
   <i type="logical" name="LSCALU"> F  </i>
   <i type="logical" name="LASYNC"> F  </i>
   <i type="logical" name="LORBITALREAL"> F  </i>
  </separator>
  <separator name="miscellaneous" >
   <i type="int" name="IDIOT">     3</i>
   <i type="int" name="PHON_NSTRUCT">    -1</i>
   <i type="logical" name="LMUSIC"> F  </i>
   <v name="POMASS">    195.08000000     16.00000000     12.01100000</v>
   <v name="DARWINR">      0.00000000      0.00000000      0.00000000</v>
   <v name="DARWINV">      1.00000000      1.00000000      1.00000000</v>
   <i type="logical" name="LCORR"> T  </i>
  </separator>
  <i type="logical" name="GGA_COMPAT"> T  </i>
  <i type="logical" name="LBERRY"> F  </i>
  <i type="int" name="ICORELEVEL">     0</i>
  <i type="logical" name="LDAU"> F  </i>
  <i type="int" name="I_CONSTRAINED_M">     0</i>
  <separator name="electronic exchange-correlation" >
   <i type="string" name="GGA">--</i>
   <i type="int" name="VOSKOWN">     0</i>
   <i type="logical" name="LHFCALC"> F  </i>
   <i type="string" name="PRECFOCK"></i>
   <i type="logical" name="LSYMGRAD"> F  </i>
   <i type="logical" name="LHFONE"> F  </i>
   <i type="logical" name="LRHFCALC"> F  </i>
   <i type="logical" name="LTHOMAS"> F  </i>
   <i type="logical" name="LMODELHF"> F  </i>
   <i type="logical" name="LFOCKACE"> F  </i>
   <i name="ENCUT4O">     -1.00000000</i>
   <i type="int" name="EXXOEP">     0</i>
   <i type="int" name="FOURORBIT">     0</i>
   <i name="AEXX">      0.00000000</i>
   <i name="HFALPHA">      0.00000000</i>
   <i name="MCALPHA">      0.00000000</i>
   <i name="ALDAX">      1.00000000</i>
   <i name="AGGAX">      1.00000000</i>
   <i name="ALDAC">      1.00000000</i>
   <i name="AGGAC">      1.00000000</i>
   <i type="int" name="NKREDX">     1</i>
   <i type="int" name="NKREDY">     1</i>
   <i type="int" name="NKREDZ">     1</i>
   <i type="logical" name="SHIFTRED"> F  </i>
   <i type="logical" name="ODDONLY"> F  </i>
   <i type="logical" name="EVENONLY"> F  </i>
   <i type="int" name="LMAXFOCK">     0</i>
   <i type="int" name="NMAXFOCKAE">     0</i>
   <i type="logical" name="LFOCKAEDFT"> F  </i>
   <i name="HFSCREEN">      0.00000000</i>
   <i name="HFSCREENC">      0.00000000</i>
   <i type="int" name="NBANDSGWLOW">     0</i>
  </separator>
  <separator name="vdW DFT" >
   <i type="logical" name="LUSE_VDW"> F  </i>
   <i type="int" name="IVDW_NL">     1</i>
   <i type="logical" name="LSPIN_VDW"> F  </i>
   <i name="Zab_VDW">     -0.84910000</i>
   <i name="PARAM1">      0.12340000</i>
   <i name="PARAM2">      1.00000000</i>
   <i name="PARAM3">      0.00000000</i>
  </separator>
  <separator name="model GW" >
   <i type="int" name="MODEL_GW">     0</i>
   <i name="MODEL_EPS0">     32.63901433</i>
   <i name="MODEL_ALPHA">      1.00000000</i>
  </separator>
  <separator name="linear response parameters" >
   <i type="logical" name="LEPSILON"> F  </i>
   <i type="logical" name="LRPA"> F  </i>
   <i type="logical" name="LNABLA"> F  </i>
   <i type="logical" name="LVEL"> F  </i>
   <i name="CSHIFT">      0.10000000</i>
   <i name="OMEGAMAX">     -1.00000000</i>
   <i name="DEG_THRESHOLD">      0.00200000</i>
   <i name="RTIME">     -0.10000000</i>
   <i name="WPLASMAI">      0.00000000</i>
   <v name="DFIELD">      0.00000000      0.00000000      0.00000000</v>
   <v name="WPLASMA">      0.00000000      0.00000000      0.00000000      0.00000000      0.00000000      0.00000000      0.00000000      0.00000000      0.00000000</v>
  </separator>
  <separator name="orbital magnetization" >
   <i type="logical" name="NUCIND"> F  </i>
   <v name="MAGPOS">      0.00000000      0.00000000      0.00000000</v>
   <i type="logical" name="LNICSALL"> T  </i>
   <i type="logical" name="ORBITALMAG"> F  </i>
   <i type="logical" name="LMAGBLOCH"> F  </i>
   <i type="logical" name="LCHIMAG"> F  </i>
   <i type="logical" name="LGAUGE"> T  </i>
   <i type="int" name="MAGATOM">     0</i>
   <v name="MAGDIPOL">      0.00000000      0.00000000      0.00000000</v>
   <v name="AVECCONST">      0.00000000      0.00000000      0.00000000</v>
  </separator>
  <separator name="response functions" >
   <i type="logical" name="LALL_IN_ONE"> F  </i>
   <i type="int" name="IALL_IN_ONE">    -1</i>
   <i type="int" name="NBANDS_WAVE">    -1</i>
   <i type="logical" name="LFINITE_TEMPERATURE"> F  </i>
   <i type="logical" name="LADDER"> F  </i>
   <i type="logical" name="LRPAFORCE"> F  </i>
   <i type="logical" name="LFXC"> F  </i>
   <i type="logical" name="LHARTREE"> T  </i>
   <i type="int" name="IBSE">     0</i>
   <v type="int" name="KPOINT">    -1     0     0     0</v>
   <i type="logical" name="LTCTC"> F  </i>
   <i type="logical" name="LTCTE"> F  </i>
   <i type="logical" name="LTETE"> F  </i>
   <i type="logical" name="LTRIPLET"> F  </i>
   <i type="logical" name="LFXCEPS"> F  </i>
   <i type="logical" name="LFXHEG"> F  </i>
   <i type="int" name="NATURALO">     2</i>
   <i type="logical" name="LHOLEGF"> F  </i>
   <i type="logical" name="L2ORDER"> F  </i>
   <i type="logical" name="LDMP1"> F  </i>
   <i type="logical" name="LMP2LT"> F  </i>
   <i type="logical" name="LSMP2LT"> F  </i>
   <i type="logical" name="LGWLF"> F  </i>
   <i name="ENCUTGW">     -1.60000002</i>
   <i name="ENCUTGWSOFT">     -1.60000002</i>
   <i name="ENCUTLF">     -1.00000000</i>
   <i type="logical" name="LESF_SPLINES"> F  </i>
   <i type="int" name="LMAXMP2">    -1</i>
   <i name="SCISSOR">      0.00000000</i>
   <i type="int" name="NOMEGA">     0</i>
   <i type="int" name="NOMEGAR">     0</i>
   <i type="int" name="NBANDSGW">    -1</i>
   <i type="int" name="NBANDSO">    -1</i>
   <i type="int" name="NBANDSV">    -1</i>
   <i type="int" name="NELMGW">     1</i>
   <i type="int" name="NELMHF">     1</i>
   <i type="int" name="DIM">     3</i>
   <i type="int" name="IESPILON">     4</i>
   <i type="int" name="ANTIRES">     0</i>
   <i name="OMEGAMAX">    -30.00000000</i>
   <i name="OMEGAMIN">    -30.00000000</i>
   <i name="OMEGATL">   -200.00000000</i>
   <i type="int" name="OMEGAGRID">     0</i>
   <i name="CSHIFT">     -0.10000000</i>
   <i type="logical" name="LSELFENERGY"> F  </i>
   <i type="logical" name="LSPECTRAL"> F  </i>
   <i type="logical" name="LSPECTRALGW"> F  </i>
   <i type="logical" name="LSINGLES"> F  </i>
   <i type="logical" name="LFERMIGW"> F  </i>
   <i type="logical" name="ODDONLYGW"> F  </i>
   <i type="logical" name="EVENONLYGW"> F  </i>
   <i type="int" name="NKREDLFX">     1</i>
   <i type="int" name="NKREDLFY">     1</i>
   <i type="int" name="NKREDLFZ">     1</i>
   <i type="int" name="MAXMEM">  2800</i>
   <i type="int" name="TELESCOPE">     0</i>
   <i type="int" name="NTAUPAR">    -1</i>
   <i type="int" name="NOMEGAPAR">    -1</i>
   <i name="DAMP_NEWTON">      0.80000001</i>
   <i name="LAMBDA">      1.00000000</i>
  </separator>
  <separator name="External order field" >
   <i name="OFIELD_KAPPA">      0.00000000</i>
   <v name="OFIELD_K">      0.00000000      0.00000000      0.00000000</v>
   <i name="OFIELD_Q6_NEAR">      0.00000000</i>
   <i name="OFIELD_Q6_FAR">      0.00000000</i>
   <i name="OFIELD_A">      0.00000000</i>
  </separator>
  <separator name="optional k-points parameters" >
   <i type="int" name="KPOINTS_OPT_MODE">     1</i>
   <i type="logical" name="LKPOINTS_OPT"> F  </i>
  </separator>
 </parameters>
 <atominfo>
  <atoms>      18 </atoms>
  <types>       3 </types>
  <array name="atoms" >
   <dimension dim="1">ion</dimension>
   <field type="string">element</field>
   <field type="int">atomtype</field>
   <set>
    <rc><c>Pt</c><c>   1</c></rc>
    <rc><c>Pt</c><c>   1</c></rc>
    <rc><c>Pt</c><c>   1</c></rc>
    <rc><c>Pt</c><c>   1</c></rc>
    <rc><c>Pt</c><c>   1</c></rc>
    <rc><c>Pt</c><c>   1</c></rc>
    <rc><c>Pt</c><c>   1</c></rc>
    <rc><c>Pt</c><c>   1</c></rc>
    <rc><c>Pt</c><c>   1</c></rc>
    <rc><c>Pt</c><c>   1</c></rc>
    <rc><c>Pt</c><c>   1</c></rc>
    <rc><c>Pt</c><c>   1</c></rc>
    <rc><c>Pt</c><c>   1</c></rc>
    <rc><c>Pt</c><c>   1</c></rc>
    <rc><c>Pt</c><c>   1</c></rc>
    <rc><c>Pt</c><c>   1</c></rc>
    <rc><c>O </c><c>   2</c></rc>
    <rc><c>C </c><c>   3</c></rc>
   </set>
  </array>
  <array name="atomtypes" >
   <dimension dim="1">type</dimension>
   <field type="int">atomspertype</field>
   <field type="string">element</field>
   <field>mass</field>
   <field>valence</field>
   <field type="string">pseudopotential</field>
   <set>
    <rc><c>  16</c><c>Pt</c><c>    195.08000000</c><c>     10.00000000</c><c>  PAW_PBE Pt 04Feb2005                  </c></rc>
    <rc><c>   1</c><c>O </c><c>     16.00000000</c><c>      6.00000000</c><c>  PAW_PBE O 08Apr2002                   </c></rc>
    <rc><c>   1</c><c>C </c><c>     12.01100000</c><c>      4.00000000</c><c>  PAW_PBE C 08Apr2002                   </c></rc>
   </set>
  </array>
 </atominfo>
 <structure name="initialpos" >
  <crystal>
   <varray name="basis" >
    <v>       5.54371716       0.00000000       0.00000000 </v>
    <v>       2.77185858       4.80099990       0.00000000 </v>
    <v>       0.00000000       0.00000000      36.78963917 </v>
   </varray>
   <i name="volume">    979.17042988 </i>
   <varray name="rec_basis" >
    <v>       0.18038438      -0.10414497       0.00000000 </v>
    <v>       0.00000000       0.20828994       0.00000000 </v>
    <v>       0.00000000       0.00000000       0.02718157 </v>
   </varray>
  </crystal>
  <varray name="positions" >
   <v>       0.00000000       0.00000000       0.40772349 </v>
   <v>       0.50000000       0.00000000       0.40772349 </v>
   <v>       0.00000000       0.50000000       0.40772349 </v>
   <v>       0.50000000       0.50000000       0.40772349 </v>
   <v>       0.16666667       0.16666667       0.46924116 </v>
   <v>       0.66666667       0.16666667       0.46924116 </v>
   <v>       0.16666667       0.66666667       0.46924116 </v>
   <v>       0.66666667       0.66666667       0.46924116 </v>
   <v>       0.83333333       0.33333333       0.53075884 </v>
   <v>       0.33333333       0.33333333       0.53075884 </v>
   <v>       0.83333333       0.83333333       0.53075884 </v>
   <v>       0.33333333       0.83333333       0.53075884 </v>
   <v>       0.00000000       0.00000000       0.59227651 </v>
   <v>       0.50000000       0.00000000       0.59227651 </v>
   <v>       0.00000000       0.50000000       0.59227651 </v>
   <v>       0.50000000       0.50000000       0.59227651 </v>
   <v>       0.25137956       0.99724087       0.66467225 </v>
   <v>       0.16666667       0.16666667       0.64256241 </v>
  </varray>
  <varray name="selective"  type="logical" >
   <v type="logical" >  F  F  F </v>
   <v type="logical" >  F  F  F </v>
   <v type="logical" >  F  F  F </v>
   <v type="logical" >  F  F  F </v>
   <v type="logical" >  F  F  F </v>
   <v type="logical" >  F  F  F </v>
   <v type="logical" >  F  F  F </v>
   <v type="logical" >  F  F  F </v>
   <v type="logical" >  T  T  T </v>
   <v type="logical" >  T  T  T </v>
   <v type="logical" >  T  T  T </v>
   <v type="logical" >  T  T  T </v>
   <v type="logical" >  T  T  T </v>
   <v type="logical" >  T  T  T </v>
   <v type="logical" >  T  T  T </v>
   <v type="logical" >  T  T  T </v>
   <v type="logical" >  T  T  T </v>
   <v type="logical" >  T  T  T </v>
  </varray>
  <nose>
   <v>      -3.00000000       0.00000000       0.00010000       0.00010000 </v>
  </nose>
 </structure>
 <calculation>
  <scstep>
   <time name="dav">    4.90    4.91</time>
   <time name="total">    4.99    4.98</time>
   <energy>
    <i name="alphaZ">    271.64501344 </i>
    <i name="ewald"> 150074.02899739 </i>
    <i name="hartreedc">-162485.65914003 </i>
    <i name="XCdc">     96.41073906 </i>
    <i name="pawpsdc">  11593.04809012 </i>
    <i name="pawaedc"> -11142.88431945 </i>
    <i name="eentropy">      0.00257828 </i>
    <i name="bandstr">    518.68609180 </i>
    <i name="atom">  12245.18164884 </i>
    <i name="e_fr_energy">   1170.45969946 </i>
    <i name="e_wo_entrp">   1170.45712118 </i>
    <i name="e_0_energy">   1170.45884003 </i>
   </energy>
  </scstep>
  <scstep>
   <time name="dav">    5.87    5.87</time>
   <time name="total">    5.87    5.88</time>
   <energy>
    <i name="e_fr_energy">     -3.20988525 </i>
    <i name="e_wo_entrp">     -3.20430735 </i>
    <i name="e_0_energy">     -3.20802595 </i>
   </energy>
  </scstep>
  <scstep>
   <time name="dav">    5.27    5.28</time>
   <time name="total">    5.27    5.28</time>
   <energy>
    <i name="e_fr_energy">   -110.92101226 </i>
    <i name="e_wo_entrp">   -110.91800495 </i>
    <i name="e_0_energy">   -110.92000982 </i>
   </energy>
  </scstep>
  <scstep>
   <time name="dav">    5.89    5.92</time>
   <time name="total">    5.90    5.93</time>
   <energy>
    <i name="e_fr_energy">   -115.38788081 </i>
    <i name="e_wo_entrp">   -115.37668911 </i>
    <i name="e_0_energy">   -115.38415024 </i>
   </energy>
  </scstep>
  <scstep>
   <time name="dav">    5.67    5.69</time>
   <time name="total">    6.07    6.08</time>
   <energy>
    <i name="e_fr_energy">   -115.51998000 </i>
    <i name="e_wo_entrp">   -115.50825141 </i>
    <i name="e_0_energy">   -115.51607047 </i>
   </energy>
  </scstep>
  <scstep>
   <time name="dav">    5.52    5.58</time>
   <time name="total">    5.97    6.00</time>
   <energy>
    <i name="e_fr_energy">   -112.42970773 </i>
    <i name="e_wo_entrp">   -112.43715737 </i>
    <i name="e_0_energy">   -112.43219094 </i>
   </energy>
  </scstep>
  <scstep>
   <time name="dav">    6.09    6.14</time>
   <time name="total">    6.54    6.57</time>
   <energy>
    <i name="e_fr_energy">   -140.03844832 </i>
    <i name="e_wo_entrp">   -140.04190874 </i>
    <i name="e_0_energy">   -140.03960180 </i>
   </energy>
  </scstep>
  <scstep>
   <time name="dav">    6.17    6.21</time>
   <time name="total">    6.64    6.65</time>
   <energy>
    <i name="e_fr_energy">   -140.04506410 </i>
    <i name="e_wo_entrp">   -140.05140647 </i>
    <i name="e_0_energy">   -140.04717822 </i>
   </energy>
  </scstep>
  <scstep>
   <time name="dav">    6.12    6.19</time>
   <time name="total">    6.57    6.62</time>
   <energy>
    <i name="e_fr_energy">   -114.70148495 </i>
    <i name="e_wo_entrp">   -114.69654084 </i>
    <i name="e_0_energy">   -114.69983691 </i>
   </energy>
  </scstep>
  <scstep>
   <time name="dav">    5.43    5.48</time>
   <time name="total">    5.88    5.91</time>
   <energy>
    <i name="e_fr_energy">   -117.23242579 </i>
    <i name="e_wo_entrp">   -117.23082545 </i>
    <i name="e_0_energy">   -117.23189234 </i>
   </energy>
  </scstep>
  <scstep>
   <time name="dav">    5.13    5.19</time>
   <time name="total">    5.58    5.61</time>
   <energy>
    <i name="e_fr_energy">   -109.65881049 </i>
    <i name="e_wo_entrp">   -109.66172819 </i>
    <i name="e_0_energy">   -109.65978306 </i>
   </energy>
  </scstep>
  <scstep>
   <time name="dav">    5.15    5.21</time>
   <time name="total">    5.59    5.62</time>
   <energy>
    <i name="e_fr_energy">   -108.02257837 </i>
    <i name="e_wo_entrp">   -108.02854263 </i>
    <i name="e_0_energy">   -108.02456645 </i>
   </energy>
  </scstep>
  <scstep>
   <time name="dav">    5.12    5.17</time>
   <time name="total">    5.59    5.64</time>
   <energy>
    <i name="e_fr_energy">   -107.93107034 </i>
    <i name="e_wo_entrp">   -107.93347046 </i>
    <i name="e_0_energy">   -107.93187038 </i>
   </energy>
  </scstep>
  <scstep>
   <time name="dav">    5.09    5.15</time>
   <time name="total">    5.54    5.57</time>
   <energy>
    <i name="e_fr_energy">   -107.91045645 </i>
    <i name="e_wo_entrp">   -107.91288731 </i>
    <i name="e_0_energy">   -107.91126673 </i>
   </energy>
  </scstep>
  <scstep>
   <time name="dav">    5.13    5.19</time>
   <time name="total">    5.58    5.61</time>
   <energy>
    <i name="e_fr_energy">   -107.87561192 </i>
    <i name="e_wo_entrp">   -107.87753326 </i>
    <i name="e_0_energy">   -107.87625236 </i>
   </energy>
  </scstep>
  <scstep>
   <time name="dav">    5.13    5.25</time>
   <time name="total">    5.60    5.71</time>
   <energy>
    <i name="e_fr_energy">   -107.86038026 </i>
    <i name="e_wo_entrp">   -107.86474961 </i>
    <i name="e_0_energy">   -107.86183671 </i>
   </energy>
  </scstep>
  <scstep>
   <time name="dav">    5.13    5.24</time>
   <time name="total">    5.57    5.68</time>
   <energy>
    <i name="e_fr_energy">   -107.84617131 </i>
    <i name="e_wo_entrp">   -107.84916906 </i>
    <i name="e_0_energy">   -107.84717056 </i>
   </energy>
  </scstep>
  <scstep>
   <time name="dav">    5.24    5.30</time>
   <time name="total">    5.71    5.75</time>
   <energy>
    <i name="e_fr_energy">   -107.84202083 </i>
    <i name="e_wo_entrp">   -107.84458080 </i>
    <i name="e_0_energy">   -107.84287415 </i>
   </energy>
  </scstep>
  <scstep>
   <time name="dav">    5.56    5.62</time>
   <time name="total">    6.03    6.09</time>
   <energy>
    <i name="e_fr_energy">   -107.84016986 </i>
    <i name="e_wo_entrp">   -107.84243327 </i>
    <i name="e_0_energy">   -107.84092433 </i>
   </energy>
  </scstep>
  <scstep>
   <time name="dav">    5.15    5.16</time>
   <time name="total">    5.63    5.63</time>
   <energy>
    <i name="e_fr_energy">   -107.83918410 </i>
    <i name="e_wo_entrp">   -107.84153392 </i>
    <i name="e_0_energy">   -107.83996738 </i>
   </energy>
  </scstep>
  <scstep>
   <time name="dav">    5.27    5.32</time>
   <time name="total">    5.73    5.78</time>
   <energy>
    <i name="e_fr_energy">   -107.83650726 </i>
    <i name="e_wo_entrp">   -107.83918631 </i>
    <i name="e_0_energy">   -107.83740028 </i>
   </energy>
  </scstep>
  <scstep>
   <time name="dav">    5.69    5.72</time>
   <time name="total">    6.16    6.19</time>
   <energy>
    <i name="e_fr_energy">   -107.83643986 </i>
    <i name="e_wo_entrp">   -107.83811632 </i>
    <i name="e_0_energy">   -107.83699868 </i>
   </energy>
  </scstep>
  <scstep>
   <time name="dav">    5.16    5.22</time>
   <time name="total">    5.61    5.64</time>
   <energy>
    <i name="e_fr_energy">   -107.83513793 </i>
    <i name="e_wo_entrp">   -107.83686237 </i>
    <i name="e_0_energy">   -107.83571274 </i>
   </energy>
  </scstep>
  <scstep>
   <time name="dav">    5.34    5.36</time>
   <time name="total">    5.81    5.82</time>
   <energy>
    <i name="e_fr_energy">   -107.83488134 </i>
    <i name="e_wo_entrp">   -107.83660571 </i>
    <i name="e_0_energy">   -107.83545613 </i>
   </energy>
  </scstep>
  <scstep>
   <time name="dav">    5.16    5.22</time>
   <time name="total">    5.63    5.66</time>
   <energy>
    <i name="e_fr_energy">   -107.83451602 </i>
    <i name="e_wo_entrp">   -107.83625419 </i>
    <i name="e_0_energy">   -107.83509541 </i>
   </energy>
  </scstep>
  <scstep>
   <time name="dav">    5.22    5.35</time>
   <time name="total">    5.70    5.83</time>
   <energy>
    <i name="e_fr_energy">   -107.83441168 </i>
    <i name="e_wo_entrp">   -107.83617806 </i>
    <i name="e_0_energy">   -107.83500047 </i>
   </energy>
  </scstep>
  <scstep>
   <time name="dav">    4.97    5.22</time>
   <time name="total">    5.43    5.66</time>
   <energy>
    <i name="e_fr_energy">   -107.83446920 </i>
    <i name="e_wo_entrp">   -107.83626016 </i>
    <i name="e_0_energy">   -107.83506618 </i>
   </energy>
  </scstep>
  <scstep>
   <time name="dav">    3.60    3.63</time>
   <time name="total">    4.07    4.08</time>
   <energy>
    <i name="e_fr_energy">   -107.83452436 </i>
    <i name="e_wo_entrp">   -107.83631533 </i>
    <i name="e_0_energy">   -107.83512135 </i>
   </energy>
  </scstep>
  <scstep>
   <time name="dav">    3.45    3.47</time>
   <time name="total">    3.93    3.94</time>
   <energy>
    <i name="e_fr_energy">   -107.83456736 </i>
    <i name="e_wo_entrp">   -107.83635666 </i>
    <i name="e_0_energy">   -107.83516379 </i>
   </energy>
  </scstep>
  <scstep>
   <time name="dav">    3.48    3.53</time>
   <time name="total">    3.95    3.98</time>
   <energy>
    <i name="e_fr_energy">   -107.83462468 </i>
    <i name="e_wo_entrp">   -107.83641077 </i>
    <i name="e_0_energy">   -107.83522004 </i>
   </energy>
  </scstep>
  <scstep>
   <time name="dav">    3.37    3.40</time>
   <time name="total">    3.84    3.85</time>
   <energy>
    <i name="e_fr_energy">   -107.83465094 </i>
    <i name="e_wo_entrp">   -107.83642927 </i>
    <i name="e_0_energy">   -107.83524371 </i>
   </energy>
  </scstep>
  <scstep>
   <time name="dav">    3.31    3.34</time>
   <time name="total">    3.81    3.81</time>
   <energy>
    <i name="e_fr_energy">   -107.83466694 </i>
    <i name="e_wo_entrp">   -107.83643739 </i>
    <i name="e_0_energy">   -107.83525709 </i>
   </energy>
  </scstep>
  <scstep>
   <time name="dav">    3.42    3.48</time>
   <time name="total">    3.89    3.92</time>
   <energy>
    <i name="e_fr_energy">   -107.83469064 </i>
    <i name="e_wo_entrp">   -107.83645401 </i>
    <i name="e_0_energy">   -107.83527843 </i>
   </energy>
  </scstep>
  <scstep>
   <time name="dav">    3.26    3.28</time>
   <time name="total">    3.32    3.33</time>
   <energy>
    <i name="alphaZ">    271.64501344 </i>
    <i name="ewald"> 150074.02899739 </i>
    <i name="hartreedc">-162346.41874313 </i>
    <i name="XCdc">     91.87608821 </i>
    <i name="pawpsdc">  15381.45822550 </i>
    <i name="pawaedc"> -14977.94643955 </i>
    <i name="eentropy">      0.00176284 </i>
    <i name="bandstr">   -847.66125411 </i>
    <i name="atom">  12245.18164884 </i>
    <i name="e_fr_energy">   -107.83470056 </i>
    <i name="e_wo_entrp">   -107.83646340 </i>
    <i name="e_0_energy">   -107.83528817 </i>
   </energy>
  </scstep>
  <structure>
   <crystal>
    <varray name="basis" >
     <v>       5.54371716       0.00000000       0.00000000 </v>
     <v>       2.77185858       4.80099990       0.00000000 </v>
     <v>       0.00000000       0.00000000      36.78963917 </v>
    </varray>
    <i name="volume">    979.17042988 </i>
    <varray name="rec_basis" >
     <v>       0.18038438      -0.10414497       0.00000000 </v>
     <v>       0.00000000       0.20828994       0.00000000 </v>
     <v>       0.00000000       0.00000000       0.02718157 </v>
    </varray>
   </crystal>
   <varray name="positions" >
    <v>       0.00000000       0.00000000       0.40772349 </v>
    <v>       0.50000000       0.00000000       0.40772349 </v>
    <v>       0.00000000       0.50000000       0.40772349 </v>
    <v>       0.50000000       0.50000000       0.40772349 </v>
    <v>       0.16666667       0.16666667       0.46924116 </v>
    <v>       0.66666667       0.16666667       0.46924116 </v>
    <v>       0.16666667       0.66666667       0.46924116 </v>
    <v>       0.66666667       0.66666667       0.46924116 </v>
    <v>       0.83333333       0.33333333       0.53075884 </v>
    <v>       0.33333333       0.33333333       0.53075884 </v>
    <v>       0.83333333       0.83333333       0.53075884 </v>
    <v>       0.33333333       0.83333333       0.53075884 </v>
    <v>       0.00000000       0.00000000       0.59227651 </v>
    <v>       0.50000000       0.00000000       0.59227651 </v>
    <v>       0.00000000       0.50000000       0.59227651 </v>
    <v>       0.50000000       0.50000000       0.59227651 </v>
    <v>       0.25137956       0.99724087       0.66467225 </v>
    <v>       0.16666667       0.16666667       0.64256241 </v>
   </varray>
  </structure>
  <varray name="forces" >
   <v>       0.02149256       0.01400420      -0.37915472 </v>
   <v>      -0.02149256       0.01400420      -0.37915472 </v>
   <v>       0.00000000      -0.03359296      -0.38057999 </v>
   <v>       0.00000000      -0.00789901      -0.53704891 </v>
   <v>       0.00000000       0.00286283       0.23495718 </v>
   <v>       0.00000000       0.04825228       0.17830640 </v>
   <v>       0.04442241      -0.04918405       0.14781023 </v>
   <v>      -0.04442241      -0.04918405       0.14781023 </v>
   <v>      -0.03768263       0.00839828      -0.41725700 </v>
   <v>       0.03768263       0.00839828      -0.41725700 </v>
   <v>       0.00000000      -0.20590767       0.15219589 </v>
   <v>       0.00000000      -0.01435649      -0.33003333 </v>
   <v>      -0.16105063       0.03798873       0.71300981 </v>
   <v>       0.16105063       0.03798873       0.71300981 </v>
   <v>       0.00000000      -0.04224769       1.47729834 </v>
   <v>       0.00000000       0.01993890       0.07658449 </v>
   <v>      -0.00000000      -0.68688299       2.28524068 </v>
   <v>       0.00000000       0.89741846      -3.28573739 </v>
  </varray>
  <varray name="stress" >
   <v>      -2.46360073       0.00000000       0.00000000 </v>
   <v>       0.00000000      -4.11734922       0.91564628 </v>
   <v>       0.00000000       0.91564426      15.37555461 </v>
  </varray>
  <energy>
   <i name="e_fr_energy">   -107.83470056 </i>
   <i name="e_wo_entrp">   -107.83646340 </i>
   <i name="e_0_energy">   -107.83528817 </i>
  </energy>
  <time name="totalsc">  199.18  200.70</time>
 </calculation>
 <calculation>
  <scstep>
   <time name="dav">    4.66    4.71</time>
   <time name="total">    5.11    5.13</time>
   <energy>
    <i name="alphaZ">    271.64501344 </i>
    <i name="ewald"> 149661.16069862 </i>
    <i name="hartreedc">-161949.95186140 </i>
    <i name="XCdc">     91.05979522 </i>
    <i name="pawpsdc">  15381.52516095 </i>
    <i name="pawaedc"> -14978.01309232 </i>
    <i name="eentropy">      0.00074905 </i>
    <i name="bandstr">   -829.47431605 </i>
    <i name="atom">  12245.18164884 </i>
    <i name="e_fr_energy">   -106.86620364 </i>
    <i name="e_wo_entrp">   -106.86695269 </i>
    <i name="e_0_energy">   -106.86645332 </i>
   </energy>
  </scstep>
  <scstep>
   <time name="dav">    4.98    5.01</time>
   <time name="total">    5.43    5.45</time>
   <energy>
    <i name="e_fr_energy">   -107.32501297 </i>
    <i name="e_wo_entrp">   -107.33113980 </i>
    <i name="e_0_energy">   -107.32705524 </i>
   </energy>
  </scstep>
  <scstep>
   <time name="dav">    5.37    5.38</time>
   <time name="total">    5.82    5.79</time>
   <energy>
    <i name="e_fr_energy">   -107.83344682 </i>
    <i name="e_wo_entrp">   -107.84142238 </i>
    <i name="e_0_energy">   -107.83610534 </i>
   </energy>
  </scstep>
  <scstep>
   <time name="dav">    5.18    5.18</time>
   <time name="total">    5.62    5.60</time>
   <energy>
    <i name="e_fr_energy">   -107.26516782 </i>
    <i name="e_wo_entrp">   -107.27042353 </i>
    <i name="e_0_energy">   -107.26691972 </i>
   </energy>
  </scstep>
  <scstep>
   <time name="dav">    5.13    5.26</time>
   <time name="total">    5.60    5.74</time>
   <energy>
    <i name="e_fr_energy">   -107.13016096 </i>
    <i name="e_wo_entrp">   -107.13256034 </i>
    <i name="e_0_energy">   -107.13096075 </i>
   </energy>
  </scstep>
  <scstep>
   <time name="dav">    5.09    5.20</time>
   <time name="total">    5.53    5.64</time>
   <energy>
    <i name="e_fr_energy">   -107.09723328 </i>
    <i name="e_wo_entrp">   -107.09870746 </i>
    <i name="e_0_energy">   -107.09772467 </i>
   </energy>
  </scstep>
  <scstep>
   <time name="dav">    4.95    5.01</time>
   <time name="total">    5.39    5.42</time>
   <energy>
    <i name="e_fr_energy">   -107.08843420 </i>
    <i name="e_wo_entrp">   -107.09116235 </i>
    <i name="e_0_energy">   -107.08934359 </i>
   </energy>
  </scstep>
  <scstep>
   <time name="dav">    4.97    4.99</time>
   <time name="total">    5.41    5.41</time>
   <energy>
    <i name="e_fr_energy">   -107.08620193 </i>
    <i name="e_wo_entrp">   -107.08797189 </i>
    <i name="e_0_energy">   -107.08679191 </i>
   </energy>
  </scstep>
  <scstep>
   <time name="dav">    5.01    5.12</time>
   <time name="total">    5.49    5.58</time>
   <energy>
    <i name="e_fr_energy">   -107.08648626 </i>
    <i name="e_wo_entrp">   -107.08888917 </i>
    <i name="e_0_energy">   -107.08728723 </i>
   </energy>
  </scstep>
  <scstep>
   <time name="dav">    5.03    5.09</time>
   <time name="total">    5.49    5.54</time>
   <energy>
    <i name="e_fr_energy">   -107.08693795 </i>
    <i name="e_wo_entrp">   -107.08912911 </i>
    <i name="e_0_energy">   -107.08766834 </i>
   </energy>
  </scstep>
  <scstep>
   <time name="dav">    4.97    5.00</time>
   <time name="total">    5.42    5.43</time>
   <energy>
    <i name="e_fr_energy">   -107.08691598 </i>
    <i name="e_wo_entrp">   -107.08905712 </i>
    <i name="e_0_energy">   -107.08762969 </i>
   </energy>
  </scstep>
  <scstep>
   <time name="dav">    5.14    5.14</time>
   <time name="total">    5.59    5.58</time>
   <energy>
    <i name="e_fr_energy">   -107.08721665 </i>
    <i name="e_wo_entrp">   -107.08930339 </i>
    <i name="e_0_energy">   -107.08791223 </i>
   </energy>
  </scstep>
  <scstep>
   <time name="dav">    4.88    4.91</time>
   <time name="total">    5.32    5.33</time>
   <energy>
    <i name="e_fr_energy">   -107.08747758 </i>
    <i name="e_wo_entrp">   -107.08961255 </i>
    <i name="e_0_energy">   -107.08818923 </i>
   </energy>
  </scstep>
  <scstep>
   <time name="dav">    4.91    4.94</time>
   <time name="total">    5.37    5.41</time>
   <energy>
    <i name="e_fr_energy">   -107.08774178 </i>
    <i name="e_wo_entrp">   -107.08992797 </i>
    <i name="e_0_energy">   -107.08847051 </i>
   </energy>
  </scstep>
  <scstep>
   <time name="dav">    4.71    4.98</time>
   <time name="total">    5.18    5.48</time>
   <energy>
    <i name="e_fr_energy">   -107.08802279 </i>
    <i name="e_wo_entrp">   -107.09016203 </i>
    <i name="e_0_energy">   -107.08873587 </i>
   </energy>
  </scstep>
  <scstep>
   <time name="dav">    4.89    4.89</time>
   <time name="total">    5.37    5.37</time>
   <energy>
    <i name="e_fr_energy">   -107.08825380 </i>
    <i name="e_wo_entrp">   -107.09037162 </i>
    <i name="e_0_energy">   -107.08895974 </i>
   </energy>
  </scstep>
  <scstep>
   <time name="dav">    4.76    4.79</time>
   <time name="total">    5.24    5.27</time>
   <energy>
    <i name="e_fr_energy">   -107.08849625 </i>
    <i name="e_wo_entrp">   -107.09064861 </i>
    <i name="e_0_energy">   -107.08921370 </i>
   </energy>
  </scstep>
  <scstep>
   <time name="dav">    4.53    4.56</time>
   <time name="total">    4.98    5.01</time>
   <energy>
    <i name="e_fr_energy">   -107.08860334 </i>
    <i name="e_wo_entrp">   -107.09074002 </i>
    <i name="e_0_energy">   -107.08931557 </i>
   </energy>
  </scstep>
  <scstep>
   <time name="dav">    3.40    3.40</time>
   <time name="total">    3.86    3.84</time>
   <energy>
    <i name="e_fr_energy">   -107.08864954 </i>
    <i name="e_wo_entrp">   -107.09079745 </i>
    <i name="e_0_energy">   -107.08936551 </i>
   </energy>
  </scstep>
  <scstep>
   <time name="dav">    3.33    3.35</time>
   <time name="total">    3.79    3.78</time>
   <energy>
    <i name="e_fr_energy">   -107.08868499 </i>
    <i name="e_wo_entrp">   -107.09083057 </i>
    <i name="e_0_energy">   -107.08940018 </i>
   </energy>
  </scstep>
  <scstep>
   <time name="dav">    3.21    3.24</time>
   <time name="total">    3.68    3.71</time>
   <energy>
    <i name="e_fr_energy">   -107.08870940 </i>
    <i name="e_wo_entrp">   -107.09085079 </i>
    <i name="e_0_energy">   -107.08942320 </i>
   </energy>
  </scstep>
  <scstep>
   <time name="dav">    3.20    3.20</time>
   <time name="total">    3.65    3.63</time>
   <energy>
    <i name="e_fr_energy">   -107.08872785 </i>
    <i name="e_wo_entrp">   -107.09086590 </i>
    <i name="e_0_energy">   -107.08944054 </i>
   </energy>
  </scstep>
  <scstep>
   <time name="dav">    3.14    3.22</time>
   <time name="total">    3.65    3.73</time>
   <energy>
    <i name="e_fr_energy">   -107.08874291 </i>
    <i name="e_wo_entrp">   -107.09088454 </i>
    <i name="e_0_energy">   -107.08945679 </i>
   </energy>
  </scstep>
  <scstep>
   <time name="dav">    3.09    3.16</time>
   <time name="total">    3.15    3.21</time>
   <energy>
    <i name="alphaZ">    271.64501344 </i>
    <i name="ewald"> 149661.16069862 </i>
    <i name="hartreedc">-161870.48005695 </i>
    <i name="XCdc">     90.54278846 </i>
    <i name="pawpsdc">  15127.05673944 </i>
    <i name="pawaedc"> -14723.42973976 </i>
    <i name="eentropy">      0.00214086 </i>
    <i name="bandstr">   -908.76798284 </i>
    <i name="atom">  12245.18164884 </i>
    <i name="e_fr_energy">   -107.08874989 </i>
    <i name="e_wo_entrp">   -107.09089075 </i>
    <i name="e_0_energy">   -107.08946351 </i>
   </energy>
  </scstep>
  <structure>
   <crystal>
    <varray name="basis" >
     <v>       5.54371716       0.00000000       0.00000000 </v>
     <v>       2.77185858       4.80099990       0.00000000 </v>
     <v>       0.00000000       0.00000000      36.78963917 </v>
    </varray>
    <i name="volume">    979.17042988 </i>
    <varray name="rec_basis" >
     <v>       0.18038438      -0.10414497       0.00000000 </v>
     <v>       0.00000000       0.20828994       0.00000000 </v>
     <v>       0.00000000       0.00000000       0.02718157 </v>
    </varray>
   </crystal>
   <varray name="positions" >
    <v>       0.00000000       0.00000000       0.40772349 </v>
    <v>       0.50000000       0.00000000       0.40772349 </v>
    <v>       0.00000000       0.50000000       0.40772349 </v>
    <v>       0.50000000       0.50000000       0.40772349 </v>
    <v>       0.16666667       0.16666667       0.46924116 </v>
    <v>       0.66666667       0.16666667       0.46924116 </v>
    <v>       0.16666667       0.66666667       0.46924116 </v>
    <v>       0.66666667       0.66666667       0.46924116 </v>
    <v>       0.83296322       0.33341772       0.53021168 </v>
    <v>       0.33361906       0.33341772       0.53021168 </v>
    <v>       0.83436786       0.83126428       0.53095841 </v>
    <v>       0.33340546       0.83318907       0.53032606 </v>
    <v>      -0.00159236       0.00038173       0.59321149 </v>
    <v>       0.50121063       0.00038173       0.59321149 </v>
    <v>       0.00021226       0.49957548       0.59421371 </v>
    <v>       0.49989982       0.50020036       0.59237694 </v>
    <v>       0.25483062       0.99033876       0.66766891 </v>
    <v>       0.16215783       0.17568434       0.63825379 </v>
   </varray>
  </structure>
  <varray name="forces" >
   <v>       0.01925789       0.00522210      -0.37573243 </v>
   <v>      -0.01925789       0.00522210      -0.37573243 </v>
   <v>       0.00000000      -0.03365067      -0.37719631 </v>
   <v>       0.00000000       0.01413339      -0.52988902 </v>
   <v>       0.00000000      -0.02197290       0.10431729 </v>
   <v>       0.00000000      -0.00201280      -0.01719522 </v>
   <v>       0.01655269      -0.01700931       0.02523873 </v>
   <v>      -0.01655269      -0.01700931       0.02523873 </v>
   <v>       0.03765988      -0.04027119       0.10015826 </v>
   <v>      -0.03765988      -0.04027119       0.10015826 </v>
   <v>       0.00000000      -0.18396333       0.43807606 </v>
   <v>       0.00000000       0.05755785       0.07870512 </v>
   <v>       0.16252722       0.09952589       0.92832246 </v>
   <v>      -0.16252722       0.09952589       0.92832246 </v>
   <v>      -0.00000000      -0.22242613       1.48752974 </v>
   <v>       0.00000000       0.06659577      -0.07727944 </v>
   <v>       0.00000000       6.31444812      -6.43355962 </v>
   <v>       0.00000000      -6.08364427       3.97051737 </v>
  </varray>
  <varray name="stress" >
   <v>      -5.09572463       0.00000000       0.00000000 </v>
   <v>       0.00000000     -16.83407496      12.92123171 </v>
   <v>       0.00000000      12.92122997      -4.72196240 </v>
  </varray>
  <energy>
   <i name="e_fr_energy">   -107.08874989 </i>
   <i name="e_wo_entrp">   -107.09089075 </i>
   <i name="e_0_energy">   -107.08946351 </i>
  </energy>
  <time name="totalsc">  135.43  136.00</time>
 </calculation>
 <calculation>
  <scstep>
   <time name="dav">    4.65    4.68</time>
   <time name="total">    5.09    5.10</time>
   <energy>
    <i name="alphaZ">    271.64501344 </i>
    <i name="ewald"> 149982.70219143 </i>
    <i name="hartreedc">-162179.85235275 </i>
    <i name="XCdc">     91.10927375 </i>
    <i name="pawpsdc">  15126.98550834 </i>
    <i name="pawaedc"> -14723.35846938 </i>
    <i name="eentropy">      0.00357800 </i>
    <i name="bandstr">   -922.04981616 </i>
    <i name="atom">  12245.18164884 </i>
    <i name="e_fr_energy">   -107.63342447 </i>
    <i name="e_wo_entrp">   -107.63700248 </i>
    <i name="e_0_energy">   -107.63461714 </i>
   </energy>
  </scstep>
  <scstep>
   <time name="dav">    5.09    5.12</time>
   <time name="total">    5.52    5.52</time>
   <energy>
    <i name="e_fr_energy">   -108.09494839 </i>
    <i name="e_wo_entrp">   -108.09760081 </i>
    <i name="e_0_energy">   -108.09583253 </i>
   </energy>
  </scstep>
  <scstep>
   <time name="dav">    5.71    5.76</time>
   <time name="total">    6.15    6.24</time>
   <energy>
    <i name="e_fr_energy">   -109.17432184 </i>
    <i name="e_wo_entrp">   -109.17537127 </i>
    <i name="e_0_energy">   -109.17467165 </i>
   </energy>
  </scstep>
  <scstep>
   <time name="dav">    5.89    6.01</time>
   <time name="total">    6.35    6.47</time>
   <energy>
    <i name="e_fr_energy">   -108.01375479 </i>
    <i name="e_wo_entrp">   -108.01258760 </i>
    <i name="e_0_energy">   -108.01336572 </i>
   </energy>
  </scstep>
  <scstep>
   <time name="dav">    5.11    5.15</time>
   <time name="total">    5.57    5.61</time>
   <energy>
    <i name="e_fr_energy">   -107.97198845 </i>
    <i name="e_wo_entrp">   -107.97688150 </i>
    <i name="e_0_energy">   -107.97361947 </i>
   </energy>
  </scstep>
  <scstep>
   <time name="dav">    5.10    5.11</time>
   <time name="total">    5.54    5.53</time>
   <energy>
    <i name="e_fr_energy">   -107.94147125 </i>
    <i name="e_wo_entrp">   -107.94297562 </i>
    <i name="e_0_energy">   -107.94197270 </i>
   </energy>
  </scstep>
  <scstep>
   <time name="dav">    4.97    4.97</time>
   <time name="total">    5.41    5.39</time>
   <energy>
    <i name="e_fr_energy">   -107.93380180 </i>
    <i name="e_wo_entrp">   -107.93579615 </i>
    <i name="e_0_energy">   -107.93446658 </i>
   </energy>
  </scstep>
  <scstep>
   <time name="dav">    5.07    5.22</time>
   <time name="total">    5.53    5.67</time>
   <energy>
    <i name="e_fr_energy">   -107.93277222 </i>
    <i name="e_wo_entrp">   -107.93544682 </i>
    <i name="e_0_energy">   -107.93366375 </i>
   </energy>
  </scstep>
  <scstep>
   <time name="dav">    5.01    5.01</time>
   <time name="total">    5.46    5.45</time>
   <energy>
    <i name="e_fr_energy">   -107.93163456 </i>
    <i name="e_wo_entrp">   -107.93440863 </i>
    <i name="e_0_energy">   -107.93255925 </i>
   </energy>
  </scstep>
  <scstep>
   <time name="dav">    5.29    5.34</time>
   <time name="total">    5.74    5.77</time>
   <energy>
    <i name="e_fr_energy">   -107.93124429 </i>
    <i name="e_wo_entrp">   -107.93329292 </i>
    <i name="e_0_energy">   -107.93192717 </i>
   </energy>
  </scstep>
  <scstep>
   <time name="dav">    5.01    5.06</time>
   <time name="total">    5.45    5.48</time>
   <energy>
    <i name="e_fr_energy">   -107.93062666 </i>
    <i name="e_wo_entrp">   -107.93282257 </i>
    <i name="e_0_energy">   -107.93135863 </i>
   </energy>
  </scstep>
  <scstep>
   <time name="dav">    5.19    5.22</time>
   <time name="total">    5.64    5.67</time>
   <energy>
    <i name="e_fr_energy">   -107.93047694 </i>
    <i name="e_wo_entrp">   -107.93260977 </i>
    <i name="e_0_energy">   -107.93118788 </i>
   </energy>
  </scstep>
  <scstep>
   <time name="dav">    5.12    5.23</time>
   <time name="total">    5.59    5.71</time>
   <energy>
    <i name="e_fr_energy">   -107.93049041 </i>
    <i name="e_wo_entrp">   -107.93277462 </i>
    <i name="e_0_energy">   -107.93125181 </i>
   </energy>
  </scstep>
  <scstep>
   <time name="dav">    4.79    4.82</time>
   <time name="total">    5.27    5.30</time>
   <energy>
    <i name="e_fr_energy">   -107.93056117 </i>
    <i name="e_wo_entrp">   -107.93281223 </i>
    <i name="e_0_energy">   -107.93131152 </i>
   </energy>
  </scstep>
  <scstep>
   <time name="dav">    3.92    3.94</time>
   <time name="total">    4.37    4.40</time>
   <energy>
    <i name="e_fr_energy">   -107.93064547 </i>
    <i name="e_wo_entrp">   -107.93289778 </i>
    <i name="e_0_energy">   -107.93139624 </i>
   </energy>
  </scstep>
  <scstep>
   <time name="dav">    3.22    3.24</time>
   <time name="total">    3.67    3.67</time>
   <energy>
    <i name="e_fr_energy">   -107.93068779 </i>
    <i name="e_wo_entrp">   -107.93293855 </i>
    <i name="e_0_energy">   -107.93143804 </i>
   </energy>
  </scstep>
  <scstep>
   <time name="dav">    3.87    3.90</time>
   <time name="total">    4.32    4.32</time>
   <energy>
    <i name="e_fr_energy">   -107.93084831 </i>
    <i name="e_wo_entrp">   -107.93308321 </i>
    <i name="e_0_energy">   -107.93159328 </i>
   </energy>
  </scstep>
  <scstep>
   <time name="dav">    3.92    3.97</time>
   <time name="total">    4.38    4.41</time>
   <energy>
    <i name="e_fr_energy">   -107.93098974 </i>
    <i name="e_wo_entrp">   -107.93323331 </i>
    <i name="e_0_energy">   -107.93173760 </i>
   </energy>
  </scstep>
  <scstep>
   <time name="dav">    3.49    3.50</time>
   <time name="total">    3.99    3.98</time>
   <energy>
    <i name="e_fr_energy">   -107.93105690 </i>
    <i name="e_wo_entrp">   -107.93330781 </i>
    <i name="e_0_energy">   -107.93180720 </i>
   </energy>
  </scstep>
  <scstep>
   <time name="dav">    3.45    3.48</time>
   <time name="total">    3.89    3.92</time>
   <energy>
    <i name="e_fr_energy">   -107.93113352 </i>
    <i name="e_wo_entrp">   -107.93338378 </i>
    <i name="e_0_energy">   -107.93188360 </i>
   </energy>
  </scstep>
  <scstep>
   <time name="dav">    3.47    3.55</time>
   <time name="total">    3.95    4.03</time>
   <energy>
    <i name="e_fr_energy">   -107.93118809 </i>
    <i name="e_wo_entrp">   -107.93343542 </i>
    <i name="e_0_energy">   -107.93193720 </i>
   </energy>
  </scstep>
  <scstep>
   <time name="dav">    3.29    3.31</time>
   <time name="total">    3.75    3.75</time>
   <energy>
    <i name="e_fr_energy">   -107.93121537 </i>
    <i name="e_wo_entrp">   -107.93346426 </i>
    <i name="e_0_energy">   -107.93196500 </i>
   </energy>
  </scstep>
  <scstep>
   <time name="dav">    3.31    3.34</time>
   <time name="total">    3.77    3.78</time>
   <energy>
    <i name="e_fr_energy">   -107.93124104 </i>
    <i name="e_wo_entrp">   -107.93349183 </i>
    <i name="e_0_energy">   -107.93199130 </i>
   </energy>
  </scstep>
  <scstep>
   <time name="dav">    3.19    3.20</time>
   <time name="total">    3.67    3.67</time>
   <energy>
    <i name="e_fr_energy">   -107.93125788 </i>
    <i name="e_wo_entrp">   -107.93351018 </i>
    <i name="e_0_energy">   -107.93200865 </i>
   </energy>
  </scstep>
  <scstep>
   <time name="dav">    3.09    3.12</time>
   <time name="total">    3.15    3.18</time>
   <energy>
    <i name="alphaZ">    271.64501344 </i>
    <i name="ewald"> 149982.70219143 </i>
    <i name="hartreedc">-162241.34614013 </i>
    <i name="XCdc">     91.51862056 </i>
    <i name="pawpsdc">  15298.76429185 </i>
    <i name="pawaedc"> -14895.18269360 </i>
    <i name="eentropy">      0.00225182 </i>
    <i name="bandstr">   -861.21645029 </i>
    <i name="atom">  12245.18164884 </i>
    <i name="e_fr_energy">   -107.93126605 </i>
    <i name="e_wo_entrp">   -107.93351788 </i>
    <i name="e_0_energy">   -107.93201666 </i>
   </energy>
  </scstep>
  <structure>
   <crystal>
    <varray name="basis" >
     <v>       5.54371716       0.00000000       0.00000000 </v>
     <v>       2.77185858       4.80099990       0.00000000 </v>
     <v>       0.00000000       0.00000000      36.78963917 </v>
    </varray>
    <i name="volume">    979.17042988 </i>
    <varray name="rec_basis" >
     <v>       0.18038438      -0.10414497       0.00000000 </v>
     <v>       0.00000000       0.20828994       0.00000000 </v>
     <v>       0.00000000       0.00000000       0.02718157 </v>
    </varray>
   </crystal>
   <varray name="positions" >
    <v>       0.00000000       0.00000000       0.40772349 </v>
    <v>       0.50000000       0.00000000       0.40772349 </v>
    <v>       0.00000000       0.50000000       0.40772349 </v>
    <v>       0.50000000       0.50000000       0.40772349 </v>
    <v>       0.16666667       0.16666667       0.46924116 </v>
    <v>       0.66666667       0.16666667       0.46924116 </v>
    <v>       0.16666667       0.66666667       0.46924116 </v>
    <v>       0.66666667       0.66666667       0.46924116 </v>
    <v>       0.83325314       0.33335162       0.53064028 </v>
    <v>       0.33339524       0.33335162       0.53064028 </v>
    <v>       0.83355749       0.83288502       0.53080208 </v>
    <v>       0.33334896       0.83330208       0.53066506 </v>
    <v>      -0.00034503       0.00008271       0.59247910 </v>
    <v>       0.50026232       0.00008271       0.59247910 </v>
    <v>       0.00004599       0.49990802       0.59269626 </v>
    <v>       0.49997829       0.50004341       0.59229827 </v>
    <v>       0.25212733       0.99574535       0.66532156 </v>
    <v>       0.16568971       0.16862058       0.64162883 </v>
   </varray>
  </structure>
  <varray name="forces" >
   <v>       0.02126222       0.01280388      -0.37848272 </v>
   <v>      -0.02126222       0.01280388      -0.37848272 </v>
   <v>       0.00000000      -0.03518599      -0.37830670 </v>
   <v>       0.00000000      -0.00380472      -0.54060575 </v>
   <v>       0.00000000      -0.00264486       0.21139625 </v>
   <v>       0.00000000       0.03901034       0.13860508 </v>
   <v>       0.04097536      -0.04404648       0.12158715 </v>
   <v>      -0.04097536      -0.04404648       0.12158715 </v>
   <v>      -0.01803185      -0.00267572      -0.30165409 </v>
   <v>       0.01803185      -0.00267572      -0.30165409 </v>
   <v>       0.00000000      -0.20928931       0.23833477 </v>
   <v>       0.00000000       0.00468287      -0.23569805 </v>
   <v>      -0.08291320       0.05955992       0.77229268 </v>
   <v>       0.08291320       0.05955992       0.77229268 </v>
   <v>       0.00000000      -0.09523872       1.50168716 </v>
   <v>       0.00000000       0.02883326       0.03074701 </v>
   <v>       0.00000000       2.48915119      -1.04847999 </v>
   <v>      -0.00000000      -2.26679727      -0.34516584 </v>
  </varray>
  <varray name="stress" >
   <v>      -3.07825333       0.00000000       0.00000000 </v>
   <v>       0.00000000      -9.06861743       5.40999536 </v>
   <v>       0.00000000       5.40999359       9.17448095 </v>
  </varray>
  <energy>
   <i name="e_fr_energy">   -107.93126605 </i>
   <i name="e_wo_entrp">   -107.93351788 </i>
   <i name="e_0_energy">   -107.93201666 </i>
  </energy>
  <time name="totalsc">  137.56  138.29</time>
 </calculation>
 <calculation>
  <scstep>
   <time name="dav">    4.58    4.74</time>
   <time name="total">    5.03    5.20</time>
   <energy>
    <i name="alphaZ">    271.64501344 </i>
    <i name="ewald"> 149637.41244998 </i>
    <i name="hartreedc">-161897.89427729 </i>
    <i name="XCdc">     91.40784112 </i>
    <i name="pawpsdc">  15298.76776604 </i>
    <i name="pawaedc"> -14895.18617868 </i>
    <i name="eentropy">     -0.00011763 </i>
    <i name="bandstr">   -859.53706878 </i>
    <i name="atom">  12245.18164884 </i>
    <i name="e_fr_energy">   -108.20292297 </i>
    <i name="e_wo_entrp">   -108.20280533 </i>
    <i name="e_0_energy">   -108.20288375 </i>
   </energy>
  </scstep>
  <scstep>
   <time name="dav">    5.05    5.29</time>
   <time name="total">    5.50    5.74</time>
   <energy>
    <i name="e_fr_energy">   -108.40271566 </i>
    <i name="e_wo_entrp">   -108.40496876 </i>
    <i name="e_0_energy">   -108.40346669 </i>
   </energy>
  </scstep>
  <scstep>
   <time name="dav">    5.26    5.32</time>
   <time name="total">    5.70    5.73</time>
   <energy>
    <i name="e_fr_energy">   -108.46021662 </i>
    <i name="e_wo_entrp">   -108.46136160 </i>
    <i name="e_0_energy">   -108.46059828 </i>
   </energy>
  </scstep>
  <scstep>
   <time name="dav">    5.28    5.32</time>
   <time name="total">    5.71    5.74</time>
   <energy>
    <i name="e_fr_energy">   -108.40643903 </i>
    <i name="e_wo_entrp">   -108.41004301 </i>
    <i name="e_0_energy">   -108.40764036 </i>
   </energy>
  </scstep>
  <scstep>
   <time name="dav">    5.09    5.10</time>
   <time name="total">    5.56    5.54</time>
   <energy>
    <i name="e_fr_energy">   -108.34418104 </i>
    <i name="e_wo_entrp">   -108.34459655 </i>
    <i name="e_0_energy">   -108.34431954 </i>
   </energy>
  </scstep>
  <scstep>
   <time name="dav">    5.14    5.17</time>
   <time name="total">    5.58    5.63</time>
   <energy>
    <i name="e_fr_energy">   -108.33595501 </i>
    <i name="e_wo_entrp">   -108.33646621 </i>
    <i name="e_0_energy">   -108.33612541 </i>
   </energy>
  </scstep>
  <scstep>
   <time name="dav">    4.90    4.95</time>
   <time name="total">    5.35    5.38</time>
   <energy>
    <i name="e_fr_energy">   -108.33454910 </i>
    <i name="e_wo_entrp">   -108.33474191 </i>
    <i name="e_0_energy">   -108.33461337 </i>
   </energy>
  </scstep>
  <scstep>
   <time name="dav">    5.00    5.16</time>
   <time name="total">    5.46    5.60</time>
   <energy>
    <i name="e_fr_energy">   -108.33412334 </i>
    <i name="e_wo_entrp">   -108.33468327 </i>
    <i name="e_0_energy">   -108.33430998 </i>
   </energy>
  </scstep>
  <scstep>
   <time name="dav">    5.18    5.23</time>
   <time name="total">    5.64    5.68</time>
   <energy>
    <i name="e_fr_energy">   -108.33373205 </i>
    <i name="e_wo_entrp">   -108.33393326 </i>
    <i name="e_0_energy">   -108.33379912 </i>
   </energy>
  </scstep>
  <scstep>
   <time name="dav">    5.16    5.22</time>
   <time name="total">    5.63    5.68</time>
   <energy>
    <i name="e_fr_energy">   -108.33413301 </i>
    <i name="e_wo_entrp">   -108.33454476 </i>
    <i name="e_0_energy">   -108.33427026 </i>
   </energy>
  </scstep>
  <scstep>
   <time name="dav">    4.95    4.99</time>
   <time name="total">    5.40    5.43</time>
   <energy>
    <i name="e_fr_energy">   -108.33406315 </i>
    <i name="e_wo_entrp">   -108.33429980 </i>
    <i name="e_0_energy">   -108.33414203 </i>
   </energy>
  </scstep>
  <scstep>
   <time name="dav">    5.01    5.10</time>
   <time name="total">    5.46    5.54</time>
   <energy>
    <i name="e_fr_energy">   -108.33399634 </i>
    <i name="e_wo_entrp">   -108.33426341 </i>
    <i name="e_0_energy">   -108.33408536 </i>
   </energy>
  </scstep>
  <scstep>
   <time name="dav">    3.89    3.89</time>
   <time name="total">    4.34    4.32</time>
   <energy>
    <i name="e_fr_energy">   -108.33402632 </i>
    <i name="e_wo_entrp">   -108.33427588 </i>
    <i name="e_0_energy">   -108.33410951 </i>
   </energy>
  </scstep>
  <scstep>
   <time name="dav">    3.36    3.36</time>
   <time name="total">    3.81    3.78</time>
   <energy>
    <i name="e_fr_energy">   -108.33409522 </i>
    <i name="e_wo_entrp">   -108.33434281 </i>
    <i name="e_0_energy">   -108.33417775 </i>
   </energy>
  </scstep>
  <scstep>
   <time name="dav">    3.36    3.39</time>
   <time name="total">    3.82    3.82</time>
   <energy>
    <i name="e_fr_energy">   -108.33413900 </i>
    <i name="e_wo_entrp">   -108.33439411 </i>
    <i name="e_0_energy">   -108.33422404 </i>
   </energy>
  </scstep>
  <scstep>
   <time name="dav">    3.37    3.42</time>
   <time name="total">    3.82    3.85</time>
   <energy>
    <i name="e_fr_energy">   -108.33418239 </i>
    <i name="e_wo_entrp">   -108.33442607 </i>
    <i name="e_0_energy">   -108.33426362 </i>
   </energy>
  </scstep>
  <scstep>
   <time name="dav">    3.41    3.42</time>
   <time name="total">    3.86    3.85</time>
   <energy>
    <i name="e_fr_energy">   -108.33422499 </i>
    <i name="e_wo_entrp">   -108.33447076 </i>
    <i name="e_0_energy">   -108.33430691 </i>
   </energy>
  </scstep>
  <scstep>
   <time name="dav">    3.33    3.36</time>
   <time name="total">    3.77    3.77</time>
   <energy>
    <i name="e_fr_energy">   -108.33424957 </i>
    <i name="e_wo_entrp">   -108.33449313 </i>
    <i name="e_0_energy">   -108.33433076 </i>
   </energy>
  </scstep>
  <scstep>
   <time name="dav">    3.38    3.44</time>
   <time name="total">    3.86    3.89</time>
   <energy>
    <i name="e_fr_energy">   -108.33427832 </i>
    <i name="e_wo_entrp">   -108.33452507 </i>
    <i name="e_0_energy">   -108.33436057 </i>
   </energy>
  </scstep>
  <scstep>
   <time name="dav">    3.30    3.50</time>
   <time name="total">    3.77    3.95</time>
   <energy>
    <i name="e_fr_energy">   -108.33428930 </i>
    <i name="e_wo_entrp">   -108.33453495 </i>
    <i name="e_0_energy">   -108.33437119 </i>
   </energy>
  </scstep>
  <scstep>
   <time name="dav">    3.15    3.16</time>
   <time name="total">    3.23    3.22</time>
   <energy>
    <i name="alphaZ">    271.64501344 </i>
    <i name="ewald"> 149637.41244998 </i>
    <i name="hartreedc">-161879.12721214 </i>
    <i name="XCdc">     91.35235567 </i>
    <i name="pawpsdc">  15251.90300670 </i>
    <i name="pawaedc"> -14848.17848864 </i>
    <i name="eentropy">      0.00024402 </i>
    <i name="bandstr">   -878.52331127 </i>
    <i name="atom">  12245.18164884 </i>
    <i name="e_fr_energy">   -108.33429340 </i>
    <i name="e_wo_entrp">   -108.33453742 </i>
    <i name="e_0_energy">   -108.33437474 </i>
   </energy>
  </scstep>
  <structure>
   <crystal>
    <varray name="basis" >
     <v>       5.54371716       0.00000000       0.00000000 </v>
     <v>       2.77185858       4.80099990       0.00000000 </v>
     <v>       0.00000000       0.00000000      36.78963917 </v>
    </varray>
    <i name="volume">    979.17042988 </i>
    <varray name="rec_basis" >
     <v>       0.18038438      -0.10414497       0.00000000 </v>
     <v>       0.00000000       0.20828994       0.00000000 </v>
     <v>       0.00000000       0.00000000       0.02718157 </v>
    </varray>
   </crystal>
   <varray name="positions" >
    <v>       0.00000000       0.00000000       0.40772349 </v>
    <v>       0.50000000       0.00000000       0.40772349 </v>
    <v>       0.00000000       0.50000000       0.40772349 </v>
    <v>       0.50000000       0.50000000       0.40772349 </v>
    <v>       0.16666667       0.16666667       0.46924116 </v>
    <v>       0.66666667       0.16666667       0.46924116 </v>
    <v>       0.16666667       0.66666667       0.46924116 </v>
    <v>       0.66666667       0.66666667       0.46924116 </v>
    <v>       0.83297574       0.33337834       0.53011776 </v>
    <v>       0.33364592       0.33337834       0.53011776 </v>
    <v>       0.83473153       0.83053695       0.53109579 </v>
    <v>       0.33337147       0.83325707       0.53025410 </v>
    <v>      -0.00178577       0.00064492       0.59357839 </v>
    <v>       0.50114085       0.00064492       0.59357839 </v>
    <v>       0.00044792       0.49910416       0.59489479 </v>
    <v>       0.49983823       0.50032355       0.59237439 </v>
    <v>       0.24622901       0.00754198       0.66601287 </v>
    <v>       0.17036186       0.15927629       0.63914587 </v>
   </varray>
  </structure>
  <varray name="forces" >
   <v>       0.02142607       0.00583787      -0.36658995 </v>
   <v>      -0.02142607       0.00583787      -0.36658995 </v>
   <v>      -0.00000000      -0.03373469      -0.37277914 </v>
   <v>      -0.00000000       0.01245907      -0.53287867 </v>
   <v>      -0.00000000      -0.01639759       0.07994820 </v>
   <v>      -0.00000000      -0.01916830      -0.02299721 </v>
   <v>       0.00699796      -0.00615629       0.00532702 </v>
   <v>      -0.00699796      -0.00615629       0.00532702 </v>
   <v>       0.06610718      -0.05542242       0.21450696 </v>
   <v>      -0.06610718      -0.05542242       0.21450696 </v>
   <v>      -0.00000000      -0.12887803       0.48623852 </v>
   <v>      -0.00000000       0.07701157       0.15946697 </v>
   <v>       0.02400897       0.03941858       0.59606600 </v>
   <v>      -0.02400897       0.03941858       0.59606600 </v>
   <v>      -0.00000000      -0.18444004       1.16762519 </v>
   <v>      -0.00000000       0.04270958      -0.12257053 </v>
   <v>       0.00000000       3.02869099      -2.24803299 </v>
   <v>       0.00000000      -2.74560803       0.50735961 </v>
  </varray>
  <varray name="stress" >
   <v>      -5.29617363       0.00000000       0.00000000 </v>
   <v>       0.00000000     -11.54720754       6.63788191 </v>
   <v>       0.00000000       6.63788009       3.82309540 </v>
  </varray>
  <energy>
   <i name="e_fr_energy">   -108.33429340 </i>
   <i name="e_wo_entrp">   -108.33453742 </i>
   <i name="e_0_energy">   -108.33437474 </i>
  </energy>
  <time name="totalsc">  116.39  117.15</time>
 </calculation>
 <calculation>
  <scstep>
   <time name="dav">    4.66    4.71</time>
   <time name="total">    5.11    5.14</time>
   <energy>
    <i name="alphaZ">    271.64501344 </i>
    <i name="ewald"> 149214.82200633 </i>
    <i name="hartreedc">-161459.08053033 </i>
    <i name="XCdc">     91.22145534 </i>
    <i name="pawpsdc">  15251.91095591 </i>
    <i name="pawaedc"> -14848.18647218 </i>
    <i name="eentropy">     -0.00328189 </i>
    <i name="bandstr">   -875.86577542 </i>
    <i name="atom">  12245.18164884 </i>
    <i name="e_fr_energy">   -108.35497995 </i>
    <i name="e_wo_entrp">   -108.35169806 </i>
    <i name="e_0_energy">   -108.35388599 </i>
   </energy>
  </scstep>
  <scstep>
   <time name="dav">    4.99    5.05</time>
   <time name="total">    5.43    5.48</time>
   <energy>
    <i name="e_fr_energy">   -108.73630749 </i>
    <i name="e_wo_entrp">   -108.74036124 </i>
    <i name="e_0_energy">   -108.73765874 </i>
   </energy>
  </scstep>
  <scstep>
   <time name="dav">    5.17    5.38</time>
   <time name="total">    5.61    5.81</time>
   <energy>
    <i name="e_fr_energy">   -108.71786659 </i>
    <i name="e_wo_entrp">   -108.71793954 </i>
    <i name="e_0_energy">   -108.71789091 </i>
   </energy>
  </scstep>
  <scstep>
   <time name="dav">    5.12    5.16</time>
   <time name="total">    5.57    5.62</time>
   <energy>
    <i name="e_fr_energy">   -108.58863152 </i>
    <i name="e_wo_entrp">   -108.58672641 </i>
    <i name="e_0_energy">   -108.58799648 </i>
   </energy>
  </scstep>
  <scstep>
   <time name="dav">    5.07    5.13</time>
   <time name="total">    5.53    5.59</time>
   <energy>
    <i name="e_fr_energy">   -108.55975225 </i>
    <i name="e_wo_entrp">   -108.55837066 </i>
    <i name="e_0_energy">   -108.55929172 </i>
   </energy>
  </scstep>
  <scstep>
   <time name="dav">    5.15    5.16</time>
   <time name="total">    5.60    5.59</time>
   <energy>
    <i name="e_fr_energy">   -108.54816564 </i>
    <i name="e_wo_entrp">   -108.54550734 </i>
    <i name="e_0_energy">   -108.54727954 </i>
   </energy>
  </scstep>
  <scstep>
   <time name="dav">    5.08    5.13</time>
   <time name="total">    5.53    5.58</time>
   <energy>
    <i name="e_fr_energy">   -108.54713990 </i>
    <i name="e_wo_entrp">   -108.54672623 </i>
    <i name="e_0_energy">   -108.54700201 </i>
   </energy>
  </scstep>
  <scstep>
   <time name="dav">    5.07    5.13</time>
   <time name="total">    5.51    5.57</time>
   <energy>
    <i name="e_fr_energy">   -108.54497719 </i>
    <i name="e_wo_entrp">   -108.54305368 </i>
    <i name="e_0_energy">   -108.54433602 </i>
   </energy>
  </scstep>
  <scstep>
   <time name="dav">    5.02    5.14</time>
   <time name="total">    5.49    5.61</time>
   <energy>
    <i name="e_fr_energy">   -108.54448027 </i>
    <i name="e_wo_entrp">   -108.54269270 </i>
    <i name="e_0_energy">   -108.54388441 </i>
   </energy>
  </scstep>
  <scstep>
   <time name="dav">    5.26    5.50</time>
   <time name="total">    5.73    5.96</time>
   <energy>
    <i name="e_fr_energy">   -108.54463542 </i>
    <i name="e_wo_entrp">   -108.54292806 </i>
    <i name="e_0_energy">   -108.54406630 </i>
   </energy>
  </scstep>
  <scstep>
   <time name="dav">    5.06    5.06</time>
   <time name="total">    5.52    5.53</time>
   <energy>
    <i name="e_fr_energy">   -108.54473426 </i>
    <i name="e_wo_entrp">   -108.54298346 </i>
    <i name="e_0_energy">   -108.54415066 </i>
   </energy>
  </scstep>
  <scstep>
   <time name="dav">    5.15    5.17</time>
   <time name="total">    5.60    5.61</time>
   <energy>
    <i name="e_fr_energy">   -108.54476758 </i>
    <i name="e_wo_entrp">   -108.54302968 </i>
    <i name="e_0_energy">   -108.54418828 </i>
   </energy>
  </scstep>
  <scstep>
   <time name="dav">    4.16    4.19</time>
   <time name="total">    4.63    4.63</time>
   <energy>
    <i name="e_fr_energy">   -108.54481862 </i>
    <i name="e_wo_entrp">   -108.54309080 </i>
    <i name="e_0_energy">   -108.54424268 </i>
   </energy>
  </scstep>
  <scstep>
   <time name="dav">    3.90    3.96</time>
   <time name="total">    4.36    4.39</time>
   <energy>
    <i name="e_fr_energy">   -108.54496543 </i>
    <i name="e_wo_entrp">   -108.54322104 </i>
    <i name="e_0_energy">   -108.54438397 </i>
   </energy>
  </scstep>
  <scstep>
   <time name="dav">    3.34    3.36</time>
   <time name="total">    3.79    3.79</time>
   <energy>
    <i name="e_fr_energy">   -108.54502849 </i>
    <i name="e_wo_entrp">   -108.54331080 </i>
    <i name="e_0_energy">   -108.54445593 </i>
   </energy>
  </scstep>
  <scstep>
   <time name="dav">    3.69    3.74</time>
   <time name="total">    4.15    4.17</time>
   <energy>
    <i name="e_fr_energy">   -108.54512138 </i>
    <i name="e_wo_entrp">   -108.54339917 </i>
    <i name="e_0_energy">   -108.54454731 </i>
   </energy>
  </scstep>
  <scstep>
   <time name="dav">    4.28    4.30</time>
   <time name="total">    4.74    4.74</time>
   <energy>
    <i name="e_fr_energy">   -108.54522890 </i>
    <i name="e_wo_entrp">   -108.54350290 </i>
    <i name="e_0_energy">   -108.54465357 </i>
   </energy>
  </scstep>
  <scstep>
   <time name="dav">    3.41    3.56</time>
   <time name="total">    3.91    4.14</time>
   <energy>
    <i name="e_fr_energy">   -108.54527166 </i>
    <i name="e_wo_entrp">   -108.54355038 </i>
    <i name="e_0_energy">   -108.54469790 </i>
   </energy>
  </scstep>
  <scstep>
   <time name="dav">    3.32    3.32</time>
   <time name="total">    3.80    3.79</time>
   <energy>
    <i name="e_fr_energy">   -108.54529417 </i>
    <i name="e_wo_entrp">   -108.54357651 </i>
    <i name="e_0_energy">   -108.54472162 </i>
   </energy>
  </scstep>
  <scstep>
   <time name="dav">    3.26    3.26</time>
   <time name="total">    3.75    3.75</time>
   <energy>
    <i name="e_fr_energy">   -108.54530965 </i>
    <i name="e_wo_entrp">   -108.54358748 </i>
    <i name="e_0_energy">   -108.54473559 </i>
   </energy>
  </scstep>
  <scstep>
   <time name="dav">    3.18    3.21</time>
   <time name="total">    3.25    3.26</time>
   <energy>
    <i name="alphaZ">    271.64501344 </i>
    <i name="ewald"> 149214.82200633 </i>
    <i name="hartreedc">-161429.44887647 </i>
    <i name="XCdc">     91.14522501 </i>
    <i name="pawpsdc">  15210.23967511 </i>
    <i name="pawaedc"> -14806.47099885 </i>
    <i name="eentropy">     -0.00172260 </i>
    <i name="bandstr">   -905.65728645 </i>
    <i name="atom">  12245.18164884 </i>
    <i name="e_fr_energy">   -108.54531563 </i>
    <i name="e_wo_entrp">   -108.54359304 </i>
    <i name="e_0_energy">   -108.54474144 </i>
   </energy>
  </scstep>
  <structure>
   <crystal>
    <varray name="basis" >
     <v>       5.54371716       0.00000000       0.00000000 </v>
     <v>       2.77185858       4.80099990       0.00000000 </v>
     <v>       0.00000000       0.00000000      36.78963917 </v>
    </varray>
    <i name="volume">    979.17042988 </i>
    <varray name="rec_basis" >
     <v>       0.18038438      -0.10414497       0.00000000 </v>
     <v>       0.00000000       0.20828994       0.00000000 </v>
     <v>       0.00000000       0.00000000       0.02718157 </v>
    </varray>
   </crystal>
   <varray name="positions" >
    <v>       0.00000000       0.00000000       0.40772349 </v>
    <v>       0.50000000       0.00000000       0.40772349 </v>
    <v>       0.00000000       0.50000000       0.40772349 </v>
    <v>       0.50000000       0.50000000       0.40772349 </v>
    <v>       0.16666667       0.16666667       0.46924116 </v>
    <v>       0.66666667       0.16666667       0.46924116 </v>
    <v>       0.16666667       0.66666667       0.46924116 </v>
    <v>       0.66666667       0.66666667       0.46924116 </v>
    <v>       0.83264051       0.33341063       0.52948629 </v>
    <v>       0.33394886       0.33341063       0.52948629 </v>
    <v>       0.83615036       0.82769929       0.53145074 </v>
    <v>       0.33339866       0.83320268       0.52975745 </v>
    <v>      -0.00352692       0.00132436       0.59490690 </v>
    <v>       0.50220256       0.00132436       0.59490690 </v>
    <v>       0.00093365       0.49813270       0.59755173 </v>
    <v>       0.49966896       0.50066209       0.59246638 </v>
    <v>       0.23910086       0.02179829       0.66684833 </v>
    <v>       0.17600818       0.14798364       0.63614520 </v>
   </varray>
  </structure>
  <varray name="forces" >
   <v>       0.01791881       0.00119597      -0.35991934 </v>
   <v>      -0.01791881       0.00119597      -0.35991934 </v>
   <v>      -0.00000000      -0.02787623      -0.37919682 </v>
   <v>      -0.00000000       0.02156219      -0.51197969 </v>
   <v>      -0.00000000      -0.02982519      -0.10866095 </v>
   <v>      -0.00000000      -0.11249312      -0.18220167 </v>
   <v>      -0.04488001       0.04379101      -0.13609763 </v>
   <v>       0.04488001       0.04379101      -0.13609763 </v>
   <v>       0.12244040      -0.12325616       0.74779415 </v>
   <v>      -0.12244040      -0.12325616       0.74779415 </v>
   <v>      -0.00000000       0.02520517       0.55898263 </v>
   <v>      -0.00000000       0.13548262       0.58568145 </v>
   <v>       0.04465436      -0.06850298       0.29927251 </v>
   <v>      -0.04465436      -0.06850298       0.29927251 </v>
   <v>      -0.00000000      -0.12337554       0.64642432 </v>
   <v>      -0.00000000       0.06302589      -0.22870846 </v>
   <v>       0.00000000       3.51168353      -4.59358012 </v>
   <v>      -0.00000000      -3.16984502       3.11113992 </v>
  </varray>
  <varray name="stress" >
   <v>      -7.10703839       0.00000000       0.00000000 </v>
   <v>       0.00000000     -12.87940967       7.97002830 </v>
   <v>       0.00000000       7.97002656      -1.45218995 </v>
  </varray>
  <energy>
   <i name="e_fr_energy">   -108.54531563 </i>
   <i name="e_wo_entrp">   -108.54359304 </i>
   <i name="e_0_energy">   -108.54474144 </i>
  </energy>
  <time name="totalsc">  118.84  119.63</time>
 </calculation>
 <calculation>
  <scstep>
   <time name="dav">    4.58    4.65</time>
   <time name="total">    5.05    5.13</time>
   <energy>
    <i name="alphaZ">    271.64501344 </i>
    <i name="ewald"> 149082.96471614 </i>
    <i name="hartreedc">-161294.87716122 </i>
    <i name="XCdc">     91.25139000 </i>
    <i name="pawpsdc">  15210.24772307 </i>
    <i name="pawaedc"> -14806.47913530 </i>
    <i name="eentropy">     -0.00301738 </i>
    <i name="bandstr">   -908.69166914 </i>
    <i name="atom">  12245.18164884 </i>
    <i name="e_fr_energy">   -108.76049155 </i>
    <i name="e_wo_entrp">   -108.75747416 </i>
    <i name="e_0_energy">   -108.75948575 </i>
   </energy>
  </scstep>
  <scstep>
   <time name="dav">    5.01    5.27</time>
   <time name="total">    5.46    5.75</time>
   <energy>
    <i name="e_fr_energy">   -108.82955917 </i>
    <i name="e_wo_entrp">   -108.82788117 </i>
    <i name="e_0_energy">   -108.82899984 </i>
   </energy>
  </scstep>
  <scstep>
   <time name="dav">    5.22    5.25</time>
   <time name="total">    5.66    5.68</time>
   <energy>
    <i name="e_fr_energy">   -108.84361619 </i>
    <i name="e_wo_entrp">   -108.84267392 </i>
    <i name="e_0_energy">   -108.84330210 </i>
   </energy>
  </scstep>
  <scstep>
   <time name="dav">    5.10    5.15</time>
   <time name="total">    5.55    5.58</time>
   <energy>
    <i name="e_fr_energy">   -108.80954180 </i>
    <i name="e_wo_entrp">   -108.80658670 </i>
    <i name="e_0_energy">   -108.80855677 </i>
   </energy>
  </scstep>
  <scstep>
   <time name="dav">    5.10    5.14</time>
   <time name="total">    5.55    5.56</time>
   <energy>
    <i name="e_fr_energy">   -108.80654368 </i>
    <i name="e_wo_entrp">   -108.80403225 </i>
    <i name="e_0_energy">   -108.80570653 </i>
   </energy>
  </scstep>
  <scstep>
   <time name="dav">    5.01    5.07</time>
   <time name="total">    5.45    5.49</time>
   <energy>
    <i name="e_fr_energy">   -108.80609811 </i>
    <i name="e_wo_entrp">   -108.80314272 </i>
    <i name="e_0_energy">   -108.80511298 </i>
   </energy>
  </scstep>
  <scstep>
   <time name="dav">    4.94    5.03</time>
   <time name="total">    5.38    5.47</time>
   <energy>
    <i name="e_fr_energy">   -108.80540027 </i>
    <i name="e_wo_entrp">   -108.80306250 </i>
    <i name="e_0_energy">   -108.80462101 </i>
   </energy>
  </scstep>
  <scstep>
   <time name="dav">    5.23    5.50</time>
   <time name="total">    5.68    5.92</time>
   <energy>
    <i name="e_fr_energy">   -108.80501654 </i>
    <i name="e_wo_entrp">   -108.80226312 </i>
    <i name="e_0_energy">   -108.80409873 </i>
   </energy>
  </scstep>
  <scstep>
   <time name="dav">    5.22    5.26</time>
   <time name="total">    5.66    5.69</time>
   <energy>
    <i name="e_fr_energy">   -108.80497479 </i>
    <i name="e_wo_entrp">   -108.80227553 </i>
    <i name="e_0_energy">   -108.80407504 </i>
   </energy>
  </scstep>
  <scstep>
   <time name="dav">    5.02    5.04</time>
   <time name="total">    5.48    5.49</time>
   <energy>
    <i name="e_fr_energy">   -108.80494248 </i>
    <i name="e_wo_entrp">   -108.80224251 </i>
    <i name="e_0_energy">   -108.80404249 </i>
   </energy>
  </scstep>
  <scstep>
   <time name="dav">    3.70    3.70</time>
   <time name="total">    3.77    3.76</time>
   <energy>
    <i name="alphaZ">    271.64501344 </i>
    <i name="ewald"> 149082.96471614 </i>
    <i name="hartreedc">-161298.50824952 </i>
    <i name="XCdc">     91.34156498 </i>
    <i name="pawpsdc">  15247.23011359 </i>
    <i name="pawaedc"> -14843.42788920 </i>
    <i name="eentropy">     -0.00267874 </i>
    <i name="bandstr">   -905.22917471 </i>
    <i name="atom">  12245.18164884 </i>
    <i name="e_fr_energy">   -108.80493516 </i>
    <i name="e_wo_entrp">   -108.80225642 </i>
    <i name="e_0_energy">   -108.80404225 </i>
   </energy>
  </scstep>
  <structure>
   <crystal>
    <varray name="basis" >
     <v>       5.54371716       0.00000000       0.00000000 </v>
     <v>       2.77185858       4.80099990       0.00000000 </v>
     <v>       0.00000000       0.00000000      36.78963917 </v>
    </varray>
    <i name="volume">    979.17042988 </i>
    <varray name="rec_basis" >
     <v>       0.18038438      -0.10414497       0.00000000 </v>
     <v>       0.00000000       0.20828994       0.00000000 </v>
     <v>       0.00000000       0.00000000       0.02718157 </v>
    </varray>
   </crystal>
   <varray name="positions" >
    <v>       0.00000000       0.00000000       0.40772349 </v>
    <v>       0.50000000       0.00000000       0.40772349 </v>
    <v>       0.00000000       0.50000000       0.40772349 </v>
    <v>       0.50000000       0.50000000       0.40772349 </v>
    <v>       0.16666667       0.16666667       0.46924116 </v>
    <v>       0.66666667       0.16666667       0.46924116 </v>
    <v>       0.16666667       0.66666667       0.46924116 </v>
    <v>       0.66666667       0.66666667       0.46924116 </v>
    <v>       0.83272525       0.33327497       0.52938613 </v>
    <v>       0.33399978       0.33327497       0.52938613 </v>
    <v>       0.83662141       0.82675718       0.53165917 </v>
    <v>       0.33332734       0.83334532       0.52967829 </v>
    <v>      -0.00403659       0.00147558       0.59540850 </v>
    <v>       0.50256101       0.00147558       0.59540850 </v>
    <v>       0.00117348       0.49765305       0.59856235 </v>
    <v>       0.49957346       0.50085309       0.59246237 </v>
    <v>       0.23456886       0.03086227       0.66642097 </v>
    <v>       0.17982908       0.14034184       0.63560053 </v>
   </varray>
  </structure>
  <varray name="forces" >
   <v>       0.01688907       0.00114539      -0.35892003 </v>
   <v>      -0.01688907       0.00114539      -0.35892003 </v>
   <v>      -0.00000000      -0.02561958      -0.37969566 </v>
   <v>      -0.00000000       0.02146113      -0.50755866 </v>
   <v>      -0.00000000      -0.02913062      -0.14316020 </v>
   <v>       0.00000000      -0.14509182      -0.18932039 </v>
   <v>      -0.06136343       0.05630937      -0.15451609 </v>
   <v>       0.06136343       0.05630937      -0.15451609 </v>
   <v>       0.12874206      -0.13549700       0.85927202 </v>
   <v>      -0.12874206      -0.13549700       0.85927202 </v>
   <v>      -0.00000000       0.08248437       0.53567139 </v>
   <v>      -0.00000000       0.13548315       0.67583011 </v>
   <v>      -0.03964690      -0.13240052       0.08371235 </v>
   <v>       0.03964690      -0.13240052       0.08371235 </v>
   <v>      -0.00000000      -0.04704396       0.38329932 </v>
   <v>      -0.00000000       0.05213104      -0.23320501 </v>
   <v>      -0.00000000       2.52394983      -3.29626459 </v>
   <v>       0.00000000      -2.14773803       2.29530720 </v>
  </varray>
  <varray name="stress" >
   <v>      -7.45871918       0.00000000       0.00000000 </v>
   <v>       0.00000000     -11.85838871       6.13930497 </v>
   <v>       0.00000000       6.13930354       1.55804756 </v>
  </varray>
  <energy>
   <i name="e_fr_energy">   -108.80493516 </i>
   <i name="e_wo_entrp">   -108.80225642 </i>
   <i name="e_0_energy">   -108.80404225 </i>
  </energy>
  <time name="totalsc">   74.93   75.73</time>
 </calculation>
 <calculation>
  <scstep>
   <time name="dav">    4.67    4.72</time>
   <time name="total">    5.11    5.14</time>
   <energy>
    <i name="alphaZ">    271.64501344 </i>
    <i name="ewald"> 148816.13172275 </i>
    <i name="hartreedc">-161026.55510080 </i>
    <i name="XCdc">     91.53209443 </i>
    <i name="pawpsdc">  15247.24756226 </i>
    <i name="pawaedc"> -14843.44552861 </i>
    <i name="eentropy">     -0.00496754 </i>
    <i name="bandstr">   -910.57725363 </i>
    <i name="atom">  12245.18164884 </i>
    <i name="e_fr_energy">   -108.84480886 </i>
    <i name="e_wo_entrp">   -108.83984132 </i>
    <i name="e_0_energy">   -108.84315301 </i>
   </energy>
  </scstep>
  <scstep>
   <time name="dav">    4.97    5.00</time>
   <time name="total">    5.41    5.44</time>
   <energy>
    <i name="e_fr_energy">   -109.10659004 </i>
    <i name="e_wo_entrp">   -109.10519722 </i>
    <i name="e_0_energy">   -109.10612577 </i>
   </energy>
  </scstep>
  <scstep>
   <time name="dav">    5.29    5.31</time>
   <time name="total">    5.76    5.78</time>
   <energy>
    <i name="e_fr_energy">   -109.23859810 </i>
    <i name="e_wo_entrp">   -109.23918160 </i>
    <i name="e_0_energy">   -109.23879260 </i>
   </energy>
  </scstep>
  <scstep>
   <time name="dav">    5.16    5.19</time>
   <time name="total">    5.59    5.61</time>
   <energy>
    <i name="e_fr_energy">   -109.04442065 </i>
    <i name="e_wo_entrp">   -109.03985154 </i>
    <i name="e_0_energy">   -109.04289761 </i>
   </energy>
  </scstep>
  <scstep>
   <time name="dav">    5.11    5.16</time>
   <time name="total">    5.57    5.60</time>
   <energy>
    <i name="e_fr_energy">   -109.02886682 </i>
    <i name="e_wo_entrp">   -109.02508623 </i>
    <i name="e_0_energy">   -109.02760662 </i>
   </energy>
  </scstep>
  <scstep>
   <time name="dav">    5.03    5.20</time>
   <time name="total">    5.47    5.62</time>
   <energy>
    <i name="e_fr_energy">   -109.02661189 </i>
    <i name="e_wo_entrp">   -109.02169770 </i>
    <i name="e_0_energy">   -109.02497383 </i>
   </energy>
  </scstep>
  <scstep>
   <time name="dav">    5.12    5.18</time>
   <time name="total">    5.57    5.61</time>
   <energy>
    <i name="e_fr_energy">   -109.02478770 </i>
    <i name="e_wo_entrp">   -109.02132020 </i>
    <i name="e_0_energy">   -109.02363187 </i>
   </energy>
  </scstep>
  <scstep>
   <time name="dav">    5.09    5.14</time>
   <time name="total">    5.53    5.56</time>
   <energy>
    <i name="e_fr_energy">   -109.02250139 </i>
    <i name="e_wo_entrp">   -109.01820941 </i>
    <i name="e_0_energy">   -109.02107073 </i>
   </energy>
  </scstep>
  <scstep>
   <time name="dav">    5.17    5.23</time>
   <time name="total">    5.61    5.64</time>
   <energy>
    <i name="e_fr_energy">   -109.02238241 </i>
    <i name="e_wo_entrp">   -109.01813381 </i>
    <i name="e_0_energy">   -109.02096621 </i>
   </energy>
  </scstep>
  <scstep>
   <time name="dav">    4.96    4.96</time>
   <time name="total">    5.40    5.38</time>
   <energy>
    <i name="e_fr_energy">   -109.02213615 </i>
    <i name="e_wo_entrp">   -109.01794111 </i>
    <i name="e_0_energy">   -109.02073780 </i>
   </energy>
  </scstep>
  <scstep>
   <time name="dav">    5.27    5.32</time>
   <time name="total">    5.74    5.77</time>
   <energy>
    <i name="e_fr_energy">   -109.02198414 </i>
    <i name="e_wo_entrp">   -109.01777645 </i>
    <i name="e_0_energy">   -109.02058157 </i>
   </energy>
  </scstep>
  <scstep>
   <time name="dav">    4.77    4.77</time>
   <time name="total">    4.83    4.83</time>
   <energy>
    <i name="alphaZ">    271.64501344 </i>
    <i name="ewald"> 148816.13172275 </i>
    <i name="hartreedc">-161032.47831801 </i>
    <i name="XCdc">     91.70085558 </i>
    <i name="pawpsdc">  15327.39600669 </i>
    <i name="pawaedc"> -14923.54929350 </i>
    <i name="eentropy">     -0.00417440 </i>
    <i name="bandstr">   -905.04545198 </i>
    <i name="atom">  12245.18164884 </i>
    <i name="e_fr_energy">   -109.02199059 </i>
    <i name="e_wo_entrp">   -109.01781619 </i>
    <i name="e_0_energy">   -109.02059912 </i>
   </energy>
  </scstep>
  <structure>
   <crystal>
    <varray name="basis" >
     <v>       5.54371716       0.00000000       0.00000000 </v>
     <v>       2.77185858       4.80099990       0.00000000 </v>
     <v>       0.00000000       0.00000000      36.78963917 </v>
    </varray>
    <i name="volume">    979.17042988 </i>
    <varray name="rec_basis" >
     <v>       0.18038438      -0.10414497       0.00000000 </v>
     <v>       0.00000000       0.20828994       0.00000000 </v>
     <v>       0.00000000       0.00000000       0.02718157 </v>
    </varray>
   </crystal>
   <varray name="positions" >
    <v>       0.00000000       0.00000000       0.40772349 </v>
    <v>       0.50000000       0.00000000       0.40772349 </v>
    <v>       0.00000000       0.50000000       0.40772349 </v>
    <v>       0.50000000       0.50000000       0.40772349 </v>
    <v>       0.16666667       0.16666667       0.46924116 </v>
    <v>       0.66666667       0.16666667       0.46924116 </v>
    <v>       0.16666667       0.66666667       0.46924116 </v>
    <v>       0.66666667       0.66666667       0.46924116 </v>
    <v>       0.83289507       0.33300311       0.52918539 </v>
    <v>       0.33410183       0.33300311       0.52918539 </v>
    <v>       0.83756544       0.82486911       0.53207688 </v>
    <v>       0.33318441       0.83363118       0.52951964 </v>
    <v>      -0.00505801       0.00177862       0.59641376 </v>
    <v>       0.50327939       0.00177862       0.59641376 </v>
    <v>       0.00165412       0.49669177       0.60058772 </v>
    <v>       0.49938207       0.50123587       0.59245432 </v>
    <v>       0.22548633       0.04902733       0.66556451 </v>
    <v>       0.18748652       0.12502697       0.63450895 </v>
   </varray>
  </structure>
  <varray name="forces" >
   <v>       0.01368293       0.00151778      -0.35538838 </v>
   <v>      -0.01368293       0.00151778      -0.35538838 </v>
   <v>      -0.00000000      -0.01873689      -0.38651420 </v>
   <v>      -0.00000000       0.02094471      -0.50659302 </v>
   <v>      -0.00000000      -0.02439272      -0.20739083 </v>
   <v>      -0.00000000      -0.21346385      -0.19442483 </v>
   <v>      -0.09427117       0.07962687      -0.19173453 </v>
   <v>       0.09427117       0.07962687      -0.19173453 </v>
   <v>       0.12885219      -0.16262630       1.05258408 </v>
   <v>      -0.12885219      -0.16262630       1.05258408 </v>
   <v>      -0.00000000       0.19372035       0.49189494 </v>
   <v>      -0.00000000       0.12841705       0.84496256 </v>
   <v>      -0.28432309      -0.28704321      -0.40792243 </v>
   <v>       0.28432309      -0.28704321      -0.40792243 </v>
   <v>      -0.00000000       0.18153932      -0.19667635 </v>
   <v>      -0.00000000       0.02717492      -0.23673688 </v>
   <v>      -0.00000000       0.80369320      -0.11757552 </v>
   <v>      -0.00000000      -0.36184637       0.31397663 </v>
  </varray>
  <varray name="stress" >
   <v>      -7.57439563       0.00000000       0.00000000 </v>
   <v>       0.00000000     -10.29789895       3.06638018 </v>
   <v>       0.00000000       3.06637849       9.07615690 </v>
  </varray>
  <energy>
   <i name="e_fr_energy">   -109.02199059 </i>
   <i name="e_wo_entrp">   -109.01781619 </i>
   <i name="e_0_energy">   -109.02059912 </i>
  </energy>
  <time name="totalsc">   81.68   81.89</time>
 </calculation>
 <calculation>
  <scstep>
   <time name="dav">    4.66    4.70</time>
   <time name="total">    5.12    5.14</time>
   <energy>
    <i name="alphaZ">    271.64501344 </i>
    <i name="ewald"> 148795.13445385 </i>
    <i name="hartreedc">-161011.24635197 </i>
    <i name="XCdc">     91.71385020 </i>
    <i name="pawpsdc">  15327.08542150 </i>
    <i name="pawaedc"> -14923.23813441 </i>
    <i name="eentropy">     -0.00432988 </i>
    <i name="bandstr">   -905.29399698 </i>
    <i name="atom">  12245.18164884 </i>
    <i name="e_fr_energy">   -109.02242539 </i>
    <i name="e_wo_entrp">   -109.01809550 </i>
    <i name="e_0_energy">   -109.02098209 </i>
   </energy>
  </scstep>
  <scstep>
   <time name="dav">    4.99    5.07</time>
   <time name="total">    5.44    5.53</time>
   <energy>
    <i name="e_fr_energy">   -109.02397567 </i>
    <i name="e_wo_entrp">   -109.01976234 </i>
    <i name="e_0_energy">   -109.02257123 </i>
   </energy>
  </scstep>
  <scstep>
   <time name="dav">    5.22    5.46</time>
   <time name="total">    5.66    5.89</time>
   <energy>
    <i name="e_fr_energy">   -109.02456110 </i>
    <i name="e_wo_entrp">   -109.02050320 </i>
    <i name="e_0_energy">   -109.02320847 </i>
   </energy>
  </scstep>
  <scstep>
   <time name="dav">    5.12    5.17</time>
   <time name="total">    5.56    5.59</time>
   <energy>
    <i name="e_fr_energy">   -109.02348884 </i>
    <i name="e_wo_entrp">   -109.01914101 </i>
    <i name="e_0_energy">   -109.02203956 </i>
   </energy>
  </scstep>
  <scstep>
   <time name="dav">    5.07    5.13</time>
   <time name="total">    5.51    5.54</time>
   <energy>
    <i name="e_fr_energy">   -109.02341786 </i>
    <i name="e_wo_entrp">   -109.01917779 </i>
    <i name="e_0_energy">   -109.02200451 </i>
   </energy>
  </scstep>
  <scstep>
   <time name="dav">    5.00    5.00</time>
   <time name="total">    5.44    5.42</time>
   <energy>
    <i name="e_fr_energy">   -109.02341643 </i>
    <i name="e_wo_entrp">   -109.01912717 </i>
    <i name="e_0_energy">   -109.02198668 </i>
   </energy>
  </scstep>
  <scstep>
   <time name="dav">    4.93    5.09</time>
   <time name="total">    5.39    5.54</time>
   <energy>
    <i name="e_fr_energy">   -109.02339979 </i>
    <i name="e_wo_entrp">   -109.01917471 </i>
    <i name="e_0_energy">   -109.02199143 </i>
   </energy>
  </scstep>
  <scstep>
   <time name="dav">    3.39    3.41</time>
   <time name="total">    3.45    3.47</time>
   <energy>
    <i name="alphaZ">    271.64501344 </i>
    <i name="ewald"> 148795.13445385 </i>
    <i name="hartreedc">-161011.92758294 </i>
    <i name="XCdc">     91.72706752 </i>
    <i name="pawpsdc">  15332.27500311 </i>
    <i name="pawaedc"> -14928.42469116 </i>
    <i name="eentropy">     -0.00427277 </i>
    <i name="bandstr">   -904.63003555 </i>
    <i name="atom">  12245.18164884 </i>
    <i name="e_fr_energy">   -109.02339565 </i>
    <i name="e_wo_entrp">   -109.01912288 </i>
    <i name="e_0_energy">   -109.02197139 </i>
   </energy>
  </scstep>
  <structure>
   <crystal>
    <varray name="basis" >
     <v>       5.54371716       0.00000000       0.00000000 </v>
     <v>       2.77185858       4.80099990       0.00000000 </v>
     <v>       0.00000000       0.00000000      36.78963917 </v>
    </varray>
    <i name="volume">    979.17042988 </i>
    <varray name="rec_basis" >
     <v>       0.18038438      -0.10414497       0.00000000 </v>
     <v>       0.00000000       0.20828994       0.00000000 </v>
     <v>       0.00000000       0.00000000       0.02718157 </v>
    </varray>
   </crystal>
   <varray name="positions" >
    <v>       0.00000000       0.00000000       0.40772349 </v>
    <v>       0.50000000       0.00000000       0.40772349 </v>
    <v>       0.00000000       0.50000000       0.40772349 </v>
    <v>       0.50000000       0.50000000       0.40772349 </v>
    <v>       0.16666667       0.16666667       0.46924116 </v>
    <v>       0.66666667       0.16666667       0.46924116 </v>
    <v>       0.16666667       0.66666667       0.46924116 </v>
    <v>       0.66666667       0.66666667       0.46924116 </v>
    <v>       0.83290832       0.33298190       0.52916973 </v>
    <v>       0.33410979       0.33298190       0.52916973 </v>
    <v>       0.83763910       0.82472181       0.53210947 </v>
    <v>       0.33317326       0.83365348       0.52950726 </v>
    <v>      -0.00513770       0.00180227       0.59649218 </v>
    <v>       0.50333543       0.00180227       0.59649218 </v>
    <v>       0.00169161       0.49661677       0.60074574 </v>
    <v>       0.49936713       0.50126573       0.59245369 </v>
    <v>       0.22477773       0.05044454       0.66549769 </v>
    <v>       0.18808394       0.12383212       0.63442379 </v>
   </varray>
  </structure>
  <varray name="forces" >
   <v>       0.01310650       0.00160340      -0.35544316 </v>
   <v>      -0.01310650       0.00160340      -0.35544316 </v>
   <v>       0.00000000      -0.01773658      -0.38683630 </v>
   <v>       0.00000000       0.02086139      -0.50481553 </v>
   <v>       0.00000000      -0.02374604      -0.21223250 </v>
   <v>       0.00000000      -0.21881373      -0.19486258 </v>
   <v>      -0.09675333       0.08147153      -0.19502547 </v>
   <v>       0.09675333       0.08147153      -0.19502547 </v>
   <v>       0.12798986      -0.16478654       1.06571035 </v>
   <v>      -0.12798986      -0.16478654       1.06571035 </v>
   <v>       0.00000000       0.20200087       0.48938978 </v>
   <v>      -0.00000000       0.12718075       0.85645081 </v>
   <v>      -0.30866328      -0.30081144      -0.44885178 </v>
   <v>       0.30866328      -0.30081144      -0.44885178 </v>
   <v>       0.00000000       0.20320574      -0.24237874 </v>
   <v>       0.00000000       0.02520571      -0.23762596 </v>
   <v>       0.00000000       0.69766140       0.13867010 </v>
   <v>       0.00000000      -0.25077341       0.16146103 </v>
  </varray>
  <varray name="stress" >
   <v>      -7.53906349       0.00000000       0.00000000 </v>
   <v>       0.00000000     -10.20367996       2.88831943 </v>
   <v>       0.00000000       2.88831787       9.68677324 </v>
  </varray>
  <energy>
   <i name="e_fr_energy">   -109.02339565 </i>
   <i name="e_wo_entrp">   -109.01912288 </i>
   <i name="e_0_energy">   -109.02197139 </i>
  </energy>
  <time name="totalsc">   57.66   58.26</time>
 </calculation>
 <calculation>
  <scstep>
   <time name="dav">    4.68    4.80</time>
   <time name="total">    5.11    5.22</time>
   <energy>
    <i name="alphaZ">    271.64501344 </i>
    <i name="ewald"> 148800.18140838 </i>
    <i name="hartreedc">-161017.07103667 </i>
    <i name="XCdc">     91.71901288 </i>
    <i name="pawpsdc">  15332.40713258 </i>
    <i name="pawaedc"> -14928.55654217 </i>
    <i name="eentropy">     -0.00417341 </i>
    <i name="bandstr">   -904.56119294 </i>
    <i name="atom">  12245.18164884 </i>
    <i name="e_fr_energy">   -109.05872906 </i>
    <i name="e_wo_entrp">   -109.05455565 </i>
    <i name="e_0_energy">   -109.05733792 </i>
   </energy>
  </scstep>
  <scstep>
   <time name="dav">    4.96    4.99</time>
   <time name="total">    5.41    5.41</time>
   <energy>
    <i name="e_fr_energy">   -109.06456755 </i>
    <i name="e_wo_entrp">   -109.06049240 </i>
    <i name="e_0_energy">   -109.06320917 </i>
   </energy>
  </scstep>
  <scstep>
   <time name="dav">    4.98    5.01</time>
   <time name="total">    5.42    5.43</time>
   <energy>
    <i name="e_fr_energy">   -109.06158097 </i>
    <i name="e_wo_entrp">   -109.05721651 </i>
    <i name="e_0_energy">   -109.06012615 </i>
   </energy>
  </scstep>
  <scstep>
   <time name="dav">    5.12    5.17</time>
   <time name="total">    5.58    5.62</time>
   <energy>
    <i name="e_fr_energy">   -109.06181706 </i>
    <i name="e_wo_entrp">   -109.05777365 </i>
    <i name="e_0_energy">   -109.06046926 </i>
   </energy>
  </scstep>
  <scstep>
   <time name="dav">    4.99    5.02</time>
   <time name="total">    5.41    5.43</time>
   <energy>
    <i name="e_fr_energy">   -109.06118004 </i>
    <i name="e_wo_entrp">   -109.05687599 </i>
    <i name="e_0_energy">   -109.05974536 </i>
   </energy>
  </scstep>
  <scstep>
   <time name="dav">    5.06    5.06</time>
   <time name="total">    5.53    5.51</time>
   <energy>
    <i name="e_fr_energy">   -109.06113822 </i>
    <i name="e_wo_entrp">   -109.05684303 </i>
    <i name="e_0_energy">   -109.05970649 </i>
   </energy>
  </scstep>
  <scstep>
   <time name="dav">    5.18    5.32</time>
   <time name="total">    5.64    5.78</time>
   <energy>
    <i name="e_fr_energy">   -109.06107419 </i>
    <i name="e_wo_entrp">   -109.05681448 </i>
    <i name="e_0_energy">   -109.05965428 </i>
   </energy>
  </scstep>
  <scstep>
   <time name="dav">    4.17    4.20</time>
   <time name="total">    4.61    4.63</time>
   <energy>
    <i name="e_fr_energy">   -109.06105560 </i>
    <i name="e_wo_entrp">   -109.05683300 </i>
    <i name="e_0_energy">   -109.05964806 </i>
   </energy>
  </scstep>
  <scstep>
   <time name="dav">    3.25    3.28</time>
   <time name="total">    3.32    3.33</time>
   <energy>
    <i name="alphaZ">    271.64501344 </i>
    <i name="ewald"> 148800.18140838 </i>
    <i name="hartreedc">-161018.12828084 </i>
    <i name="XCdc">     91.72192438 </i>
    <i name="pawpsdc">  15329.17078820 </i>
    <i name="pawaedc"> -14925.29324780 </i>
    <i name="eentropy">     -0.00424394 </i>
    <i name="bandstr">   -903.53606499 </i>
    <i name="atom">  12245.18164884 </i>
    <i name="e_fr_energy">   -109.06105432 </i>
    <i name="e_wo_entrp">   -109.05681038 </i>
    <i name="e_0_energy">   -109.05963967 </i>
   </energy>
  </scstep>
  <structure>
   <crystal>
    <varray name="basis" >
     <v>       5.54371716       0.00000000       0.00000000 </v>
     <v>       2.77185858       4.80099990       0.00000000 </v>
     <v>       0.00000000       0.00000000      36.78963917 </v>
    </varray>
    <i name="volume">    979.17042988 </i>
    <varray name="rec_basis" >
     <v>       0.18038438      -0.10414497       0.00000000 </v>
     <v>       0.00000000       0.20828994       0.00000000 </v>
     <v>       0.00000000       0.00000000       0.02718157 </v>
    </varray>
   </crystal>
   <varray name="positions" >
    <v>       0.00000000       0.00000000       0.40772349 </v>
    <v>       0.50000000       0.00000000       0.40772349 </v>
    <v>       0.00000000       0.50000000       0.40772349 </v>
    <v>       0.50000000       0.50000000       0.40772349 </v>
    <v>       0.16666667       0.16666667       0.46924116 </v>
    <v>       0.66666667       0.16666667       0.46924116 </v>
    <v>       0.16666667       0.66666667       0.46924116 </v>
    <v>       0.66666667       0.66666667       0.46924116 </v>
    <v>       0.83323712       0.33270195       0.52940752 </v>
    <v>       0.33406093       0.33270195       0.52940752 </v>
    <v>       0.83746356       0.82507288       0.53221685 </v>
    <v>       0.33306537       0.83386927       0.52969835 </v>
    <v>      -0.00533335       0.00128840       0.59638875 </v>
    <v>       0.50404495       0.00128840       0.59638875 </v>
    <v>       0.00151670       0.49696660       0.60068460 </v>
    <v>       0.49934633       0.50130734       0.59240086 </v>
    <v>       0.22421544       0.05156913       0.66553159 </v>
    <v>       0.18827041       0.12345919       0.63446359 </v>
   </varray>
  </structure>
  <varray name="forces" >
   <v>       0.01456284       0.00263610      -0.35988346 </v>
   <v>      -0.01456284       0.00263610      -0.35988346 </v>
   <v>      -0.00000000      -0.01929928      -0.38704800 </v>
   <v>      -0.00000000       0.02013845      -0.50176593 </v>
   <v>      -0.00000000      -0.01986950      -0.15255937 </v>
   <v>      -0.00000000      -0.20201450      -0.13574661 </v>
   <v>      -0.08890296       0.07068073      -0.13404280 </v>
   <v>       0.08890296       0.07068073      -0.13404280 </v>
   <v>       0.12032800      -0.13525092       0.95424330 </v>
   <v>      -0.12032800      -0.13525092       0.95424330 </v>
   <v>      -0.00000000       0.16809363       0.41827064 </v>
   <v>      -0.00000000       0.10116828       0.75323495 </v>
   <v>      -0.22679970      -0.25823992      -0.36689740 </v>
   <v>       0.22679970      -0.25823992      -0.36689740 </v>
   <v>      -0.00000000       0.13832046      -0.21623696 </v>
   <v>      -0.00000000       0.01377244      -0.18732235 </v>
   <v>      -0.00000000       0.64242396       0.26286645 </v>
   <v>       0.00000000      -0.20238593      -0.04053210 </v>
  </varray>
  <varray name="stress" >
   <v>      -7.86823914       0.00000000       0.00000000 </v>
   <v>       0.00000000     -10.41428838       2.75451428 </v>
   <v>       0.00000000       2.75451268       9.59453071 </v>
  </varray>
  <energy>
   <i name="e_fr_energy">   -109.06105432 </i>
   <i name="e_wo_entrp">   -109.05681038 </i>
   <i name="e_0_energy">   -109.05963967 </i>
  </energy>
  <time name="totalsc">   62.21   62.40</time>
 </calculation>
 <calculation>
  <scstep>
   <time name="dav">    4.63    4.66</time>
   <time name="total">    5.06    5.13</time>
   <energy>
    <i name="alphaZ">    271.64501344 </i>
    <i name="ewald"> 148815.72921157 </i>
    <i name="hartreedc">-161033.76648804 </i>
    <i name="XCdc">     91.70849202 </i>
    <i name="pawpsdc">  15329.03739375 </i>
    <i name="pawaedc"> -14925.15974144 </i>
    <i name="eentropy">     -0.00391883 </i>
    <i name="bandstr">   -903.49393259 </i>
    <i name="atom">  12245.18164884 </i>
    <i name="e_fr_energy">   -109.12232127 </i>
    <i name="e_wo_entrp">   -109.11840244 </i>
    <i name="e_0_energy">   -109.12101499 </i>
   </energy>
  </scstep>
  <scstep>
   <time name="dav">    4.93    5.20</time>
   <time name="total">    5.39    5.65</time>
   <energy>
    <i name="e_fr_energy">   -109.18056301 </i>
    <i name="e_wo_entrp">   -109.17808685 </i>
    <i name="e_0_energy">   -109.17973762 </i>
   </energy>
  </scstep>
  <scstep>
   <time name="dav">    4.97    4.98</time>
   <time name="total">    5.42    5.41</time>
   <energy>
    <i name="e_fr_energy">   -109.15032040 </i>
    <i name="e_wo_entrp">   -109.14625699 </i>
    <i name="e_0_energy">   -109.14896593 </i>
   </energy>
  </scstep>
  <scstep>
   <time name="dav">    5.18    5.18</time>
   <time name="total">    5.62    5.62</time>
   <energy>
    <i name="e_fr_energy">   -109.14953637 </i>
    <i name="e_wo_entrp">   -109.14546327 </i>
    <i name="e_0_energy">   -109.14817867 </i>
   </energy>
  </scstep>
  <scstep>
   <time name="dav">    4.94    4.97</time>
   <time name="total">    5.39    5.40</time>
   <energy>
    <i name="e_fr_energy">   -109.14472734 </i>
    <i name="e_wo_entrp">   -109.14068589 </i>
    <i name="e_0_energy">   -109.14338019 </i>
   </energy>
  </scstep>
  <scstep>
   <time name="dav">    5.03    5.03</time>
   <time name="total">    5.49    5.48</time>
   <energy>
    <i name="e_fr_energy">   -109.14399418 </i>
    <i name="e_wo_entrp">   -109.13981414 </i>
    <i name="e_0_energy">   -109.14260083 </i>
   </energy>
  </scstep>
  <scstep>
   <time name="dav">    5.14    5.25</time>
   <time name="total">    5.58    5.66</time>
   <energy>
    <i name="e_fr_energy">   -109.14342577 </i>
    <i name="e_wo_entrp">   -109.13930802 </i>
    <i name="e_0_energy">   -109.14205319 </i>
   </energy>
  </scstep>
  <scstep>
   <time name="dav">    5.13    5.16</time>
   <time name="total">    5.58    5.60</time>
   <energy>
    <i name="e_fr_energy">   -109.14325700 </i>
    <i name="e_wo_entrp">   -109.13916491 </i>
    <i name="e_0_energy">   -109.14189297 </i>
   </energy>
  </scstep>
  <scstep>
   <time name="dav">    5.00    5.02</time>
   <time name="total">    5.45    5.46</time>
   <energy>
    <i name="e_fr_energy">   -109.14323124 </i>
    <i name="e_wo_entrp">   -109.13910459 </i>
    <i name="e_0_energy">   -109.14185569 </i>
   </energy>
  </scstep>
  <scstep>
   <time name="dav">    5.01    5.02</time>
   <time name="total">    5.48    5.49</time>
   <energy>
    <i name="e_fr_energy">   -109.14323643 </i>
    <i name="e_wo_entrp">   -109.13914128 </i>
    <i name="e_0_energy">   -109.14187138 </i>
   </energy>
  </scstep>
  <scstep>
   <time name="dav">    3.67    3.71</time>
   <time name="total">    3.74    3.77</time>
   <energy>
    <i name="alphaZ">    271.64501344 </i>
    <i name="ewald"> 148815.72921157 </i>
    <i name="hartreedc">-161036.55661982 </i>
    <i name="XCdc">     91.71464159 </i>
    <i name="pawpsdc">  15321.88286178 </i>
    <i name="pawaedc"> -14917.94505518 </i>
    <i name="eentropy">     -0.00412594 </i>
    <i name="bandstr">   -900.79080410 </i>
    <i name="atom">  12245.18164884 </i>
    <i name="e_fr_energy">   -109.14322780 </i>
    <i name="e_wo_entrp">   -109.13910186 </i>
    <i name="e_0_energy">   -109.14185249 </i>
   </energy>
  </scstep>
  <structure>
   <crystal>
    <varray name="basis" >
     <v>       5.54371716       0.00000000       0.00000000 </v>
     <v>       2.77185858       4.80099990       0.00000000 </v>
     <v>       0.00000000       0.00000000      36.78963917 </v>
    </varray>
    <i name="volume">    979.17042988 </i>
    <varray name="rec_basis" >
     <v>       0.18038438      -0.10414497       0.00000000 </v>
     <v>       0.00000000       0.20828994       0.00000000 </v>
     <v>       0.00000000       0.00000000       0.02718157 </v>
    </varray>
   </crystal>
   <varray name="positions" >
    <v>       0.00000000       0.00000000       0.40772349 </v>
    <v>       0.50000000       0.00000000       0.40772349 </v>
    <v>       0.00000000       0.50000000       0.40772349 </v>
    <v>       0.50000000       0.50000000       0.40772349 </v>
    <v>       0.16666667       0.16666667       0.46924116 </v>
    <v>       0.66666667       0.16666667       0.46924116 </v>
    <v>       0.16666667       0.66666667       0.46924116 </v>
    <v>       0.66666667       0.66666667       0.46924116 </v>
    <v>       0.83422352       0.33186213       0.53012090 </v>
    <v>       0.33391434       0.33186213       0.53012090 </v>
    <v>       0.83693695       0.82612610       0.53253900 </v>
    <v>       0.33274169       0.83451662       0.53027163 </v>
    <v>      -0.00592029      -0.00025321       0.59607845 </v>
    <v>       0.50617350      -0.00025321       0.59607845 </v>
    <v>       0.00099196       0.49801608       0.60050120 </v>
    <v>       0.49928392       0.50143215       0.59224236 </v>
    <v>       0.22252856       0.05494288       0.66563328 </v>
    <v>       0.18882981       0.12234039       0.63458301 </v>
   </varray>
  </structure>
  <varray name="forces" >
   <v>       0.01815230       0.00571500      -0.37188974 </v>
   <v>      -0.01815230       0.00571500      -0.37188974 </v>
   <v>       0.00000000      -0.02343113      -0.39185196 </v>
   <v>      -0.00000000       0.01779128      -0.49323452 </v>
   <v>       0.00000000      -0.00914467       0.02100130 </v>
   <v>       0.00000000      -0.15563813       0.03314070 </v>
   <v>      -0.06725177       0.04191386       0.04099603 </v>
   <v>       0.06725177       0.04191386       0.04099603 </v>
   <v>       0.09833664      -0.04647347       0.61977028 </v>
   <v>      -0.09833664      -0.04647347       0.61977028 </v>
   <v>      -0.00000000       0.06452160       0.19512980 </v>
   <v>       0.00000000       0.02371411       0.44384367 </v>
   <v>       0.01334617      -0.13367029      -0.11521103 </v>
   <v>      -0.01334617      -0.13367029      -0.11521103 </v>
   <v>      -0.00000000      -0.05109376      -0.13297206 </v>
   <v>       0.00000000      -0.01987938      -0.02690361 </v>
   <v>       0.00000000       0.48302906       0.64144602 </v>
   <v>       0.00000000      -0.06483918      -0.63693043 </v>
  </varray>
  <varray name="stress" >
   <v>      -8.63996870       0.00000000       0.00000000 </v>
   <v>       0.00000000     -10.87174420       2.37247864 </v>
   <v>       0.00000000       2.37247672       9.53276776 </v>
  </varray>
  <energy>
   <i name="e_fr_energy">   -109.14322780 </i>
   <i name="e_wo_entrp">   -109.13910186 </i>
   <i name="e_0_energy">   -109.14185249 </i>
  </energy>
  <time name="totalsc">   74.20   74.60</time>
 </calculation>
 <calculation>
  <scstep>
   <time name="dav">    4.64    4.65</time>
   <time name="total">    5.07    5.05</time>
   <energy>
    <i name="alphaZ">    271.64501344 </i>
    <i name="ewald"> 148848.61178917 </i>
    <i name="hartreedc">-161069.07320653 </i>
    <i name="XCdc">     91.73433856 </i>
    <i name="pawpsdc">  15321.41551650 </i>
    <i name="pawaedc"> -14917.47751889 </i>
    <i name="eentropy">     -0.00300089 </i>
    <i name="bandstr">   -901.12066525 </i>
    <i name="atom">  12245.18164884 </i>
    <i name="e_fr_energy">   -109.08608503 </i>
    <i name="e_wo_entrp">   -109.08308414 </i>
    <i name="e_0_energy">   -109.08508474 </i>
   </energy>
  </scstep>
  <scstep>
   <time name="dav">    4.97    4.98</time>
   <time name="total">    5.43    5.42</time>
   <energy>
    <i name="e_fr_energy">   -109.39064183 </i>
    <i name="e_wo_entrp">   -109.38871316 </i>
    <i name="e_0_energy">   -109.38999894 </i>
   </energy>
  </scstep>
  <scstep>
   <time name="dav">    4.95    4.98</time>
   <time name="total">    5.41    5.43</time>
   <energy>
    <i name="e_fr_energy">   -109.22345007 </i>
    <i name="e_wo_entrp">   -109.22182526 </i>
    <i name="e_0_energy">   -109.22290847 </i>
   </energy>
  </scstep>
  <scstep>
   <time name="dav">    5.25    5.30</time>
   <time name="total">    5.68    5.73</time>
   <energy>
    <i name="e_fr_energy">   -109.20119986 </i>
    <i name="e_wo_entrp">   -109.19627632 </i>
    <i name="e_0_energy">   -109.19955868 </i>
   </energy>
  </scstep>
  <scstep>
   <time name="dav">    4.93    4.93</time>
   <time name="total">    5.37    5.35</time>
   <energy>
    <i name="e_fr_energy">   -109.17655214 </i>
    <i name="e_wo_entrp">   -109.17467152 </i>
    <i name="e_0_energy">   -109.17592527 </i>
   </energy>
  </scstep>
  <scstep>
   <time name="dav">    5.04    5.09</time>
   <time name="total">    5.49    5.54</time>
   <energy>
    <i name="e_fr_energy">   -109.17335960 </i>
    <i name="e_wo_entrp">   -109.17089047 </i>
    <i name="e_0_energy">   -109.17253656 </i>
   </energy>
  </scstep>
  <scstep>
   <time name="dav">    5.00    5.03</time>
   <time name="total">    5.46    5.48</time>
   <energy>
    <i name="e_fr_energy">   -109.17260172 </i>
    <i name="e_wo_entrp">   -109.16873535 </i>
    <i name="e_0_energy">   -109.17131293 </i>
   </energy>
  </scstep>
  <scstep>
   <time name="dav">    5.35    5.36</time>
   <time name="total">    5.80    5.81</time>
   <energy>
    <i name="e_fr_energy">   -109.16976136 </i>
    <i name="e_wo_entrp">   -109.16621414 </i>
    <i name="e_0_energy">   -109.16857895 </i>
   </energy>
  </scstep>
  <scstep>
   <time name="dav">    4.97    5.00</time>
   <time name="total">    5.42    5.45</time>
   <energy>
    <i name="e_fr_energy">   -109.16959586 </i>
    <i name="e_wo_entrp">   -109.16617549 </i>
    <i name="e_0_energy">   -109.16845574 </i>
   </energy>
  </scstep>
  <scstep>
   <time name="dav">    5.12    5.17</time>
   <time name="total">    5.57    5.59</time>
   <energy>
    <i name="e_fr_energy">   -109.16969967 </i>
    <i name="e_wo_entrp">   -109.16622589 </i>
    <i name="e_0_energy">   -109.16854175 </i>
   </energy>
  </scstep>
  <scstep>
   <time name="dav">    5.01    5.17</time>
   <time name="total">    5.45    5.58</time>
   <energy>
    <i name="e_fr_energy">   -109.16958947 </i>
    <i name="e_wo_entrp">   -109.16618895 </i>
    <i name="e_0_energy">   -109.16845596 </i>
   </energy>
  </scstep>
  <scstep>
   <time name="dav">    5.11    5.17</time>
   <time name="total">    5.57    5.60</time>
   <energy>
    <i name="e_fr_energy">   -109.16934103 </i>
    <i name="e_wo_entrp">   -109.16584953 </i>
    <i name="e_0_energy">   -109.16817720 </i>
   </energy>
  </scstep>
  <scstep>
   <time name="dav">    3.89    3.94</time>
   <time name="total">    4.37    4.41</time>
   <energy>
    <i name="e_fr_energy">   -109.16930831 </i>
    <i name="e_wo_entrp">   -109.16586181 </i>
    <i name="e_0_energy">   -109.16815948 </i>
   </energy>
  </scstep>
  <scstep>
   <time name="dav">    3.35    3.45</time>
   <time name="total">    3.82    3.92</time>
   <energy>
    <i name="e_fr_energy">   -109.16928302 </i>
    <i name="e_wo_entrp">   -109.16585907 </i>
    <i name="e_0_energy">   -109.16814171 </i>
   </energy>
  </scstep>
  <scstep>
   <time name="dav">    3.63    3.63</time>
   <time name="total">    4.10    4.08</time>
   <energy>
    <i name="e_fr_energy">   -109.16924994 </i>
    <i name="e_wo_entrp">   -109.16587035 </i>
    <i name="e_0_energy">   -109.16812341 </i>
   </energy>
  </scstep>
  <scstep>
   <time name="dav">    3.28    3.31</time>
   <time name="total">    3.36    3.37</time>
   <energy>
    <i name="alphaZ">    271.64501344 </i>
    <i name="ewald"> 148848.61178917 </i>
    <i name="hartreedc">-161074.34698021 </i>
    <i name="XCdc">     91.74537384 </i>
    <i name="pawpsdc">  15323.27563145 </i>
    <i name="pawaedc"> -14919.32012898 </i>
    <i name="eentropy">     -0.00335530 </i>
    <i name="bandstr">   -895.95824045 </i>
    <i name="atom">  12245.18164884 </i>
    <i name="e_fr_energy">   -109.16924820 </i>
    <i name="e_wo_entrp">   -109.16589290 </i>
    <i name="e_0_energy">   -109.16812977 </i>
   </energy>
  </scstep>
  <structure>
   <crystal>
    <varray name="basis" >
     <v>       5.54371716       0.00000000       0.00000000 </v>
     <v>       2.77185858       4.80099990       0.00000000 </v>
     <v>       0.00000000       0.00000000      36.78963917 </v>
    </varray>
    <i name="volume">    979.17042988 </i>
    <varray name="rec_basis" >
     <v>       0.18038438      -0.10414497       0.00000000 </v>
     <v>       0.00000000       0.20828994       0.00000000 </v>
     <v>       0.00000000       0.00000000       0.02718157 </v>
    </varray>
   </crystal>
   <varray name="positions" >
    <v>       0.00000000       0.00000000       0.40772349 </v>
    <v>       0.50000000       0.00000000       0.40772349 </v>
    <v>       0.00000000       0.50000000       0.40772349 </v>
    <v>       0.50000000       0.50000000       0.40772349 </v>
    <v>       0.16666667       0.16666667       0.46924116 </v>
    <v>       0.66666667       0.16666667       0.46924116 </v>
    <v>       0.16666667       0.66666667       0.46924116 </v>
    <v>       0.66666667       0.66666667       0.46924116 </v>
    <v>       0.83619633       0.33018248       0.53154765 </v>
    <v>       0.33362118       0.33018248       0.53154765 </v>
    <v>       0.83588372       0.82823255       0.53318328 </v>
    <v>       0.33209433       0.83581134       0.53141817 </v>
    <v>      -0.00709417      -0.00333643       0.59545786 </v>
    <v>       0.51043060      -0.00333643       0.59545786 </v>
    <v>      -0.00005752       0.50011504       0.60013439 </v>
    <v>       0.49915911       0.50168178       0.59192536 </v>
    <v>       0.21915480       0.06169039       0.66583668 </v>
    <v>       0.18994861       0.12010279       0.63482186 </v>
   </varray>
  </structure>
  <varray name="forces" >
   <v>       0.02530598       0.01155580      -0.40348995 </v>
   <v>      -0.02530598       0.01155580      -0.40348995 </v>
   <v>       0.00000000      -0.03101542      -0.41378914 </v>
   <v>       0.00000000       0.01296891      -0.49064067 </v>
   <v>       0.00000000       0.00761087       0.34572195 </v>
   <v>       0.00000000      -0.07979900       0.34013172 </v>
   <v>      -0.03149257      -0.00272796       0.35795911 </v>
   <v>       0.03149257      -0.00272796       0.35795911 </v>
   <v>       0.06825080       0.13430788      -0.03538773 </v>
   <v>      -0.06825080       0.13430788      -0.03538773 </v>
   <v>      -0.00000000      -0.15762503      -0.28350082 </v>
   <v>       0.00000000      -0.12486789      -0.17475413 </v>
   <v>       0.47133353       0.09788090       0.41636946 </v>
   <v>      -0.47133353       0.09788090       0.41636946 </v>
   <v>       0.00000000      -0.40626298       0.05034092 </v>
   <v>       0.00000000      -0.08226311       0.32907046 </v>
   <v>      -0.00000000       0.20802665       1.39075247 </v>
   <v>       0.00000000       0.17119376      -1.76423453 </v>
  </varray>
  <varray name="stress" >
   <v>      -9.15290183       0.00000000       0.00000000 </v>
   <v>       0.00000000     -10.87281788       1.69785321 </v>
   <v>       0.00000000       1.69785150      10.76337878 </v>
  </varray>
  <energy>
   <i name="e_fr_energy">   -109.16924820 </i>
   <i name="e_wo_entrp">   -109.16589290 </i>
   <i name="e_0_energy">   -109.16812977 </i>
  </energy>
  <time name="totalsc">   97.49   97.85</time>
 </calculation>
 <calculation>
  <scstep>
   <time name="dav">    4.67    4.72</time>
   <time name="total">    5.12    5.20</time>
   <energy>
    <i name="alphaZ">    271.64501344 </i>
    <i name="ewald"> 148836.43420038 </i>
    <i name="hartreedc">-161062.45356730 </i>
    <i name="XCdc">     91.73080670 </i>
    <i name="pawpsdc">  15323.30608000 </i>
    <i name="pawaedc"> -14919.35058669 </i>
    <i name="eentropy">     -0.00377037 </i>
    <i name="bandstr">   -895.66014253 </i>
    <i name="atom">  12245.18164884 </i>
    <i name="e_fr_energy">   -109.17031751 </i>
    <i name="e_wo_entrp">   -109.16654714 </i>
    <i name="e_0_energy">   -109.16906072 </i>
   </energy>
  </scstep>
  <scstep>
   <time name="dav">    4.96    5.01</time>
   <time name="total">    5.41    5.44</time>
   <energy>
    <i name="e_fr_energy">   -109.20626641 </i>
    <i name="e_wo_entrp">   -109.20485906 </i>
    <i name="e_0_energy">   -109.20579729 </i>
   </energy>
  </scstep>
  <scstep>
   <time name="dav">    4.94    4.99</time>
   <time name="total">    5.39    5.45</time>
   <energy>
    <i name="e_fr_energy">   -109.19049584 </i>
    <i name="e_wo_entrp">   -109.18785204 </i>
    <i name="e_0_energy">   -109.18961457 </i>
   </energy>
  </scstep>
  <scstep>
   <time name="dav">    5.14    5.20</time>
   <time name="total">    5.58    5.65</time>
   <energy>
    <i name="e_fr_energy">   -109.18256198 </i>
    <i name="e_wo_entrp">   -109.17893317 </i>
    <i name="e_0_energy">   -109.18135238 </i>
   </energy>
  </scstep>
  <scstep>
   <time name="dav">    4.94    4.98</time>
   <time name="total">    5.40    5.42</time>
   <energy>
    <i name="e_fr_energy">   -109.18185304 </i>
    <i name="e_wo_entrp">   -109.17814098 </i>
    <i name="e_0_energy">   -109.18061569 </i>
   </energy>
  </scstep>
  <scstep>
   <time name="dav">    5.04    5.10</time>
   <time name="total">    5.51    5.54</time>
   <energy>
    <i name="e_fr_energy">   -109.18194605 </i>
    <i name="e_wo_entrp">   -109.17858118 </i>
    <i name="e_0_energy">   -109.18082443 </i>
   </energy>
  </scstep>
  <scstep>
   <time name="dav">    5.01    5.06</time>
   <time name="total">    5.45    5.48</time>
   <energy>
    <i name="e_fr_energy">   -109.18134929 </i>
    <i name="e_wo_entrp">   -109.17749217 </i>
    <i name="e_0_energy">   -109.18006358 </i>
   </energy>
  </scstep>
  <scstep>
   <time name="dav">    5.07    5.12</time>
   <time name="total">    5.51    5.53</time>
   <energy>
    <i name="e_fr_energy">   -109.18117664 </i>
    <i name="e_wo_entrp">   -109.17749080 </i>
    <i name="e_0_energy">   -109.17994803 </i>
   </energy>
  </scstep>
  <scstep>
   <time name="dav">    4.99    5.00</time>
   <time name="total">    5.42    5.40</time>
   <energy>
    <i name="e_fr_energy">   -109.18118242 </i>
    <i name="e_wo_entrp">   -109.17750679 </i>
    <i name="e_0_energy">   -109.17995721 </i>
   </energy>
  </scstep>
  <scstep>
   <time name="dav">    4.82    5.09</time>
   <time name="total">    4.88    5.14</time>
   <energy>
    <i name="alphaZ">    271.64501344 </i>
    <i name="ewald"> 148836.43420038 </i>
    <i name="hartreedc">-161060.66784579 </i>
    <i name="XCdc">     91.72406003 </i>
    <i name="pawpsdc">  15318.38908781 </i>
    <i name="pawaedc"> -14914.42228657 </i>
    <i name="eentropy">     -0.00366776 </i>
    <i name="bandstr">   -897.46139100 </i>
    <i name="atom">  12245.18164884 </i>
    <i name="e_fr_energy">   -109.18118061 </i>
    <i name="e_wo_entrp">   -109.17751285 </i>
    <i name="e_0_energy">   -109.17995803 </i>
   </energy>
  </scstep>
  <structure>
   <crystal>
    <varray name="basis" >
     <v>       5.54371716       0.00000000       0.00000000 </v>
     <v>       2.77185858       4.80099990       0.00000000 </v>
     <v>       0.00000000       0.00000000      36.78963917 </v>
    </varray>
    <i name="volume">    979.17042988 </i>
    <varray name="rec_basis" >
     <v>       0.18038438      -0.10414497       0.00000000 </v>
     <v>       0.00000000       0.20828994       0.00000000 </v>
     <v>       0.00000000       0.00000000       0.02718157 </v>
    </varray>
   </crystal>
   <varray name="positions" >
    <v>       0.00000000       0.00000000       0.40772349 </v>
    <v>       0.50000000       0.00000000       0.40772349 </v>
    <v>       0.00000000       0.50000000       0.40772349 </v>
    <v>       0.50000000       0.50000000       0.40772349 </v>
    <v>       0.16666667       0.16666667       0.46924116 </v>
    <v>       0.66666667       0.16666667       0.46924116 </v>
    <v>       0.16666667       0.66666667       0.46924116 </v>
    <v>       0.66666667       0.66666667       0.46924116 </v>
    <v>       0.83548195       0.33079071       0.53103100 </v>
    <v>       0.33372734       0.33079071       0.53103100 </v>
    <v>       0.83626511       0.82746978       0.53294998 </v>
    <v>       0.33232875       0.83534250       0.53100299 </v>
    <v>      -0.00666909      -0.00221995       0.59568259 </v>
    <v>       0.50888904      -0.00221995       0.59568259 </v>
    <v>       0.00032251       0.49935497       0.60026722 </v>
    <v>       0.49920431       0.50159138       0.59204015 </v>
    <v>       0.22037649       0.05924702       0.66576303 </v>
    <v>       0.18954347       0.12091306       0.63473537 </v>
   </varray>
  </structure>
  <varray name="forces" >
   <v>       0.02314885       0.01010628      -0.39784297 </v>
   <v>      -0.02314885       0.01010628      -0.39784297 </v>
   <v>      -0.00000000      -0.02867943      -0.40937789 </v>
   <v>       0.00000000       0.01477446      -0.49576155 </v>
   <v>      -0.00000000       0.00230334       0.23801530 </v>
   <v>      -0.00000000      -0.10469567       0.23890628 </v>
   <v>      -0.04328859       0.01187594       0.25301570 </v>
   <v>       0.04328859       0.01187594       0.25301570 </v>
   <v>       0.07720408       0.06843469       0.21016515 </v>
   <v>      -0.07720408       0.06843469       0.21016515 </v>
   <v>      -0.00000000      -0.07482340      -0.10044247 </v>
   <v>      -0.00000000      -0.07186731       0.05774358 </v>
   <v>       0.30678588       0.01582892       0.21349040 </v>
   <v>      -0.30678588       0.01582892       0.21349040 </v>
   <v>      -0.00000000      -0.27921564      -0.02380203 </v>
   <v>      -0.00000000      -0.06090835       0.18588736 </v>
   <v>      -0.00000000       0.30285878       1.10210695 </v>
   <v>       0.00000000       0.08776158      -1.35093208 </v>
  </varray>
  <varray name="stress" >
   <v>      -8.98368247       0.00000000       0.00000000 </v>
   <v>       0.00000000     -10.86913401       1.94287269 </v>
   <v>       0.00000000       1.94287094      10.12897915 </v>
  </varray>
  <energy>
   <i name="e_fr_energy">   -109.18118061 </i>
   <i name="e_wo_entrp">   -109.17751285 </i>
   <i name="e_0_energy">   -109.17995803 </i>
  </energy>
  <time name="totalsc">   69.83   70.39</time>
 </calculation>
 <calculation>
  <scstep>
   <time name="dav">    4.64    4.83</time>
   <time name="total">    5.08    5.25</time>
   <energy>
    <i name="alphaZ">    271.64501344 </i>
    <i name="ewald"> 148802.99287586 </i>
    <i name="hartreedc">-161029.70207819 </i>
    <i name="XCdc">     91.63324284 </i>
    <i name="pawpsdc">  15318.64651659 </i>
    <i name="pawaedc"> -14914.68014911 </i>
    <i name="eentropy">     -0.00397892 </i>
    <i name="bandstr">   -894.89055324 </i>
    <i name="atom">  12245.18164884 </i>
    <i name="e_fr_energy">   -109.17746187 </i>
    <i name="e_wo_entrp">   -109.17348295 </i>
    <i name="e_0_energy">   -109.17613556 </i>
   </energy>
  </scstep>
  <scstep>
   <time name="dav">    4.90    4.91</time>
   <time name="total">    5.36    5.36</time>
   <energy>
    <i name="e_fr_energy">   -109.20500028 </i>
    <i name="e_wo_entrp">   -109.20130066 </i>
    <i name="e_0_energy">   -109.20376707 </i>
   </energy>
  </scstep>
  <scstep>
   <time name="dav">    5.23    5.25</time>
   <time name="total">    5.66    5.69</time>
   <energy>
    <i name="e_fr_energy">   -109.19502727 </i>
    <i name="e_wo_entrp">   -109.19176285 </i>
    <i name="e_0_energy">   -109.19393913 </i>
   </energy>
  </scstep>
  <scstep>
   <time name="dav">    6.15    6.33</time>
   <time name="total">    6.53    6.69</time>
   <energy>
    <i name="e_fr_energy">   -109.19677795 </i>
    <i name="e_wo_entrp">   -109.19267425 </i>
    <i name="e_0_energy">   -109.19541005 </i>
   </energy>
  </scstep>
  <scstep>
   <time name="dav">    4.75    4.75</time>
   <time name="total">    5.12    5.09</time>
   <energy>
    <i name="e_fr_energy">   -109.19111668 </i>
    <i name="e_wo_entrp">   -109.18774796 </i>
    <i name="e_0_energy">   -109.18999377 </i>
   </energy>
  </scstep>
  <scstep>
   <time name="dav">    5.08    5.08</time>
   <time name="total">    5.44    5.42</time>
   <energy>
    <i name="e_fr_energy">   -109.18974220 </i>
    <i name="e_wo_entrp">   -109.18605504 </i>
    <i name="e_0_energy">   -109.18851315 </i>
   </energy>
  </scstep>
  <scstep>
   <time name="dav">    4.66    4.66</time>
   <time name="total">    5.03    5.00</time>
   <energy>
    <i name="e_fr_energy">   -109.18944718 </i>
    <i name="e_wo_entrp">   -109.18580617 </i>
    <i name="e_0_energy">   -109.18823351 </i>
   </energy>
  </scstep>
  <scstep>
   <time name="dav">    4.79    4.79</time>
   <time name="total">    5.16    5.13</time>
   <energy>
    <i name="e_fr_energy">   -109.18948994 </i>
    <i name="e_wo_entrp">   -109.18565431 </i>
    <i name="e_0_energy">   -109.18821140 </i>
   </energy>
  </scstep>
  <scstep>
   <time name="dav">    4.73    4.73</time>
   <time name="total">    5.11    5.08</time>
   <energy>
    <i name="e_fr_energy">   -109.18949318 </i>
    <i name="e_wo_entrp">   -109.18573488 </i>
    <i name="e_0_energy">   -109.18824041 </i>
   </energy>
  </scstep>
  <scstep>
   <time name="dav">    4.71    4.71</time>
   <time name="total">    5.08    5.06</time>
   <energy>
    <i name="e_fr_energy">   -109.18950654 </i>
    <i name="e_wo_entrp">   -109.18572435 </i>
    <i name="e_0_energy">   -109.18824581 </i>
   </energy>
  </scstep>
  <scstep>
   <time name="dav">    3.64    3.64</time>
   <time name="total">    4.01    3.98</time>
   <energy>
    <i name="e_fr_energy">   -109.18953842 </i>
    <i name="e_wo_entrp">   -109.18576755 </i>
    <i name="e_0_energy">   -109.18828146 </i>
   </energy>
  </scstep>
  <scstep>
   <time name="dav">    3.13    3.13</time>
   <time name="total">    3.50    3.48</time>
   <energy>
    <i name="e_fr_energy">   -109.18957633 </i>
    <i name="e_wo_entrp">   -109.18580551 </i>
    <i name="e_0_energy">   -109.18831939 </i>
   </energy>
  </scstep>
  <scstep>
   <time name="dav">    3.08    3.08</time>
   <time name="total">    3.45    3.42</time>
   <energy>
    <i name="e_fr_energy">   -109.18959926 </i>
    <i name="e_wo_entrp">   -109.18583694 </i>
    <i name="e_0_energy">   -109.18834516 </i>
   </energy>
  </scstep>
  <scstep>
   <time name="dav">    3.13    3.13</time>
   <time name="total">    3.50    3.48</time>
   <energy>
    <i name="e_fr_energy">   -109.18962591 </i>
    <i name="e_wo_entrp">   -109.18585729 </i>
    <i name="e_0_energy">   -109.18836970 </i>
   </energy>
  </scstep>
  <scstep>
   <time name="dav">    3.05    3.04</time>
   <time name="total">    3.43    3.40</time>
   <energy>
    <i name="e_fr_energy">   -109.18964214 </i>
    <i name="e_wo_entrp">   -109.18588879 </i>
    <i name="e_0_energy">   -109.18839102 </i>
   </energy>
  </scstep>
  <scstep>
   <time name="dav">    3.12    3.12</time>
   <time name="total">    3.49    3.47</time>
   <energy>
    <i name="e_fr_energy">   -109.18966232 </i>
    <i name="e_wo_entrp">   -109.18590460 </i>
    <i name="e_0_energy">   -109.18840975 </i>
   </energy>
  </scstep>
  <scstep>
   <time name="dav">    3.18    3.18</time>
   <time name="total">    3.55    3.53</time>
   <energy>
    <i name="e_fr_energy">   -109.18968452 </i>
    <i name="e_wo_entrp">   -109.18592291 </i>
    <i name="e_0_energy">   -109.18843065 </i>
   </energy>
  </scstep>
  <scstep>
   <time name="dav">    3.04    3.04</time>
   <time name="total">    3.42    3.39</time>
   <energy>
    <i name="e_fr_energy">   -109.18969507 </i>
    <i name="e_wo_entrp">   -109.18593384 </i>
    <i name="e_0_energy">   -109.18844132 </i>
   </energy>
  </scstep>
  <scstep>
   <time name="dav">    3.10    3.10</time>
   <time name="total">    3.16    3.14</time>
   <energy>
    <i name="alphaZ">    271.64501344 </i>
    <i name="ewald"> 148802.99287586 </i>
    <i name="hartreedc">-161019.55328248 </i>
    <i name="XCdc">     91.55935821 </i>
    <i name="pawpsdc">  15282.34834094 </i>
    <i name="pawaedc"> -14878.38535174 </i>
    <i name="eentropy">     -0.00375789 </i>
    <i name="bandstr">   -904.97454930 </i>
    <i name="atom">  12245.18164884 </i>
    <i name="e_fr_energy">   -109.18970411 </i>
    <i name="e_wo_entrp">   -109.18594621 </i>
    <i name="e_0_energy">   -109.18845148 </i>
   </energy>
  </scstep>
  <structure>
   <crystal>
    <varray name="basis" >
     <v>       5.54371716       0.00000000       0.00000000 </v>
     <v>       2.77185858       4.80099990       0.00000000 </v>
     <v>       0.00000000       0.00000000      36.78963917 </v>
    </varray>
    <i name="volume">    979.17042988 </i>
    <varray name="rec_basis" >
     <v>       0.18038438      -0.10414497       0.00000000 </v>
     <v>       0.00000000       0.20828994       0.00000000 </v>
     <v>       0.00000000       0.00000000       0.02718157 </v>
    </varray>
   </crystal>
   <varray name="positions" >
    <v>       0.00000000       0.00000000       0.40772349 </v>
    <v>       0.50000000       0.00000000       0.40772349 </v>
    <v>       0.00000000       0.50000000       0.40772349 </v>
    <v>       0.50000000       0.50000000       0.40772349 </v>
    <v>       0.16666667       0.16666667       0.46924116 </v>
    <v>       0.66666667       0.16666667       0.46924116 </v>
    <v>       0.16666667       0.66666667       0.46924116 </v>
    <v>       0.66666667       0.66666667       0.46924116 </v>
    <v>       0.83602384       0.33062838       0.53143477 </v>
    <v>       0.33334777       0.33062838       0.53143477 </v>
    <v>       0.83614623       0.82770753       0.53305309 </v>
    <v>       0.33229589       0.83540822       0.53128238 </v>
    <v>      -0.00613011      -0.00285911       0.59563061 </v>
    <v>       0.50898922      -0.00285911       0.59563061 </v>
    <v>       0.00052206       0.49895588       0.60017567 </v>
    <v>       0.49927108       0.50145783       0.59204476 </v>
    <v>       0.21915268       0.06169464       0.66625539 </v>
    <v>       0.18965689       0.12068622       0.63424083 </v>
   </varray>
  </structure>
  <varray name="forces" >
   <v>       0.02456411       0.01115438      -0.40284443 </v>
   <v>      -0.02456411       0.01115438      -0.40284443 </v>
   <v>      -0.00000000      -0.03014181      -0.41196182 </v>
   <v>      -0.00000000       0.01266743      -0.48781942 </v>
   <v>      -0.00000000       0.00692237       0.31551361 </v>
   <v>      -0.00000000      -0.08230202       0.31976952 </v>
   <v>      -0.03200114      -0.00124881       0.31851267 </v>
   <v>       0.03200114      -0.00124881       0.31851267 </v>
   <v>       0.04198504       0.08315193       0.03256756 </v>
   <v>      -0.04198504       0.08315193       0.03256756 </v>
   <v>      -0.00000000      -0.08237029      -0.18292143 </v>
   <v>      -0.00000000      -0.09658196      -0.09392642 </v>
   <v>       0.27233525       0.01040730       0.30842105 </v>
   <v>      -0.27233525       0.01040730       0.30842105 </v>
   <v>      -0.00000000      -0.26743606       0.01838362 </v>
   <v>      -0.00000000      -0.07941154       0.28118200 </v>
   <v>       0.00000000       0.84413308      -1.37916186 </v>
   <v>      -0.00000000      -0.43240880       1.10762848 </v>
  </varray>
  <varray name="stress" >
   <v>      -9.08478341       0.00000000       0.00000000 </v>
   <v>       0.00000000     -11.18975657       3.03789973 </v>
   <v>       0.00000000       3.03789800       5.51108057 </v>
  </varray>
  <energy>
   <i name="e_fr_energy">   -109.18970411 </i>
   <i name="e_wo_entrp">   -109.18594621 </i>
   <i name="e_0_energy">   -109.18845148 </i>
  </energy>
  <time name="totalsc">   98.66   98.16</time>
 </calculation>
 <calculation>
  <scstep>
   <time name="dav">    4.38    4.38</time>
   <time name="total">    4.75    4.73</time>
   <energy>
    <i name="alphaZ">    271.64501344 </i>
    <i name="ewald"> 148816.73602439 </i>
    <i name="hartreedc">-161032.24921856 </i>
    <i name="XCdc">     91.59541155 </i>
    <i name="pawpsdc">  15282.35385029 </i>
    <i name="pawaedc"> -14878.39085296 </i>
    <i name="eentropy">     -0.00364880 </i>
    <i name="bandstr">   -906.06304807 </i>
    <i name="atom">  12245.18164884 </i>
    <i name="e_fr_energy">   -109.19481987 </i>
    <i name="e_wo_entrp">   -109.19117107 </i>
    <i name="e_0_energy">   -109.19360360 </i>
   </energy>
  </scstep>
  <scstep>
   <time name="dav">    4.58    4.58</time>
   <time name="total">    4.95    4.92</time>
   <energy>
    <i name="e_fr_energy">   -109.19788738 </i>
    <i name="e_wo_entrp">   -109.19418475 </i>
    <i name="e_0_energy">   -109.19665317 </i>
   </energy>
  </scstep>
  <scstep>
   <time name="dav">    5.18    5.18</time>
   <time name="total">    5.55    5.52</time>
   <energy>
    <i name="e_fr_energy">   -109.20122711 </i>
    <i name="e_wo_entrp">   -109.19737943 </i>
    <i name="e_0_energy">   -109.19994455 </i>
   </energy>
  </scstep>
  <scstep>
   <time name="dav">    5.52    5.52</time>
   <time name="total">    5.89    5.86</time>
   <energy>
    <i name="e_fr_energy">   -109.19955437 </i>
    <i name="e_wo_entrp">   -109.19624631 </i>
    <i name="e_0_energy">   -109.19845168 </i>
   </energy>
  </scstep>
  <scstep>
   <time name="dav">    4.81    4.81</time>
   <time name="total">    5.17    5.14</time>
   <energy>
    <i name="e_fr_energy">   -109.19730160 </i>
    <i name="e_wo_entrp">   -109.19366496 </i>
    <i name="e_0_energy">   -109.19608939 </i>
   </energy>
  </scstep>
  <scstep>
   <time name="dav">    5.05    5.05</time>
   <time name="total">    5.41    5.39</time>
   <energy>
    <i name="e_fr_energy">   -109.19713911 </i>
    <i name="e_wo_entrp">   -109.19337356 </i>
    <i name="e_0_energy">   -109.19588392 </i>
   </energy>
  </scstep>
  <scstep>
   <time name="dav">    4.69    4.69</time>
   <time name="total">    5.06    5.03</time>
   <energy>
    <i name="e_fr_energy">   -109.19710050 </i>
    <i name="e_wo_entrp">   -109.19332229 </i>
    <i name="e_0_energy">   -109.19584109 </i>
   </energy>
  </scstep>
  <scstep>
   <time name="dav">    3.95    3.95</time>
   <time name="total">    4.00    3.98</time>
   <energy>
    <i name="alphaZ">    271.64501344 </i>
    <i name="ewald"> 148816.73602439 </i>
    <i name="hartreedc">-161035.65048124 </i>
    <i name="XCdc">     91.62476460 </i>
    <i name="pawpsdc">  15296.69100391 </i>
    <i name="pawaedc"> -14892.72398575 </i>
    <i name="eentropy">     -0.00370857 </i>
    <i name="bandstr">   -902.69737671 </i>
    <i name="atom">  12245.18164884 </i>
    <i name="e_fr_energy">   -109.19709709 </i>
    <i name="e_wo_entrp">   -109.19338852 </i>
    <i name="e_0_energy">   -109.19586090 </i>
   </energy>
  </scstep>
  <structure>
   <crystal>
    <varray name="basis" >
     <v>       5.54371716       0.00000000       0.00000000 </v>
     <v>       2.77185858       4.80099990       0.00000000 </v>
     <v>       0.00000000       0.00000000      36.78963917 </v>
    </varray>
    <i name="volume">    979.17042988 </i>
    <varray name="rec_basis" >
     <v>       0.18038438      -0.10414497       0.00000000 </v>
     <v>       0.00000000       0.20828994       0.00000000 </v>
     <v>       0.00000000       0.00000000       0.02718157 </v>
    </varray>
   </crystal>
   <varray name="positions" >
    <v>       0.00000000       0.00000000       0.40772349 </v>
    <v>       0.50000000       0.00000000       0.40772349 </v>
    <v>       0.00000000       0.50000000       0.40772349 </v>
    <v>       0.50000000       0.50000000       0.40772349 </v>
    <v>       0.16666667       0.16666667       0.46924116 </v>
    <v>       0.66666667       0.16666667       0.46924116 </v>
    <v>       0.16666667       0.66666667       0.46924116 </v>
    <v>       0.66666667       0.66666667       0.46924116 </v>
    <v>       0.83580030       0.33069535       0.53126821 </v>
    <v>       0.33350435       0.33069535       0.53126821 </v>
    <v>       0.83619527       0.82760946       0.53301055 </v>
    <v>       0.33230945       0.83538111       0.53116713 </v>
    <v>      -0.00635245      -0.00259545       0.59565205 </v>
    <v>       0.50894790      -0.00259545       0.59565205 </v>
    <v>       0.00043974       0.49912051       0.60021343 </v>
    <v>       0.49924354       0.50151292       0.59204286 </v>
    <v>       0.21965752       0.06068496       0.66605228 </v>
    <v>       0.18961010       0.12077980       0.63444484 </v>
   </varray>
  </structure>
  <varray name="forces" >
   <v>       0.02401624       0.01055414      -0.40124608 </v>
   <v>      -0.02401624       0.01055414      -0.40124608 </v>
   <v>       0.00000000      -0.02968596      -0.41103390 </v>
   <v>       0.00000000       0.01346953      -0.49079606 </v>
   <v>       0.00000000       0.00491608       0.28477036 </v>
   <v>       0.00000000      -0.09122747       0.28766640 </v>
   <v>      -0.03642846       0.00378153       0.29243858 </v>
   <v>       0.03642846       0.00378153       0.29243858 </v>
   <v>       0.05637491       0.07715843       0.10499157 </v>
   <v>      -0.05637491       0.07715843       0.10499157 </v>
   <v>       0.00000000      -0.07956705      -0.14974055 </v>
   <v>       0.00000000      -0.08675824      -0.03210329 </v>
   <v>       0.28699307       0.01268388       0.26884533 </v>
   <v>      -0.28699307       0.01268388       0.26884533 </v>
   <v>       0.00000000      -0.27243395      -0.00064679 </v>
   <v>       0.00000000      -0.07196260       0.24162681 </v>
   <v>       0.00000000       0.64774932      -0.41343514 </v>
   <v>       0.00000000      -0.24285562       0.15363336 </v>
  </varray>
  <varray name="stress" >
   <v>      -9.13626570       0.00000000       0.00000000 </v>
   <v>       0.00000000     -11.15531150       2.61597915 </v>
   <v>       0.00000000       2.61597744       7.30584939 </v>
  </varray>
  <energy>
   <i name="e_fr_energy">   -109.19709709 </i>
   <i name="e_wo_entrp">   -109.19338852 </i>
   <i name="e_0_energy">   -109.19586090 </i>
  </energy>
  <time name="totalsc">   54.39   53.72</time>
 </calculation>
 <calculation>
  <scstep>
   <time name="dav">    4.38    4.38</time>
   <time name="total">    4.74    4.72</time>
   <energy>
    <i name="alphaZ">    271.64501344 </i>
    <i name="ewald"> 148790.19004426 </i>
    <i name="hartreedc">-161008.91914250 </i>
    <i name="XCdc">     91.63065795 </i>
    <i name="pawpsdc">  15296.81460656 </i>
    <i name="pawaedc"> -14892.84840368 </i>
    <i name="eentropy">     -0.00409695 </i>
    <i name="bandstr">   -902.89906462 </i>
    <i name="atom">  12245.18164884 </i>
    <i name="e_fr_energy">   -109.20873670 </i>
    <i name="e_wo_entrp">   -109.20463974 </i>
    <i name="e_0_energy">   -109.20737105 </i>
   </energy>
  </scstep>
  <scstep>
   <time name="dav">    4.47    4.47</time>
   <time name="total">    4.84    4.81</time>
   <energy>
    <i name="e_fr_energy">   -109.21218410 </i>
    <i name="e_wo_entrp">   -109.20819458 </i>
    <i name="e_0_energy">   -109.21085426 </i>
   </energy>
  </scstep>
  <scstep>
   <time name="dav">    4.90    4.90</time>
   <time name="total">    5.26    5.23</time>
   <energy>
    <i name="e_fr_energy">   -109.21427363 </i>
    <i name="e_wo_entrp">   -109.21065057 </i>
    <i name="e_0_energy">   -109.21306594 </i>
   </energy>
  </scstep>
  <scstep>
   <time name="dav">    4.92    4.92</time>
   <time name="total">    5.28    5.25</time>
   <energy>
    <i name="e_fr_energy">   -109.21267383 </i>
    <i name="e_wo_entrp">   -109.20846775 </i>
    <i name="e_0_energy">   -109.21127180 </i>
   </energy>
  </scstep>
  <scstep>
   <time name="dav">    4.74    4.74</time>
   <time name="total">    5.10    5.08</time>
   <energy>
    <i name="e_fr_energy">   -109.21211405 </i>
    <i name="e_wo_entrp">   -109.20825207 </i>
    <i name="e_0_energy">   -109.21082673 </i>
   </energy>
  </scstep>
  <scstep>
   <time name="dav">    4.86    4.86</time>
   <time name="total">    5.23    5.20</time>
   <energy>
    <i name="e_fr_energy">   -109.21197863 </i>
    <i name="e_wo_entrp">   -109.20801069 </i>
    <i name="e_0_energy">   -109.21065598 </i>
   </energy>
  </scstep>
  <scstep>
   <time name="dav">    4.61    4.61</time>
   <time name="total">    4.98    4.95</time>
   <energy>
    <i name="e_fr_energy">   -109.21192703 </i>
    <i name="e_wo_entrp">   -109.20794467 </i>
    <i name="e_0_energy">   -109.21059958 </i>
   </energy>
  </scstep>
  <scstep>
   <time name="dav">    3.74    3.74</time>
   <time name="total">    4.11    4.08</time>
   <energy>
    <i name="e_fr_energy">   -109.21188586 </i>
    <i name="e_wo_entrp">   -109.20784167 </i>
    <i name="e_0_energy">   -109.21053779 </i>
   </energy>
  </scstep>
  <scstep>
   <time name="dav">    3.21    3.21</time>
   <time name="total">    3.26    3.24</time>
   <energy>
    <i name="alphaZ">    271.64501344 </i>
    <i name="ewald"> 148790.19004426 </i>
    <i name="hartreedc">-161009.21203131 </i>
    <i name="XCdc">     91.63852956 </i>
    <i name="pawpsdc">  15299.57174952 </i>
    <i name="pawaedc"> -14895.58927405 </i>
    <i name="eentropy">     -0.00403208 </i>
    <i name="bandstr">   -902.63353563 </i>
    <i name="atom">  12245.18164884 </i>
    <i name="e_fr_energy">   -109.21188745 </i>
    <i name="e_wo_entrp">   -109.20785537 </i>
    <i name="e_0_energy">   -109.21054342 </i>
   </energy>
  </scstep>
  <structure>
   <crystal>
    <varray name="basis" >
     <v>       5.54371716       0.00000000       0.00000000 </v>
     <v>       2.77185858       4.80099990       0.00000000 </v>
     <v>       0.00000000       0.00000000      36.78963917 </v>
    </varray>
    <i name="volume">    979.17042988 </i>
    <varray name="rec_basis" >
     <v>       0.18038438      -0.10414497       0.00000000 </v>
     <v>       0.00000000       0.20828994       0.00000000 </v>
     <v>       0.00000000       0.00000000       0.02718157 </v>
    </varray>
   </crystal>
   <varray name="positions" >
    <v>       0.00000000       0.00000000       0.40772349 </v>
    <v>       0.50000000       0.00000000       0.40772349 </v>
    <v>       0.00000000       0.50000000       0.40772349 </v>
    <v>       0.50000000       0.50000000       0.40772349 </v>
    <v>       0.16666667       0.16666667       0.46924116 </v>
    <v>       0.66666667       0.16666667       0.46924116 </v>
    <v>       0.16666667       0.66666667       0.46924116 </v>
    <v>       0.66666667       0.66666667       0.46924116 </v>
    <v>       0.83598952       0.33086741       0.53142650 </v>
    <v>       0.33314307       0.33086741       0.53142650 </v>
    <v>       0.83627360       0.82745279       0.53298528 </v>
    <v>       0.33242343       0.83515314       0.53123768 </v>
    <v>      -0.00550272      -0.00274801       0.59573674 </v>
    <v>       0.50825074      -0.00274801       0.59573674 </v>
    <v>       0.00088705       0.49822589       0.60018616 </v>
    <v>       0.49936585       0.50126831       0.59213413 </v>
    <v>       0.21837270       0.06325460       0.66604384 </v>
    <v>       0.18998981       0.12002037       0.63435597 </v>
   </varray>
  </structure>
  <varray name="forces" >
   <v>       0.02440986       0.01148899      -0.40149828 </v>
   <v>      -0.02440986       0.01148899      -0.40149828 </v>
   <v>       0.00000000      -0.02977482      -0.40900762 </v>
   <v>       0.00000000       0.01175870      -0.48539456 </v>
   <v>      -0.00000000       0.00794726       0.31010202 </v>
   <v>       0.00000000      -0.08032820       0.31899825 </v>
   <v>      -0.03077942      -0.00256811       0.30286409 </v>
   <v>       0.03077942      -0.00256811       0.30286409 </v>
   <v>       0.02607191       0.05486159       0.04943005 </v>
   <v>      -0.02607191       0.05486159       0.04943005 </v>
   <v>       0.00000000      -0.03929164      -0.12241556 </v>
   <v>       0.00000000      -0.07945444      -0.06186898 </v>
   <v>       0.16635718      -0.02755147       0.23394620 </v>
   <v>      -0.16635718      -0.02755147       0.23394620 </v>
   <v>       0.00000000      -0.18030727      -0.01566597 </v>
   <v>       0.00000000      -0.08607467       0.25493100 </v>
   <v>       0.00000000       0.59347893      -0.31944313 </v>
   <v>       0.00000000      -0.19041585       0.16028046 </v>
  </varray>
  <varray name="stress" >
   <v>      -9.19628214       0.00000000       0.00000000 </v>
   <v>       0.00000000     -11.10825015       2.53141034 </v>
   <v>       0.00000000       2.53140858       7.49646593 </v>
  </varray>
  <energy>
   <i name="e_fr_energy">   -109.21188745 </i>
   <i name="e_wo_entrp">   -109.20785537 </i>
   <i name="e_0_energy">   -109.21054342 </i>
  </energy>
  <time name="totalsc">   56.34   55.65</time>
 </calculation>
 <calculation>
  <scstep>
   <time name="dav">    4.38    4.38</time>
   <time name="total">    4.74    4.72</time>
   <energy>
    <i name="alphaZ">    271.64501344 </i>
    <i name="ewald"> 148710.54244682 </i>
    <i name="hartreedc">-160929.06579220 </i>
    <i name="XCdc">     91.65535493 </i>
    <i name="pawpsdc">  15299.54395119 </i>
    <i name="pawaedc"> -14895.56160453 </i>
    <i name="eentropy">     -0.00493620 </i>
    <i name="bandstr">   -903.14383825 </i>
    <i name="atom">  12245.18164884 </i>
    <i name="e_fr_energy">   -109.20775595 </i>
    <i name="e_wo_entrp">   -109.20281975 </i>
    <i name="e_0_energy">   -109.20611055 </i>
   </energy>
  </scstep>
  <scstep>
   <time name="dav">    4.53    4.53</time>
   <time name="total">    4.89    4.87</time>
   <energy>
    <i name="e_fr_energy">   -109.24100624 </i>
    <i name="e_wo_entrp">   -109.23712526 </i>
    <i name="e_0_energy">   -109.23971258 </i>
   </energy>
  </scstep>
  <scstep>
   <time name="dav">    5.05    5.05</time>
   <time name="total">    5.42    5.39</time>
   <energy>
    <i name="e_fr_energy">   -109.29201123 </i>
    <i name="e_wo_entrp">   -109.28789084 </i>
    <i name="e_0_energy">   -109.29063776 </i>
   </energy>
  </scstep>
  <scstep>
   <time name="dav">    4.97    4.97</time>
   <time name="total">    5.33    5.31</time>
   <energy>
    <i name="e_fr_energy">   -109.23890831 </i>
    <i name="e_wo_entrp">   -109.23412534 </i>
    <i name="e_0_energy">   -109.23731399 </i>
   </energy>
  </scstep>
  <scstep>
   <time name="dav">    4.94    4.94</time>
   <time name="total">    5.30    5.28</time>
   <energy>
    <i name="e_fr_energy">   -109.23860613 </i>
    <i name="e_wo_entrp">   -109.23312325 </i>
    <i name="e_0_energy">   -109.23677850 </i>
   </energy>
  </scstep>
  <scstep>
   <time name="dav">    4.78    4.78</time>
   <time name="total">    5.15    5.12</time>
   <energy>
    <i name="e_fr_energy">   -109.23660684 </i>
    <i name="e_wo_entrp">   -109.23217076 </i>
    <i name="e_0_energy">   -109.23512815 </i>
   </energy>
  </scstep>
  <scstep>
   <time name="dav">    4.83    4.83</time>
   <time name="total">    5.19    5.17</time>
   <energy>
    <i name="e_fr_energy">   -109.23660269 </i>
    <i name="e_wo_entrp">   -109.23185742 </i>
    <i name="e_0_energy">   -109.23502093 </i>
   </energy>
  </scstep>
  <scstep>
   <time name="dav">    4.84    4.84</time>
   <time name="total">    5.21    5.18</time>
   <energy>
    <i name="e_fr_energy">   -109.23632297 </i>
    <i name="e_wo_entrp">   -109.23157795 </i>
    <i name="e_0_energy">   -109.23474130 </i>
   </energy>
  </scstep>
  <scstep>
   <time name="dav">    4.87    4.87</time>
   <time name="total">    5.24    5.21</time>
   <energy>
    <i name="e_fr_energy">   -109.23636123 </i>
    <i name="e_wo_entrp">   -109.23155096 </i>
    <i name="e_0_energy">   -109.23475781 </i>
   </energy>
  </scstep>
  <scstep>
   <time name="dav">    4.51    4.50</time>
   <time name="total">    4.88    4.86</time>
   <energy>
    <i name="e_fr_energy">   -109.23631733 </i>
    <i name="e_wo_entrp">   -109.23152594 </i>
    <i name="e_0_energy">   -109.23472020 </i>
   </energy>
  </scstep>
  <scstep>
   <time name="dav">    3.35    3.35</time>
   <time name="total">    3.72    3.69</time>
   <energy>
    <i name="e_fr_energy">   -109.23629617 </i>
    <i name="e_wo_entrp">   -109.23152958 </i>
    <i name="e_0_energy">   -109.23470730 </i>
   </energy>
  </scstep>
  <scstep>
   <time name="dav">    3.02    3.02</time>
   <time name="total">    3.07    3.05</time>
   <energy>
    <i name="alphaZ">    271.64501344 </i>
    <i name="ewald"> 148710.54244682 </i>
    <i name="hartreedc">-160928.34404673 </i>
    <i name="XCdc">     91.67434035 </i>
    <i name="pawpsdc">  15307.93247249 </i>
    <i name="pawaedc"> -14903.90967482 </i>
    <i name="eentropy">     -0.00477443 </i>
    <i name="bandstr">   -903.95371583 </i>
    <i name="atom">  12245.18164884 </i>
    <i name="e_fr_energy">   -109.23628988 </i>
    <i name="e_wo_entrp">   -109.23151544 </i>
    <i name="e_0_energy">   -109.23469840 </i>
   </energy>
  </scstep>
  <structure>
   <crystal>
    <varray name="basis" >
     <v>       5.54371716       0.00000000       0.00000000 </v>
     <v>       2.77185858       4.80099990       0.00000000 </v>
     <v>       0.00000000       0.00000000      36.78963917 </v>
    </varray>
    <i name="volume">    979.17042988 </i>
    <varray name="rec_basis" >
     <v>       0.18038438      -0.10414497       0.00000000 </v>
     <v>       0.00000000       0.20828994       0.00000000 </v>
     <v>       0.00000000       0.00000000       0.02718157 </v>
    </varray>
   </crystal>
   <varray name="positions" >
    <v>       0.00000000       0.00000000       0.40772349 </v>
    <v>       0.50000000       0.00000000       0.40772349 </v>
    <v>       0.00000000       0.50000000       0.40772349 </v>
    <v>       0.50000000       0.50000000       0.40772349 </v>
    <v>       0.16666667       0.16666667       0.46924116 </v>
    <v>       0.66666667       0.16666667       0.46924116 </v>
    <v>       0.16666667       0.66666667       0.46924116 </v>
    <v>       0.66666667       0.66666667       0.46924116 </v>
    <v>       0.83655717       0.33138361       0.53190137 </v>
    <v>       0.33205922       0.33138361       0.53190137 </v>
    <v>       0.83650859       0.82698281       0.53290947 </v>
    <v>       0.33276537       0.83446925       0.53144935 </v>
    <v>      -0.00295353      -0.00320572       0.59599080 </v>
    <v>       0.50615926      -0.00320572       0.59599080 </v>
    <v>       0.00222899       0.49554202       0.60010434 </v>
    <v>       0.49973278       0.50053445       0.59240793 </v>
    <v>       0.21451824       0.07096351       0.66601850 </v>
    <v>       0.19112895       0.11774210       0.63408938 </v>
   </varray>
  </structure>
  <varray name="forces" >
   <v>       0.02593752       0.01473609      -0.40947815 </v>
   <v>      -0.02593752       0.01473609      -0.40947815 </v>
   <v>       0.00000000      -0.03026494      -0.40939015 </v>
   <v>      -0.00000000       0.00663309      -0.47563441 </v>
   <v>      -0.00000000       0.01654964       0.39343129 </v>
   <v>      -0.00000000      -0.04887567       0.41664068 </v>
   <v>      -0.01334055      -0.02095107       0.34005149 </v>
   <v>       0.01334055      -0.02095107       0.34005149 </v>
   <v>      -0.06532600      -0.01120451      -0.10894143 </v>
   <v>       0.06532600      -0.01120451      -0.10894143 </v>
   <v>      -0.00000000       0.07908656      -0.04327186 </v>
   <v>      -0.00000000      -0.05895943      -0.14550305 </v>
   <v>      -0.20405275      -0.15440564       0.11569901 </v>
   <v>       0.20405275      -0.15440564       0.11569901 </v>
   <v>      -0.00000000       0.10144585      -0.06543497 </v>
   <v>       0.00000000      -0.12976069       0.28672343 </v>
   <v>       0.00000000       0.46271962      -0.13235677 </v>
   <v>      -0.00000000      -0.05492376       0.30013397 </v>
  </varray>
  <varray name="stress" >
   <v>      -9.26701032       0.00000000       0.00000000 </v>
   <v>       0.00000000     -10.93034495       2.33588058 </v>
   <v>       0.00000000       2.33587889       7.99595059 </v>
  </varray>
  <energy>
   <i name="e_fr_energy">   -109.23628988 </i>
   <i name="e_wo_entrp">   -109.23151544 </i>
   <i name="e_0_energy">   -109.23469840 </i>
  </energy>
  <time name="totalsc">   71.70   70.93</time>
 </calculation>
 <calculation>
  <scstep>
   <time name="dav">    4.38    4.38</time>
   <time name="total">    4.74    4.72</time>
   <energy>
    <i name="alphaZ">    271.64501344 </i>
    <i name="ewald"> 148685.88069738 </i>
    <i name="hartreedc">-160903.52776833 </i>
    <i name="XCdc">     91.67969226 </i>
    <i name="pawpsdc">  15307.89948565 </i>
    <i name="pawaedc"> -14903.87652397 </i>
    <i name="eentropy">     -0.00498013 </i>
    <i name="bandstr">   -904.11231069 </i>
    <i name="atom">  12245.18164884 </i>
    <i name="e_fr_energy">   -109.23504554 </i>
    <i name="e_wo_entrp">   -109.23006541 </i>
    <i name="e_0_energy">   -109.23338550 </i>
   </energy>
  </scstep>
  <scstep>
   <time name="dav">    4.56    4.56</time>
   <time name="total">    4.93    4.91</time>
   <energy>
    <i name="e_fr_energy">   -109.23849524 </i>
    <i name="e_wo_entrp">   -109.23390265 </i>
    <i name="e_0_energy">   -109.23696437 </i>
   </energy>
  </scstep>
  <scstep>
   <time name="dav">    5.00    5.00</time>
   <time name="total">    5.36    5.34</time>
   <energy>
    <i name="e_fr_energy">   -109.24278239 </i>
    <i name="e_wo_entrp">   -109.23750286 </i>
    <i name="e_0_energy">   -109.24102254 </i>
   </energy>
  </scstep>
  <scstep>
   <time name="dav">    4.93    4.93</time>
   <time name="total">    5.29    5.27</time>
   <energy>
    <i name="e_fr_energy">   -109.23801179 </i>
    <i name="e_wo_entrp">   -109.23294419 </i>
    <i name="e_0_energy">   -109.23632259 </i>
   </energy>
  </scstep>
  <scstep>
   <time name="dav">    4.87    4.87</time>
   <time name="total">    5.23    5.21</time>
   <energy>
    <i name="e_fr_energy">   -109.23794395 </i>
    <i name="e_wo_entrp">   -109.23288166 </i>
    <i name="e_0_energy">   -109.23625652 </i>
   </energy>
  </scstep>
  <scstep>
   <time name="dav">    4.78    4.78</time>
   <time name="total">    5.15    5.12</time>
   <energy>
    <i name="e_fr_energy">   -109.23777066 </i>
    <i name="e_wo_entrp">   -109.23297938 </i>
    <i name="e_0_energy">   -109.23617357 </i>
   </energy>
  </scstep>
  <scstep>
   <time name="dav">    4.76    4.76</time>
   <time name="total">    5.13    5.10</time>
   <energy>
    <i name="e_fr_energy">   -109.23776105 </i>
    <i name="e_wo_entrp">   -109.23282106 </i>
    <i name="e_0_energy">   -109.23611439 </i>
   </energy>
  </scstep>
  <scstep>
   <time name="dav">    3.32    3.32</time>
   <time name="total">    3.68    3.66</time>
   <energy>
    <i name="e_fr_energy">   -109.23774431 </i>
    <i name="e_wo_entrp">   -109.23282883 </i>
    <i name="e_0_energy">   -109.23610582 </i>
   </energy>
  </scstep>
  <scstep>
   <time name="dav">    3.05    3.05</time>
   <time name="total">    3.10    3.08</time>
   <energy>
    <i name="alphaZ">    271.64501344 </i>
    <i name="ewald"> 148685.88069738 </i>
    <i name="hartreedc">-160903.14640128 </i>
    <i name="XCdc">     91.68458307 </i>
    <i name="pawpsdc">  15310.67036618 </i>
    <i name="pawaedc"> -14906.63773796 </i>
    <i name="eentropy">     -0.00494337 </i>
    <i name="bandstr">   -904.51097400 </i>
    <i name="atom">  12245.18164884 </i>
    <i name="e_fr_energy">   -109.23774769 </i>
    <i name="e_wo_entrp">   -109.23280432 </i>
    <i name="e_0_energy">   -109.23609990 </i>
   </energy>
  </scstep>
  <structure>
   <crystal>
    <varray name="basis" >
     <v>       5.54371716       0.00000000       0.00000000 </v>
     <v>       2.77185858       4.80099990       0.00000000 </v>
     <v>       0.00000000       0.00000000      36.78963917 </v>
    </varray>
    <i name="volume">    979.17042988 </i>
    <varray name="rec_basis" >
     <v>       0.18038438      -0.10414497       0.00000000 </v>
     <v>       0.00000000       0.20828994       0.00000000 </v>
     <v>       0.00000000       0.00000000       0.02718157 </v>
    </varray>
   </crystal>
   <varray name="positions" >
    <v>       0.00000000       0.00000000       0.40772349 </v>
    <v>       0.50000000       0.00000000       0.40772349 </v>
    <v>       0.00000000       0.50000000       0.40772349 </v>
    <v>       0.50000000       0.50000000       0.40772349 </v>
    <v>       0.16666667       0.16666667       0.46924116 </v>
    <v>       0.66666667       0.16666667       0.46924116 </v>
    <v>       0.16666667       0.66666667       0.46924116 </v>
    <v>       0.66666667       0.66666667       0.46924116 </v>
    <v>       0.83673291       0.33154342       0.53204839 </v>
    <v>       0.33172367       0.33154342       0.53204839 </v>
    <v>       0.83658134       0.82683731       0.53288600 </v>
    <v>       0.33287124       0.83425752       0.53151488 </v>
    <v>      -0.00216432      -0.00334743       0.59606945 </v>
    <v>       0.50551175      -0.00334743       0.59606945 </v>
    <v>       0.00264445       0.49471111       0.60007901 </v>
    <v>       0.49984637       0.50030725       0.59249270 </v>
    <v>       0.21332492       0.07335016       0.66601065 </v>
    <v>       0.19148162       0.11703676       0.63400685 </v>
   </varray>
  </structure>
  <varray name="forces" >
   <v>       0.02639891       0.01597370      -0.41194892 </v>
   <v>      -0.02639891       0.01597370      -0.41194892 </v>
   <v>       0.00000000      -0.03019036      -0.40839506 </v>
   <v>       0.00000000       0.00523734      -0.47240350 </v>
   <v>       0.00000000       0.01921915       0.41816468 </v>
   <v>       0.00000000      -0.03964696       0.44579393 </v>
   <v>      -0.00802990      -0.02617655       0.35076340 </v>
   <v>       0.00802990      -0.02617655       0.35076340 </v>
   <v>      -0.09371945      -0.03126339      -0.15735276 </v>
   <v>       0.09371945      -0.03126339      -0.15735276 </v>
   <v>      -0.00000000       0.11523072      -0.02046880 </v>
   <v>       0.00000000      -0.05276686      -0.17176696 </v>
   <v>      -0.32112536      -0.19539922       0.07701652 </v>
   <v>       0.32112536      -0.19539922       0.07701652 </v>
   <v>      -0.00000000       0.18943102      -0.07945521 </v>
   <v>       0.00000000      -0.14363707       0.29694187 </v>
   <v>       0.00000000       0.42809172      -0.10424195 </v>
   <v>       0.00000000      -0.01723776       0.37887452 </v>
  </varray>
  <varray name="stress" >
   <v>      -9.24341661       0.00000000       0.00000000 </v>
   <v>       0.00000000     -10.85856273       2.29348585 </v>
   <v>       0.00000000       2.29348402       8.13221670 </v>
  </varray>
  <energy>
   <i name="e_fr_energy">   -109.23774769 </i>
   <i name="e_wo_entrp">   -109.23280432 </i>
   <i name="e_0_energy">   -109.23609990 </i>
  </energy>
  <time name="totalsc">   56.23   55.53</time>
 </calculation>
 <calculation>
  <scstep>
   <time name="dav">    4.38    4.38</time>
   <time name="total">    4.74    4.72</time>
   <energy>
    <i name="alphaZ">    271.64501344 </i>
    <i name="ewald"> 148636.68358188 </i>
    <i name="hartreedc">-160853.08545963 </i>
    <i name="XCdc">     91.69072085 </i>
    <i name="pawpsdc">  15310.61414105 </i>
    <i name="pawaedc"> -14906.58153081 </i>
    <i name="eentropy">     -0.00514911 </i>
    <i name="bandstr">   -905.38509854 </i>
    <i name="atom">  12245.18164884 </i>
    <i name="e_fr_energy">   -109.24213202 </i>
    <i name="e_wo_entrp">   -109.23698291 </i>
    <i name="e_0_energy">   -109.24041565 </i>
   </energy>
  </scstep>
  <scstep>
   <time name="dav">    4.50    4.50</time>
   <time name="total">    4.86    4.84</time>
   <energy>
    <i name="e_fr_energy">   -109.25517630 </i>
    <i name="e_wo_entrp">   -109.25066657 </i>
    <i name="e_0_energy">   -109.25367305 </i>
   </energy>
  </scstep>
  <scstep>
   <time name="dav">    4.90    4.90</time>
   <time name="total">    5.26    5.24</time>
   <energy>
    <i name="e_fr_energy">   -109.25435842 </i>
    <i name="e_wo_entrp">   -109.24897346 </i>
    <i name="e_0_energy">   -109.25256344 </i>
   </energy>
  </scstep>
  <scstep>
   <time name="dav">    4.93    4.93</time>
   <time name="total">    5.29    5.27</time>
   <energy>
    <i name="e_fr_energy">   -109.25383520 </i>
    <i name="e_wo_entrp">   -109.24915575 </i>
    <i name="e_0_energy">   -109.25227538 </i>
   </energy>
  </scstep>
  <scstep>
   <time name="dav">    4.77    4.77</time>
   <time name="total">    5.14    5.11</time>
   <energy>
    <i name="e_fr_energy">   -109.25169252 </i>
    <i name="e_wo_entrp">   -109.24683114 </i>
    <i name="e_0_energy">   -109.25007206 </i>
   </energy>
  </scstep>
  <scstep>
   <time name="dav">    4.84    4.84</time>
   <time name="total">    5.20    5.17</time>
   <energy>
    <i name="e_fr_energy">   -109.25143044 </i>
    <i name="e_wo_entrp">   -109.24612830 </i>
    <i name="e_0_energy">   -109.24966306 </i>
   </energy>
  </scstep>
  <scstep>
   <time name="dav">    4.72    4.72</time>
   <time name="total">    5.10    5.07</time>
   <energy>
    <i name="e_fr_energy">   -109.25130877 </i>
    <i name="e_wo_entrp">   -109.24623276 </i>
    <i name="e_0_energy">   -109.24961676 </i>
   </energy>
  </scstep>
  <scstep>
   <time name="dav">    4.72    4.72</time>
   <time name="total">    5.09    5.07</time>
   <energy>
    <i name="e_fr_energy">   -109.25131973 </i>
    <i name="e_wo_entrp">   -109.24628110 </i>
    <i name="e_0_energy">   -109.24964018 </i>
   </energy>
  </scstep>
  <scstep>
   <time name="dav">    3.77    3.77</time>
   <time name="total">    4.14    4.11</time>
   <energy>
    <i name="e_fr_energy">   -109.25130663 </i>
    <i name="e_wo_entrp">   -109.24620814 </i>
    <i name="e_0_energy">   -109.24960713 </i>
   </energy>
  </scstep>
  <scstep>
   <time name="dav">    3.39    3.39</time>
   <time name="total">    3.76    3.73</time>
   <energy>
    <i name="e_fr_energy">   -109.25127855 </i>
    <i name="e_wo_entrp">   -109.24621442 </i>
    <i name="e_0_energy">   -109.24959051 </i>
   </energy>
  </scstep>
  <scstep>
   <time name="dav">    3.08    3.08</time>
   <time name="total">    3.14    3.12</time>
   <energy>
    <i name="alphaZ">    271.64501344 </i>
    <i name="ewald"> 148636.68358188 </i>
    <i name="hartreedc">-160856.61009222 </i>
    <i name="XCdc">     91.72290502 </i>
    <i name="pawpsdc">  15319.89545790 </i>
    <i name="pawaedc"> -14915.82150872 </i>
    <i name="eentropy">     -0.00512152 </i>
    <i name="bandstr">   -901.94316091 </i>
    <i name="atom">  12245.18164884 </i>
    <i name="e_fr_energy">   -109.25127629 </i>
    <i name="e_wo_entrp">   -109.24615476 </i>
    <i name="e_0_energy">   -109.24956911 </i>
   </energy>
  </scstep>
  <structure>
   <crystal>
    <varray name="basis" >
     <v>       5.54371716       0.00000000       0.00000000 </v>
     <v>       2.77185858       4.80099990       0.00000000 </v>
     <v>       0.00000000       0.00000000      36.78963917 </v>
    </varray>
    <i name="volume">    979.17042988 </i>
    <varray name="rec_basis" >
     <v>       0.18038438      -0.10414497       0.00000000 </v>
     <v>       0.00000000       0.20828994       0.00000000 </v>
     <v>       0.00000000       0.00000000       0.02718157 </v>
    </varray>
   </crystal>
   <varray name="positions" >
    <v>       0.00000000       0.00000000       0.40772349 </v>
    <v>       0.50000000       0.00000000       0.40772349 </v>
    <v>       0.00000000       0.50000000       0.40772349 </v>
    <v>       0.50000000       0.50000000       0.40772349 </v>
    <v>       0.16666667       0.16666667       0.46924116 </v>
    <v>       0.66666667       0.16666667       0.46924116 </v>
    <v>       0.16666667       0.66666667       0.46924116 </v>
    <v>       0.66666667       0.66666667       0.46924116 </v>
    <v>       0.83659031       0.33155799       0.53210367 </v>
    <v>       0.33185171       0.33155799       0.53210367 </v>
    <v>       0.83636708       0.82726584       0.53284689 </v>
    <v>       0.33312067       0.83375866       0.53147199 </v>
    <v>      -0.00222485      -0.00449639       0.59620614 </v>
    <v>       0.50672124      -0.00449639       0.59620614 </v>
    <v>       0.00261386       0.49477227       0.59999868 </v>
    <v>       0.50033555       0.49932890       0.59278216 </v>
    <v>       0.21093772       0.07812455       0.66593286 </v>
    <v>       0.19190892       0.11618216       0.63416886 </v>
   </varray>
  </structure>
  <varray name="forces" >
   <v>       0.02578386       0.01716009      -0.41404767 </v>
   <v>      -0.02578386       0.01716009      -0.41404767 </v>
   <v>       0.00000000      -0.02920621      -0.40774806 </v>
   <v>       0.00000000       0.00289987      -0.47011908 </v>
   <v>       0.00000000       0.02502475       0.42607974 </v>
   <v>       0.00000000      -0.03669345       0.45372800 </v>
   <v>      -0.01096372      -0.03024303       0.34814939 </v>
   <v>       0.01096372      -0.03024303       0.34814939 </v>
   <v>      -0.07920586      -0.03885320      -0.14136626 </v>
   <v>       0.07920586      -0.03885320      -0.14136626 </v>
   <v>       0.00000000       0.10171748      -0.01154279 </v>
   <v>       0.00000000      -0.03459405      -0.10401443 </v>
   <v>      -0.22221708      -0.16214040       0.06658223 </v>
   <v>       0.22221708      -0.16214040       0.06658223 </v>
   <v>       0.00000000       0.13727573      -0.10297640 </v>
   <v>      -0.00000000      -0.12328985       0.22400203 </v>
   <v>      -0.00000000       0.22463312       0.94706144 </v>
   <v>       0.00000000       0.16038571      -0.67310583 </v>
  </varray>
  <varray name="stress" >
   <v>      -9.57783906       0.00000000       0.00000000 </v>
   <v>       0.00000000     -10.96777874       1.83011495 </v>
   <v>       0.00000000       1.83011320       9.67694832 </v>
  </varray>
  <energy>
   <i name="e_fr_energy">   -109.25127629 </i>
   <i name="e_wo_entrp">   -109.24615476 </i>
   <i name="e_0_energy">   -109.24956911 </i>
  </energy>
  <time name="totalsc">   65.28   64.54</time>
 </calculation>
 <calculation>
  <scstep>
   <time name="dav">    4.38    4.38</time>
   <time name="total">    4.75    4.72</time>
   <energy>
    <i name="alphaZ">    271.64501344 </i>
    <i name="ewald"> 148621.70523081 </i>
    <i name="hartreedc">-160841.46127809 </i>
    <i name="XCdc">     91.72503733 </i>
    <i name="pawpsdc">  15319.87050159 </i>
    <i name="pawaedc"> -14915.79659835 </i>
    <i name="eentropy">     -0.00518375 </i>
    <i name="bandstr">   -902.11563852 </i>
    <i name="atom">  12245.18164884 </i>
    <i name="e_fr_energy">   -109.25126668 </i>
    <i name="e_wo_entrp">   -109.24608293 </i>
    <i name="e_0_energy">   -109.24953876 </i>
   </energy>
  </scstep>
  <scstep>
   <time name="dav">    4.44    4.44</time>
   <time name="total">    4.81    4.78</time>
   <energy>
    <i name="e_fr_energy">   -109.25219372 </i>
    <i name="e_wo_entrp">   -109.24702122 </i>
    <i name="e_0_energy">   -109.25046955 </i>
   </energy>
  </scstep>
  <scstep>
   <time name="dav">    5.00    5.00</time>
   <time name="total">    5.36    5.34</time>
   <energy>
    <i name="e_fr_energy">   -109.25216016 </i>
    <i name="e_wo_entrp">   -109.24691666 </i>
    <i name="e_0_energy">   -109.25041233 </i>
   </energy>
  </scstep>
  <scstep>
   <time name="dav">    4.97    4.97</time>
   <time name="total">    5.33    5.30</time>
   <energy>
    <i name="e_fr_energy">   -109.25252109 </i>
    <i name="e_wo_entrp">   -109.24755316 </i>
    <i name="e_0_energy">   -109.25086511 </i>
   </energy>
  </scstep>
  <scstep>
   <time name="dav">    4.93    4.93</time>
   <time name="total">    5.30    5.27</time>
   <energy>
    <i name="e_fr_energy">   -109.25211140 </i>
    <i name="e_wo_entrp">   -109.24697060 </i>
    <i name="e_0_energy">   -109.25039780 </i>
   </energy>
  </scstep>
  <scstep>
   <time name="dav">    4.79    4.80</time>
   <time name="total">    5.16    5.14</time>
   <energy>
    <i name="e_fr_energy">   -109.25209108 </i>
    <i name="e_wo_entrp">   -109.24689348 </i>
    <i name="e_0_energy">   -109.25035855 </i>
   </energy>
  </scstep>
  <scstep>
   <time name="dav">    4.08    4.08</time>
   <time name="total">    4.13    4.11</time>
   <energy>
    <i name="alphaZ">    271.64501344 </i>
    <i name="ewald"> 148621.70523081 </i>
    <i name="hartreedc">-160842.69239896 </i>
    <i name="XCdc">     91.73520674 </i>
    <i name="pawpsdc">  15322.63633287 </i>
    <i name="pawaedc"> -14918.55041566 </i>
    <i name="eentropy">     -0.00519046 </i>
    <i name="bandstr">   -900.90751016 </i>
    <i name="atom">  12245.18164884 </i>
    <i name="e_fr_energy">   -109.25208252 </i>
    <i name="e_wo_entrp">   -109.24689206 </i>
    <i name="e_0_energy">   -109.25035237 </i>
   </energy>
  </scstep>
  <structure>
   <crystal>
    <varray name="basis" >
     <v>       5.54371716       0.00000000       0.00000000 </v>
     <v>       2.77185858       4.80099990       0.00000000 </v>
     <v>       0.00000000       0.00000000      36.78963917 </v>
    </varray>
    <i name="volume">    979.17042988 </i>
    <varray name="rec_basis" >
     <v>       0.18038438      -0.10414497       0.00000000 </v>
     <v>       0.00000000       0.20828994       0.00000000 </v>
     <v>       0.00000000       0.00000000       0.02718157 </v>
    </varray>
   </crystal>
   <varray name="positions" >
    <v>       0.00000000       0.00000000       0.40772349 </v>
    <v>       0.50000000       0.00000000       0.40772349 </v>
    <v>       0.00000000       0.50000000       0.40772349 </v>
    <v>       0.50000000       0.50000000       0.40772349 </v>
    <v>       0.16666667       0.16666667       0.46924116 </v>
    <v>       0.66666667       0.16666667       0.46924116 </v>
    <v>       0.16666667       0.66666667       0.46924116 </v>
    <v>       0.66666667       0.66666667       0.46924116 </v>
    <v>       0.83654693       0.33156242       0.53212049 </v>
    <v>       0.33189065       0.33156242       0.53212049 </v>
    <v>       0.83630191       0.82739618       0.53283499 </v>
    <v>       0.33319653       0.83360693       0.53145895 </v>
    <v>      -0.00224326      -0.00484585       0.59624771 </v>
    <v>       0.50708912      -0.00484585       0.59624771 </v>
    <v>       0.00260456       0.49479088       0.59997425 </v>
    <v>       0.50048434       0.49903132       0.59287020 </v>
    <v>       0.21021164       0.07957672       0.66590919 </v>
    <v>       0.19203889       0.11592223       0.63421814 </v>
   </varray>
  </structure>
  <varray name="forces" >
   <v>       0.02555717       0.01790637      -0.41499878 </v>
   <v>      -0.02555717       0.01790637      -0.41499878 </v>
   <v>       0.00000000      -0.02847739      -0.40661816 </v>
   <v>       0.00000000       0.00253130      -0.46925537 </v>
   <v>       0.00000000       0.02718548       0.42774783 </v>
   <v>       0.00000000      -0.03556218       0.45590613 </v>
   <v>      -0.01196474      -0.03108065       0.34674428 </v>
   <v>       0.01196474      -0.03108065       0.34674428 </v>
   <v>      -0.07482080      -0.04077322      -0.13617200 </v>
   <v>       0.07482080      -0.04077322      -0.13617200 </v>
   <v>       0.00000000       0.09830510      -0.00956240 </v>
   <v>       0.00000000      -0.02905977      -0.08458998 </v>
   <v>      -0.19253498      -0.15270725       0.06477898 </v>
   <v>       0.19253498      -0.15270725       0.06477898 </v>
   <v>       0.00000000       0.12159460      -0.11152252 </v>
   <v>      -0.00000000      -0.11798202       0.20554037 </v>
   <v>       0.00000000       0.16763117       1.27713914 </v>
   <v>       0.00000000       0.20714323      -1.00549001 </v>
  </varray>
  <varray name="stress" >
   <v>      -9.67386280       0.00000000       0.00000000 </v>
   <v>       0.00000000     -10.99461164       1.70480274 </v>
   <v>       0.00000000       1.70480098      10.14442167 </v>
  </varray>
  <energy>
   <i name="e_fr_energy">   -109.25208252 </i>
   <i name="e_wo_entrp">   -109.24689206 </i>
   <i name="e_0_energy">   -109.25035237 </i>
  </energy>
  <time name="totalsc">   48.44   47.79</time>
 </calculation>
 <calculation>
  <scstep>
   <time name="dav">    4.38    4.38</time>
   <time name="total">    4.74    4.72</time>
   <energy>
    <i name="alphaZ">    271.64501344 </i>
    <i name="ewald"> 148604.41522979 </i>
    <i name="hartreedc">-160825.62924991 </i>
    <i name="XCdc">     91.72231199 </i>
    <i name="pawpsdc">  15322.66796202 </i>
    <i name="pawaedc"> -14918.58228853 </i>
    <i name="eentropy">     -0.00523364 </i>
    <i name="bandstr">   -900.67234915 </i>
    <i name="atom">  12245.18164884 </i>
    <i name="e_fr_energy">   -109.25695515 </i>
    <i name="e_wo_entrp">   -109.25172151 </i>
    <i name="e_0_energy">   -109.25521060 </i>
   </energy>
  </scstep>
  <scstep>
   <time name="dav">    4.43    4.43</time>
   <time name="total">    4.79    4.77</time>
   <energy>
    <i name="e_fr_energy">   -109.25775412 </i>
    <i name="e_wo_entrp">   -109.25242801 </i>
    <i name="e_0_energy">   -109.25597875 </i>
   </energy>
  </scstep>
  <scstep>
   <time name="dav">    4.86    4.86</time>
   <time name="total">    5.22    5.20</time>
   <energy>
    <i name="e_fr_energy">   -109.25811529 </i>
    <i name="e_wo_entrp">   -109.25311020 </i>
    <i name="e_0_energy">   -109.25644693 </i>
   </energy>
  </scstep>
  <scstep>
   <time name="dav">    4.82    4.82</time>
   <time name="total">    5.19    5.16</time>
   <energy>
    <i name="e_fr_energy">   -109.25771619 </i>
    <i name="e_wo_entrp">   -109.25256709 </i>
    <i name="e_0_energy">   -109.25599982 </i>
   </energy>
  </scstep>
  <scstep>
   <time name="dav">    4.53    4.53</time>
   <time name="total">    4.90    4.87</time>
   <energy>
    <i name="e_fr_energy">   -109.25772985 </i>
    <i name="e_wo_entrp">   -109.25247671 </i>
    <i name="e_0_energy">   -109.25597880 </i>
   </energy>
  </scstep>
  <scstep>
   <time name="dav">    4.60    4.60</time>
   <time name="total">    4.96    4.94</time>
   <energy>
    <i name="e_fr_energy">   -109.25769857 </i>
    <i name="e_wo_entrp">   -109.25252052 </i>
    <i name="e_0_energy">   -109.25597255 </i>
   </energy>
  </scstep>
  <scstep>
   <time name="dav">    4.30    4.30</time>
   <time name="total">    4.67    4.65</time>
   <energy>
    <i name="e_fr_energy">   -109.25768438 </i>
    <i name="e_wo_entrp">   -109.25243262 </i>
    <i name="e_0_energy">   -109.25593380 </i>
   </energy>
  </scstep>
  <scstep>
   <time name="dav">    2.88    2.88</time>
   <time name="total">    2.94    2.92</time>
   <energy>
    <i name="alphaZ">    271.64501344 </i>
    <i name="ewald"> 148604.41522979 </i>
    <i name="hartreedc">-160825.60286436 </i>
    <i name="XCdc">     91.72072523 </i>
    <i name="pawpsdc">  15319.34608858 </i>
    <i name="pawaedc"> -14915.25100066 </i>
    <i name="eentropy">     -0.00522518 </i>
    <i name="bandstr">   -900.70729979 </i>
    <i name="atom">  12245.18164884 </i>
    <i name="e_fr_energy">   -109.25768409 </i>
    <i name="e_wo_entrp">   -109.25245891 </i>
    <i name="e_0_energy">   -109.25594237 </i>
   </energy>
  </scstep>
  <structure>
   <crystal>
    <varray name="basis" >
     <v>       5.54371716       0.00000000       0.00000000 </v>
     <v>       2.77185858       4.80099990       0.00000000 </v>
     <v>       0.00000000       0.00000000      36.78963917 </v>
    </varray>
    <i name="volume">    979.17042988 </i>
    <varray name="rec_basis" >
     <v>       0.18038438      -0.10414497       0.00000000 </v>
     <v>       0.00000000       0.20828994       0.00000000 </v>
     <v>       0.00000000       0.00000000       0.02718157 </v>
    </varray>
   </crystal>
   <varray name="positions" >
    <v>       0.00000000       0.00000000       0.40772349 </v>
    <v>       0.50000000       0.00000000       0.40772349 </v>
    <v>       0.00000000       0.50000000       0.40772349 </v>
    <v>       0.50000000       0.50000000       0.40772349 </v>
    <v>       0.16666667       0.16666667       0.46924116 </v>
    <v>       0.66666667       0.16666667       0.46924116 </v>
    <v>       0.16666667       0.66666667       0.46924116 </v>
    <v>       0.66666667       0.66666667       0.46924116 </v>
    <v>       0.83649137       0.33155004       0.53212809 </v>
    <v>       0.33195859       0.33155004       0.53212809 </v>
    <v>       0.83622542       0.82754916       0.53282410 </v>
    <v>       0.33326858       0.83346285       0.53144316 </v>
    <v>      -0.00229534      -0.00521187       0.59628739 </v>
    <v>       0.50750721      -0.00521187       0.59628739 </v>
    <v>       0.00257222       0.49485556       0.59994711 </v>
    <v>       0.50063777       0.49872446       0.59295777 </v>
    <v>       0.20954417       0.08091166       0.66595492 </v>
    <v>       0.19211113       0.11577774       0.63420891 </v>
   </varray>
  </structure>
  <varray name="forces" >
   <v>       0.02527232       0.01814609      -0.41526002 </v>
   <v>      -0.02527232       0.01814609      -0.41526002 </v>
   <v>      -0.00000000      -0.02799199      -0.40536276 </v>
   <v>      -0.00000000       0.00192265      -0.46755773 </v>
   <v>      -0.00000000       0.02866304       0.42760670 </v>
   <v>      -0.00000000      -0.03522890       0.45572222 </v>
   <v>      -0.01307830      -0.03203044       0.34444351 </v>
   <v>       0.01307830      -0.03203044       0.34444351 </v>
   <v>      -0.06857080      -0.04136270      -0.12891199 </v>
   <v>       0.06857080      -0.04136270      -0.12891199 </v>
   <v>       0.00000000       0.09131984      -0.00994696 </v>
   <v>      -0.00000000      -0.02422517      -0.06424479 </v>
   <v>      -0.15832937      -0.14187044       0.06608813 </v>
   <v>       0.15832937      -0.14187044       0.06608813 </v>
   <v>      -0.00000000       0.09855799      -0.11351249 </v>
   <v>       0.00000000      -0.11072590       0.18407952 </v>
   <v>      -0.00000000       0.17459860       1.18581410 </v>
   <v>      -0.00000000       0.19734481      -0.92531707 </v>
  </varray>
  <varray name="stress" >
   <v>      -9.74196476       0.00000000       0.00000000 </v>
   <v>       0.00000000     -11.04011117       1.71028281 </v>
   <v>       0.00000000       1.71028088       9.83046881 </v>
  </varray>
  <energy>
   <i name="e_fr_energy">   -109.25768409 </i>
   <i name="e_wo_entrp">   -109.25245891 </i>
   <i name="e_0_energy">   -109.25594237 </i>
  </energy>
  <time name="totalsc">   51.01   50.34</time>
 </calculation>
 <calculation>
  <scstep>
   <time name="dav">    4.38    4.38</time>
   <time name="total">    4.75    4.72</time>
   <energy>
    <i name="alphaZ">    271.64501344 </i>
    <i name="ewald"> 148552.47700534 </i>
    <i name="hartreedc">-160774.17598004 </i>
    <i name="XCdc">     91.68017370 </i>
    <i name="pawpsdc">  15319.28918108 </i>
    <i name="pawaedc"> -14915.19388365 </i>
    <i name="eentropy">     -0.00546585 </i>
    <i name="bandstr">   -900.16350958 </i>
    <i name="atom">  12245.18164884 </i>
    <i name="e_fr_energy">   -109.26581672 </i>
    <i name="e_wo_entrp">   -109.26035087 </i>
    <i name="e_0_energy">   -109.26399477 </i>
   </energy>
  </scstep>
  <scstep>
   <time name="dav">    4.45    4.45</time>
   <time name="total">    4.81    4.79</time>
   <energy>
    <i name="e_fr_energy">   -109.27386676 </i>
    <i name="e_wo_entrp">   -109.26883719 </i>
    <i name="e_0_energy">   -109.27219024 </i>
   </energy>
  </scstep>
  <scstep>
   <time name="dav">    4.93    4.93</time>
   <time name="total">    5.29    5.27</time>
   <energy>
    <i name="e_fr_energy">   -109.27373703 </i>
    <i name="e_wo_entrp">   -109.26812791 </i>
    <i name="e_0_energy">   -109.27186733 </i>
   </energy>
  </scstep>
  <scstep>
   <time name="dav">    4.83    4.83</time>
   <time name="total">    5.20    5.17</time>
   <energy>
    <i name="e_fr_energy">   -109.27355374 </i>
    <i name="e_wo_entrp">   -109.26845594 </i>
    <i name="e_0_energy">   -109.27185447 </i>
   </energy>
  </scstep>
  <scstep>
   <time name="dav">    4.74    4.74</time>
   <time name="total">    5.12    5.09</time>
   <energy>
    <i name="e_fr_energy">   -109.27246800 </i>
    <i name="e_wo_entrp">   -109.26721620 </i>
    <i name="e_0_energy">   -109.27071740 </i>
   </energy>
  </scstep>
  <scstep>
   <time name="dav">    4.76    4.76</time>
   <time name="total">    5.12    5.10</time>
   <energy>
    <i name="e_fr_energy">   -109.27234710 </i>
    <i name="e_wo_entrp">   -109.26703747 </i>
    <i name="e_0_energy">   -109.27057722 </i>
   </energy>
  </scstep>
  <scstep>
   <time name="dav">    4.61    4.61</time>
   <time name="total">    4.97    4.95</time>
   <energy>
    <i name="e_fr_energy">   -109.27223867 </i>
    <i name="e_wo_entrp">   -109.26676125 </i>
    <i name="e_0_energy">   -109.27041286 </i>
   </energy>
  </scstep>
  <scstep>
   <time name="dav">    4.70    4.70</time>
   <time name="total">    5.06    5.04</time>
   <energy>
    <i name="e_fr_energy">   -109.27222077 </i>
    <i name="e_wo_entrp">   -109.26688059 </i>
    <i name="e_0_energy">   -109.27044071 </i>
   </energy>
  </scstep>
  <scstep>
   <time name="dav">    3.15    3.15</time>
   <time name="total">    3.21    3.19</time>
   <energy>
    <i name="alphaZ">    271.64501344 </i>
    <i name="ewald"> 148552.47700534 </i>
    <i name="hartreedc">-160773.55390309 </i>
    <i name="XCdc">     91.67406930 </i>
    <i name="pawpsdc">  15309.03871025 </i>
    <i name="pawaedc"> -14904.91520005 </i>
    <i name="eentropy">     -0.00536278 </i>
    <i name="bandstr">   -900.81420532 </i>
    <i name="atom">  12245.18164884 </i>
    <i name="e_fr_energy">   -109.27222406 </i>
    <i name="e_wo_entrp">   -109.26686129 </i>
    <i name="e_0_energy">   -109.27043647 </i>
   </energy>
  </scstep>
  <structure>
   <crystal>
    <varray name="basis" >
     <v>       5.54371716       0.00000000       0.00000000 </v>
     <v>       2.77185858       4.80099990       0.00000000 </v>
     <v>       0.00000000       0.00000000      36.78963917 </v>
    </varray>
    <i name="volume">    979.17042988 </i>
    <varray name="rec_basis" >
     <v>       0.18038438      -0.10414497       0.00000000 </v>
     <v>       0.00000000       0.20828994       0.00000000 </v>
     <v>       0.00000000       0.00000000       0.02718157 </v>
    </varray>
   </crystal>
   <varray name="positions" >
    <v>       0.00000000       0.00000000       0.40772349 </v>
    <v>       0.50000000       0.00000000       0.40772349 </v>
    <v>       0.00000000       0.50000000       0.40772349 </v>
    <v>       0.50000000       0.50000000       0.40772349 </v>
    <v>       0.16666667       0.16666667       0.46924116 </v>
    <v>       0.66666667       0.16666667       0.46924116 </v>
    <v>       0.16666667       0.66666667       0.46924116 </v>
    <v>       0.66666667       0.66666667       0.46924116 </v>
    <v>       0.83632466       0.33151293       0.53215091 </v>
    <v>       0.33216241       0.33151293       0.53215091 </v>
    <v>       0.83599595       0.82800810       0.53279144 </v>
    <v>       0.33348470       0.83303060       0.53139579 </v>
    <v>      -0.00245159      -0.00630990       0.59640641 </v>
    <v>       0.50876149      -0.00630990       0.59640641 </v>
    <v>       0.00247520       0.49504960       0.59986571 </v>
    <v>       0.50109807       0.49780387       0.59322048 </v>
    <v>       0.20754176       0.08491649       0.66609208 </v>
    <v>       0.19232787       0.11534426       0.63418122 </v>
   </varray>
  </structure>
  <varray name="forces" >
   <v>       0.02424732       0.01893783      -0.41689822 </v>
   <v>      -0.02424732       0.01893783      -0.41689822 </v>
   <v>      -0.00000000      -0.02664706      -0.40447100 </v>
   <v>      -0.00000000      -0.00013716      -0.46400933 </v>
   <v>      -0.00000000       0.03318117       0.42961808 </v>
   <v>      -0.00000000      -0.03453418       0.45699405 </v>
   <v>      -0.01669414      -0.03470474       0.33982619 </v>
   <v>       0.01669414      -0.03470474       0.33982619 </v>
   <v>      -0.05030682      -0.04306875      -0.10472476 </v>
   <v>       0.05030682      -0.04306875      -0.10472476 </v>
   <v>      -0.00000000       0.06972981      -0.00964879 </v>
   <v>      -0.00000000      -0.00949426      -0.00088860 </v>
   <v>      -0.05530026      -0.10805979       0.06816955 </v>
   <v>       0.05530026      -0.10805979       0.06816955 </v>
   <v>      -0.00000000       0.02974481      -0.12222551 </v>
   <v>       0.00000000      -0.08957038       0.11656349 </v>
   <v>      -0.00000000       0.19087200       0.88290287 </v>
   <v>      -0.00000000       0.17064616      -0.65758074 </v>
  </varray>
  <varray name="stress" >
   <v>      -9.94825594       0.00000000       0.00000000 </v>
   <v>       0.00000000     -11.16138429       1.71883670 </v>
   <v>       0.00000000       1.71883483       8.84774390 </v>
  </varray>
  <energy>
   <i name="e_fr_energy">   -109.27222406 </i>
   <i name="e_wo_entrp">   -109.26686129 </i>
   <i name="e_0_energy">   -109.27043647 </i>
  </energy>
  <time name="totalsc">   57.08   56.38</time>
 </calculation>
 <calculation>
  <scstep>
   <time name="dav">    4.38    4.38</time>
   <time name="total">    4.74    4.72</time>
   <energy>
    <i name="alphaZ">    271.64501344 </i>
    <i name="ewald"> 148448.30330952 </i>
    <i name="hartreedc">-160670.45565552 </i>
    <i name="XCdc">     91.58943426 </i>
    <i name="pawpsdc">  15308.97558955 </i>
    <i name="pawaedc"> -14904.85150546 </i>
    <i name="eentropy">     -0.00581656 </i>
    <i name="bandstr">   -899.64611766 </i>
    <i name="atom">  12245.18164884 </i>
    <i name="e_fr_energy">   -109.26409959 </i>
    <i name="e_wo_entrp">   -109.25828303 </i>
    <i name="e_0_energy">   -109.26216074 </i>
   </energy>
  </scstep>
  <scstep>
   <time name="dav">    4.44    4.44</time>
   <time name="total">    4.81    4.79</time>
   <energy>
    <i name="e_fr_energy">   -109.29487617 </i>
    <i name="e_wo_entrp">   -109.28972501 </i>
    <i name="e_0_energy">   -109.29315912 </i>
   </energy>
  </scstep>
  <scstep>
   <time name="dav">    4.93    4.93</time>
   <time name="total">    5.30    5.27</time>
   <energy>
    <i name="e_fr_energy">   -109.29908586 </i>
    <i name="e_wo_entrp">   -109.29310392 </i>
    <i name="e_0_energy">   -109.29709188 </i>
   </energy>
  </scstep>
  <scstep>
   <time name="dav">    4.94    4.94</time>
   <time name="total">    5.31    5.28</time>
   <energy>
    <i name="e_fr_energy">   -109.29572997 </i>
    <i name="e_wo_entrp">   -109.29074824 </i>
    <i name="e_0_energy">   -109.29406940 </i>
   </energy>
  </scstep>
  <scstep>
   <time name="dav">    4.77    4.77</time>
   <time name="total">    5.14    5.11</time>
   <energy>
    <i name="e_fr_energy">   -109.29094330 </i>
    <i name="e_wo_entrp">   -109.28551674 </i>
    <i name="e_0_energy">   -109.28913445 </i>
   </energy>
  </scstep>
  <scstep>
   <time name="dav">    4.78    4.78</time>
   <time name="total">    5.14    5.12</time>
   <energy>
    <i name="e_fr_energy">   -109.29052700 </i>
    <i name="e_wo_entrp">   -109.28493740 </i>
    <i name="e_0_energy">   -109.28866380 </i>
   </energy>
  </scstep>
  <scstep>
   <time name="dav">    4.61    4.61</time>
   <time name="total">    4.98    4.95</time>
   <energy>
    <i name="e_fr_energy">   -109.29013278 </i>
    <i name="e_wo_entrp">   -109.28429124 </i>
    <i name="e_0_energy">   -109.28818560 </i>
   </energy>
  </scstep>
  <scstep>
   <time name="dav">    4.85    4.85</time>
   <time name="total">    5.22    5.19</time>
   <energy>
    <i name="e_fr_energy">   -109.29007172 </i>
    <i name="e_wo_entrp">   -109.28452561 </i>
    <i name="e_0_energy">   -109.28822301 </i>
   </energy>
  </scstep>
  <scstep>
   <time name="dav">    4.30    4.30</time>
   <time name="total">    4.67    4.65</time>
   <energy>
    <i name="e_fr_energy">   -109.29008376 </i>
    <i name="e_wo_entrp">   -109.28444466 </i>
    <i name="e_0_energy">   -109.28820406 </i>
   </energy>
  </scstep>
  <scstep>
   <time name="dav">    4.16    4.16</time>
   <time name="total">    4.22    4.20</time>
   <energy>
    <i name="alphaZ">    271.64501344 </i>
    <i name="ewald"> 148448.30330952 </i>
    <i name="hartreedc">-160668.81949884 </i>
    <i name="XCdc">     91.57485779 </i>
    <i name="pawpsdc">  15287.85231715 </i>
    <i name="pawaedc"> -14883.67519715 </i>
    <i name="eentropy">     -0.00556166 </i>
    <i name="bandstr">   -901.34696351 </i>
    <i name="atom">  12245.18164884 </i>
    <i name="e_fr_energy">   -109.29007442 </i>
    <i name="e_wo_entrp">   -109.28451276 </i>
    <i name="e_0_energy">   -109.28822053 </i>
   </energy>
  </scstep>
  <structure>
   <crystal>
    <varray name="basis" >
     <v>       5.54371716       0.00000000       0.00000000 </v>
     <v>       2.77185858       4.80099990       0.00000000 </v>
     <v>       0.00000000       0.00000000      36.78963917 </v>
    </varray>
    <i name="volume">    979.17042988 </i>
    <varray name="rec_basis" >
     <v>       0.18038438      -0.10414497       0.00000000 </v>
     <v>       0.00000000       0.20828994       0.00000000 </v>
     <v>       0.00000000       0.00000000       0.02718157 </v>
    </varray>
   </crystal>
   <varray name="positions" >
    <v>       0.00000000       0.00000000       0.40772349 </v>
    <v>       0.50000000       0.00000000       0.40772349 </v>
    <v>       0.00000000       0.50000000       0.40772349 </v>
    <v>       0.50000000       0.50000000       0.40772349 </v>
    <v>       0.16666667       0.16666667       0.46924116 </v>
    <v>       0.66666667       0.16666667       0.46924116 </v>
    <v>       0.16666667       0.66666667       0.46924116 </v>
    <v>       0.66666667       0.66666667       0.46924116 </v>
    <v>       0.83599126       0.33143869       0.53219655 </v>
    <v>       0.33257004       0.33143869       0.53219655 </v>
    <v>       0.83553701       0.82892599       0.53272612 </v>
    <v>       0.33391694       0.83216612       0.53130106 </v>
    <v>      -0.00276407      -0.00850597       0.59664445 </v>
    <v>       0.51127004      -0.00850597       0.59664445 </v>
    <v>       0.00228116       0.49543767       0.59970290 </v>
    <v>       0.50201866       0.49596269       0.59374591 </v>
    <v>       0.20353693       0.09292614       0.66636640 </v>
    <v>       0.19276134       0.11447731       0.63412584 </v>
   </varray>
  </structure>
  <varray name="forces" >
   <v>       0.02248152       0.02064943      -0.42001552 </v>
   <v>      -0.02248152       0.02064943      -0.42001552 </v>
   <v>       0.00000000      -0.02404675      -0.39917703 </v>
   <v>       0.00000000      -0.00420281      -0.45788165 </v>
   <v>      -0.00000000       0.04225282       0.43146098 </v>
   <v>       0.00000000      -0.03350890       0.45918216 </v>
   <v>      -0.02456191      -0.04013036       0.32929802 </v>
   <v>       0.02456191      -0.04013036       0.32929802 </v>
   <v>      -0.01269635      -0.04640913      -0.05947270 </v>
   <v>       0.01269635      -0.04640913      -0.05947270 </v>
   <v>       0.00000000       0.02646002      -0.00907349 </v>
   <v>       0.00000000       0.02214478       0.11732269 </v>
   <v>       0.15227002      -0.03953709       0.07558805 </v>
   <v>      -0.15227002      -0.03953709       0.07558805 </v>
   <v>       0.00000000      -0.11219540      -0.13632154 </v>
   <v>       0.00000000      -0.04925299      -0.01092112 </v>
   <v>       0.00000000       0.20099518       0.20584385 </v>
   <v>       0.00000000       0.14220833      -0.05123057 </v>
  </varray>
  <varray name="stress" >
   <v>     -10.36143564       0.00000000       0.00000000 </v>
   <v>       0.00000000     -11.39962071       1.68532452 </v>
   <v>       0.00000000       1.68532270       6.61505340 </v>
  </varray>
  <energy>
   <i name="e_fr_energy">   -109.29007442 </i>
   <i name="e_wo_entrp">   -109.28451276 </i>
   <i name="e_0_energy">   -109.28822053 </i>
  </energy>
  <time name="totalsc">   63.14   62.42</time>
 </calculation>
 <calculation>
  <scstep>
   <time name="dav">    4.38    4.38</time>
   <time name="total">    4.75    4.72</time>
   <energy>
    <i name="alphaZ">    271.64501344 </i>
    <i name="ewald"> 148238.86095731 </i>
    <i name="hartreedc">-160461.67597034 </i>
    <i name="XCdc">     91.39251435 </i>
    <i name="pawpsdc">  15287.73027290 </i>
    <i name="pawaedc"> -14883.55283637 </i>
    <i name="eentropy">     -0.00661854 </i>
    <i name="bandstr">   -898.73925543 </i>
    <i name="atom">  12245.18164884 </i>
    <i name="e_fr_energy">   -109.16427382 </i>
    <i name="e_wo_entrp">   -109.15765529 </i>
    <i name="e_0_energy">   -109.16206765 </i>
   </energy>
  </scstep>
  <scstep>
   <time name="dav">    4.46    4.46</time>
   <time name="total">    4.82    4.79</time>
   <energy>
    <i name="e_fr_energy">   -109.29635791 </i>
    <i name="e_wo_entrp">   -109.29177909 </i>
    <i name="e_0_energy">   -109.29483163 </i>
   </energy>
  </scstep>
  <scstep>
   <time name="dav">    4.97    4.97</time>
   <time name="total">    5.33    5.31</time>
   <energy>
    <i name="e_fr_energy">   -109.30992827 </i>
    <i name="e_wo_entrp">   -109.30386105 </i>
    <i name="e_0_energy">   -109.30790587 </i>
   </energy>
  </scstep>
  <scstep>
   <time name="dav">    4.97    4.97</time>
   <time name="total">    5.34    5.31</time>
   <energy>
    <i name="e_fr_energy">   -109.29118281 </i>
    <i name="e_wo_entrp">   -109.28604337 </i>
    <i name="e_0_energy">   -109.28946967 </i>
   </energy>
  </scstep>
  <scstep>
   <time name="dav">    4.72    4.72</time>
   <time name="total">    5.09    5.07</time>
   <energy>
    <i name="e_fr_energy">   -109.27506162 </i>
    <i name="e_wo_entrp">   -109.26954030 </i>
    <i name="e_0_energy">   -109.27322118 </i>
   </energy>
  </scstep>
  <scstep>
   <time name="dav">    4.78    4.78</time>
   <time name="total">    5.14    5.12</time>
   <energy>
    <i name="e_fr_energy">   -109.27331417 </i>
    <i name="e_wo_entrp">   -109.26696652 </i>
    <i name="e_0_energy">   -109.27119829 </i>
   </energy>
  </scstep>
  <scstep>
   <time name="dav">    4.61    4.61</time>
   <time name="total">    4.98    4.96</time>
   <energy>
    <i name="e_fr_energy">   -109.27187411 </i>
    <i name="e_wo_entrp">   -109.26555479 </i>
    <i name="e_0_energy">   -109.26976767 </i>
   </energy>
  </scstep>
  <scstep>
   <time name="dav">    4.89    4.89</time>
   <time name="total">    5.26    5.23</time>
   <energy>
    <i name="e_fr_energy">   -109.27171025 </i>
    <i name="e_wo_entrp">   -109.26576340 </i>
    <i name="e_0_energy">   -109.26972797 </i>
   </energy>
  </scstep>
  <scstep>
   <time name="dav">    4.80    4.80</time>
   <time name="total">    5.17    5.14</time>
   <energy>
    <i name="e_fr_energy">   -109.27175152 </i>
    <i name="e_wo_entrp">   -109.26560972 </i>
    <i name="e_0_energy">   -109.26970426 </i>
   </energy>
  </scstep>
  <scstep>
   <time name="dav">    4.73    4.73</time>
   <time name="total">    5.10    5.08</time>
   <energy>
    <i name="e_fr_energy">   -109.27160860 </i>
    <i name="e_wo_entrp">   -109.26559496 </i>
    <i name="e_0_energy">   -109.26960405 </i>
   </energy>
  </scstep>
  <scstep>
   <time name="dav">    4.65    4.65</time>
   <time name="total">    5.01    4.99</time>
   <energy>
    <i name="e_fr_energy">   -109.27157908 </i>
    <i name="e_wo_entrp">   -109.26535511 </i>
    <i name="e_0_energy">   -109.26950443 </i>
   </energy>
  </scstep>
  <scstep>
   <time name="dav">    3.24    3.24</time>
   <time name="total">    3.30    3.28</time>
   <energy>
    <i name="alphaZ">    271.64501344 </i>
    <i name="ewald"> 148238.86095731 </i>
    <i name="hartreedc">-160457.22723218 </i>
    <i name="XCdc">     91.35496114 </i>
    <i name="pawpsdc">  15242.63100699 </i>
    <i name="pawaedc"> -14838.36597072 </i>
    <i name="eentropy">     -0.00612507 </i>
    <i name="bandstr">   -903.34584568 </i>
    <i name="atom">  12245.18164884 </i>
    <i name="e_fr_energy">   -109.27158592 </i>
    <i name="e_wo_entrp">   -109.26546085 </i>
    <i name="e_0_energy">   -109.26954423 </i>
   </energy>
  </scstep>
  <structure>
   <crystal>
    <varray name="basis" >
     <v>       5.54371716       0.00000000       0.00000000 </v>
     <v>       2.77185858       4.80099990       0.00000000 </v>
     <v>       0.00000000       0.00000000      36.78963917 </v>
    </varray>
    <i name="volume">    979.17042988 </i>
    <varray name="rec_basis" >
     <v>       0.18038438      -0.10414497       0.00000000 </v>
     <v>       0.00000000       0.20828994       0.00000000 </v>
     <v>       0.00000000       0.00000000       0.02718157 </v>
    </varray>
   </crystal>
   <varray name="positions" >
    <v>       0.00000000       0.00000000       0.40772349 </v>
    <v>       0.50000000       0.00000000       0.40772349 </v>
    <v>       0.00000000       0.50000000       0.40772349 </v>
    <v>       0.50000000       0.50000000       0.40772349 </v>
    <v>       0.16666667       0.16666667       0.46924116 </v>
    <v>       0.66666667       0.16666667       0.46924116 </v>
    <v>       0.16666667       0.66666667       0.46924116 </v>
    <v>       0.66666667       0.66666667       0.46924116 </v>
    <v>       0.83532446       0.33129023       0.53228782 </v>
    <v>       0.33338532       0.33129023       0.53228782 </v>
    <v>       0.83461912       0.83076176       0.53259547 </v>
    <v>       0.33478143       0.83043714       0.53111159 </v>
    <v>      -0.00338904      -0.01289811       0.59712054 </v>
    <v>       0.51628715      -0.01289811       0.59712054 </v>
    <v>       0.00189309       0.49621383       0.59937728 </v>
    <v>       0.50385984       0.49228032       0.59479675 </v>
    <v>       0.19552727       0.10894546       0.66691505 </v>
    <v>       0.19362829       0.11274342       0.63401508 </v>
   </varray>
  </structure>
  <varray name="forces" >
   <v>       0.01800336       0.02466268      -0.42156993 </v>
   <v>      -0.01800336       0.02466268      -0.42156993 </v>
   <v>       0.00000000      -0.01719092      -0.38724001 </v>
   <v>       0.00000000      -0.01194304      -0.44039544 </v>
   <v>       0.00000000       0.06037524       0.43255705 </v>
   <v>      -0.00000000      -0.02902640       0.45768284 </v>
   <v>      -0.04017561      -0.05080408       0.30532551 </v>
   <v>       0.04017561      -0.05080408       0.30532551 </v>
   <v>       0.06293789      -0.05243499       0.02051912 </v>
   <v>      -0.06293789      -0.05243499       0.02051912 </v>
   <v>      -0.00000000      -0.05860904      -0.00363181 </v>
   <v>       0.00000000       0.09291734       0.32849952 </v>
   <v>       0.57485139       0.10395023       0.10232040 </v>
   <v>      -0.57485139       0.10395023       0.10232040 </v>
   <v>      -0.00000000      -0.41102449      -0.15283451 </v>
   <v>       0.00000000       0.02236955      -0.23349758 </v>
   <v>      -0.00000000       0.09065919      -1.38854496 </v>
   <v>       0.00000000       0.21072492       1.37421470 </v>
  </varray>
  <varray name="stress" >
   <v>     -10.96079764       0.00000000       0.00000000 </v>
   <v>       0.00000000     -11.60052023       1.35162531 </v>
   <v>       0.00000000       1.35162366       1.77968948 </v>
  </varray>
  <energy>
   <i name="e_fr_energy">   -109.27158592 </i>
   <i name="e_wo_entrp">   -109.26546085 </i>
   <i name="e_0_energy">   -109.26954423 </i>
  </energy>
  <time name="totalsc">   72.90   72.12</time>
 </calculation>
 <calculation>
  <scstep>
   <time name="dav">    4.38    4.38</time>
   <time name="total">    4.75    4.72</time>
   <energy>
    <i name="alphaZ">    271.64501344 </i>
    <i name="ewald"> 148398.37140385 </i>
    <i name="hartreedc">-160614.68651110 </i>
    <i name="XCdc">     91.48646358 </i>
    <i name="pawpsdc">  15242.40617215 </i>
    <i name="pawaedc"> -14838.14144027 </i>
    <i name="eentropy">     -0.00543233 </i>
    <i name="bandstr">   -905.48642634 </i>
    <i name="atom">  12245.18164884 </i>
    <i name="e_fr_energy">   -109.22910816 </i>
    <i name="e_wo_entrp">   -109.22367584 </i>
    <i name="e_0_energy">   -109.22729739 </i>
   </energy>
  </scstep>
  <scstep>
   <time name="dav">    4.48    4.48</time>
   <time name="total">    4.84    4.82</time>
   <energy>
    <i name="e_fr_energy">   -109.32415357 </i>
    <i name="e_wo_entrp">   -109.31846288 </i>
    <i name="e_0_energy">   -109.32225668 </i>
   </energy>
  </scstep>
  <scstep>
   <time name="dav">    4.92    4.92</time>
   <time name="total">    5.28    5.26</time>
   <energy>
    <i name="e_fr_energy">   -109.30601942 </i>
    <i name="e_wo_entrp">   -109.30118714 </i>
    <i name="e_0_energy">   -109.30440866 </i>
   </energy>
  </scstep>
  <scstep>
   <time name="dav">    4.78    4.78</time>
   <time name="total">    5.14    5.12</time>
   <energy>
    <i name="e_fr_energy">   -109.30035906 </i>
    <i name="e_wo_entrp">   -109.29451064 </i>
    <i name="e_0_energy">   -109.29840959 </i>
   </energy>
  </scstep>
  <scstep>
   <time name="dav">    4.70    4.70</time>
   <time name="total">    5.06    5.04</time>
   <energy>
    <i name="e_fr_energy">   -109.29520539 </i>
    <i name="e_wo_entrp">   -109.28922127 </i>
    <i name="e_0_energy">   -109.29321068 </i>
   </energy>
  </scstep>
  <scstep>
   <time name="dav">    4.73    4.73</time>
   <time name="total">    5.10    5.07</time>
   <energy>
    <i name="e_fr_energy">   -109.29389993 </i>
    <i name="e_wo_entrp">   -109.28780709 </i>
    <i name="e_0_energy">   -109.29186898 </i>
   </energy>
  </scstep>
  <scstep>
   <time name="dav">    4.63    4.63</time>
   <time name="total">    5.00    4.98</time>
   <energy>
    <i name="e_fr_energy">   -109.29287601 </i>
    <i name="e_wo_entrp">   -109.28747710 </i>
    <i name="e_0_energy">   -109.29107637 </i>
   </energy>
  </scstep>
  <scstep>
   <time name="dav">    4.75    4.75</time>
   <time name="total">    5.12    5.10</time>
   <energy>
    <i name="e_fr_energy">   -109.29277332 </i>
    <i name="e_wo_entrp">   -109.28676303 </i>
    <i name="e_0_energy">   -109.29076989 </i>
   </energy>
  </scstep>
  <scstep>
   <time name="dav">    4.65    4.65</time>
   <time name="total">    5.02    4.99</time>
   <energy>
    <i name="e_fr_energy">   -109.29271666 </i>
    <i name="e_wo_entrp">   -109.28690707 </i>
    <i name="e_0_energy">   -109.29078013 </i>
   </energy>
  </scstep>
  <scstep>
   <time name="dav">    4.79    4.79</time>
   <time name="total">    5.15    5.13</time>
   <energy>
    <i name="e_fr_energy">   -109.29277161 </i>
    <i name="e_wo_entrp">   -109.28693852 </i>
    <i name="e_0_energy">   -109.29082725 </i>
   </energy>
  </scstep>
  <scstep>
   <time name="dav">    4.58    4.58</time>
   <time name="total">    4.95    4.92</time>
   <energy>
    <i name="e_fr_energy">   -109.29274790 </i>
    <i name="e_wo_entrp">   -109.28693487 </i>
    <i name="e_0_energy">   -109.29081022 </i>
   </energy>
  </scstep>
  <scstep>
   <time name="dav">    3.42    3.42</time>
   <time name="total">    3.79    3.76</time>
   <energy>
    <i name="e_fr_energy">   -109.29269204 </i>
    <i name="e_wo_entrp">   -109.28687313 </i>
    <i name="e_0_energy">   -109.29075241 </i>
   </energy>
  </scstep>
  <scstep>
   <time name="dav">    3.14    3.14</time>
   <time name="total">    3.19    3.17</time>
   <energy>
    <i name="alphaZ">    271.64501344 </i>
    <i name="ewald"> 148398.37140385 </i>
    <i name="hartreedc">-160617.66730040 </i>
    <i name="XCdc">     91.52317219 </i>
    <i name="pawpsdc">  15277.10490997 </i>
    <i name="pawaedc"> -14872.90448111 </i>
    <i name="eentropy">     -0.00578966 </i>
    <i name="bandstr">   -902.54126754 </i>
    <i name="atom">  12245.18164884 </i>
    <i name="e_fr_energy">   -109.29269041 </i>
    <i name="e_wo_entrp">   -109.28690075 </i>
    <i name="e_0_energy">   -109.29076053 </i>
   </energy>
  </scstep>
  <structure>
   <crystal>
    <varray name="basis" >
     <v>       5.54371716       0.00000000       0.00000000 </v>
     <v>       2.77185858       4.80099990       0.00000000 </v>
     <v>       0.00000000       0.00000000      36.78963917 </v>
    </varray>
    <i name="volume">    979.17042988 </i>
    <varray name="rec_basis" >
     <v>       0.18038438      -0.10414497       0.00000000 </v>
     <v>       0.00000000       0.20828994       0.00000000 </v>
     <v>       0.00000000       0.00000000       0.02718157 </v>
    </varray>
   </crystal>
   <varray name="positions" >
    <v>       0.00000000       0.00000000       0.40772349 </v>
    <v>       0.50000000       0.00000000       0.40772349 </v>
    <v>       0.00000000       0.50000000       0.40772349 </v>
    <v>       0.50000000       0.50000000       0.40772349 </v>
    <v>       0.16666667       0.16666667       0.46924116 </v>
    <v>       0.66666667       0.16666667       0.46924116 </v>
    <v>       0.16666667       0.66666667       0.46924116 </v>
    <v>       0.66666667       0.66666667       0.46924116 </v>
    <v>       0.83583189       0.33140321       0.53221836 </v>
    <v>       0.33276491       0.33140321       0.53221836 </v>
    <v>       0.83531762       0.82936476       0.53269489 </v>
    <v>       0.33412357       0.83175287       0.53125577 </v>
    <v>      -0.00291345      -0.00955575       0.59675824 </v>
    <v>       0.51246920      -0.00955575       0.59675824 </v>
    <v>       0.00218841       0.49562318       0.59962507 </v>
    <v>       0.50245872       0.49508255       0.59399707 </v>
    <v>       0.20162251       0.09675498       0.66649754 </v>
    <v>       0.19296856       0.11406289       0.63409936 </v>
   </varray>
  </structure>
  <varray name="forces" >
   <v>       0.02117184       0.02189484      -0.41812281 </v>
   <v>      -0.02117184       0.02189484      -0.41812281 </v>
   <v>      -0.00000000      -0.02196132      -0.39548365 </v>
   <v>      -0.00000000      -0.00579347      -0.45043255 </v>
   <v>      -0.00000000       0.04697631       0.42911039 </v>
   <v>      -0.00000000      -0.03192123       0.45606766 </v>
   <v>      -0.02813564      -0.04236587       0.32130892 </v>
   <v>       0.02813564      -0.04236587       0.32130892 </v>
   <v>       0.00500469      -0.04809388      -0.04058539 </v>
   <v>      -0.00500469      -0.04809388      -0.04058539 </v>
   <v>      -0.00000000       0.00795701      -0.01003638 </v>
   <v>      -0.00000000       0.03804955       0.16914198 </v>
   <v>       0.25110846      -0.00816904       0.08270129 </v>
   <v>      -0.25110846      -0.00816904       0.08270129 </v>
   <v>       0.00000000      -0.18226378      -0.14355170 </v>
   <v>      -0.00000000      -0.03207541      -0.05882733 </v>
   <v>      -0.00000000       0.19310009      -0.15389528 </v>
   <v>      -0.00000000       0.14140013       0.26730283 </v>
  </varray>
  <varray name="stress" >
   <v>     -10.50837223       0.00000000       0.00000000 </v>
   <v>       0.00000000     -11.46477990       1.63687406 </v>
   <v>       0.00000000       1.63687211       5.57511294 </v>
  </varray>
  <energy>
   <i name="e_fr_energy">   -109.29269041 </i>
   <i name="e_wo_entrp">   -109.28690075 </i>
   <i name="e_0_energy">   -109.29076053 </i>
  </energy>
  <time name="totalsc">   75.96   75.16</time>
 </calculation>
 <calculation>
  <scstep>
   <time name="dav">    4.38    4.38</time>
   <time name="total">    4.75    4.72</time>
   <energy>
    <i name="alphaZ">    271.64501344 </i>
    <i name="ewald"> 148390.80328591 </i>
    <i name="hartreedc">-160610.24426181 </i>
    <i name="XCdc">     91.51687917 </i>
    <i name="pawpsdc">  15277.01784731 </i>
    <i name="pawaedc"> -14872.81749686 </i>
    <i name="eentropy">     -0.00582288 </i>
    <i name="bandstr">   -902.38968925 </i>
    <i name="atom">  12245.18164884 </i>
    <i name="e_fr_energy">   -109.29259612 </i>
    <i name="e_wo_entrp">   -109.28677324 </i>
    <i name="e_0_energy">   -109.29065516 </i>
   </energy>
  </scstep>
  <scstep>
   <time name="dav">    4.54    4.54</time>
   <time name="total">    4.90    4.87</time>
   <energy>
    <i name="e_fr_energy">   -109.29286732 </i>
    <i name="e_wo_entrp">   -109.28716352 </i>
    <i name="e_0_energy">   -109.29096605 </i>
   </energy>
  </scstep>
  <scstep>
   <time name="dav">    4.84    4.84</time>
   <time name="total">    5.20    5.18</time>
   <energy>
    <i name="e_fr_energy">   -109.29275496 </i>
    <i name="e_wo_entrp">   -109.28694479 </i>
    <i name="e_0_energy">   -109.29081824 </i>
   </energy>
  </scstep>
  <scstep>
   <time name="dav">    3.97    3.97</time>
   <time name="total">    4.33    4.31</time>
   <energy>
    <i name="e_fr_energy">   -109.29275099 </i>
    <i name="e_wo_entrp">   -109.28696064 </i>
    <i name="e_0_energy">   -109.29082088 </i>
   </energy>
  </scstep>
  <scstep>
   <time name="dav">    3.04    3.04</time>
   <time name="total">    3.40    3.38</time>
   <energy>
    <i name="e_fr_energy">   -109.29274048 </i>
    <i name="e_wo_entrp">   -109.28694299 </i>
    <i name="e_0_energy">   -109.29080798 </i>
   </energy>
  </scstep>
  <scstep>
   <time name="dav">    3.09    3.09</time>
   <time name="total">    3.14    3.13</time>
   <energy>
    <i name="alphaZ">    271.64501344 </i>
    <i name="ewald"> 148390.80328591 </i>
    <i name="hartreedc">-160610.28268956 </i>
    <i name="XCdc">     91.51589683 </i>
    <i name="pawpsdc">  15275.65520198 </i>
    <i name="pawaedc"> -14871.45208635 </i>
    <i name="eentropy">     -0.00576458 </i>
    <i name="bandstr">   -902.35324740 </i>
    <i name="atom">  12245.18164884 </i>
    <i name="e_fr_energy">   -109.29274088 </i>
    <i name="e_wo_entrp">   -109.28697630 </i>
    <i name="e_0_energy">   -109.29081936 </i>
   </energy>
  </scstep>
  <structure>
   <crystal>
    <varray name="basis" >
     <v>       5.54371716       0.00000000       0.00000000 </v>
     <v>       2.77185858       4.80099990       0.00000000 </v>
     <v>       0.00000000       0.00000000      36.78963917 </v>
    </varray>
    <i name="volume">    979.17042988 </i>
    <varray name="rec_basis" >
     <v>       0.18038438      -0.10414497       0.00000000 </v>
     <v>       0.00000000       0.20828994       0.00000000 </v>
     <v>       0.00000000       0.00000000       0.02718157 </v>
    </varray>
   </crystal>
   <varray name="positions" >
    <v>       0.00000000       0.00000000       0.40772349 </v>
    <v>       0.50000000       0.00000000       0.40772349 </v>
    <v>       0.00000000       0.50000000       0.40772349 </v>
    <v>       0.50000000       0.50000000       0.40772349 </v>
    <v>       0.16666667       0.16666667       0.46924116 </v>
    <v>       0.66666667       0.16666667       0.46924116 </v>
    <v>       0.16666667       0.66666667       0.46924116 </v>
    <v>       0.66666667       0.66666667       0.46924116 </v>
    <v>       0.83580775       0.33139783       0.53222166 </v>
    <v>       0.33279441       0.33139783       0.53222166 </v>
    <v>       0.83528440       0.82943120       0.53269016 </v>
    <v>       0.33415485       0.83169029       0.53124892 </v>
    <v>      -0.00293606      -0.00971471       0.59677547 </v>
    <v>       0.51265078      -0.00971471       0.59677547 </v>
    <v>       0.00217436       0.49565128       0.59961329 </v>
    <v>       0.50252536       0.49494928       0.59403511 </v>
    <v>       0.20133262       0.09733475       0.66651739 </v>
    <v>       0.19299993       0.11400014       0.63409536 </v>
   </varray>
  </structure>
  <varray name="forces" >
   <v>       0.02113156       0.02204574      -0.41870464 </v>
   <v>      -0.02113156       0.02204574      -0.41870464 </v>
   <v>      -0.00000000      -0.02177395      -0.39620653 </v>
   <v>      -0.00000000      -0.00599104      -0.45110462 </v>
   <v>      -0.00000000       0.04761506       0.43013937 </v>
   <v>      -0.00000000      -0.03174304       0.45647928 </v>
   <v>      -0.02865229      -0.04277474       0.32108791 </v>
   <v>       0.02865229      -0.04277474       0.32108791 </v>
   <v>       0.00773301      -0.04818662      -0.03790547 </v>
   <v>      -0.00773301      -0.04818662      -0.03790547 </v>
   <v>      -0.00000000       0.00441258      -0.00980700 </v>
   <v>      -0.00000000       0.04070068       0.17740700 </v>
   <v>       0.26694941      -0.00255263       0.08402467 </v>
   <v>      -0.26694941      -0.00255263       0.08402467 </v>
   <v>       0.00000000      -0.19354993      -0.14330829 </v>
   <v>      -0.00000000      -0.02941088      -0.06898552 </v>
   <v>      -0.00000000       0.19057798      -0.20668910 </v>
   <v>       0.00000000       0.14209903       0.31507046 </v>
  </varray>
  <varray name="stress" >
   <v>     -10.54884857       0.00000000       0.00000000 </v>
   <v>       0.00000000     -11.49140580       1.62896189 </v>
   <v>       0.00000000       1.62896007       5.34316908 </v>
  </varray>
  <energy>
   <i name="e_fr_energy">   -109.29274088 </i>
   <i name="e_wo_entrp">   -109.28697630 </i>
   <i name="e_0_energy">   -109.29081936 </i>
  </energy>
  <time name="totalsc">   39.28   38.67</time>
 </calculation>
 <calculation>
  <scstep>
   <time name="dav">    4.38    4.38</time>
   <time name="total">    4.75    4.72</time>
   <energy>
    <i name="alphaZ">    271.64501344 </i>
    <i name="ewald"> 148370.24459945 </i>
    <i name="hartreedc">-160589.61968991 </i>
    <i name="XCdc">     91.50987034 </i>
    <i name="pawpsdc">  15275.31706890 </i>
    <i name="pawaedc"> -14871.11362119 </i>
    <i name="eentropy">     -0.00593964 </i>
    <i name="bandstr">   -902.45309028 </i>
    <i name="atom">  12245.18164884 </i>
    <i name="e_fr_energy">   -109.29414004 </i>
    <i name="e_wo_entrp">   -109.28820040 </i>
    <i name="e_0_energy">   -109.29216016 </i>
   </energy>
  </scstep>
  <scstep>
   <time name="dav">    4.45    4.45</time>
   <time name="total">    4.81    4.79</time>
   <energy>
    <i name="e_fr_energy">   -109.29601058 </i>
    <i name="e_wo_entrp">   -109.29036487 </i>
    <i name="e_0_energy">   -109.29412868 </i>
   </energy>
  </scstep>
  <scstep>
   <time name="dav">    4.92    4.92</time>
   <time name="total">    5.28    5.25</time>
   <energy>
    <i name="e_fr_energy">   -109.29582328 </i>
    <i name="e_wo_entrp">   -109.28988940 </i>
    <i name="e_0_energy">   -109.29384532 </i>
   </energy>
  </scstep>
  <scstep>
   <time name="dav">    4.89    4.89</time>
   <time name="total">    5.26    5.23</time>
   <energy>
    <i name="e_fr_energy">   -109.29573449 </i>
    <i name="e_wo_entrp">   -109.28983878 </i>
    <i name="e_0_energy">   -109.29376925 </i>
   </energy>
  </scstep>
  <scstep>
   <time name="dav">    4.73    4.73</time>
   <time name="total">    5.09    5.07</time>
   <energy>
    <i name="e_fr_energy">   -109.29559385 </i>
    <i name="e_wo_entrp">   -109.28985716 </i>
    <i name="e_0_energy">   -109.29368162 </i>
   </energy>
  </scstep>
  <scstep>
   <time name="dav">    4.78    4.78</time>
   <time name="total">    5.15    5.12</time>
   <energy>
    <i name="e_fr_energy">   -109.29556734 </i>
    <i name="e_wo_entrp">   -109.28957119 </i>
    <i name="e_0_energy">   -109.29356862 </i>
   </energy>
  </scstep>
  <scstep>
   <time name="dav">    4.60    4.60</time>
   <time name="total">    4.97    4.94</time>
   <energy>
    <i name="e_fr_energy">   -109.29554358 </i>
    <i name="e_wo_entrp">   -109.28967410 </i>
    <i name="e_0_energy">   -109.29358709 </i>
   </energy>
  </scstep>
  <scstep>
   <time name="dav">    3.22    3.22</time>
   <time name="total">    3.27    3.25</time>
   <energy>
    <i name="alphaZ">    271.64501344 </i>
    <i name="ewald"> 148370.24459945 </i>
    <i name="hartreedc">-160590.08025096 </i>
    <i name="XCdc">     91.51374143 </i>
    <i name="pawpsdc">  15275.08977605 </i>
    <i name="pawaedc"> -14870.87393672 </i>
    <i name="eentropy">     -0.00589600 </i>
    <i name="bandstr">   -902.01023571 </i>
    <i name="atom">  12245.18164884 </i>
    <i name="e_fr_energy">   -109.29554017 </i>
    <i name="e_wo_entrp">   -109.28964417 </i>
    <i name="e_0_energy">   -109.29357484 </i>
   </energy>
  </scstep>
  <structure>
   <crystal>
    <varray name="basis" >
     <v>       5.54371716       0.00000000       0.00000000 </v>
     <v>       2.77185858       4.80099990       0.00000000 </v>
     <v>       0.00000000       0.00000000      36.78963917 </v>
    </varray>
    <i name="volume">    979.17042988 </i>
    <varray name="rec_basis" >
     <v>       0.18038438      -0.10414497       0.00000000 </v>
     <v>       0.00000000       0.20828994       0.00000000 </v>
     <v>       0.00000000       0.00000000       0.02718157 </v>
    </varray>
   </crystal>
   <varray name="positions" >
    <v>       0.00000000       0.00000000       0.40772349 </v>
    <v>       0.50000000       0.00000000       0.40772349 </v>
    <v>       0.00000000       0.50000000       0.40772349 </v>
    <v>       0.50000000       0.50000000       0.40772349 </v>
    <v>       0.16666667       0.16666667       0.46924116 </v>
    <v>       0.66666667       0.16666667       0.46924116 </v>
    <v>       0.16666667       0.66666667       0.46924116 </v>
    <v>       0.66666667       0.66666667       0.46924116 </v>
    <v>       0.83578015       0.33131582       0.53222443 </v>
    <v>       0.33290403       0.33131582       0.53222443 </v>
    <v>       0.83518494       0.82963013       0.53267467 </v>
    <v>       0.33421762       0.83156477       0.53126092 </v>
    <v>      -0.00268130      -0.01017961       0.59684060 </v>
    <v>       0.51286092      -0.01017961       0.59684060 </v>
    <v>       0.00226699       0.49546603       0.59955331 </v>
    <v>       0.50273904       0.49452192       0.59413309 </v>
    <v>       0.20035989       0.09928022       0.66653785 </v>
    <v>       0.19299307       0.11401386       0.63414039 </v>
   </varray>
  </structure>
  <varray name="forces" >
   <v>       0.02090582       0.02251373      -0.41824832 </v>
   <v>      -0.02090582       0.02251373      -0.41824832 </v>
   <v>       0.00000000      -0.02142051      -0.39468431 </v>
   <v>       0.00000000      -0.00673519      -0.45014877 </v>
   <v>       0.00000000       0.04729098       0.43035152 </v>
   <v>       0.00000000      -0.03097687       0.45533559 </v>
   <v>      -0.02826063      -0.04310407       0.32067651 </v>
   <v>       0.02826063      -0.04310407       0.32067651 </v>
   <v>       0.01347153      -0.04486077      -0.02789693 </v>
   <v>      -0.01347153      -0.04486077      -0.02789693 </v>
   <v>       0.00000000      -0.00536131       0.00040171 </v>
   <v>       0.00000000       0.04145253       0.18580401 </v>
   <v>       0.27075815       0.00507463       0.07802954 </v>
   <v>      -0.27075815       0.00507463       0.07802954 </v>
   <v>       0.00000000      -0.19703895      -0.14729709 </v>
   <v>       0.00000000      -0.03030814      -0.09010499 </v>
   <v>      -0.00000000       0.16795325      -0.09817009 </v>
   <v>       0.00000000       0.15589718       0.20339082 </v>
  </varray>
  <varray name="stress" >
   <v>     -10.61815872       0.00000000       0.00000000 </v>
   <v>       0.00000000     -11.48643686       1.56742954 </v>
   <v>       0.00000000       1.56742782       5.47218703 </v>
  </varray>
  <energy>
   <i name="e_fr_energy">   -109.29554017 </i>
   <i name="e_wo_entrp">   -109.28964417 </i>
   <i name="e_0_energy">   -109.29357484 </i>
  </energy>
  <time name="totalsc">   52.19   51.52</time>
 </calculation>
 <calculation>
  <scstep>
   <time name="dav">    4.38    4.38</time>
   <time name="total">    4.74    4.72</time>
   <energy>
    <i name="alphaZ">    271.64501344 </i>
    <i name="ewald"> 148308.38915516 </i>
    <i name="hartreedc">-160528.16068258 </i>
    <i name="XCdc">     91.49397263 </i>
    <i name="pawpsdc">  15275.10682447 </i>
    <i name="pawaedc"> -14870.89088262 </i>
    <i name="eentropy">     -0.00622588 </i>
    <i name="bandstr">   -902.04756110 </i>
    <i name="atom">  12245.18164884 </i>
    <i name="e_fr_energy">   -109.28873764 </i>
    <i name="e_wo_entrp">   -109.28251176 </i>
    <i name="e_0_energy">   -109.28666234 </i>
   </energy>
  </scstep>
  <scstep>
   <time name="dav">    4.42    4.42</time>
   <time name="total">    4.78    4.76</time>
   <energy>
    <i name="e_fr_energy">   -109.30306980 </i>
    <i name="e_wo_entrp">   -109.29718596 </i>
    <i name="e_0_energy">   -109.30110852 </i>
   </energy>
  </scstep>
  <scstep>
   <time name="dav">    4.89    4.89</time>
   <time name="total">    5.25    5.23</time>
   <energy>
    <i name="e_fr_energy">   -109.30637490 </i>
    <i name="e_wo_entrp">   -109.29995103 </i>
    <i name="e_0_energy">   -109.30423361 </i>
   </energy>
  </scstep>
  <scstep>
   <time name="dav">    5.03    5.03</time>
   <time name="total">    5.39    5.36</time>
   <energy>
    <i name="e_fr_energy">   -109.30362600 </i>
    <i name="e_wo_entrp">   -109.29772264 </i>
    <i name="e_0_energy">   -109.30165821 </i>
   </energy>
  </scstep>
  <scstep>
   <time name="dav">    4.77    4.77</time>
   <time name="total">    5.13    5.10</time>
   <energy>
    <i name="e_fr_energy">   -109.30181633 </i>
    <i name="e_wo_entrp">   -109.29594710 </i>
    <i name="e_0_energy">   -109.29985992 </i>
   </energy>
  </scstep>
  <scstep>
   <time name="dav">    4.76    4.76</time>
   <time name="total">    5.13    5.11</time>
   <energy>
    <i name="e_fr_energy">   -109.30160984 </i>
    <i name="e_wo_entrp">   -109.29525555 </i>
    <i name="e_0_energy">   -109.29949174 </i>
   </energy>
  </scstep>
  <scstep>
   <time name="dav">    4.63    4.63</time>
   <time name="total">    5.00    4.98</time>
   <energy>
    <i name="e_fr_energy">   -109.30143096 </i>
    <i name="e_wo_entrp">   -109.29528247 </i>
    <i name="e_0_energy">   -109.29938146 </i>
   </energy>
  </scstep>
  <scstep>
   <time name="dav">    4.79    4.79</time>
   <time name="total">    5.15    5.13</time>
   <energy>
    <i name="e_fr_energy">   -109.30143187 </i>
    <i name="e_wo_entrp">   -109.29527743 </i>
    <i name="e_0_energy">   -109.29938039 </i>
   </energy>
  </scstep>
  <scstep>
   <time name="dav">    3.98    3.98</time>
   <time name="total">    4.03    4.01</time>
   <energy>
    <i name="alphaZ">    271.64501344 </i>
    <i name="ewald"> 148308.38915516 </i>
    <i name="hartreedc">-160529.45050910 </i>
    <i name="XCdc">     91.50563704 </i>
    <i name="pawpsdc">  15274.47046001 </i>
    <i name="pawaedc"> -14870.21774550 </i>
    <i name="eentropy">     -0.00612128 </i>
    <i name="bandstr">   -900.81897487 </i>
    <i name="atom">  12245.18164884 </i>
    <i name="e_fr_energy">   -109.30143625 </i>
    <i name="e_wo_entrp">   -109.29531498 </i>
    <i name="e_0_energy">   -109.29939583 </i>
   </energy>
  </scstep>
  <structure>
   <crystal>
    <varray name="basis" >
     <v>       5.54371716       0.00000000       0.00000000 </v>
     <v>       2.77185858       4.80099990       0.00000000 </v>
     <v>       0.00000000       0.00000000      36.78963917 </v>
    </varray>
    <i name="volume">    979.17042988 </i>
    <varray name="rec_basis" >
     <v>       0.18038438      -0.10414497       0.00000000 </v>
     <v>       0.00000000       0.20828994       0.00000000 </v>
     <v>       0.00000000       0.00000000       0.02718157 </v>
    </varray>
   </crystal>
   <varray name="positions" >
    <v>       0.00000000       0.00000000       0.40772349 </v>
    <v>       0.50000000       0.00000000       0.40772349 </v>
    <v>       0.00000000       0.50000000       0.40772349 </v>
    <v>       0.50000000       0.50000000       0.40772349 </v>
    <v>       0.16666667       0.16666667       0.46924116 </v>
    <v>       0.66666667       0.16666667       0.46924116 </v>
    <v>       0.16666667       0.66666667       0.46924116 </v>
    <v>       0.66666667       0.66666667       0.46924116 </v>
    <v>       0.83569733       0.33106978       0.53223274 </v>
    <v>       0.33323289       0.33106978       0.53223274 </v>
    <v>       0.83488655       0.83022690       0.53262821 </v>
    <v>       0.33440590       0.83118819       0.53129695 </v>
    <v>      -0.00191702      -0.01157432       0.59703597 </v>
    <v>       0.51349134      -0.01157432       0.59703597 </v>
    <v>       0.00254485       0.49491029       0.59937336 </v>
    <v>       0.50338008       0.49323983       0.59442703 </v>
    <v>       0.19744168       0.10511663       0.66659922 </v>
    <v>       0.19297249       0.11405502       0.63427551 </v>
   </varray>
  </structure>
  <varray name="forces" >
   <v>       0.02024599       0.02362881      -0.42038019 </v>
   <v>      -0.02024599       0.02362881      -0.42038019 </v>
   <v>       0.00000000      -0.02009334      -0.39513629 </v>
   <v>      -0.00000000      -0.00883622      -0.44734234 </v>
   <v>       0.00000000       0.04625112       0.43683797 </v>
   <v>       0.00000000      -0.02844224       0.45443946 </v>
   <v>      -0.02667838      -0.04429094       0.32293102 </v>
   <v>       0.02667838      -0.04429094       0.32293102 </v>
   <v>       0.02965683      -0.03416681      -0.00025809 </v>
   <v>      -0.02965683      -0.03416681      -0.00025809 </v>
   <v>       0.00000000      -0.03529141       0.02831574 </v>
   <v>       0.00000000       0.04272302       0.20922097 </v>
   <v>       0.28215089       0.02844666       0.05985855 </v>
   <v>      -0.28215089       0.02844666       0.05985855 </v>
   <v>       0.00000000      -0.20893489      -0.15637282 </v>
   <v>       0.00000000      -0.03417973      -0.15746908 </v>
   <v>       0.00000000       0.11281437       0.22242230 </v>
   <v>       0.00000000       0.18675389      -0.11921851 </v>
  </varray>
  <varray name="stress" >
   <v>     -10.93628069       0.00000000       0.00000000 </v>
   <v>       0.00000000     -11.59487438       1.40545828 </v>
   <v>       0.00000000       1.40545630       5.60756465 </v>
  </varray>
  <energy>
   <i name="e_fr_energy">   -109.30143625 </i>
   <i name="e_wo_entrp">   -109.29531498 </i>
   <i name="e_0_energy">   -109.29939583 </i>
  </energy>
  <time name="totalsc">   58.18   57.48</time>
 </calculation>
 <calculation>
  <scstep>
   <time name="dav">    4.38    4.38</time>
   <time name="total">    4.75    4.72</time>
   <energy>
    <i name="alphaZ">    271.64501344 </i>
    <i name="ewald"> 148183.85670026 </i>
    <i name="hartreedc">-160404.86953146 </i>
    <i name="XCdc">     91.45709501 </i>
    <i name="pawpsdc">  15274.46623504 </i>
    <i name="pawaedc"> -14870.21294531 </i>
    <i name="eentropy">     -0.00683843 </i>
    <i name="bandstr">   -900.76997101 </i>
    <i name="atom">  12245.18164884 </i>
    <i name="e_fr_energy">   -109.25259360 </i>
    <i name="e_wo_entrp">   -109.24575518 </i>
    <i name="e_0_energy">   -109.25031413 </i>
   </energy>
  </scstep>
  <scstep>
   <time name="dav">    4.44    4.44</time>
   <time name="total">    4.81    4.78</time>
   <energy>
    <i name="e_fr_energy">   -109.30998070 </i>
    <i name="e_wo_entrp">   -109.30382997 </i>
    <i name="e_0_energy">   -109.30793046 </i>
   </energy>
  </scstep>
  <scstep>
   <time name="dav">    4.87    4.87</time>
   <time name="total">    5.24    5.21</time>
   <energy>
    <i name="e_fr_energy">   -109.32279291 </i>
    <i name="e_wo_entrp">   -109.31594189 </i>
    <i name="e_0_energy">   -109.32050924 </i>
   </energy>
  </scstep>
  <scstep>
   <time name="dav">    5.07    5.07</time>
   <time name="total">    5.43    5.41</time>
   <energy>
    <i name="e_fr_energy">   -109.31265387 </i>
    <i name="e_wo_entrp">   -109.30658560 </i>
    <i name="e_0_energy">   -109.31063111 </i>
   </energy>
  </scstep>
  <scstep>
   <time name="dav">    4.76    4.76</time>
   <time name="total">    5.13    5.10</time>
   <energy>
    <i name="e_fr_energy">   -109.30503675 </i>
    <i name="e_wo_entrp">   -109.29911761 </i>
    <i name="e_0_energy">   -109.30306370 </i>
   </energy>
  </scstep>
  <scstep>
   <time name="dav">    4.78    4.78</time>
   <time name="total">    5.14    5.12</time>
   <energy>
    <i name="e_fr_energy">   -109.30439656 </i>
    <i name="e_wo_entrp">   -109.29700168 </i>
    <i name="e_0_energy">   -109.30193160 </i>
   </energy>
  </scstep>
  <scstep>
   <time name="dav">    4.65    4.65</time>
   <time name="total">    5.01    4.99</time>
   <energy>
    <i name="e_fr_energy">   -109.30356206 </i>
    <i name="e_wo_entrp">   -109.29712451 </i>
    <i name="e_0_energy">   -109.30141621 </i>
   </energy>
  </scstep>
  <scstep>
   <time name="dav">    4.82    4.82</time>
   <time name="total">    5.19    5.16</time>
   <energy>
    <i name="e_fr_energy">   -109.30356237 </i>
    <i name="e_wo_entrp">   -109.29676414 </i>
    <i name="e_0_energy">   -109.30129629 </i>
   </energy>
  </scstep>
  <scstep>
   <time name="dav">    4.61    4.61</time>
   <time name="total">    4.97    4.95</time>
   <energy>
    <i name="e_fr_energy">   -109.30353547 </i>
    <i name="e_wo_entrp">   -109.29690199 </i>
    <i name="e_0_energy">   -109.30132431 </i>
   </energy>
  </scstep>
  <scstep>
   <time name="dav">    4.77    4.77</time>
   <time name="total">    5.14    5.12</time>
   <energy>
    <i name="e_fr_energy">   -109.30344554 </i>
    <i name="e_wo_entrp">   -109.29679703 </i>
    <i name="e_0_energy">   -109.30122937 </i>
   </energy>
  </scstep>
  <scstep>
   <time name="dav">    4.27    4.27</time>
   <time name="total">    4.64    4.61</time>
   <energy>
    <i name="e_fr_energy">   -109.30342392 </i>
    <i name="e_wo_entrp">   -109.29678150 </i>
    <i name="e_0_energy">   -109.30120978 </i>
   </energy>
  </scstep>
  <scstep>
   <time name="dav">    3.28    3.28</time>
   <time name="total">    3.34    3.32</time>
   <energy>
    <i name="alphaZ">    271.64501344 </i>
    <i name="ewald"> 148183.85670026 </i>
    <i name="hartreedc">-160407.18758848 </i>
    <i name="XCdc">     91.47712941 </i>
    <i name="pawpsdc">  15270.58288332 </i>
    <i name="pawaedc"> -14866.25569275 </i>
    <i name="eentropy">     -0.00672667 </i>
    <i name="bandstr">   -898.59678865 </i>
    <i name="atom">  12245.18164884 </i>
    <i name="e_fr_energy">   -109.30342127 </i>
    <i name="e_wo_entrp">   -109.29669459 </i>
    <i name="e_0_energy">   -109.30117904 </i>
   </energy>
  </scstep>
  <structure>
   <crystal>
    <varray name="basis" >
     <v>       5.54371716       0.00000000       0.00000000 </v>
     <v>       2.77185858       4.80099990       0.00000000 </v>
     <v>       0.00000000       0.00000000      36.78963917 </v>
    </varray>
    <i name="volume">    979.17042988 </i>
    <varray name="rec_basis" >
     <v>       0.18038438      -0.10414497       0.00000000 </v>
     <v>       0.00000000       0.20828994       0.00000000 </v>
     <v>       0.00000000       0.00000000       0.02718157 </v>
    </varray>
   </crystal>
   <varray name="positions" >
    <v>       0.00000000       0.00000000       0.40772349 </v>
    <v>       0.50000000       0.00000000       0.40772349 </v>
    <v>       0.00000000       0.50000000       0.40772349 </v>
    <v>       0.50000000       0.50000000       0.40772349 </v>
    <v>       0.16666667       0.16666667       0.46924116 </v>
    <v>       0.66666667       0.16666667       0.46924116 </v>
    <v>       0.16666667       0.66666667       0.46924116 </v>
    <v>       0.66666667       0.66666667       0.46924116 </v>
    <v>       0.83553169       0.33057770       0.53224936 </v>
    <v>       0.33389062       0.33057770       0.53224936 </v>
    <v>       0.83428977       0.83142045       0.53253528 </v>
    <v>       0.33478248       0.83043504       0.53136899 </v>
    <v>      -0.00038846      -0.01436373       0.59742673 </v>
    <v>       0.51475218      -0.01436373       0.59742673 </v>
    <v>       0.00310059       0.49379882       0.59901346 </v>
    <v>       0.50466217       0.49067567       0.59501491 </v>
    <v>       0.19160527       0.11678945       0.66672196 </v>
    <v>       0.19293133       0.11413734       0.63454573 </v>
   </varray>
  </structure>
  <varray name="forces" >
   <v>       0.01864399       0.02639619      -0.41746041 </v>
   <v>      -0.01864399       0.02639619      -0.41746041 </v>
   <v>       0.00000000      -0.01656158      -0.39094411 </v>
   <v>       0.00000000      -0.01263925      -0.43788185 </v>
   <v>       0.00000000       0.04471056       0.44041460 </v>
   <v>       0.00000000      -0.02261158       0.44490469 </v>
   <v>      -0.02385231      -0.04612255       0.32062791 </v>
   <v>       0.02385231      -0.04612255       0.32062791 </v>
   <v>       0.06245976      -0.01279145       0.04875012 </v>
   <v>      -0.06245976      -0.01279145       0.04875012 </v>
   <v>       0.00000000      -0.09455381       0.08352453 </v>
   <v>       0.00000000       0.04865523       0.25090398 </v>
   <v>       0.30913622       0.07575655       0.03750275 </v>
   <v>      -0.30913622       0.07575655       0.03750275 </v>
   <v>       0.00000000      -0.23962238      -0.17434401 </v>
   <v>       0.00000000      -0.04389317      -0.27125168 </v>
   <v>       0.00000000       0.04234413       0.71772525 </v>
   <v>       0.00000000       0.20769435      -0.64189213 </v>
  </varray>
  <varray name="stress" >
   <v>     -11.48833025       0.00000000       0.00000000 </v>
   <v>       0.00000000     -11.73826665       1.15441153 </v>
   <v>       0.00000000       1.15440958       5.62773105 </v>
  </varray>
  <energy>
   <i name="e_fr_energy">   -109.30342127 </i>
   <i name="e_wo_entrp">   -109.29669459 </i>
   <i name="e_0_energy">   -109.30117904 </i>
  </energy>
  <time name="totalsc">   72.34   71.57</time>
 </calculation>
 <calculation>
  <scstep>
   <time name="dav">    4.38    4.38</time>
   <time name="total">    4.75    4.73</time>
   <energy>
    <i name="alphaZ">    271.64501344 </i>
    <i name="ewald"> 148165.43027849 </i>
    <i name="hartreedc">-160388.98354556 </i>
    <i name="XCdc">     91.46398844 </i>
    <i name="pawpsdc">  15270.48213004 </i>
    <i name="pawaedc"> -14866.15503136 </i>
    <i name="eentropy">     -0.00678458 </i>
    <i name="bandstr">   -898.36195799 </i>
    <i name="atom">  12245.18164884 </i>
    <i name="e_fr_energy">   -109.30426025 </i>
    <i name="e_wo_entrp">   -109.29747566 </i>
    <i name="e_0_energy">   -109.30199872 </i>
   </energy>
  </scstep>
  <scstep>
   <time name="dav">    4.42    4.42</time>
   <time name="total">    4.78    4.76</time>
   <energy>
    <i name="e_fr_energy">   -109.30545466 </i>
    <i name="e_wo_entrp">   -109.29874493 </i>
    <i name="e_0_energy">   -109.30321809 </i>
   </energy>
  </scstep>
  <scstep>
   <time name="dav">    4.86    4.86</time>
   <time name="total">    5.23    5.20</time>
   <energy>
    <i name="e_fr_energy">   -109.30565936 </i>
    <i name="e_wo_entrp">   -109.29878850 </i>
    <i name="e_0_energy">   -109.30336908 </i>
   </energy>
  </scstep>
  <scstep>
   <time name="dav">    4.96    4.96</time>
   <time name="total">    5.33    5.30</time>
   <energy>
    <i name="e_fr_energy">   -109.30553616 </i>
    <i name="e_wo_entrp">   -109.29880922 </i>
    <i name="e_0_energy">   -109.30329385 </i>
   </energy>
  </scstep>
  <scstep>
   <time name="dav">    4.61    4.61</time>
   <time name="total">    4.97    4.95</time>
   <energy>
    <i name="e_fr_energy">   -109.30538627 </i>
    <i name="e_wo_entrp">   -109.29869992 </i>
    <i name="e_0_energy">   -109.30315749 </i>
   </energy>
  </scstep>
  <scstep>
   <time name="dav">    4.71    4.71</time>
   <time name="total">    5.07    5.05</time>
   <energy>
    <i name="e_fr_energy">   -109.30538147 </i>
    <i name="e_wo_entrp">   -109.29854396 </i>
    <i name="e_0_energy">   -109.30310230 </i>
   </energy>
  </scstep>
  <scstep>
   <time name="dav">    4.43    4.43</time>
   <time name="total">    4.80    4.78</time>
   <energy>
    <i name="e_fr_energy">   -109.30536291 </i>
    <i name="e_wo_entrp">   -109.29862258 </i>
    <i name="e_0_energy">   -109.30311613 </i>
   </energy>
  </scstep>
  <scstep>
   <time name="dav">    2.85    2.84</time>
   <time name="total">    2.90    2.88</time>
   <energy>
    <i name="alphaZ">    271.64501344 </i>
    <i name="ewald"> 148165.43027849 </i>
    <i name="hartreedc">-160388.71221409 </i>
    <i name="XCdc">     91.46072043 </i>
    <i name="pawpsdc">  15266.75334225 </i>
    <i name="pawaedc"> -14862.41771573 </i>
    <i name="eentropy">     -0.00677315 </i>
    <i name="bandstr">   -898.63966297 </i>
    <i name="atom">  12245.18164884 </i>
    <i name="e_fr_energy">   -109.30536248 </i>
    <i name="e_wo_entrp">   -109.29858933 </i>
    <i name="e_0_energy">   -109.30310476 </i>
   </energy>
  </scstep>
  <structure>
   <crystal>
    <varray name="basis" >
     <v>       5.54371716       0.00000000       0.00000000 </v>
     <v>       2.77185858       4.80099990       0.00000000 </v>
     <v>       0.00000000       0.00000000      36.78963917 </v>
    </varray>
    <i name="volume">    979.17042988 </i>
    <varray name="rec_basis" >
     <v>       0.18038438      -0.10414497       0.00000000 </v>
     <v>       0.00000000       0.20828994       0.00000000 </v>
     <v>       0.00000000       0.00000000       0.02718157 </v>
    </varray>
   </crystal>
   <varray name="positions" >
    <v>       0.00000000       0.00000000       0.40772349 </v>
    <v>       0.50000000       0.00000000       0.40772349 </v>
    <v>       0.00000000       0.50000000       0.40772349 </v>
    <v>       0.50000000       0.50000000       0.40772349 </v>
    <v>       0.16666667       0.16666667       0.46924116 </v>
    <v>       0.66666667       0.16666667       0.46924116 </v>
    <v>       0.16666667       0.66666667       0.46924116 </v>
    <v>       0.66666667       0.66666667       0.46924116 </v>
    <v>       0.83553080       0.33050167       0.53225419 </v>
    <v>       0.33396753       0.33050167       0.53225419 </v>
    <v>       0.83422151       0.83155697       0.53252600 </v>
    <v>       0.33482765       0.83034470       0.53139189 </v>
    <v>      -0.00007984      -0.01473815       0.59748509 </v>
    <v>       0.51481799      -0.01473815       0.59748509 </v>
    <v>       0.00322661       0.49354678       0.59895276 </v>
    <v>       0.50485590       0.49028821       0.59508641 </v>
    <v>       0.19075337       0.11849326       0.66677541 </v>
    <v>       0.19288579       0.11422841       0.63455287 </v>
   </varray>
  </structure>
  <varray name="forces" >
   <v>       0.01860391       0.02719408      -0.41732035 </v>
   <v>      -0.01860391       0.02719408      -0.41732035 </v>
   <v>      -0.00000000      -0.01581540      -0.39076544 </v>
   <v>      -0.00000000      -0.01270281      -0.43798536 </v>
   <v>      -0.00000000       0.04435061       0.44172221 </v>
   <v>      -0.00000000      -0.02138310       0.44468117 </v>
   <v>      -0.02289072      -0.04567990       0.32165104 </v>
   <v>       0.02289072      -0.04567990       0.32165104 </v>
   <v>       0.06413142      -0.01005422       0.05261027 </v>
   <v>      -0.06413142      -0.01005422       0.05261027 </v>
   <v>       0.00000000      -0.09986062       0.09135755 </v>
   <v>      -0.00000000       0.04812864       0.25078045 </v>
   <v>       0.29774472       0.07683370       0.03348928 </v>
   <v>      -0.29774472       0.07683370       0.03348928 </v>
   <v>      -0.00000000      -0.23597032      -0.17307470 </v>
   <v>      -0.00000000      -0.04680271      -0.28256287 </v>
   <v>      -0.00000000       0.03026915       0.56279848 </v>
   <v>      -0.00000000       0.21319925      -0.48781197 </v>
  </varray>
  <varray name="stress" >
   <v>     -11.53489542       0.00000000       0.00000000 </v>
   <v>       0.00000000     -11.74081237       1.12964307 </v>
   <v>       0.00000000       1.12964125       5.24990509 </v>
  </varray>
  <energy>
   <i name="e_fr_energy">   -109.30536248 </i>
   <i name="e_wo_entrp">   -109.29858933 </i>
   <i name="e_0_energy">   -109.30310476 </i>
  </energy>
  <time name="totalsc">   51.40   50.73</time>
 </calculation>
 <calculation>
  <scstep>
   <time name="dav">    4.38    4.38</time>
   <time name="total">    4.75    4.72</time>
   <energy>
    <i name="alphaZ">    271.64501344 </i>
    <i name="ewald"> 148110.01756672 </i>
    <i name="hartreedc">-160333.96904401 </i>
    <i name="XCdc">     91.41943094 </i>
    <i name="pawpsdc">  15266.74200904 </i>
    <i name="pawaedc"> -14862.40604481 </i>
    <i name="eentropy">     -0.00696679 </i>
    <i name="bandstr">   -897.92222216 </i>
    <i name="atom">  12245.18164884 </i>
    <i name="e_fr_energy">   -109.29860878 </i>
    <i name="e_wo_entrp">   -109.29164199 </i>
    <i name="e_0_energy">   -109.29628652 </i>
   </energy>
  </scstep>
  <scstep>
   <time name="dav">    4.42    4.42</time>
   <time name="total">    4.78    4.75</time>
   <energy>
    <i name="e_fr_energy">   -109.30996089 </i>
    <i name="e_wo_entrp">   -109.30325655 </i>
    <i name="e_0_energy">   -109.30772611 </i>
   </energy>
  </scstep>
  <scstep>
   <time name="dav">    4.95    4.95</time>
   <time name="total">    5.32    5.29</time>
   <energy>
    <i name="e_fr_energy">   -109.31312165 </i>
    <i name="e_wo_entrp">   -109.30605499 </i>
    <i name="e_0_energy">   -109.31076610 </i>
   </energy>
  </scstep>
  <scstep>
   <time name="dav">    4.91    4.91</time>
   <time name="total">    5.28    5.25</time>
   <energy>
    <i name="e_fr_energy">   -109.30926931 </i>
    <i name="e_wo_entrp">   -109.30247742 </i>
    <i name="e_0_energy">   -109.30700535 </i>
   </energy>
  </scstep>
  <scstep>
   <time name="dav">    4.68    4.68</time>
   <time name="total">    5.04    5.02</time>
   <energy>
    <i name="e_fr_energy">   -109.30866614 </i>
    <i name="e_wo_entrp">   -109.30179929 </i>
    <i name="e_0_energy">   -109.30637719 </i>
   </energy>
  </scstep>
  <scstep>
   <time name="dav">    4.70    4.70</time>
   <time name="total">    5.07    5.04</time>
   <energy>
    <i name="e_fr_energy">   -109.30862058 </i>
    <i name="e_wo_entrp">   -109.30174045 </i>
    <i name="e_0_energy">   -109.30632720 </i>
   </energy>
  </scstep>
  <scstep>
   <time name="dav">    4.62    4.62</time>
   <time name="total">    5.00    4.97</time>
   <energy>
    <i name="e_fr_energy">   -109.30846640 </i>
    <i name="e_wo_entrp">   -109.30147267 </i>
    <i name="e_0_energy">   -109.30613515 </i>
   </energy>
  </scstep>
  <scstep>
   <time name="dav">    4.68    4.68</time>
   <time name="total">    5.05    5.02</time>
   <energy>
    <i name="e_fr_energy">   -109.30845247 </i>
    <i name="e_wo_entrp">   -109.30161835 </i>
    <i name="e_0_energy">   -109.30617443 </i>
   </energy>
  </scstep>
  <scstep>
   <time name="dav">    3.23    3.23</time>
   <time name="total">    3.30    3.27</time>
   <energy>
    <i name="alphaZ">    271.64501344 </i>
    <i name="ewald"> 148110.01756672 </i>
    <i name="hartreedc">-160332.64922251 </i>
    <i name="XCdc">     91.40798097 </i>
    <i name="pawpsdc">  15255.95761611 </i>
    <i name="pawaedc"> -14851.59403155 </i>
    <i name="eentropy">     -0.00691506 </i>
    <i name="bandstr">   -899.26810482 </i>
    <i name="atom">  12245.18164884 </i>
    <i name="e_fr_energy">   -109.30844786 </i>
    <i name="e_wo_entrp">   -109.30153280 </i>
    <i name="e_0_energy">   -109.30614284 </i>
   </energy>
  </scstep>
  <structure>
   <crystal>
    <varray name="basis" >
     <v>       5.54371716       0.00000000       0.00000000 </v>
     <v>       2.77185858       4.80099990       0.00000000 </v>
     <v>       0.00000000       0.00000000      36.78963917 </v>
    </varray>
    <i name="volume">    979.17042988 </i>
    <varray name="rec_basis" >
     <v>       0.18038438      -0.10414497       0.00000000 </v>
     <v>       0.00000000       0.20828994       0.00000000 </v>
     <v>       0.00000000       0.00000000       0.02718157 </v>
    </varray>
   </crystal>
   <varray name="positions" >
    <v>       0.00000000       0.00000000       0.40772349 </v>
    <v>       0.50000000       0.00000000       0.40772349 </v>
    <v>       0.00000000       0.50000000       0.40772349 </v>
    <v>       0.50000000       0.50000000       0.40772349 </v>
    <v>       0.16666667       0.16666667       0.46924116 </v>
    <v>       0.66666667       0.16666667       0.46924116 </v>
    <v>       0.16666667       0.66666667       0.46924116 </v>
    <v>       0.66666667       0.66666667       0.46924116 </v>
    <v>       0.83552812       0.33027361       0.53226867 </v>
    <v>       0.33419827       0.33027361       0.53226867 </v>
    <v>       0.83401673       0.83196654       0.53249816 </v>
    <v>       0.33496317       0.83007366       0.53146059 </v>
    <v>       0.00084600      -0.01586140       0.59766017 </v>
    <v>       0.51501540      -0.01586140       0.59766017 </v>
    <v>       0.00360467       0.49279066       0.59877064 </v>
    <v>       0.50543709       0.48912582       0.59530092 </v>
    <v>       0.18819766       0.12360468       0.66693575 </v>
    <v>       0.19274919       0.11450163       0.63457428 </v>
   </varray>
  </structure>
  <varray name="forces" >
   <v>       0.01812404       0.02806741      -0.41811858 </v>
   <v>      -0.01812404       0.02806741      -0.41811858 </v>
   <v>       0.00000000      -0.01452931      -0.39243345 </v>
   <v>       0.00000000      -0.01435275      -0.43609305 </v>
   <v>       0.00000000       0.04184441       0.44877139 </v>
   <v>       0.00000000      -0.01867472       0.44615865 </v>
   <v>      -0.01947754      -0.04576684       0.32678300 </v>
   <v>       0.01947754      -0.04576684       0.32678300 </v>
   <v>       0.06926948      -0.00217706       0.06490398 </v>
   <v>      -0.06926948      -0.00217706       0.06490398 </v>
   <v>       0.00000000      -0.11857409       0.11599289 </v>
   <v>       0.00000000       0.04574101       0.24991384 </v>
   <v>       0.26340096       0.08204370       0.01887387 </v>
   <v>      -0.26340096       0.08204370       0.01887387 </v>
   <v>      -0.00000000      -0.22457295      -0.16575574 </v>
   <v>       0.00000000      -0.05378663      -0.32171165 </v>
   <v>       0.00000000      -0.01119299       0.08469302 </v>
   <v>      -0.00000000       0.24376361      -0.01442043 </v>
  </varray>
  <varray name="stress" >
   <v>     -11.71811892       0.00000000       0.00000000 </v>
   <v>       0.00000000     -11.80202873       1.03199169 </v>
   <v>       0.00000000       1.03198963       3.99810654 </v>
  </varray>
  <energy>
   <i name="e_fr_energy">   -109.30844786 </i>
   <i name="e_wo_entrp">   -109.30153280 </i>
   <i name="e_0_energy">   -109.30614284 </i>
  </energy>
  <time name="totalsc">   57.13   56.43</time>
 </calculation>
 <calculation>
  <scstep>
   <time name="dav">    4.38    4.38</time>
   <time name="total">    4.75    4.73</time>
   <energy>
    <i name="alphaZ">    271.64501344 </i>
    <i name="ewald"> 148098.92824148 </i>
    <i name="hartreedc">-160321.68372435 </i>
    <i name="XCdc">     91.39957863 </i>
    <i name="pawpsdc">  15255.87134844 </i>
    <i name="pawaedc"> -14851.50718237 </i>
    <i name="eentropy">     -0.00691037 </i>
    <i name="bandstr">   -899.13615692 </i>
    <i name="atom">  12245.18164884 </i>
    <i name="e_fr_energy">   -109.30814316 </i>
    <i name="e_wo_entrp">   -109.30123279 </i>
    <i name="e_0_energy">   -109.30583970 </i>
   </energy>
  </scstep>
  <scstep>
   <time name="dav">    4.53    4.53</time>
   <time name="total">    4.89    4.87</time>
   <energy>
    <i name="e_fr_energy">   -109.30872398 </i>
    <i name="e_wo_entrp">   -109.30166342 </i>
    <i name="e_0_energy">   -109.30637046 </i>
   </energy>
  </scstep>
  <scstep>
   <time name="dav">    4.95    4.95</time>
   <time name="total">    5.31    5.29</time>
   <energy>
    <i name="e_fr_energy">   -109.30878164 </i>
    <i name="e_wo_entrp">   -109.30191134 </i>
    <i name="e_0_energy">   -109.30649154 </i>
   </energy>
  </scstep>
  <scstep>
   <time name="dav">    4.76    4.76</time>
   <time name="total">    5.12    5.10</time>
   <energy>
    <i name="e_fr_energy">   -109.30857210 </i>
    <i name="e_wo_entrp">   -109.30172164 </i>
    <i name="e_0_energy">   -109.30628861 </i>
   </energy>
  </scstep>
  <scstep>
   <time name="dav">    3.87    3.87</time>
   <time name="total">    4.23    4.20</time>
   <energy>
    <i name="e_fr_energy">   -109.30855895 </i>
    <i name="e_wo_entrp">   -109.30158823 </i>
    <i name="e_0_energy">   -109.30623538 </i>
   </energy>
  </scstep>
  <scstep>
   <time name="dav">    4.09    4.09</time>
   <time name="total">    4.15    4.13</time>
   <energy>
    <i name="alphaZ">    271.64501344 </i>
    <i name="ewald"> 148098.92824148 </i>
    <i name="hartreedc">-160321.38506425 </i>
    <i name="XCdc">     91.39700016 </i>
    <i name="pawpsdc">  15253.85225432 </i>
    <i name="pawaedc"> -14849.48341250 </i>
    <i name="eentropy">     -0.00688836 </i>
    <i name="bandstr">   -899.43735451 </i>
    <i name="atom">  12245.18164884 </i>
    <i name="e_fr_energy">   -109.30856137 </i>
    <i name="e_wo_entrp">   -109.30167301 </i>
    <i name="e_0_energy">   -109.30626525 </i>
   </energy>
  </scstep>
  <structure>
   <crystal>
    <varray name="basis" >
     <v>       5.54371716       0.00000000       0.00000000 </v>
     <v>       2.77185858       4.80099990       0.00000000 </v>
     <v>       0.00000000       0.00000000      36.78963917 </v>
    </varray>
    <i name="volume">    979.17042988 </i>
    <varray name="rec_basis" >
     <v>       0.18038438      -0.10414497       0.00000000 </v>
     <v>       0.00000000       0.20828994       0.00000000 </v>
     <v>       0.00000000       0.00000000       0.02718157 </v>
    </varray>
   </crystal>
   <varray name="positions" >
    <v>       0.00000000       0.00000000       0.40772349 </v>
    <v>       0.50000000       0.00000000       0.40772349 </v>
    <v>       0.00000000       0.50000000       0.40772349 </v>
    <v>       0.50000000       0.50000000       0.40772349 </v>
    <v>       0.16666667       0.16666667       0.46924116 </v>
    <v>       0.66666667       0.16666667       0.46924116 </v>
    <v>       0.16666667       0.66666667       0.46924116 </v>
    <v>       0.66666667       0.66666667       0.46924116 </v>
    <v>       0.83552759       0.33022806       0.53227156 </v>
    <v>       0.33424435       0.33022806       0.53227156 </v>
    <v>       0.83397584       0.83204833       0.53249260 </v>
    <v>       0.33499023       0.83001954       0.53147430 </v>
    <v>       0.00103089      -0.01608571       0.59769513 </v>
    <v>       0.51505482      -0.01608571       0.59769513 </v>
    <v>       0.00368017       0.49263967       0.59873427 </v>
    <v>       0.50555315       0.48889370       0.59534376 </v>
    <v>       0.18768730       0.12462541       0.66696777 </v>
    <v>       0.19272191       0.11455619       0.63457856 </v>
   </varray>
  </structure>
  <varray name="forces" >
   <v>       0.01830860       0.02857371      -0.41750215 </v>
   <v>      -0.01830860       0.02857371      -0.41750215 </v>
   <v>      -0.00000000      -0.01420589      -0.39241539 </v>
   <v>       0.00000000      -0.01434355      -0.43665931 </v>
   <v>       0.00000000       0.04134661       0.45006547 </v>
   <v>      -0.00000000      -0.01767343       0.44591294 </v>
   <v>      -0.01856873      -0.04555359       0.32790015 </v>
   <v>       0.01856873      -0.04555359       0.32790015 </v>
   <v>       0.07052302      -0.00055509       0.06580583 </v>
   <v>      -0.07052302      -0.00055509       0.06580583 </v>
   <v>       0.00000000      -0.12190834       0.12068037 </v>
   <v>       0.00000000       0.04563480       0.24865936 </v>
   <v>       0.25637862       0.08179310       0.01730311 </v>
   <v>      -0.25637862       0.08179310       0.01730311 </v>
   <v>      -0.00000000      -0.22407220      -0.16478897 </v>
   <v>       0.00000000      -0.05640132      -0.32782060 </v>
   <v>      -0.00000000      -0.01928644      -0.00821325 </v>
   <v>      -0.00000000       0.25239350       0.07756549 </v>
  </varray>
  <varray name="stress" >
   <v>     -11.78019300       0.00000000       0.00000000 </v>
   <v>       0.00000000     -11.85482406       1.01264608 </v>
   <v>       0.00000000       1.01264398       3.68618018 </v>
  </varray>
  <energy>
   <i name="e_fr_energy">   -109.30856137 </i>
   <i name="e_wo_entrp">   -109.30167301 </i>
   <i name="e_0_energy">   -109.30626525 </i>
  </energy>
  <time name="totalsc">   42.01   41.39</time>
 </calculation>
 <calculation>
  <scstep>
   <time name="dav">    4.38    4.38</time>
   <time name="total">    4.75    4.73</time>
   <energy>
    <i name="alphaZ">    271.64501344 </i>
    <i name="ewald"> 148100.00609506 </i>
    <i name="hartreedc">-160322.30161749 </i>
    <i name="XCdc">     91.39923483 </i>
    <i name="pawpsdc">  15253.52695824 </i>
    <i name="pawaedc"> -14849.15758199 </i>
    <i name="eentropy">     -0.00691954 </i>
    <i name="bandstr">   -899.60293644 </i>
    <i name="atom">  12245.18164884 </i>
    <i name="e_fr_energy">   -109.31010504 </i>
    <i name="e_wo_entrp">   -109.30318550 </i>
    <i name="e_0_energy">   -109.30779853 </i>
   </energy>
  </scstep>
  <scstep>
   <time name="dav">    4.73    4.73</time>
   <time name="total">    5.10    5.07</time>
   <energy>
    <i name="e_fr_energy">   -109.31045196 </i>
    <i name="e_wo_entrp">   -109.30355531 </i>
    <i name="e_0_energy">   -109.30815307 </i>
   </energy>
  </scstep>
  <scstep>
   <time name="dav">    4.81    4.81</time>
   <time name="total">    5.17    5.15</time>
   <energy>
    <i name="e_fr_energy">   -109.31015232 </i>
    <i name="e_wo_entrp">   -109.30328118 </i>
    <i name="e_0_energy">   -109.30786194 </i>
   </energy>
  </scstep>
  <scstep>
   <time name="dav">    3.68    3.68</time>
   <time name="total">    3.74    3.72</time>
   <energy>
    <i name="alphaZ">    271.64501344 </i>
    <i name="ewald"> 148100.00609506 </i>
    <i name="hartreedc">-160322.23489247 </i>
    <i name="XCdc">     91.39926045 </i>
    <i name="pawpsdc">  15253.67014762 </i>
    <i name="pawaedc"> -14849.30047934 </i>
    <i name="eentropy">     -0.00696803 </i>
    <i name="bandstr">   -899.66998608 </i>
    <i name="atom">  12245.18164884 </i>
    <i name="e_fr_energy">   -109.31016050 </i>
    <i name="e_wo_entrp">   -109.30319247 </i>
    <i name="e_0_energy">   -109.30783782 </i>
   </energy>
  </scstep>
  <structure>
   <crystal>
    <varray name="basis" >
     <v>       5.54371716       0.00000000       0.00000000 </v>
     <v>       2.77185858       4.80099990       0.00000000 </v>
     <v>       0.00000000       0.00000000      36.78963917 </v>
    </varray>
    <i name="volume">    979.17042988 </i>
    <varray name="rec_basis" >
     <v>       0.18038438      -0.10414497       0.00000000 </v>
     <v>       0.00000000       0.20828994       0.00000000 </v>
     <v>       0.00000000       0.00000000       0.02718157 </v>
    </varray>
   </crystal>
   <varray name="positions" >
    <v>       0.00000000       0.00000000       0.40772349 </v>
    <v>       0.50000000       0.00000000       0.40772349 </v>
    <v>       0.00000000       0.50000000       0.40772349 </v>
    <v>       0.50000000       0.50000000       0.40772349 </v>
    <v>       0.16666667       0.16666667       0.46924116 </v>
    <v>       0.66666667       0.16666667       0.46924116 </v>
    <v>       0.16666667       0.66666667       0.46924116 </v>
    <v>       0.66666667       0.66666667       0.46924116 </v>
    <v>       0.83556773       0.33022113       0.53227761 </v>
    <v>       0.33421114       0.33022113       0.53227761 </v>
    <v>       0.83400989       0.83198022       0.53250212 </v>
    <v>       0.33497918       0.83004164       0.53149756 </v>
    <v>       0.00117632      -0.01606447       0.59770166 </v>
    <v>       0.51488814      -0.01606447       0.59770166 </v>
    <v>       0.00376451       0.49247098       0.59871492 </v>
    <v>       0.50558839       0.48882322       0.59532190 </v>
    <v>       0.18761994       0.12476011       0.66697169 </v>
    <v>       0.19263524       0.11472953       0.63458581 </v>
   </varray>
  </structure>
  <varray name="forces" >
   <v>       0.01812363       0.02804181      -0.41528818 </v>
   <v>      -0.01812363       0.02804181      -0.41528818 </v>
   <v>       0.00000000      -0.01439483      -0.39040591 </v>
   <v>      -0.00000000      -0.01468447      -0.43238429 </v>
   <v>       0.00000000       0.04009841       0.44947107 </v>
   <v>       0.00000000      -0.01815128       0.44604419 </v>
   <v>      -0.01785349      -0.04532030       0.32830959 </v>
   <v>       0.01785349      -0.04532030       0.32830959 </v>
   <v>       0.06474916      -0.00296136       0.05942397 </v>
   <v>      -0.06474916      -0.00296136       0.05942397 </v>
   <v>       0.00000000      -0.11558470       0.11870163 </v>
   <v>      -0.00000000       0.04276182       0.23708080 </v>
   <v>       0.23479015       0.07419838       0.01423799 </v>
   <v>      -0.23479015       0.07419838       0.01423799 </v>
   <v>       0.00000000      -0.20809867      -0.15942632 </v>
   <v>      -0.00000000      -0.05599677      -0.31726155 </v>
   <v>       0.00000000      -0.01626073       0.00023000 </v>
   <v>       0.00000000       0.25239417       0.07458363 </v>
  </varray>
  <varray name="stress" >
   <v>     -11.75026851       0.00000000       0.00000000 </v>
   <v>       0.00000000     -11.83293357       1.01841172 </v>
   <v>       0.00000000       1.01840960       3.80782295 </v>
  </varray>
  <energy>
   <i name="e_fr_energy">   -109.31016050 </i>
   <i name="e_wo_entrp">   -109.30319247 </i>
   <i name="e_0_energy">   -109.30783782 </i>
  </energy>
  <time name="totalsc">   32.31   31.74</time>
 </calculation>
 <calculation>
  <scstep>
   <time name="dav">    4.38    4.38</time>
   <time name="total">    4.74    4.72</time>
   <energy>
    <i name="alphaZ">    271.64501344 </i>
    <i name="ewald"> 148103.24602798 </i>
    <i name="hartreedc">-160325.46057821 </i>
    <i name="XCdc">     91.40695444 </i>
    <i name="pawpsdc">  15253.80596851 </i>
    <i name="pawaedc"> -14849.43597853 </i>
    <i name="eentropy">     -0.00678963 </i>
    <i name="bandstr">   -899.69636761 </i>
    <i name="atom">  12245.18164884 </i>
    <i name="e_fr_energy">   -109.31410075 </i>
    <i name="e_wo_entrp">   -109.30731112 </i>
    <i name="e_0_energy">   -109.31183754 </i>
   </energy>
  </scstep>
  <scstep>
   <time name="dav">    4.58    4.58</time>
   <time name="total">    4.94    4.92</time>
   <energy>
    <i name="e_fr_energy">   -109.31453347 </i>
    <i name="e_wo_entrp">   -109.30755895 </i>
    <i name="e_0_energy">   -109.31220863 </i>
   </energy>
  </scstep>
  <scstep>
   <time name="dav">    4.80    4.80</time>
   <time name="total">    5.17    5.14</time>
   <energy>
    <i name="e_fr_energy">   -109.31472182 </i>
    <i name="e_wo_entrp">   -109.30803311 </i>
    <i name="e_0_energy">   -109.31249225 </i>
   </energy>
  </scstep>
  <scstep>
   <time name="dav">    5.13    5.13</time>
   <time name="total">    5.50    5.47</time>
   <energy>
    <i name="e_fr_energy">   -109.31477838 </i>
    <i name="e_wo_entrp">   -109.30793467 </i>
    <i name="e_0_energy">   -109.31249715 </i>
   </energy>
  </scstep>
  <scstep>
   <time name="dav">    4.70    4.70</time>
   <time name="total">    5.07    5.04</time>
   <energy>
    <i name="e_fr_energy">   -109.31450319 </i>
    <i name="e_wo_entrp">   -109.30755809 </i>
    <i name="e_0_energy">   -109.31218816 </i>
   </energy>
  </scstep>
  <scstep>
   <time name="dav">    4.71    4.71</time>
   <time name="total">    5.07    5.05</time>
   <energy>
    <i name="e_fr_energy">   -109.31447700 </i>
    <i name="e_wo_entrp">   -109.30765571 </i>
    <i name="e_0_energy">   -109.31220324 </i>
   </energy>
  </scstep>
  <scstep>
   <time name="dav">    3.48    3.48</time>
   <time name="total">    3.53    3.51</time>
   <energy>
    <i name="alphaZ">    271.64501344 </i>
    <i name="ewald"> 148103.24602798 </i>
    <i name="hartreedc">-160325.34436214 </i>
    <i name="XCdc">     91.40787596 </i>
    <i name="pawpsdc">  15255.80573510 </i>
    <i name="pawaedc"> -14851.43537145 </i>
    <i name="eentropy">     -0.00685176 </i>
    <i name="bandstr">   -899.81418669 </i>
    <i name="atom">  12245.18164884 </i>
    <i name="e_fr_energy">   -109.31447071 </i>
    <i name="e_wo_entrp">   -109.30761895 </i>
    <i name="e_0_energy">   -109.31218679 </i>
   </energy>
  </scstep>
  <structure>
   <crystal>
    <varray name="basis" >
     <v>       5.54371716       0.00000000       0.00000000 </v>
     <v>       2.77185858       4.80099990       0.00000000 </v>
     <v>       0.00000000       0.00000000      36.78963917 </v>
    </varray>
    <i name="volume">    979.17042988 </i>
    <varray name="rec_basis" >
     <v>       0.18038438      -0.10414497       0.00000000 </v>
     <v>       0.00000000       0.20828994       0.00000000 </v>
     <v>       0.00000000       0.00000000       0.02718157 </v>
    </varray>
   </crystal>
   <varray name="positions" >
    <v>       0.00000000       0.00000000       0.40772349 </v>
    <v>       0.50000000       0.00000000       0.40772349 </v>
    <v>       0.00000000       0.50000000       0.40772349 </v>
    <v>       0.50000000       0.50000000       0.40772349 </v>
    <v>       0.16666667       0.16666667       0.46924116 </v>
    <v>       0.66666667       0.16666667       0.46924116 </v>
    <v>       0.16666667       0.66666667       0.46924116 </v>
    <v>       0.66666667       0.66666667       0.46924116 </v>
    <v>       0.83568816       0.33020031       0.53229575 </v>
    <v>       0.33411152       0.33020031       0.53229575 </v>
    <v>       0.83411206       0.83177588       0.53253068 </v>
    <v>       0.33494602       0.83010796       0.53156732 </v>
    <v>       0.00161263      -0.01600074       0.59772124 </v>
    <v>       0.51438811      -0.01600074       0.59772124 </v>
    <v>       0.00401755       0.49196490       0.59865688 </v>
    <v>       0.50569412       0.48861177       0.59525631 </v>
    <v>       0.18741789       0.12516423       0.66698345 </v>
    <v>       0.19237523       0.11524954       0.63460757 </v>
   </varray>
  </structure>
  <varray name="forces" >
   <v>       0.01889785       0.02818566      -0.41770697 </v>
   <v>      -0.01889785       0.02818566      -0.41770697 </v>
   <v>       0.00000000      -0.01458008      -0.39357972 </v>
   <v>       0.00000000      -0.01386176      -0.43696991 </v>
   <v>      -0.00000000       0.03731281       0.45897491 </v>
   <v>       0.00000000      -0.01717219       0.45625611 </v>
   <v>      -0.01432791      -0.04346552       0.33877703 </v>
   <v>       0.01432791      -0.04346552       0.33877703 </v>
   <v>       0.05088223      -0.00823235       0.04385585 </v>
   <v>      -0.05088223      -0.00823235       0.04385585 </v>
   <v>      -0.00000000      -0.10039560       0.11941019 </v>
   <v>       0.00000000       0.03631090       0.20772369 </v>
   <v>       0.17680391       0.05262908       0.00629058 </v>
   <v>      -0.17680391       0.05262908       0.00629058 </v>
   <v>      -0.00000000      -0.16241975      -0.14830991 </v>
   <v>      -0.00000000      -0.05729356      -0.30136031 </v>
   <v>      -0.00000000      -0.01299344       0.03990158 </v>
   <v>       0.00000000       0.24685893       0.05552041 </v>
  </varray>
  <varray name="stress" >
   <v>     -11.74838019       0.00000000       0.00000000 </v>
   <v>       0.00000000     -11.84938009       1.03212994 </v>
   <v>       0.00000000       1.03212779       3.94853448 </v>
  </varray>
  <energy>
   <i name="e_fr_energy">   -109.31447071 </i>
   <i name="e_wo_entrp">   -109.30761895 </i>
   <i name="e_0_energy">   -109.31218679 </i>
  </energy>
  <time name="totalsc">   47.57   46.93</time>
 </calculation>
 <calculation>
  <scstep>
   <time name="dav">    4.38    4.38</time>
   <time name="total">    4.75    4.73</time>
   <energy>
    <i name="alphaZ">    271.64501344 </i>
    <i name="ewald"> 148109.75446820 </i>
    <i name="hartreedc">-160331.72538889 </i>
    <i name="XCdc">     91.42349944 </i>
    <i name="pawpsdc">  15255.82119707 </i>
    <i name="pawaedc"> -14851.45076541 </i>
    <i name="eentropy">     -0.00666098 </i>
    <i name="bandstr">   -899.96261601 </i>
    <i name="atom">  12245.18164884 </i>
    <i name="e_fr_energy">   -109.31960431 </i>
    <i name="e_wo_entrp">   -109.31294333 </i>
    <i name="e_0_energy">   -109.31738398 </i>
   </energy>
  </scstep>
  <scstep>
   <time name="dav">    4.63    4.63</time>
   <time name="total">    4.99    4.97</time>
   <energy>
    <i name="e_fr_energy">   -109.32244989 </i>
    <i name="e_wo_entrp">   -109.31555680 </i>
    <i name="e_0_energy">   -109.32015219 </i>
   </energy>
  </scstep>
  <scstep>
   <time name="dav">    4.89    4.89</time>
   <time name="total">    5.26    5.23</time>
   <energy>
    <i name="e_fr_energy">   -109.32125306 </i>
    <i name="e_wo_entrp">   -109.31449872 </i>
    <i name="e_0_energy">   -109.31900161 </i>
   </energy>
  </scstep>
  <scstep>
   <time name="dav">    4.77    4.77</time>
   <time name="total">    5.14    5.11</time>
   <energy>
    <i name="e_fr_energy">   -109.32176945 </i>
    <i name="e_wo_entrp">   -109.31488564 </i>
    <i name="e_0_energy">   -109.31947484 </i>
   </energy>
  </scstep>
  <scstep>
   <time name="dav">    4.72    4.72</time>
   <time name="total">    5.09    5.06</time>
   <energy>
    <i name="e_fr_energy">   -109.32122519 </i>
    <i name="e_wo_entrp">   -109.31453432 </i>
    <i name="e_0_energy">   -109.31899490 </i>
   </energy>
  </scstep>
  <scstep>
   <time name="dav">    4.93    4.93</time>
   <time name="total">    5.29    5.27</time>
   <energy>
    <i name="e_fr_energy">   -109.32114033 </i>
    <i name="e_wo_entrp">   -109.31425012 </i>
    <i name="e_0_energy">   -109.31884359 </i>
   </energy>
  </scstep>
  <scstep>
   <time name="dav">    4.64    4.64</time>
   <time name="total">    5.01    4.98</time>
   <energy>
    <i name="e_fr_energy">   -109.32112474 </i>
    <i name="e_wo_entrp">   -109.31447412 </i>
    <i name="e_0_energy">   -109.31890787 </i>
   </energy>
  </scstep>
  <scstep>
   <time name="dav">    3.18    3.18</time>
   <time name="total">    3.23    3.21</time>
   <energy>
    <i name="alphaZ">    271.64501344 </i>
    <i name="ewald"> 148109.75446820 </i>
    <i name="hartreedc">-160331.65193763 </i>
    <i name="XCdc">     91.42558500 </i>
    <i name="pawpsdc">  15259.67095110 </i>
    <i name="pawaedc"> -14855.30169628 </i>
    <i name="eentropy">     -0.00677121 </i>
    <i name="bandstr">   -900.03838188 </i>
    <i name="atom">  12245.18164884 </i>
    <i name="e_fr_energy">   -109.32112041 </i>
    <i name="e_wo_entrp">   -109.31434920 </i>
    <i name="e_0_energy">   -109.31886334 </i>
   </energy>
  </scstep>
  <structure>
   <crystal>
    <varray name="basis" >
     <v>       5.54371716       0.00000000       0.00000000 </v>
     <v>       2.77185858       4.80099990       0.00000000 </v>
     <v>       0.00000000       0.00000000      36.78963917 </v>
    </varray>
    <i name="volume">    979.17042988 </i>
    <varray name="rec_basis" >
     <v>       0.18038438      -0.10414497       0.00000000 </v>
     <v>       0.00000000       0.20828994       0.00000000 </v>
     <v>       0.00000000       0.00000000       0.02718157 </v>
    </varray>
   </crystal>
   <varray name="positions" >
    <v>       0.00000000       0.00000000       0.40772349 </v>
    <v>       0.50000000       0.00000000       0.40772349 </v>
    <v>       0.00000000       0.50000000       0.40772349 </v>
    <v>       0.50000000       0.50000000       0.40772349 </v>
    <v>       0.16666667       0.16666667       0.46924116 </v>
    <v>       0.66666667       0.16666667       0.46924116 </v>
    <v>       0.16666667       0.66666667       0.46924116 </v>
    <v>       0.66666667       0.66666667       0.46924116 </v>
    <v>       0.83592903       0.33015868       0.53233203 </v>
    <v>       0.33391229       0.33015868       0.53233203 </v>
    <v>       0.83431640       0.83136720       0.53258781 </v>
    <v>       0.33487971       0.83024058       0.53170684 </v>
    <v>       0.00248524      -0.01587330       0.59776041 </v>
    <v>       0.51338805      -0.01587330       0.59776041 </v>
    <v>       0.00452363       0.49095275       0.59854079 </v>
    <v>       0.50590557       0.48818887       0.59512514 </v>
    <v>       0.18701377       0.12597245       0.66700697 </v>
    <v>       0.19185521       0.11628957       0.63465109 </v>
   </varray>
  </structure>
  <varray name="forces" >
   <v>       0.01974014       0.02785085      -0.41697544 </v>
   <v>      -0.01974014       0.02785085      -0.41697544 </v>
   <v>       0.00000000      -0.01497933      -0.39620674 </v>
   <v>       0.00000000      -0.01306353      -0.43730274 </v>
   <v>      -0.00000000       0.03093318       0.47144868 </v>
   <v>      -0.00000000      -0.01601114       0.46982082 </v>
   <v>      -0.00769390      -0.04008194       0.35418266 </v>
   <v>       0.00769390      -0.04008194       0.35418266 </v>
   <v>       0.02115671      -0.01961285       0.00877843 </v>
   <v>      -0.02115671      -0.01961285       0.00877843 </v>
   <v>       0.00000000      -0.06719533       0.11689538 </v>
   <v>       0.00000000       0.02246105       0.14288727 </v>
   <v>       0.05720151       0.00829127      -0.00856778 </v>
   <v>      -0.05720151       0.00829127      -0.00856778 </v>
   <v>       0.00000000      -0.07090252      -0.11954826 </v>
   <v>       0.00000000      -0.05859703      -0.25575807 </v>
   <v>       0.00000000      -0.00413433       0.11748779 </v>
   <v>       0.00000000       0.23859434       0.01544014 </v>
  </varray>
  <varray name="stress" >
   <v>     -11.72703387       0.00000000       0.00000000 </v>
   <v>       0.00000000     -11.87195254       1.05857108 </v>
   <v>       0.00000000       1.05856893       4.25868214 </v>
  </varray>
  <energy>
   <i name="e_fr_energy">   -109.32112041 </i>
   <i name="e_wo_entrp">   -109.31434920 </i>
   <i name="e_0_energy">   -109.31886334 </i>
  </energy>
  <time name="totalsc">   52.34   51.68</time>
 </calculation>
 <calculation>
  <scstep>
   <time name="dav">    4.38    4.38</time>
   <time name="total">    4.75    4.72</time>
   <energy>
    <i name="alphaZ">    271.64501344 </i>
    <i name="ewald"> 148122.88482418 </i>
    <i name="hartreedc">-160344.44756447 </i>
    <i name="XCdc">     91.45937234 </i>
    <i name="pawpsdc">  15259.64730537 </i>
    <i name="pawaedc"> -14855.27801441 </i>
    <i name="eentropy">     -0.00638814 </i>
    <i name="bandstr">   -900.40653554 </i>
    <i name="atom">  12245.18164884 </i>
    <i name="e_fr_energy">   -109.32033838 </i>
    <i name="e_wo_entrp">   -109.31395024 </i>
    <i name="e_0_energy">   -109.31820900 </i>
   </energy>
  </scstep>
  <scstep>
   <time name="dav">    4.53    4.53</time>
   <time name="total">    4.89    4.87</time>
   <energy>
    <i name="e_fr_energy">   -109.32881748 </i>
    <i name="e_wo_entrp">   -109.32215488 </i>
    <i name="e_0_energy">   -109.32659662 </i>
   </energy>
  </scstep>
  <scstep>
   <time name="dav">    5.02    5.02</time>
   <time name="total">    5.38    5.36</time>
   <energy>
    <i name="e_fr_energy">   -109.32770410 </i>
    <i name="e_wo_entrp">   -109.32144550 </i>
    <i name="e_0_energy">   -109.32561790 </i>
   </energy>
  </scstep>
  <scstep>
   <time name="dav">    4.92    4.92</time>
   <time name="total">    5.29    5.26</time>
   <energy>
    <i name="e_fr_energy">   -109.33079527 </i>
    <i name="e_wo_entrp">   -109.32385931 </i>
    <i name="e_0_energy">   -109.32848328 </i>
   </energy>
  </scstep>
  <scstep>
   <time name="dav">    4.77    4.77</time>
   <time name="total">    5.14    5.11</time>
   <energy>
    <i name="e_fr_energy">   -109.32717443 </i>
    <i name="e_wo_entrp">   -109.32081986 </i>
    <i name="e_0_energy">   -109.32505624 </i>
   </energy>
  </scstep>
  <scstep>
   <time name="dav">    4.94    4.94</time>
   <time name="total">    5.31    5.28</time>
   <energy>
    <i name="e_fr_energy">   -109.32652869 </i>
    <i name="e_wo_entrp">   -109.31967107 </i>
    <i name="e_0_energy">   -109.32424281 </i>
   </energy>
  </scstep>
  <scstep>
   <time name="dav">    4.72    4.72</time>
   <time name="total">    5.10    5.07</time>
   <energy>
    <i name="e_fr_energy">   -109.32647115 </i>
    <i name="e_wo_entrp">   -109.32020821 </i>
    <i name="e_0_energy">   -109.32438351 </i>
   </energy>
  </scstep>
  <scstep>
   <time name="dav">    4.79    4.79</time>
   <time name="total">    5.16    5.13</time>
   <energy>
    <i name="e_fr_energy">   -109.32642817 </i>
    <i name="e_wo_entrp">   -109.31989955 </i>
    <i name="e_0_energy">   -109.32425196 </i>
   </energy>
  </scstep>
  <scstep>
   <time name="dav">    3.20    3.19</time>
   <time name="total">    3.25    3.23</time>
   <energy>
    <i name="alphaZ">    271.64501344 </i>
    <i name="ewald"> 148122.88482418 </i>
    <i name="hartreedc">-160344.38602808 </i>
    <i name="XCdc">     91.46364754 </i>
    <i name="pawpsdc">  15268.31000900 </i>
    <i name="pawaedc"> -14863.94900384 </i>
    <i name="eentropy">     -0.00654450 </i>
    <i name="bandstr">   -900.46999549 </i>
    <i name="atom">  12245.18164884 </i>
    <i name="e_fr_energy">   -109.32642891 </i>
    <i name="e_wo_entrp">   -109.31988441 </i>
    <i name="e_0_energy">   -109.32424741 </i>
   </energy>
  </scstep>
  <structure>
   <crystal>
    <varray name="basis" >
     <v>       5.54371716       0.00000000       0.00000000 </v>
     <v>       2.77185858       4.80099990       0.00000000 </v>
     <v>       0.00000000       0.00000000      36.78963917 </v>
    </varray>
    <i name="volume">    979.17042988 </i>
    <varray name="rec_basis" >
     <v>       0.18038438      -0.10414497       0.00000000 </v>
     <v>       0.00000000       0.20828994       0.00000000 </v>
     <v>       0.00000000       0.00000000       0.02718157 </v>
    </varray>
   </crystal>
   <varray name="positions" >
    <v>       0.00000000       0.00000000       0.40772349 </v>
    <v>       0.50000000       0.00000000       0.40772349 </v>
    <v>       0.00000000       0.50000000       0.40772349 </v>
    <v>       0.50000000       0.50000000       0.40772349 </v>
    <v>       0.16666667       0.16666667       0.46924116 </v>
    <v>       0.66666667       0.16666667       0.46924116 </v>
    <v>       0.16666667       0.66666667       0.46924116 </v>
    <v>       0.66666667       0.66666667       0.46924116 </v>
    <v>       0.83641075       0.33007542       0.53240460 </v>
    <v>       0.33351383       0.33007542       0.53240460 </v>
    <v>       0.83472508       0.83054984       0.53270207 </v>
    <v>       0.33474709       0.83050582       0.53198588 </v>
    <v>       0.00423047      -0.01561840       0.59783873 </v>
    <v>       0.51138793      -0.01561840       0.59783873 </v>
    <v>       0.00553578       0.48892844       0.59830861 </v>
    <v>       0.50632847       0.48734307       0.59486280 </v>
    <v>       0.18620555       0.12758890       0.66705400 </v>
    <v>       0.19081518       0.11836963       0.63473813 </v>
   </varray>
  </structure>
  <varray name="forces" >
   <v>       0.02158084       0.02751543      -0.41433247 </v>
   <v>      -0.02158084       0.02751543      -0.41433247 </v>
   <v>       0.00000000      -0.01625886      -0.40234143 </v>
   <v>       0.00000000      -0.01155604      -0.44048958 </v>
   <v>       0.00000000       0.01853702       0.49800173 </v>
   <v>       0.00000000      -0.01325928       0.49839091 </v>
   <v>       0.00518282      -0.03346516       0.38711777 </v>
   <v>      -0.00518282      -0.03346516       0.38711777 </v>
   <v>      -0.03858904      -0.04366201      -0.06438742 </v>
   <v>       0.03858904      -0.04366201      -0.06438742 </v>
   <v>       0.00000000      -0.00054367       0.11212510 </v>
   <v>       0.00000000      -0.00409076       0.01144356 </v>
   <v>      -0.18081845      -0.08049595      -0.03808788 </v>
   <v>       0.18081845      -0.08049595      -0.03808788 </v>
   <v>      -0.00000000       0.11296423      -0.06293066 </v>
   <v>       0.00000000      -0.06221726      -0.16612835 </v>
   <v>       0.00000000       0.01328820       0.27278392 </v>
   <v>      -0.00000000       0.22335179      -0.06147520 </v>
  </varray>
  <varray name="stress" >
   <v>     -11.61827622       0.00000000       0.00000000 </v>
   <v>       0.00000000     -11.87241466       1.11104685 </v>
   <v>       0.00000000       1.11104484       4.92165203 </v>
  </varray>
  <energy>
   <i name="e_fr_energy">   -109.32642891 </i>
   <i name="e_wo_entrp">   -109.31988441 </i>
   <i name="e_0_energy">   -109.32424741 </i>
  </energy>
  <time name="totalsc">   57.83   57.14</time>
 </calculation>
 <calculation>
  <scstep>
   <time name="dav">    4.38    4.38</time>
   <time name="total">    4.74    4.72</time>
   <energy>
    <i name="alphaZ">    271.64501344 </i>
    <i name="ewald"> 148129.62362629 </i>
    <i name="hartreedc">-160351.52478596 </i>
    <i name="XCdc">     91.45187206 </i>
    <i name="pawpsdc">  15268.26636874 </i>
    <i name="pawaedc"> -14863.90544053 </i>
    <i name="eentropy">     -0.00619771 </i>
    <i name="bandstr">   -900.06088240 </i>
    <i name="atom">  12245.18164884 </i>
    <i name="e_fr_energy">   -109.32877722 </i>
    <i name="e_wo_entrp">   -109.32257951 </i>
    <i name="e_0_energy">   -109.32671132 </i>
   </energy>
  </scstep>
  <scstep>
   <time name="dav">    4.64    4.64</time>
   <time name="total">    5.01    4.98</time>
   <energy>
    <i name="e_fr_energy">   -109.32993028 </i>
    <i name="e_wo_entrp">   -109.32364412 </i>
    <i name="e_0_energy">   -109.32783489 </i>
   </energy>
  </scstep>
  <scstep>
   <time name="dav">    4.82    4.82</time>
   <time name="total">    5.18    5.15</time>
   <energy>
    <i name="e_fr_energy">   -109.33027091 </i>
    <i name="e_wo_entrp">   -109.32386765 </i>
    <i name="e_0_energy">   -109.32813649 </i>
   </energy>
  </scstep>
  <scstep>
   <time name="dav">    4.89    4.89</time>
   <time name="total">    5.26    5.24</time>
   <energy>
    <i name="e_fr_energy">   -109.32988662 </i>
    <i name="e_wo_entrp">   -109.32376293 </i>
    <i name="e_0_energy">   -109.32784539 </i>
   </energy>
  </scstep>
  <scstep>
   <time name="dav">    4.86    4.86</time>
   <time name="total">    5.23    5.20</time>
   <energy>
    <i name="e_fr_energy">   -109.32985424 </i>
    <i name="e_wo_entrp">   -109.32363361 </i>
    <i name="e_0_energy">   -109.32778070 </i>
   </energy>
  </scstep>
  <scstep>
   <time name="dav">    4.58    4.58</time>
   <time name="total">    4.95    4.92</time>
   <energy>
    <i name="e_fr_energy">   -109.32979070 </i>
    <i name="e_wo_entrp">   -109.32330768 </i>
    <i name="e_0_energy">   -109.32762970 </i>
   </energy>
  </scstep>
  <scstep>
   <time name="dav">    4.49    4.49</time>
   <time name="total">    4.86    4.84</time>
   <energy>
    <i name="e_fr_energy">   -109.32973058 </i>
    <i name="e_wo_entrp">   -109.32358334 </i>
    <i name="e_0_energy">   -109.32768150 </i>
   </energy>
  </scstep>
  <scstep>
   <time name="dav">    3.25    3.25</time>
   <time name="total">    3.30    3.29</time>
   <energy>
    <i name="alphaZ">    271.64501344 </i>
    <i name="ewald"> 148129.62362629 </i>
    <i name="hartreedc">-160350.16144956 </i>
    <i name="XCdc">     91.43706165 </i>
    <i name="pawpsdc">  15262.17769898 </i>
    <i name="pawaedc"> -14857.82652006 </i>
    <i name="eentropy">     -0.00625401 </i>
    <i name="bandstr">   -901.40054698 </i>
    <i name="atom">  12245.18164884 </i>
    <i name="e_fr_energy">   -109.32972141 </i>
    <i name="e_wo_entrp">   -109.32346740 </i>
    <i name="e_0_energy">   -109.32763674 </i>
   </energy>
  </scstep>
  <structure>
   <crystal>
    <varray name="basis" >
     <v>       5.54371716       0.00000000       0.00000000 </v>
     <v>       2.77185858       4.80099990       0.00000000 </v>
     <v>       0.00000000       0.00000000      36.78963917 </v>
    </varray>
    <i name="volume">    979.17042988 </i>
    <varray name="rec_basis" >
     <v>       0.18038438      -0.10414497       0.00000000 </v>
     <v>       0.00000000       0.20828994       0.00000000 </v>
     <v>       0.00000000       0.00000000       0.02718157 </v>
    </varray>
   </crystal>
   <varray name="positions" >
    <v>       0.00000000       0.00000000       0.40772349 </v>
    <v>       0.50000000       0.00000000       0.40772349 </v>
    <v>       0.00000000       0.50000000       0.40772349 </v>
    <v>       0.50000000       0.50000000       0.40772349 </v>
    <v>       0.16666667       0.16666667       0.46924116 </v>
    <v>       0.66666667       0.16666667       0.46924116 </v>
    <v>       0.16666667       0.66666667       0.46924116 </v>
    <v>       0.66666667       0.66666667       0.46924116 </v>
    <v>       0.83649198       0.32990571       0.53239414 </v>
    <v>       0.33360231       0.32990571       0.53239414 </v>
    <v>       0.83482843       0.83034314       0.53278059 </v>
    <v>       0.33472082       0.83055835       0.53206090 </v>
    <v>       0.00427125      -0.01582893       0.59784142 </v>
    <v>       0.51155768      -0.01582893       0.59784142 </v>
    <v>       0.00559690       0.48880619       0.59822243 </v>
    <v>       0.50654050       0.48691899       0.59472314 </v>
    <v>       0.18598034       0.12803932       0.66718714 </v>
    <v>       0.19017383       0.11965234       0.63473260 </v>
   </varray>
  </structure>
  <varray name="forces" >
   <v>       0.02189767       0.02691397      -0.41538070 </v>
   <v>      -0.02189767       0.02691397      -0.41538070 </v>
   <v>       0.00000000      -0.01609171      -0.40596885 </v>
   <v>       0.00000000      -0.01036743      -0.44352220 </v>
   <v>       0.00000000       0.01449332       0.50443416 </v>
   <v>      -0.00000000      -0.01656080       0.50207439 </v>
   <v>       0.00535494      -0.02959068       0.39964298 </v>
   <v>      -0.00535494      -0.02959068       0.39964298 </v>
   <v>      -0.03752099      -0.04451106      -0.07831081 </v>
   <v>       0.03752099      -0.04451106      -0.07831081 </v>
   <v>       0.00000000       0.00231296       0.08247330 </v>
   <v>       0.00000000      -0.00915774      -0.02018451 </v>
   <v>      -0.15724162      -0.07405564      -0.01320451 </v>
   <v>       0.15724162      -0.07405564      -0.01320451 </v>
   <v>      -0.00000000       0.09203922      -0.02614580 </v>
   <v>       0.00000000      -0.04864310      -0.13400846 </v>
   <v>       0.00000000       0.00841192      -0.15549597 </v>
   <v>      -0.00000000       0.22605017       0.31085003 </v>
  </varray>
  <varray name="stress" >
   <v>     -11.54993852       0.00000000       0.00000000 </v>
   <v>       0.00000000     -11.84480757       1.09934920 </v>
   <v>       0.00000000       1.09934721       4.19793931 </v>
  </varray>
  <energy>
   <i name="e_fr_energy">   -109.32972141 </i>
   <i name="e_wo_entrp">   -109.32346740 </i>
   <i name="e_0_energy">   -109.32763674 </i>
  </energy>
  <time name="totalsc">   52.09   51.42</time>
 </calculation>
 <calculation>
  <scstep>
   <time name="dav">    4.38    4.38</time>
   <time name="total">    4.75    4.72</time>
   <energy>
    <i name="alphaZ">    271.64501344 </i>
    <i name="ewald"> 148134.62919165 </i>
    <i name="hartreedc">-160355.46996574 </i>
    <i name="XCdc">     91.42868846 </i>
    <i name="pawpsdc">  15262.05348548 </i>
    <i name="pawaedc"> -14857.70182661 </i>
    <i name="eentropy">     -0.00601727 </i>
    <i name="bandstr">   -901.09017608 </i>
    <i name="atom">  12245.18164884 </i>
    <i name="e_fr_energy">   -109.32995782 </i>
    <i name="e_wo_entrp">   -109.32394055 </i>
    <i name="e_0_energy">   -109.32795206 </i>
   </energy>
  </scstep>
  <scstep>
   <time name="dav">    4.66    4.67</time>
   <time name="total">    5.03    5.00</time>
   <energy>
    <i name="e_fr_energy">   -109.33076512 </i>
    <i name="e_wo_entrp">   -109.32462210 </i>
    <i name="e_0_energy">   -109.32871744 </i>
   </energy>
  </scstep>
  <scstep>
   <time name="dav">    4.90    4.90</time>
   <time name="total">    5.26    5.24</time>
   <energy>
    <i name="e_fr_energy">   -109.33067848 </i>
    <i name="e_wo_entrp">   -109.32472454 </i>
    <i name="e_0_energy">   -109.32869383 </i>
   </energy>
  </scstep>
  <scstep>
   <time name="dav">    4.89    4.89</time>
   <time name="total">    5.26    5.23</time>
   <energy>
    <i name="e_fr_energy">   -109.33075987 </i>
    <i name="e_wo_entrp">   -109.32459342 </i>
    <i name="e_0_energy">   -109.32870438 </i>
   </energy>
  </scstep>
  <scstep>
   <time name="dav">    4.81    4.81</time>
   <time name="total">    5.17    5.15</time>
   <energy>
    <i name="e_fr_energy">   -109.33050767 </i>
    <i name="e_wo_entrp">   -109.32449933 </i>
    <i name="e_0_energy">   -109.32850489 </i>
   </energy>
  </scstep>
  <scstep>
   <time name="dav">    4.80    4.80</time>
   <time name="total">    5.17    5.14</time>
   <energy>
    <i name="e_fr_energy">   -109.33048979 </i>
    <i name="e_wo_entrp">   -109.32435751 </i>
    <i name="e_0_energy">   -109.32844570 </i>
   </energy>
  </scstep>
  <scstep>
   <time name="dav">    3.82    3.82</time>
   <time name="total">    3.87    3.86</time>
   <energy>
    <i name="alphaZ">    271.64501344 </i>
    <i name="ewald"> 148134.62919165 </i>
    <i name="hartreedc">-160354.46428005 </i>
    <i name="XCdc">     91.41811881 </i>
    <i name="pawpsdc">  15257.88445977 </i>
    <i name="pawaedc"> -14853.54000781 </i>
    <i name="eentropy">     -0.00596746 </i>
    <i name="bandstr">   -902.07866387 </i>
    <i name="atom">  12245.18164884 </i>
    <i name="e_fr_energy">   -109.33048667 </i>
    <i name="e_wo_entrp">   -109.32451921 </i>
    <i name="e_0_energy">   -109.32849751 </i>
   </energy>
  </scstep>
  <structure>
   <crystal>
    <varray name="basis" >
     <v>       5.54371716       0.00000000       0.00000000 </v>
     <v>       2.77185858       4.80099990       0.00000000 </v>
     <v>       0.00000000       0.00000000      36.78963917 </v>
    </varray>
    <i name="volume">    979.17042988 </i>
    <varray name="rec_basis" >
     <v>       0.18038438      -0.10414497       0.00000000 </v>
     <v>       0.00000000       0.20828994       0.00000000 </v>
     <v>       0.00000000       0.00000000       0.02718157 </v>
    </varray>
   </crystal>
   <varray name="positions" >
    <v>       0.00000000       0.00000000       0.40772349 </v>
    <v>       0.50000000       0.00000000       0.40772349 </v>
    <v>       0.00000000       0.50000000       0.40772349 </v>
    <v>       0.50000000       0.50000000       0.40772349 </v>
    <v>       0.16666667       0.16666667       0.46924116 </v>
    <v>       0.66666667       0.16666667       0.46924116 </v>
    <v>       0.16666667       0.66666667       0.46924116 </v>
    <v>       0.66666667       0.66666667       0.46924116 </v>
    <v>       0.83655237       0.32977954       0.53238637 </v>
    <v>       0.33366809       0.32977954       0.53238637 </v>
    <v>       0.83490527       0.83018947       0.53283896 </v>
    <v>       0.33470130       0.83059741       0.53211668 </v>
    <v>       0.00430156      -0.01598545       0.59784342 </v>
    <v>       0.51168388      -0.01598545       0.59784342 </v>
    <v>       0.00564234       0.48871531       0.59815836 </v>
    <v>       0.50669814       0.48660372       0.59461932 </v>
    <v>       0.18581291       0.12837418       0.66728613 </v>
    <v>       0.18969702       0.12060597       0.63472848 </v>
   </varray>
  </structure>
  <varray name="forces" >
   <v>       0.02242821       0.02671888      -0.41416722 </v>
   <v>      -0.02242821       0.02671888      -0.41416722 </v>
   <v>      -0.00000000      -0.01635571      -0.40738949 </v>
   <v>       0.00000000      -0.00950546      -0.44806742 </v>
   <v>       0.00000000       0.01131709       0.50821792 </v>
   <v>       0.00000000      -0.01906981       0.50503051 </v>
   <v>       0.00541390      -0.02660056       0.40992183 </v>
   <v>      -0.00541390      -0.02660056       0.40992183 </v>
   <v>      -0.03587072      -0.04572410      -0.09133250 </v>
   <v>       0.03587072      -0.04572410      -0.09133250 </v>
   <v>       0.00000000       0.00472928       0.05958855 </v>
   <v>      -0.00000000      -0.01168413      -0.04624608 </v>
   <v>      -0.13982429      -0.06895650       0.00382020 </v>
   <v>       0.13982429      -0.06895650       0.00382020 </v>
   <v>       0.00000000       0.07670567       0.00164279 </v>
   <v>       0.00000000      -0.03806519      -0.10824479 </v>
   <v>       0.00000000       0.00605607      -0.45259430 </v>
   <v>       0.00000000       0.22499674       0.57157769 </v>
  </varray>
  <varray name="stress" >
   <v>     -11.56266246       0.00000000       0.00000000 </v>
   <v>       0.00000000     -11.89244344       1.09470099 </v>
   <v>       0.00000000       1.09469907       3.56456830 </v>
  </varray>
  <energy>
   <i name="e_fr_energy">   -109.33048667 </i>
   <i name="e_wo_entrp">   -109.32451921 </i>
   <i name="e_0_energy">   -109.32849751 </i>
  </energy>
  <time name="totalsc">   48.08   47.43</time>
 </calculation>
 <calculation>
  <scstep>
   <time name="dav">    4.38    4.38</time>
   <time name="total">    4.75    4.72</time>
   <energy>
    <i name="alphaZ">    271.64501344 </i>
    <i name="ewald"> 148139.18887361 </i>
    <i name="hartreedc">-160358.88910769 </i>
    <i name="XCdc">     91.42085585 </i>
    <i name="pawpsdc">  15257.71442802 </i>
    <i name="pawaedc"> -14853.37010509 </i>
    <i name="eentropy">     -0.00591218 </i>
    <i name="bandstr">   -902.21778823 </i>
    <i name="atom">  12245.18164884 </i>
    <i name="e_fr_energy">   -109.33209342 </i>
    <i name="e_wo_entrp">   -109.32618124 </i>
    <i name="e_0_energy">   -109.33012269 </i>
   </energy>
  </scstep>
  <scstep>
   <time name="dav">    4.57    4.57</time>
   <time name="total">    4.93    4.91</time>
   <energy>
    <i name="e_fr_energy">   -109.33226021 </i>
    <i name="e_wo_entrp">   -109.32632757 </i>
    <i name="e_0_energy">   -109.33028266 </i>
   </energy>
  </scstep>
  <scstep>
   <time name="dav">    4.85    4.85</time>
   <time name="total">    5.21    5.19</time>
   <energy>
    <i name="e_fr_energy">   -109.33232118 </i>
    <i name="e_wo_entrp">   -109.32643261 </i>
    <i name="e_0_energy">   -109.33035832 </i>
   </energy>
  </scstep>
  <scstep>
   <time name="dav">    4.60    4.60</time>
   <time name="total">    4.96    4.94</time>
   <energy>
    <i name="e_fr_energy">   -109.33234559 </i>
    <i name="e_wo_entrp">   -109.32632084 </i>
    <i name="e_0_energy">   -109.33033734 </i>
   </energy>
  </scstep>
  <scstep>
   <time name="dav">    4.22    4.22</time>
   <time name="total">    4.58    4.55</time>
   <energy>
    <i name="e_fr_energy">   -109.33224645 </i>
    <i name="e_wo_entrp">   -109.32641516 </i>
    <i name="e_0_energy">   -109.33030269 </i>
   </energy>
  </scstep>
  <scstep>
   <time name="dav">    3.86    3.86</time>
   <time name="total">    3.92    3.90</time>
   <energy>
    <i name="alphaZ">    271.64501344 </i>
    <i name="ewald"> 148139.18887361 </i>
    <i name="hartreedc">-160358.88034285 </i>
    <i name="XCdc">     91.42112593 </i>
    <i name="pawpsdc">  15258.11847027 </i>
    <i name="pawaedc"> -14853.77631115 </i>
    <i name="eentropy">     -0.00599177 </i>
    <i name="bandstr">   -902.22472526 </i>
    <i name="atom">  12245.18164884 </i>
    <i name="e_fr_energy">   -109.33223893 </i>
    <i name="e_wo_entrp">   -109.32624716 </i>
    <i name="e_0_energy">   -109.33024168 </i>
   </energy>
  </scstep>
  <structure>
   <crystal>
    <varray name="basis" >
     <v>       5.54371716       0.00000000       0.00000000 </v>
     <v>       2.77185858       4.80099990       0.00000000 </v>
     <v>       0.00000000       0.00000000      36.78963917 </v>
    </varray>
    <i name="volume">    979.17042988 </i>
    <varray name="rec_basis" >
     <v>       0.18038438      -0.10414497       0.00000000 </v>
     <v>       0.00000000       0.20828994       0.00000000 </v>
     <v>       0.00000000       0.00000000       0.02718157 </v>
    </varray>
   </crystal>
   <varray name="positions" >
    <v>       0.00000000       0.00000000       0.40772349 </v>
    <v>       0.50000000       0.00000000       0.40772349 </v>
    <v>       0.00000000       0.50000000       0.40772349 </v>
    <v>       0.50000000       0.50000000       0.40772349 </v>
    <v>       0.16666667       0.16666667       0.46924116 </v>
    <v>       0.66666667       0.16666667       0.46924116 </v>
    <v>       0.16666667       0.66666667       0.46924116 </v>
    <v>       0.66666667       0.66666667       0.46924116 </v>
    <v>       0.83657915       0.32968845       0.53237567 </v>
    <v>       0.33373240       0.32968845       0.53237567 </v>
    <v>       0.83494385       0.83011229       0.53287363 </v>
    <v>       0.33469442       0.83061116       0.53214228 </v>
    <v>       0.00426890      -0.01610528       0.59784474 </v>
    <v>       0.51183639      -0.01610528       0.59784474 </v>
    <v>       0.00564451       0.48871098       0.59812520 </v>
    <v>       0.50679066       0.48641868       0.59455749 </v>
    <v>       0.18572425       0.12855150       0.66730453 </v>
    <v>       0.18938647       0.12122706       0.63476803 </v>
   </varray>
  </structure>
  <varray name="forces" >
   <v>       0.02226062       0.02649538      -0.41430815 </v>
   <v>      -0.02226062       0.02649538      -0.41430815 </v>
   <v>       0.00000000      -0.01627659      -0.40871847 </v>
   <v>       0.00000000      -0.00924468      -0.44642142 </v>
   <v>       0.00000000       0.00927472       0.50893130 </v>
   <v>      -0.00000000      -0.02128374       0.50346409 </v>
   <v>       0.00489696      -0.02454812       0.41352863 </v>
   <v>      -0.00489696      -0.02454812       0.41352863 </v>
   <v>      -0.03249828      -0.04516110      -0.09390667 </v>
   <v>       0.03249828      -0.04516110      -0.09390667 </v>
   <v>       0.00000000       0.00379819       0.04489557 </v>
   <v>      -0.00000000      -0.01307131      -0.05691970 </v>
   <v>      -0.11826893      -0.06137854       0.01552523 </v>
   <v>       0.11826893      -0.06137854       0.01552523 </v>
   <v>       0.00000000       0.06261132       0.01377855 </v>
   <v>       0.00000000      -0.03100368      -0.09330977 </v>
   <v>      -0.00000000       0.01263918      -0.40147228 </v>
   <v>       0.00000000       0.21174135       0.49409403 </v>
  </varray>
  <varray name="stress" >
   <v>     -11.55810449       0.00000000       0.00000000 </v>
   <v>       0.00000000     -11.88366580       1.09248011 </v>
   <v>       0.00000000       1.09247816       3.80192521 </v>
  </varray>
  <energy>
   <i name="e_fr_energy">   -109.33223893 </i>
   <i name="e_wo_entrp">   -109.32624716 </i>
   <i name="e_0_energy">   -109.33024168 </i>
  </energy>
  <time name="totalsc">   41.91   41.30</time>
 </calculation>
 <calculation>
  <scstep>
   <time name="dav">    4.38    4.38</time>
   <time name="total">    4.74    4.72</time>
   <energy>
    <i name="alphaZ">    271.64501344 </i>
    <i name="ewald"> 148152.84985856 </i>
    <i name="hartreedc">-160372.50974268 </i>
    <i name="XCdc">     91.42970786 </i>
    <i name="pawpsdc">  15258.20072098 </i>
    <i name="pawaedc"> -14853.85823534 </i>
    <i name="eentropy">     -0.00548374 </i>
    <i name="bandstr">   -902.26848217 </i>
    <i name="atom">  12245.18164884 </i>
    <i name="e_fr_energy">   -109.33499425 </i>
    <i name="e_wo_entrp">   -109.32951051 </i>
    <i name="e_0_energy">   -109.33316634 </i>
   </energy>
  </scstep>
  <scstep>
   <time name="dav">    4.68    4.68</time>
   <time name="total">    5.04    5.01</time>
   <energy>
    <i name="e_fr_energy">   -109.33844430 </i>
    <i name="e_wo_entrp">   -109.33251537 </i>
    <i name="e_0_energy">   -109.33646799 </i>
   </energy>
  </scstep>
  <scstep>
   <time name="dav">    4.87    4.87</time>
   <time name="total">    5.23    5.21</time>
   <energy>
    <i name="e_fr_energy">   -109.33650610 </i>
    <i name="e_wo_entrp">   -109.33094239 </i>
    <i name="e_0_energy">   -109.33465153 </i>
   </energy>
  </scstep>
  <scstep>
   <time name="dav">    4.79    4.79</time>
   <time name="total">    5.16    5.13</time>
   <energy>
    <i name="e_fr_energy">   -109.33630728 </i>
    <i name="e_wo_entrp">   -109.33063982 </i>
    <i name="e_0_energy">   -109.33441813 </i>
   </energy>
  </scstep>
  <scstep>
   <time name="dav">    4.73    4.73</time>
   <time name="total">    5.10    5.07</time>
   <energy>
    <i name="e_fr_energy">   -109.33619084 </i>
    <i name="e_wo_entrp">   -109.33069620 </i>
    <i name="e_0_energy">   -109.33435929 </i>
   </energy>
  </scstep>
  <scstep>
   <time name="dav">    4.69    4.69</time>
   <time name="total">    5.06    5.03</time>
   <energy>
    <i name="e_fr_energy">   -109.33614636 </i>
    <i name="e_wo_entrp">   -109.33034410 </i>
    <i name="e_0_energy">   -109.33421227 </i>
   </energy>
  </scstep>
  <scstep>
   <time name="dav">    4.51    4.51</time>
   <time name="total">    4.87    4.85</time>
   <energy>
    <i name="e_fr_energy">   -109.33612225 </i>
    <i name="e_wo_entrp">   -109.33061495 </i>
    <i name="e_0_energy">   -109.33428648 </i>
   </energy>
  </scstep>
  <scstep>
   <time name="dav">    3.69    3.69</time>
   <time name="total">    3.74    3.72</time>
   <energy>
    <i name="alphaZ">    271.64501344 </i>
    <i name="ewald"> 148152.84985856 </i>
    <i name="hartreedc">-160373.06468852 </i>
    <i name="XCdc">     91.43091265 </i>
    <i name="pawpsdc">  15260.30560926 </i>
    <i name="pawaedc"> -14855.97155093 </i>
    <i name="eentropy">     -0.00565913 </i>
    <i name="bandstr">   -901.70725790 </i>
    <i name="atom">  12245.18164884 </i>
    <i name="e_fr_energy">   -109.33611372 </i>
    <i name="e_wo_entrp">   -109.33045459 </i>
    <i name="e_0_energy">   -109.33422734 </i>
   </energy>
  </scstep>
  <structure>
   <crystal>
    <varray name="basis" >
     <v>       5.54371716       0.00000000       0.00000000 </v>
     <v>       2.77185858       4.80099990       0.00000000 </v>
     <v>       0.00000000       0.00000000      36.78963917 </v>
    </varray>
    <i name="volume">    979.17042988 </i>
    <varray name="rec_basis" >
     <v>       0.18038438      -0.10414497       0.00000000 </v>
     <v>       0.00000000       0.20828994       0.00000000 </v>
     <v>       0.00000000       0.00000000       0.02718157 </v>
    </varray>
   </crystal>
   <varray name="positions" >
    <v>       0.00000000       0.00000000       0.40772349 </v>
    <v>       0.50000000       0.00000000       0.40772349 </v>
    <v>       0.00000000       0.50000000       0.40772349 </v>
    <v>       0.50000000       0.50000000       0.40772349 </v>
    <v>       0.16666667       0.16666667       0.46924116 </v>
    <v>       0.66666667       0.16666667       0.46924116 </v>
    <v>       0.16666667       0.66666667       0.46924116 </v>
    <v>       0.66666667       0.66666667       0.46924116 </v>
    <v>       0.83665950       0.32941518       0.53234357 </v>
    <v>       0.33392533       0.32941518       0.53234357 </v>
    <v>       0.83505962       0.82988076       0.53297763 </v>
    <v>       0.33467379       0.83065243       0.53221907 </v>
    <v>       0.00417091      -0.01646480       0.59784868 </v>
    <v>       0.51229389      -0.01646480       0.59784868 </v>
    <v>       0.00565101       0.48869798       0.59802571 </v>
    <v>       0.50706821       0.48586357       0.59437202 </v>
    <v>       0.18545827       0.12908345       0.66735974 </v>
    <v>       0.18845484       0.12309032       0.63488669 </v>
   </varray>
  </structure>
  <varray name="forces" >
   <v>       0.02259646       0.02592761      -0.41383009 </v>
   <v>      -0.02259646       0.02592761      -0.41383009 </v>
   <v>      -0.00000000      -0.01619692      -0.41155939 </v>
   <v>       0.00000000      -0.00760656      -0.44922088 </v>
   <v>       0.00000000       0.00415092       0.51339403 </v>
   <v>       0.00000000      -0.02653481       0.50281018 </v>
   <v>       0.00341878      -0.01940990       0.42639261 </v>
   <v>      -0.00341878      -0.01940990       0.42639261 </v>
   <v>      -0.02276177      -0.04301866      -0.10429016 </v>
   <v>       0.02276177      -0.04301866      -0.10429016 </v>
   <v>      -0.00000000       0.00064888       0.00390924 </v>
   <v>       0.00000000      -0.01710971      -0.08964268 </v>
   <v>      -0.05370701      -0.03790929       0.05075929 </v>
   <v>       0.05370701      -0.03790929       0.05075929 </v>
   <v>       0.00000000       0.01888255       0.05402979 </v>
   <v>      -0.00000000      -0.01012123      -0.05129751 </v>
   <v>       0.00000000       0.02973524      -0.23694081 </v>
   <v>       0.00000000       0.17297212       0.24645471 </v>
  </varray>
  <varray name="stress" >
   <v>     -11.61138249       0.00000000       0.00000000 </v>
   <v>       0.00000000     -11.90755300       1.07694289 </v>
   <v>       0.00000000       1.07694094       4.08692396 </v>
  </varray>
  <energy>
   <i name="e_fr_energy">   -109.33611372 </i>
   <i name="e_wo_entrp">   -109.33045459 </i>
   <i name="e_0_energy">   -109.33422734 </i>
  </energy>
  <time name="totalsc">   52.56   51.89</time>
 </calculation>
 <calculation>
  <scstep>
   <time name="dav">    4.39    4.39</time>
   <time name="total">    4.75    4.72</time>
   <energy>
    <i name="alphaZ">    271.64501344 </i>
    <i name="ewald"> 148180.08995946 </i>
    <i name="hartreedc">-160400.10299897 </i>
    <i name="XCdc">     91.44947969 </i>
    <i name="pawpsdc">  15260.25356473 </i>
    <i name="pawaedc"> -14855.92004019 </i>
    <i name="eentropy">     -0.00477190 </i>
    <i name="bandstr">   -901.92525641 </i>
    <i name="atom">  12245.18164884 </i>
    <i name="e_fr_energy">   -109.33340130 </i>
    <i name="e_wo_entrp">   -109.32862940 </i>
    <i name="e_0_energy">   -109.33181067 </i>
   </energy>
  </scstep>
  <scstep>
   <time name="dav">    4.69    4.69</time>
   <time name="total">    5.05    5.03</time>
   <energy>
    <i name="e_fr_energy">   -109.35178244 </i>
    <i name="e_wo_entrp">   -109.34668572 </i>
    <i name="e_0_energy">   -109.35008354 </i>
   </energy>
  </scstep>
  <scstep>
   <time name="dav">    4.80    4.80</time>
   <time name="total">    5.17    5.14</time>
   <energy>
    <i name="e_fr_energy">   -109.33884723 </i>
    <i name="e_wo_entrp">   -109.33402244 </i>
    <i name="e_0_energy">   -109.33723896 </i>
   </energy>
  </scstep>
  <scstep>
   <time name="dav">    4.70    4.70</time>
   <time name="total">    5.06    5.03</time>
   <energy>
    <i name="e_fr_energy">   -109.33848888 </i>
    <i name="e_wo_entrp">   -109.33325348 </i>
    <i name="e_0_energy">   -109.33674375 </i>
   </energy>
  </scstep>
  <scstep>
   <time name="dav">    4.72    4.72</time>
   <time name="total">    5.09    5.06</time>
   <energy>
    <i name="e_fr_energy">   -109.33820721 </i>
    <i name="e_wo_entrp">   -109.33365935 </i>
    <i name="e_0_energy">   -109.33669126 </i>
   </energy>
  </scstep>
  <scstep>
   <time name="dav">    4.67    4.67</time>
   <time name="total">    5.04    5.01</time>
   <energy>
    <i name="e_fr_energy">   -109.33794406 </i>
    <i name="e_wo_entrp">   -109.33263766 </i>
    <i name="e_0_energy">   -109.33617526 </i>
   </energy>
  </scstep>
  <scstep>
   <time name="dav">    4.92    4.92</time>
   <time name="total">    5.28    5.26</time>
   <energy>
    <i name="e_fr_energy">   -109.33786439 </i>
    <i name="e_wo_entrp">   -109.33307184 </i>
    <i name="e_0_energy">   -109.33626687 </i>
   </energy>
  </scstep>
  <scstep>
   <time name="dav">    4.73    4.73</time>
   <time name="total">    5.10    5.07</time>
   <energy>
    <i name="e_fr_energy">   -109.33782650 </i>
    <i name="e_wo_entrp">   -109.33276295 </i>
    <i name="e_0_energy">   -109.33613865 </i>
   </energy>
  </scstep>
  <scstep>
   <time name="dav">    3.56    3.56</time>
   <time name="total">    3.93    3.91</time>
   <energy>
    <i name="e_fr_energy">   -109.33781361 </i>
    <i name="e_wo_entrp">   -109.33285720 </i>
    <i name="e_0_energy">   -109.33616147 </i>
   </energy>
  </scstep>
  <scstep>
   <time name="dav">    2.99    2.99</time>
   <time name="total">    3.04    3.02</time>
   <energy>
    <i name="alphaZ">    271.64501344 </i>
    <i name="ewald"> 148180.08995946 </i>
    <i name="hartreedc">-160401.51786248 </i>
    <i name="XCdc">     91.45317128 </i>
    <i name="pawpsdc">  15264.79177223 </i>
    <i name="pawaedc"> -14860.47780131 </i>
    <i name="eentropy">     -0.00494294 </i>
    <i name="bandstr">   -900.49877187 </i>
    <i name="atom">  12245.18164884 </i>
    <i name="e_fr_energy">   -109.33781333 </i>
    <i name="e_wo_entrp">   -109.33287039 </i>
    <i name="e_0_energy">   -109.33616568 </i>
   </energy>
  </scstep>
  <structure>
   <crystal>
    <varray name="basis" >
     <v>       5.54371716       0.00000000       0.00000000 </v>
     <v>       2.77185858       4.80099990       0.00000000 </v>
     <v>       0.00000000       0.00000000      36.78963917 </v>
    </varray>
    <i name="volume">    979.17042988 </i>
    <varray name="rec_basis" >
     <v>       0.18038438      -0.10414497       0.00000000 </v>
     <v>       0.00000000       0.20828994       0.00000000 </v>
     <v>       0.00000000       0.00000000       0.02718157 </v>
    </varray>
   </crystal>
   <varray name="positions" >
    <v>       0.00000000       0.00000000       0.40772349 </v>
    <v>       0.50000000       0.00000000       0.40772349 </v>
    <v>       0.00000000       0.50000000       0.40772349 </v>
    <v>       0.50000000       0.50000000       0.40772349 </v>
    <v>       0.16666667       0.16666667       0.46924116 </v>
    <v>       0.66666667       0.16666667       0.46924116 </v>
    <v>       0.16666667       0.66666667       0.46924116 </v>
    <v>       0.66666667       0.66666667       0.46924116 </v>
    <v>       0.83682019       0.32886863       0.53227937 </v>
    <v>       0.33431118       0.32886863       0.53227937 </v>
    <v>       0.83529115       0.82941770       0.53318563 </v>
    <v>       0.33463252       0.83073496       0.53237266 </v>
    <v>       0.00397493      -0.01718383       0.59785658 </v>
    <v>       0.51320890      -0.01718383       0.59785658 </v>
    <v>       0.00566401       0.48867197       0.59782675 </v>
    <v>       0.50762332       0.48475336       0.59400108 </v>
    <v>       0.18492632       0.13014737       0.66747016 </v>
    <v>       0.18659158       0.12681684       0.63512400 </v>
   </varray>
  </structure>
  <varray name="forces" >
   <v>       0.02339547       0.02483095      -0.41127287 </v>
   <v>      -0.02339547       0.02483095      -0.41127287 </v>
   <v>      -0.00000000      -0.01664385      -0.41558395 </v>
   <v>       0.00000000      -0.00476891      -0.45713615 </v>
   <v>       0.00000000      -0.00697353       0.51969280 </v>
   <v>      -0.00000000      -0.03719730       0.49988234 </v>
   <v>       0.00074288      -0.00909479       0.45275813 </v>
   <v>      -0.00074288      -0.00909479       0.45275813 </v>
   <v>      -0.00097739      -0.04045507      -0.12919520 </v>
   <v>       0.00097739      -0.04045507      -0.12919520 </v>
   <v>       0.00000000      -0.00456913      -0.08096249 </v>
   <v>       0.00000000      -0.02212621      -0.15898902 </v>
   <v>       0.07098716       0.00786285       0.11590938 </v>
   <v>      -0.07098716       0.00786285       0.11590938 </v>
   <v>       0.00000000      -0.06986703       0.13698054 </v>
   <v>       0.00000000       0.03116395       0.04105163 </v>
   <v>      -0.00000000       0.06037770       0.10094633 </v>
   <v>       0.00000000       0.10431644      -0.24228090 </v>
  </varray>
  <varray name="stress" >
   <v>     -11.66317506       0.00000000       0.00000000 </v>
   <v>       0.00000000     -11.96748522       1.05831715 </v>
   <v>       0.00000000       1.05831532       4.82131532 </v>
  </varray>
  <energy>
   <i name="e_fr_energy">   -109.33781333 </i>
   <i name="e_wo_entrp">   -109.33287039 </i>
   <i name="e_0_energy">   -109.33616568 </i>
  </energy>
  <time name="totalsc">   61.07   60.35</time>
 </calculation>
 <calculation>
  <scstep>
   <time name="dav">    4.38    4.38</time>
   <time name="total">    4.75    4.73</time>
   <energy>
    <i name="alphaZ">    271.64501344 </i>
    <i name="ewald"> 148172.08307184 </i>
    <i name="hartreedc">-160393.64763437 </i>
    <i name="XCdc">     91.44772213 </i>
    <i name="pawpsdc">  15264.66962864 </i>
    <i name="pawaedc"> -14860.35567843 </i>
    <i name="eentropy">     -0.00520614 </i>
    <i name="bandstr">   -900.35634843 </i>
    <i name="atom">  12245.18164884 </i>
    <i name="e_fr_energy">   -109.33778248 </i>
    <i name="e_wo_entrp">   -109.33257634 </i>
    <i name="e_0_energy">   -109.33604710 </i>
   </energy>
  </scstep>
  <scstep>
   <time name="dav">    4.74    4.74</time>
   <time name="total">    5.11    5.08</time>
   <energy>
    <i name="e_fr_energy">   -109.34105032 </i>
    <i name="e_wo_entrp">   -109.33641561 </i>
    <i name="e_0_energy">   -109.33950542 </i>
   </energy>
  </scstep>
  <scstep>
   <time name="dav">    4.83    4.83</time>
   <time name="total">    5.19    5.17</time>
   <energy>
    <i name="e_fr_energy">   -109.33817985 </i>
    <i name="e_wo_entrp">   -109.33303811 </i>
    <i name="e_0_energy">   -109.33646593 </i>
   </energy>
  </scstep>
  <scstep>
   <time name="dav">    4.76    4.76</time>
   <time name="total">    5.13    5.11</time>
   <energy>
    <i name="e_fr_energy">   -109.33819142 </i>
    <i name="e_wo_entrp">   -109.33312713 </i>
    <i name="e_0_energy">   -109.33650333 </i>
   </energy>
  </scstep>
  <scstep>
   <time name="dav">    4.70    4.70</time>
   <time name="total">    5.07    5.04</time>
   <energy>
    <i name="e_fr_energy">   -109.33816585 </i>
    <i name="e_wo_entrp">   -109.33287201 </i>
    <i name="e_0_energy">   -109.33640124 </i>
   </energy>
  </scstep>
  <scstep>
   <time name="dav">    4.65    4.65</time>
   <time name="total">    5.01    4.99</time>
   <energy>
    <i name="e_fr_energy">   -109.33815277 </i>
    <i name="e_wo_entrp">   -109.33314706 </i>
    <i name="e_0_energy">   -109.33648420 </i>
   </energy>
  </scstep>
  <scstep>
   <time name="dav">    3.67    3.67</time>
   <time name="total">    3.72    3.70</time>
   <energy>
    <i name="alphaZ">    271.64501344 </i>
    <i name="ewald"> 148172.08307184 </i>
    <i name="hartreedc">-160393.32178593 </i>
    <i name="XCdc">     91.44692255 </i>
    <i name="pawpsdc">  15262.91359367 </i>
    <i name="pawaedc"> -14858.59454959 </i>
    <i name="eentropy">     -0.00519949 </i>
    <i name="bandstr">   -900.68685884 </i>
    <i name="atom">  12245.18164884 </i>
    <i name="e_fr_energy">   -109.33814351 </i>
    <i name="e_wo_entrp">   -109.33294402 </i>
    <i name="e_0_energy">   -109.33641034 </i>
   </energy>
  </scstep>
  <structure>
   <crystal>
    <varray name="basis" >
     <v>       5.54371716       0.00000000       0.00000000 </v>
     <v>       2.77185858       4.80099990       0.00000000 </v>
     <v>       0.00000000       0.00000000      36.78963917 </v>
    </varray>
    <i name="volume">    979.17042988 </i>
    <varray name="rec_basis" >
     <v>       0.18038438      -0.10414497       0.00000000 </v>
     <v>       0.00000000       0.20828994       0.00000000 </v>
     <v>       0.00000000       0.00000000       0.02718157 </v>
    </varray>
   </crystal>
   <varray name="positions" >
    <v>       0.00000000       0.00000000       0.40772349 </v>
    <v>       0.50000000       0.00000000       0.40772349 </v>
    <v>       0.00000000       0.50000000       0.40772349 </v>
    <v>       0.50000000       0.50000000       0.40772349 </v>
    <v>       0.16666667       0.16666667       0.46924116 </v>
    <v>       0.66666667       0.16666667       0.46924116 </v>
    <v>       0.16666667       0.66666667       0.46924116 </v>
    <v>       0.66666667       0.66666667       0.46924116 </v>
    <v>       0.83677289       0.32902951       0.53229827 </v>
    <v>       0.33419760       0.32902951       0.53229827 </v>
    <v>       0.83522300       0.82955400       0.53312440 </v>
    <v>       0.33464467       0.83071067       0.53232745 </v>
    <v>       0.00403261      -0.01697218       0.59785426 </v>
    <v>       0.51293956      -0.01697218       0.59785426 </v>
    <v>       0.00566019       0.48867963       0.59788531 </v>
    <v>       0.50745992       0.48508015       0.59411027 </v>
    <v>       0.18508290       0.12983420       0.66743766 </v>
    <v>       0.18714004       0.12571992       0.63505415 </v>
   </varray>
  </structure>
  <varray name="forces" >
   <v>       0.02307431       0.02517104      -0.41307597 </v>
   <v>      -0.02307431       0.02517104      -0.41307597 </v>
   <v>       0.00000000      -0.01647982      -0.41651548 </v>
   <v>       0.00000000      -0.00558021      -0.45460260 </v>
   <v>       0.00000000      -0.00363555       0.51901147 </v>
   <v>       0.00000000      -0.03417346       0.50124169 </v>
   <v>       0.00148365      -0.01193774       0.44556256 </v>
   <v>      -0.00148365      -0.01193774       0.44556256 </v>
   <v>      -0.00787611      -0.04135859      -0.12060936 </v>
   <v>       0.00787611      -0.04135859      -0.12060936 </v>
   <v>       0.00000000      -0.00328409      -0.05515015 </v>
   <v>      -0.00000000      -0.02097412      -0.13664973 </v>
   <v>       0.03414213      -0.00573771       0.09771857 </v>
   <v>      -0.03414213      -0.00573771       0.09771857 </v>
   <v>       0.00000000      -0.04354294       0.11072779 </v>
   <v>       0.00000000       0.01867712       0.01069572 </v>
   <v>       0.00000000       0.05243278      -0.00246053 </v>
   <v>      -0.00000000       0.12428628      -0.09548977 </v>
  </varray>
  <varray name="stress" >
   <v>     -11.60288137       0.00000000       0.00000000 </v>
   <v>       0.00000000     -11.90930126       1.06580047 </v>
   <v>       0.00000000       1.06579863       4.67961684 </v>
  </varray>
  <energy>
   <i name="e_fr_energy">   -109.33814351 </i>
   <i name="e_wo_entrp">   -109.33294402 </i>
   <i name="e_0_energy">   -109.33641034 </i>
  </energy>
  <time name="totalsc">   47.55   46.91</time>
 </calculation>
 <calculation>
  <scstep>
   <time name="dav">    4.38    4.38</time>
   <time name="total">    4.75    4.72</time>
   <energy>
    <i name="alphaZ">    271.64501344 </i>
    <i name="ewald"> 148171.49984344 </i>
    <i name="hartreedc">-160392.79637176 </i>
    <i name="XCdc">     91.44635930 </i>
    <i name="pawpsdc">  15262.92218754 </i>
    <i name="pawaedc"> -14858.60247263 </i>
    <i name="eentropy">     -0.00510937 </i>
    <i name="bandstr">   -900.62995142 </i>
    <i name="atom">  12245.18164884 </i>
    <i name="e_fr_energy">   -109.33885261 </i>
    <i name="e_wo_entrp">   -109.33374324 </i>
    <i name="e_0_energy">   -109.33714949 </i>
   </energy>
  </scstep>
  <scstep>
   <time name="dav">    4.63    4.63</time>
   <time name="total">    4.99    4.96</time>
   <energy>
    <i name="e_fr_energy">   -109.33895372 </i>
    <i name="e_wo_entrp">   -109.33372883 </i>
    <i name="e_0_energy">   -109.33721209 </i>
   </energy>
  </scstep>
  <scstep>
   <time name="dav">    4.68    4.68</time>
   <time name="total">    5.04    5.01</time>
   <energy>
    <i name="e_fr_energy">   -109.33899212 </i>
    <i name="e_wo_entrp">   -109.33391731 </i>
    <i name="e_0_energy">   -109.33730052 </i>
   </energy>
  </scstep>
  <scstep>
   <time name="dav">    3.47    3.47</time>
   <time name="total">    3.84    3.81</time>
   <energy>
    <i name="e_fr_energy">   -109.33891065 </i>
    <i name="e_wo_entrp">   -109.33381404 </i>
    <i name="e_0_energy">   -109.33721178 </i>
   </energy>
  </scstep>
  <scstep>
   <time name="dav">    3.09    3.09</time>
   <time name="total">    3.14    3.13</time>
   <energy>
    <i name="alphaZ">    271.64501344 </i>
    <i name="ewald"> 148171.49984344 </i>
    <i name="hartreedc">-160392.72624961 </i>
    <i name="XCdc">     91.44579766 </i>
    <i name="pawpsdc">  15262.76858590 </i>
    <i name="pawaedc"> -14858.44912570 </i>
    <i name="eentropy">     -0.00514208 </i>
    <i name="bandstr">   -900.69927967 </i>
    <i name="atom">  12245.18164884 </i>
    <i name="e_fr_energy">   -109.33890778 </i>
    <i name="e_wo_entrp">   -109.33376570 </i>
    <i name="e_0_energy">   -109.33719375 </i>
   </energy>
  </scstep>
  <structure>
   <crystal>
    <varray name="basis" >
     <v>       5.54371716       0.00000000       0.00000000 </v>
     <v>       2.77185858       4.80099990       0.00000000 </v>
     <v>       0.00000000       0.00000000      36.78963917 </v>
    </varray>
    <i name="volume">    979.17042988 </i>
    <varray name="rec_basis" >
     <v>       0.18038438      -0.10414497       0.00000000 </v>
     <v>       0.00000000       0.20828994       0.00000000 </v>
     <v>       0.00000000       0.00000000       0.02718157 </v>
    </varray>
   </crystal>
   <varray name="positions" >
    <v>       0.00000000       0.00000000       0.40772349 </v>
    <v>       0.50000000       0.00000000       0.40772349 </v>
    <v>       0.00000000       0.50000000       0.40772349 </v>
    <v>       0.50000000       0.50000000       0.40772349 </v>
    <v>       0.16666667       0.16666667       0.46924116 </v>
    <v>       0.66666667       0.16666667       0.46924116 </v>
    <v>       0.16666667       0.66666667       0.46924116 </v>
    <v>       0.66666667       0.66666667       0.46924116 </v>
    <v>       0.83680408       0.32893133       0.53227186 </v>
    <v>       0.33426459       0.32893133       0.53227186 </v>
    <v>       0.83524287       0.82951425       0.53313040 </v>
    <v>       0.33465587       0.83068827       0.53231476 </v>
    <v>       0.00406205      -0.01703477       0.59787230 </v>
    <v>       0.51297272      -0.01703477       0.59787230 </v>
    <v>       0.00569095       0.48861810       0.59788992 </v>
    <v>       0.50748942       0.48502116       0.59408393 </v>
    <v>       0.18500654       0.12998691       0.66744562 </v>
    <v>       0.18691318       0.12617364       0.63505518 </v>
   </varray>
  </structure>
  <varray name="forces" >
   <v>       0.02316539       0.02532711      -0.41209795 </v>
   <v>      -0.02316539       0.02532711      -0.41209795 </v>
   <v>       0.00000000      -0.01637242      -0.41548283 </v>
   <v>       0.00000000      -0.00508243      -0.45537621 </v>
   <v>       0.00000000      -0.00466175       0.51399339 </v>
   <v>      -0.00000000      -0.03568125       0.49617892 </v>
   <v>       0.00040585      -0.01105755       0.44387060 </v>
   <v>      -0.00040585      -0.01105755       0.44387060 </v>
   <v>      -0.00496276      -0.03856289      -0.11242992 </v>
   <v>       0.00496276      -0.03856289      -0.11242992 </v>
   <v>       0.00000000      -0.00670719      -0.05420165 </v>
   <v>       0.00000000      -0.02187651      -0.13084805 </v>
   <v>       0.03470742      -0.00565969       0.09309202 </v>
   <v>      -0.03470742      -0.00565969       0.09309202 </v>
   <v>       0.00000000      -0.04526665       0.10860049 </v>
   <v>       0.00000000       0.01859722       0.00970966 </v>
   <v>       0.00000000       0.05413744      -0.01478822 </v>
   <v>       0.00000000       0.12281957      -0.08265499 </v>
  </varray>
  <varray name="stress" >
   <v>     -11.63275890       0.00000000       0.00000000 </v>
   <v>       0.00000000     -11.94739581       1.06848413 </v>
   <v>       0.00000000       1.06848229       4.57094041 </v>
  </varray>
  <energy>
   <i name="e_fr_energy">   -109.33890778 </i>
   <i name="e_wo_entrp">   -109.33376570 </i>
   <i name="e_0_energy">   -109.33719375 </i>
  </energy>
  <time name="totalsc">   35.30   34.71</time>
 </calculation>
 <calculation>
  <scstep>
   <time name="dav">    4.38    4.38</time>
   <time name="total">    4.75    4.73</time>
   <energy>
    <i name="alphaZ">    271.64501344 </i>
    <i name="ewald"> 148169.73879401 </i>
    <i name="hartreedc">-160391.02939162 </i>
    <i name="XCdc">     91.44419637 </i>
    <i name="pawpsdc">  15262.75770321 </i>
    <i name="pawaedc"> -14858.43823361 </i>
    <i name="eentropy">     -0.00503073 </i>
    <i name="bandstr">   -900.63515430 </i>
    <i name="atom">  12245.18164884 </i>
    <i name="e_fr_energy">   -109.34045437 </i>
    <i name="e_wo_entrp">   -109.33542364 </i>
    <i name="e_0_energy">   -109.33877746 </i>
   </energy>
  </scstep>
  <scstep>
   <time name="dav">    4.56    4.56</time>
   <time name="total">    4.93    4.90</time>
   <energy>
    <i name="e_fr_energy">   -109.34104684 </i>
    <i name="e_wo_entrp">   -109.33578444 </i>
    <i name="e_0_energy">   -109.33929271 </i>
   </energy>
  </scstep>
  <scstep>
   <time name="dav">    4.83    4.83</time>
   <time name="total">    5.19    5.17</time>
   <energy>
    <i name="e_fr_energy">   -109.34114401 </i>
    <i name="e_wo_entrp">   -109.33627009 </i>
    <i name="e_0_energy">   -109.33951937 </i>
   </energy>
  </scstep>
  <scstep>
   <time name="dav">    5.00    5.00</time>
   <time name="total">    5.36    5.34</time>
   <energy>
    <i name="e_fr_energy">   -109.34126307 </i>
    <i name="e_wo_entrp">   -109.33618600 </i>
    <i name="e_0_energy">   -109.33957071 </i>
   </energy>
  </scstep>
  <scstep>
   <time name="dav">    5.06    5.06</time>
   <time name="total">    5.42    5.39</time>
   <energy>
    <i name="e_fr_energy">   -109.34101919 </i>
    <i name="e_wo_entrp">   -109.33584475 </i>
    <i name="e_0_energy">   -109.33929438 </i>
   </energy>
  </scstep>
  <scstep>
   <time name="dav">    4.65    4.65</time>
   <time name="total">    5.01    4.99</time>
   <energy>
    <i name="e_fr_energy">   -109.34098928 </i>
    <i name="e_wo_entrp">   -109.33597102 </i>
    <i name="e_0_energy">   -109.33931653 </i>
   </energy>
  </scstep>
  <scstep>
   <time name="dav">    3.76    3.76</time>
   <time name="total">    4.12    4.10</time>
   <energy>
    <i name="e_fr_energy">   -109.34097238 </i>
    <i name="e_wo_entrp">   -109.33584822 </i>
    <i name="e_0_energy">   -109.33926432 </i>
   </energy>
  </scstep>
  <scstep>
   <time name="dav">    3.01    3.01</time>
   <time name="total">    3.06    3.04</time>
   <energy>
    <i name="alphaZ">    271.64501344 </i>
    <i name="ewald"> 148169.73879401 </i>
    <i name="hartreedc">-160390.68452846 </i>
    <i name="XCdc">     91.44256497 </i>
    <i name="pawpsdc">  15262.09649207 </i>
    <i name="pawaedc"> -14857.77862566 </i>
    <i name="eentropy">     -0.00508555 </i>
    <i name="bandstr">   -900.97724338 </i>
    <i name="atom">  12245.18164884 </i>
    <i name="e_fr_energy">   -109.34096971 </i>
    <i name="e_wo_entrp">   -109.33588417 </i>
    <i name="e_0_energy">   -109.33927453 </i>
   </energy>
  </scstep>
  <structure>
   <crystal>
    <varray name="basis" >
     <v>       5.54371716       0.00000000       0.00000000 </v>
     <v>       2.77185858       4.80099990       0.00000000 </v>
     <v>       0.00000000       0.00000000      36.78963917 </v>
    </varray>
    <i name="volume">    979.17042988 </i>
    <varray name="rec_basis" >
     <v>       0.18038438      -0.10414497       0.00000000 </v>
     <v>       0.00000000       0.20828994       0.00000000 </v>
     <v>       0.00000000       0.00000000       0.02718157 </v>
    </varray>
   </crystal>
   <varray name="positions" >
    <v>       0.00000000       0.00000000       0.40772349 </v>
    <v>       0.50000000       0.00000000       0.40772349 </v>
    <v>       0.00000000       0.50000000       0.40772349 </v>
    <v>       0.50000000       0.50000000       0.40772349 </v>
    <v>       0.16666667       0.16666667       0.46924116 </v>
    <v>       0.66666667       0.16666667       0.46924116 </v>
    <v>       0.16666667       0.66666667       0.46924116 </v>
    <v>       0.66666667       0.66666667       0.46924116 </v>
    <v>       0.83689764       0.32863680       0.53219262 </v>
    <v>       0.33446555       0.32863680       0.53219262 </v>
    <v>       0.83530250       0.82939500       0.53314839 </v>
    <v>       0.33468946       0.83062107       0.53227669 </v>
    <v>       0.00415035      -0.01722256       0.59792642 </v>
    <v>       0.51307221      -0.01722256       0.59792642 </v>
    <v>       0.00578324       0.48843352       0.59790375 </v>
    <v>       0.50757792       0.48484417       0.59400492 </v>
    <v>       0.18477747       0.13044506       0.66746953 </v>
    <v>       0.18623260       0.12753480       0.63505826 </v>
   </varray>
  </structure>
  <varray name="forces" >
   <v>       0.02297508       0.02506930      -0.40982587 </v>
   <v>      -0.02297508       0.02506930      -0.40982587 </v>
   <v>       0.00000000      -0.01586832      -0.41498335 </v>
   <v>       0.00000000      -0.00388436      -0.45600329 </v>
   <v>       0.00000000      -0.00781352       0.49930801 </v>
   <v>      -0.00000000      -0.04030020       0.47966785 </v>
   <v>      -0.00283349      -0.00876435       0.43721554 </v>
   <v>       0.00283349      -0.00876435       0.43721554 </v>
   <v>       0.00305996      -0.02964525      -0.08528337 </v>
   <v>      -0.00305996      -0.02964525      -0.08528337 </v>
   <v>       0.00000000      -0.01659897      -0.05325168 </v>
   <v>       0.00000000      -0.02496308      -0.11283995 </v>
   <v>       0.03642762      -0.00473179       0.07552765 </v>
   <v>      -0.03642762      -0.00473179       0.07552765 </v>
   <v>       0.00000000      -0.04901051       0.10458934 </v>
   <v>      -0.00000000       0.02068051       0.01623391 </v>
   <v>       0.00000000       0.05949514      -0.06200099 </v>
   <v>       0.00000000       0.11440750      -0.03598776 </v>
  </varray>
  <varray name="stress" >
   <v>     -11.63485877       0.00000000       0.00000000 </v>
   <v>       0.00000000     -11.97289467       1.06647935 </v>
   <v>       0.00000000       1.06647749       4.46614352 </v>
  </varray>
  <energy>
   <i name="e_fr_energy">   -109.34096971 </i>
   <i name="e_wo_entrp">   -109.33588417 </i>
   <i name="e_0_energy">   -109.33927453 </i>
  </energy>
  <time name="totalsc">   51.45   50.78</time>
 </calculation>
 <calculation>
  <scstep>
   <time name="dav">    4.38    4.38</time>
   <time name="total">    4.74    4.72</time>
   <energy>
    <i name="alphaZ">    271.64501344 </i>
    <i name="ewald"> 148166.16581139 </i>
    <i name="hartreedc">-160387.21856568 </i>
    <i name="XCdc">     91.43954172 </i>
    <i name="pawpsdc">  15262.09213753 </i>
    <i name="pawaedc"> -14857.77425734 </i>
    <i name="eentropy">     -0.00493692 </i>
    <i name="bandstr">   -900.86831699 </i>
    <i name="atom">  12245.18164884 </i>
    <i name="e_fr_energy">   -109.34192400 </i>
    <i name="e_wo_entrp">   -109.33698707 </i>
    <i name="e_0_energy">   -109.34027835 </i>
   </energy>
  </scstep>
  <scstep>
   <time name="dav">    4.61    4.61</time>
   <time name="total">    4.97    4.95</time>
   <energy>
    <i name="e_fr_energy">   -109.34455433 </i>
    <i name="e_wo_entrp">   -109.33949384 </i>
    <i name="e_0_energy">   -109.34286750 </i>
   </energy>
  </scstep>
  <scstep>
   <time name="dav">    4.97    4.97</time>
   <time name="total">    5.33    5.31</time>
   <energy>
    <i name="e_fr_energy">   -109.34536955 </i>
    <i name="e_wo_entrp">   -109.34023166 </i>
    <i name="e_0_energy">   -109.34365692 </i>
   </energy>
  </scstep>
  <scstep>
   <time name="dav">    4.93    4.93</time>
   <time name="total">    5.29    5.26</time>
   <energy>
    <i name="e_fr_energy">   -109.34489565 </i>
    <i name="e_wo_entrp">   -109.34023330 </i>
    <i name="e_0_energy">   -109.34334153 </i>
   </energy>
  </scstep>
  <scstep>
   <time name="dav">    4.74    4.74</time>
   <time name="total">    5.11    5.08</time>
   <energy>
    <i name="e_fr_energy">   -109.34409807 </i>
    <i name="e_wo_entrp">   -109.33899091 </i>
    <i name="e_0_energy">   -109.34239568 </i>
   </energy>
  </scstep>
  <scstep>
   <time name="dav">    4.80    4.80</time>
   <time name="total">    5.17    5.14</time>
   <energy>
    <i name="e_fr_energy">   -109.34402167 </i>
    <i name="e_wo_entrp">   -109.33910755 </i>
    <i name="e_0_energy">   -109.34238363 </i>
   </energy>
  </scstep>
  <scstep>
   <time name="dav">    4.74    4.74</time>
   <time name="total">    5.12    5.09</time>
   <energy>
    <i name="e_fr_energy">   -109.34400784 </i>
    <i name="e_wo_entrp">   -109.33894538 </i>
    <i name="e_0_energy">   -109.34232035 </i>
   </energy>
  </scstep>
  <scstep>
   <time name="dav">    3.24    3.24</time>
   <time name="total">    3.61    3.58</time>
   <energy>
    <i name="e_fr_energy">   -109.34399151 </i>
    <i name="e_wo_entrp">   -109.33901274 </i>
    <i name="e_0_energy">   -109.34233192 </i>
   </energy>
  </scstep>
  <scstep>
   <time name="dav">    3.06    3.06</time>
   <time name="total">    3.11    3.09</time>
   <energy>
    <i name="alphaZ">    271.64501344 </i>
    <i name="ewald"> 148166.16581139 </i>
    <i name="hartreedc">-160386.51402311 </i>
    <i name="XCdc">     91.43616422 </i>
    <i name="pawpsdc">  15260.64570240 </i>
    <i name="pawaedc"> -14856.33217813 </i>
    <i name="eentropy">     -0.00499373 </i>
    <i name="bandstr">   -901.56713468 </i>
    <i name="atom">  12245.18164884 </i>
    <i name="e_fr_energy">   -109.34398936 </i>
    <i name="e_wo_entrp">   -109.33899563 </i>
    <i name="e_0_energy">   -109.34232478 </i>
   </energy>
  </scstep>
  <structure>
   <crystal>
    <varray name="basis" >
     <v>       5.54371716       0.00000000       0.00000000 </v>
     <v>       2.77185858       4.80099990       0.00000000 </v>
     <v>       0.00000000       0.00000000      36.78963917 </v>
    </varray>
    <i name="volume">    979.17042988 </i>
    <varray name="rec_basis" >
     <v>       0.18038438      -0.10414497       0.00000000 </v>
     <v>       0.00000000       0.20828994       0.00000000 </v>
     <v>       0.00000000       0.00000000       0.02718157 </v>
    </varray>
   </crystal>
   <varray name="positions" >
    <v>       0.00000000       0.00000000       0.40772349 </v>
    <v>       0.50000000       0.00000000       0.40772349 </v>
    <v>       0.00000000       0.50000000       0.40772349 </v>
    <v>       0.50000000       0.50000000       0.40772349 </v>
    <v>       0.16666667       0.16666667       0.46924116 </v>
    <v>       0.66666667       0.16666667       0.46924116 </v>
    <v>       0.16666667       0.66666667       0.46924116 </v>
    <v>       0.66666667       0.66666667       0.46924116 </v>
    <v>       0.83708477       0.32804775       0.53203415 </v>
    <v>       0.33486748       0.32804775       0.53203415 </v>
    <v>       0.83542175       0.82915649       0.53318436 </v>
    <v>       0.33475666       0.83048668       0.53220054 </v>
    <v>       0.00432697      -0.01759815       0.59803466 </v>
    <v>       0.51327118      -0.01759815       0.59803466 </v>
    <v>       0.00596782       0.48806436       0.59793141 </v>
    <v>       0.50775490       0.48449019       0.59384690 </v>
    <v>       0.18431932       0.13136135       0.66751734 </v>
    <v>       0.18487143       0.13025714       0.63506444 </v>
   </varray>
  </structure>
  <varray name="forces" >
   <v>       0.02265506       0.02489543      -0.40754596 </v>
   <v>      -0.02265506       0.02489543      -0.40754596 </v>
   <v>       0.00000000      -0.01535407      -0.41609808 </v>
   <v>       0.00000000      -0.00178308      -0.45892595 </v>
   <v>       0.00000000      -0.01451318       0.47184667 </v>
   <v>       0.00000000      -0.05012726       0.44816834 </v>
   <v>      -0.00945099      -0.00384184       0.42582705 </v>
   <v>       0.00945099      -0.00384184       0.42582705 </v>
   <v>       0.01907456      -0.01166117      -0.02835327 </v>
   <v>      -0.01907456      -0.01166117      -0.02835327 </v>
   <v>       0.00000000      -0.03649201      -0.04955430 </v>
   <v>       0.00000000      -0.03127085      -0.07435699 </v>
   <v>       0.03890784      -0.00353276       0.04111921 </v>
   <v>      -0.03890784      -0.00353276       0.04111921 </v>
   <v>       0.00000000      -0.05435949       0.09222515 </v>
   <v>      -0.00000000       0.02365762       0.02394346 </v>
   <v>       0.00000000       0.07092260      -0.16494919 </v>
   <v>      -0.00000000       0.09760040       0.06560684 </v>
  </varray>
  <varray name="stress" >
   <v>     -11.60556811       0.00000000       0.00000000 </v>
   <v>       0.00000000     -11.99053332       1.06139188 </v>
   <v>       0.00000000       1.06138994       4.30676004 </v>
  </varray>
  <energy>
   <i name="e_fr_energy">   -109.34398936 </i>
   <i name="e_wo_entrp">   -109.33899563 </i>
   <i name="e_0_energy">   -109.34232478 </i>
  </energy>
  <time name="totalsc">   56.04   55.35</time>
 </calculation>
 <calculation>
  <scstep>
   <time name="dav">    4.38    4.38</time>
   <time name="total">    4.74    4.72</time>
   <energy>
    <i name="alphaZ">    271.64501344 </i>
    <i name="ewald"> 148158.81841461 </i>
    <i name="hartreedc">-160379.42608492 </i>
    <i name="XCdc">     91.43048073 </i>
    <i name="pawpsdc">  15260.68602938 </i>
    <i name="pawaedc"> -14856.37234966 </i>
    <i name="eentropy">     -0.00468701 </i>
    <i name="bandstr">   -901.29568360 </i>
    <i name="atom">  12245.18164884 </i>
    <i name="e_fr_energy">   -109.33721819 </i>
    <i name="e_wo_entrp">   -109.33253117 </i>
    <i name="e_0_energy">   -109.33565585 </i>
   </energy>
  </scstep>
  <scstep>
   <time name="dav">    4.57    4.57</time>
   <time name="total">    4.93    4.91</time>
   <energy>
    <i name="e_fr_energy">   -109.34679259 </i>
    <i name="e_wo_entrp">   -109.34165449 </i>
    <i name="e_0_energy">   -109.34507989 </i>
   </energy>
  </scstep>
  <scstep>
   <time name="dav">    4.87    4.87</time>
   <time name="total">    5.23    5.21</time>
   <energy>
    <i name="e_fr_energy">   -109.34626454 </i>
    <i name="e_wo_entrp">   -109.34180690 </i>
    <i name="e_0_energy">   -109.34477866 </i>
   </energy>
  </scstep>
  <scstep>
   <time name="dav">    5.01    5.01</time>
   <time name="total">    5.38    5.35</time>
   <energy>
    <i name="e_fr_energy">   -109.35191394 </i>
    <i name="e_wo_entrp">   -109.34737253 </i>
    <i name="e_0_energy">   -109.35040014 </i>
   </energy>
  </scstep>
  <scstep>
   <time name="dav">    5.02    5.02</time>
   <time name="total">    5.39    5.36</time>
   <energy>
    <i name="e_fr_energy">   -109.34588800 </i>
    <i name="e_wo_entrp">   -109.34071436 </i>
    <i name="e_0_energy">   -109.34416346 </i>
   </energy>
  </scstep>
  <scstep>
   <time name="dav">    4.66    4.66</time>
   <time name="total">    5.02    5.00</time>
   <energy>
    <i name="e_fr_energy">   -109.34570875 </i>
    <i name="e_wo_entrp">   -109.34123746 </i>
    <i name="e_0_energy">   -109.34421832 </i>
   </energy>
  </scstep>
  <scstep>
   <time name="dav">    4.72    4.72</time>
   <time name="total">    5.09    5.06</time>
   <energy>
    <i name="e_fr_energy">   -109.34554217 </i>
    <i name="e_wo_entrp">   -109.34058391 </i>
    <i name="e_0_energy">   -109.34388942 </i>
   </energy>
  </scstep>
  <scstep>
   <time name="dav">    4.91    4.91</time>
   <time name="total">    5.27    5.25</time>
   <energy>
    <i name="e_fr_energy">   -109.34547711 </i>
    <i name="e_wo_entrp">   -109.34070904 </i>
    <i name="e_0_energy">   -109.34388775 </i>
   </energy>
  </scstep>
  <scstep>
   <time name="dav">    3.44    3.44</time>
   <time name="total">    3.49    3.47</time>
   <energy>
    <i name="alphaZ">    271.64501344 </i>
    <i name="ewald"> 148158.81841461 </i>
    <i name="hartreedc">-160377.97866998 </i>
    <i name="XCdc">     91.42347542 </i>
    <i name="pawpsdc">  15258.12541360 </i>
    <i name="pawaedc"> -14853.82327938 </i>
    <i name="eentropy">     -0.00479873 </i>
    <i name="bandstr">   -902.73269041 </i>
    <i name="atom">  12245.18164884 </i>
    <i name="e_fr_energy">   -109.34547258 </i>
    <i name="e_wo_entrp">   -109.34067385 </i>
    <i name="e_0_energy">   -109.34387301 </i>
   </energy>
  </scstep>
  <structure>
   <crystal>
    <varray name="basis" >
     <v>       5.54371716       0.00000000       0.00000000 </v>
     <v>       2.77185858       4.80099990       0.00000000 </v>
     <v>       0.00000000       0.00000000      36.78963917 </v>
    </varray>
    <i name="volume">    979.17042988 </i>
    <varray name="rec_basis" >
     <v>       0.18038438      -0.10414497       0.00000000 </v>
     <v>       0.00000000       0.20828994       0.00000000 </v>
     <v>       0.00000000       0.00000000       0.02718157 </v>
    </varray>
   </crystal>
   <varray name="positions" >
    <v>       0.00000000       0.00000000       0.40772349 </v>
    <v>       0.50000000       0.00000000       0.40772349 </v>
    <v>       0.00000000       0.50000000       0.40772349 </v>
    <v>       0.50000000       0.50000000       0.40772349 </v>
    <v>       0.16666667       0.16666667       0.46924116 </v>
    <v>       0.66666667       0.16666667       0.46924116 </v>
    <v>       0.16666667       0.66666667       0.46924116 </v>
    <v>       0.66666667       0.66666667       0.46924116 </v>
    <v>       0.83745902       0.32686964       0.53171720 </v>
    <v>       0.33567134       0.32686964       0.53171720 </v>
    <v>       0.83566026       0.82867948       0.53325632 </v>
    <v>       0.33489105       0.83021790       0.53204824 </v>
    <v>       0.00468019      -0.01834931       0.59825114 </v>
    <v>       0.51366912      -0.01834931       0.59825114 </v>
    <v>       0.00633698       0.48732604       0.59798674 </v>
    <v>       0.50810888       0.48378224       0.59353086 </v>
    <v>       0.18340303       0.13319393       0.66761297 </v>
    <v>       0.18214910       0.13570180       0.63507679 </v>
   </varray>
  </structure>
  <varray name="forces" >
   <v>       0.02179673       0.02413174      -0.40221422 </v>
   <v>      -0.02179673       0.02413174      -0.40221422 </v>
   <v>       0.00000000      -0.01382859      -0.41660440 </v>
   <v>       0.00000000       0.00267667      -0.46244340 </v>
   <v>       0.00000000      -0.02874158       0.41285085 </v>
   <v>       0.00000000      -0.07038338       0.38035385 </v>
   <v>      -0.02281588       0.00596687       0.39999351 </v>
   <v>       0.02281588       0.00596687       0.39999351 </v>
   <v>       0.05008902       0.02527959       0.08362568 </v>
   <v>      -0.05008902       0.02527959       0.08362568 </v>
   <v>       0.00000000      -0.07648497      -0.04188315 </v>
   <v>      -0.00000000      -0.04490742      -0.00050081 </v>
   <v>       0.04490735      -0.00154750      -0.02487694 </v>
   <v>      -0.04490735      -0.00154750      -0.02487694 </v>
   <v>      -0.00000000      -0.05820729       0.06579623 </v>
   <v>       0.00000000       0.02879562       0.04371535 </v>
   <v>       0.00000000       0.09906389      -0.37507560 </v>
   <v>      -0.00000000       0.05435563       0.28073502 </v>
  </varray>
  <varray name="stress" >
   <v>     -11.56650345       0.00000000       0.00000000 </v>
   <v>       0.00000000     -12.02107665       1.03965026 </v>
   <v>       0.00000000       1.03964831       3.95559145 </v>
  </varray>
  <energy>
   <i name="e_fr_energy">   -109.34547258 </i>
   <i name="e_wo_entrp">   -109.34067385 </i>
   <i name="e_0_energy">   -109.34387301 </i>
  </energy>
  <time name="totalsc">   58.12   57.42</time>
 </calculation>
 <calculation>
  <scstep>
   <time name="dav">    4.38    4.38</time>
   <time name="total">    4.74    4.72</time>
   <energy>
    <i name="alphaZ">    271.64501344 </i>
    <i name="ewald"> 148160.94691428 </i>
    <i name="hartreedc">-160380.03979501 </i>
    <i name="XCdc">     91.42489659 </i>
    <i name="pawpsdc">  15258.18325817 </i>
    <i name="pawaedc"> -14853.88097348 </i>
    <i name="eentropy">     -0.00487497 </i>
    <i name="bandstr">   -902.80112968 </i>
    <i name="atom">  12245.18164884 </i>
    <i name="e_fr_energy">   -109.34504181 </i>
    <i name="e_wo_entrp">   -109.34016684 </i>
    <i name="e_0_energy">   -109.34341682 </i>
   </energy>
  </scstep>
  <scstep>
   <time name="dav">    4.62    4.62</time>
   <time name="total">    4.98    4.96</time>
   <energy>
    <i name="e_fr_energy">   -109.34593901 </i>
    <i name="e_wo_entrp">   -109.34118161 </i>
    <i name="e_0_energy">   -109.34435321 </i>
   </energy>
  </scstep>
  <scstep>
   <time name="dav">    4.93    4.93</time>
   <time name="total">    5.30    5.27</time>
   <energy>
    <i name="e_fr_energy">   -109.34610567 </i>
    <i name="e_wo_entrp">   -109.34136770 </i>
    <i name="e_0_energy">   -109.34452635 </i>
   </energy>
  </scstep>
  <scstep>
   <time name="dav">    4.93    4.93</time>
   <time name="total">    5.29    5.26</time>
   <energy>
    <i name="e_fr_energy">   -109.34604793 </i>
    <i name="e_wo_entrp">   -109.34110612 </i>
    <i name="e_0_energy">   -109.34440066 </i>
   </energy>
  </scstep>
  <scstep>
   <time name="dav">    4.79    4.79</time>
   <time name="total">    5.15    5.13</time>
   <energy>
    <i name="e_fr_energy">   -109.34570901 </i>
    <i name="e_wo_entrp">   -109.34091706 </i>
    <i name="e_0_energy">   -109.34411169 </i>
   </energy>
  </scstep>
  <scstep>
   <time name="dav">    4.74    4.74</time>
   <time name="total">    5.11    5.08</time>
   <energy>
    <i name="e_fr_energy">   -109.34569596 </i>
    <i name="e_wo_entrp">   -109.34080974 </i>
    <i name="e_0_energy">   -109.34406722 </i>
   </energy>
  </scstep>
  <scstep>
   <time name="dav">    3.82    3.82</time>
   <time name="total">    3.88    3.86</time>
   <energy>
    <i name="alphaZ">    271.64501344 </i>
    <i name="ewald"> 148160.94691428 </i>
    <i name="hartreedc">-160380.36721002 </i>
    <i name="XCdc">     91.42668912 </i>
    <i name="pawpsdc">  15258.96638390 </i>
    <i name="pawaedc"> -14854.66038942 </i>
    <i name="eentropy">     -0.00478864 </i>
    <i name="bandstr">   -902.47995629 </i>
    <i name="atom">  12245.18164884 </i>
    <i name="e_fr_energy">   -109.34569478 </i>
    <i name="e_wo_entrp">   -109.34090614 </i>
    <i name="e_0_energy">   -109.34409857 </i>
   </energy>
  </scstep>
  <structure>
   <crystal>
    <varray name="basis" >
     <v>       5.54371716       0.00000000       0.00000000 </v>
     <v>       2.77185858       4.80099990       0.00000000 </v>
     <v>       0.00000000       0.00000000      36.78963917 </v>
    </varray>
    <i name="volume">    979.17042988 </i>
    <varray name="rec_basis" >
     <v>       0.18038438      -0.10414497       0.00000000 </v>
     <v>       0.00000000       0.20828994       0.00000000 </v>
     <v>       0.00000000       0.00000000       0.02718157 </v>
    </varray>
   </crystal>
   <varray name="positions" >
    <v>       0.00000000       0.00000000       0.40772349 </v>
    <v>       0.50000000       0.00000000       0.40772349 </v>
    <v>       0.00000000       0.50000000       0.40772349 </v>
    <v>       0.50000000       0.50000000       0.40772349 </v>
    <v>       0.16666667       0.16666667       0.46924116 </v>
    <v>       0.66666667       0.16666667       0.46924116 </v>
    <v>       0.16666667       0.66666667       0.46924116 </v>
    <v>       0.66666667       0.66666667       0.46924116 </v>
    <v>       0.83735199       0.32720656       0.53180784 </v>
    <v>       0.33544145       0.32720656       0.53180784 </v>
    <v>       0.83559205       0.82881590       0.53323574 </v>
    <v>       0.33485261       0.83029477       0.53209180 </v>
    <v>       0.00457917      -0.01813449       0.59818923 </v>
    <v>       0.51355532      -0.01813449       0.59818923 </v>
    <v>       0.00623140       0.48753720       0.59797092 </v>
    <v>       0.50800765       0.48398471       0.59362124 </v>
    <v>       0.18366508       0.13266983       0.66758562 </v>
    <v>       0.18292766       0.13414468       0.63507326 </v>
   </varray>
  </structure>
  <varray name="forces" >
   <v>       0.02211153       0.02416442      -0.40473435 </v>
   <v>      -0.02211153       0.02416442      -0.40473435 </v>
   <v>       0.00000000      -0.01468238      -0.41809700 </v>
   <v>       0.00000000       0.00114004      -0.46219682 </v>
   <v>       0.00000000      -0.02469400       0.43169665 </v>
   <v>       0.00000000      -0.06457017       0.40124737 </v>
   <v>      -0.01890639       0.00275455       0.40864167 </v>
   <v>       0.01890639       0.00275455       0.40864167 </v>
   <v>       0.04125630       0.01452472       0.05186083 </v>
   <v>      -0.04125630       0.01452472       0.05186083 </v>
   <v>       0.00000000      -0.06508963      -0.04415009 </v>
   <v>      -0.00000000      -0.04111919      -0.02115771 </v>
   <v>       0.04264124      -0.00227796      -0.00628207 </v>
   <v>      -0.04264124      -0.00227796      -0.00628207 </v>
   <v>      -0.00000000      -0.05923650       0.07308433 </v>
   <v>       0.00000000       0.02693309       0.03554428 </v>
   <v>       0.00000000       0.09266555      -0.31227658 </v>
   <v>       0.00000000       0.07032174       0.21733338 </v>
  </varray>
  <varray name="stress" >
   <v>     -11.60563987       0.00000000       0.00000000 </v>
   <v>       0.00000000     -12.05777461       1.05363559 </v>
   <v>       0.00000000       1.05363395       3.98753701 </v>
  </varray>
  <energy>
   <i name="e_fr_energy">   -109.34569478 </i>
   <i name="e_wo_entrp">   -109.34090614 </i>
   <i name="e_0_energy">   -109.34409857 </i>
  </energy>
  <time name="totalsc">   48.04   47.40</time>
 </calculation>
 <calculation>
  <scstep>
   <time name="dav">    4.38    4.38</time>
   <time name="total">    4.74    4.72</time>
   <energy>
    <i name="alphaZ">    271.64501344 </i>
    <i name="ewald"> 148161.35708951 </i>
    <i name="hartreedc">-160380.36888247 </i>
    <i name="XCdc">     91.43952550 </i>
    <i name="pawpsdc">  15258.94595279 </i>
    <i name="pawaedc"> -14854.64019242 </i>
    <i name="eentropy">     -0.00483395 </i>
    <i name="bandstr">   -902.90152230 </i>
    <i name="atom">  12245.18164884 </i>
    <i name="e_fr_energy">   -109.34620106 </i>
    <i name="e_wo_entrp">   -109.34136710 </i>
    <i name="e_0_energy">   -109.34458974 </i>
   </energy>
  </scstep>
  <scstep>
   <time name="dav">    4.57    4.57</time>
   <time name="total">    4.94    4.91</time>
   <energy>
    <i name="e_fr_energy">   -109.34672820 </i>
    <i name="e_wo_entrp">   -109.34184696 </i>
    <i name="e_0_energy">   -109.34510112 </i>
   </energy>
  </scstep>
  <scstep>
   <time name="dav">    5.02    5.02</time>
   <time name="total">    5.38    5.36</time>
   <energy>
    <i name="e_fr_energy">   -109.34704416 </i>
    <i name="e_wo_entrp">   -109.34228542 </i>
    <i name="e_0_energy">   -109.34545791 </i>
   </energy>
  </scstep>
  <scstep>
   <time name="dav">    4.89    4.89</time>
   <time name="total">    5.26    5.23</time>
   <energy>
    <i name="e_fr_energy">   -109.34667359 </i>
    <i name="e_wo_entrp">   -109.34181968 </i>
    <i name="e_0_energy">   -109.34505562 </i>
   </energy>
  </scstep>
  <scstep>
   <time name="dav">    4.77    4.77</time>
   <time name="total">    5.13    5.11</time>
   <energy>
    <i name="e_fr_energy">   -109.34667293 </i>
    <i name="e_wo_entrp">   -109.34185518 </i>
    <i name="e_0_energy">   -109.34506701 </i>
   </energy>
  </scstep>
  <scstep>
   <time name="dav">    4.75    4.75</time>
   <time name="total">    5.12    5.09</time>
   <energy>
    <i name="e_fr_energy">   -109.34663030 </i>
    <i name="e_wo_entrp">   -109.34173187 </i>
    <i name="e_0_energy">   -109.34499749 </i>
   </energy>
  </scstep>
  <scstep>
   <time name="dav">    3.50    3.50</time>
   <time name="total">    3.56    3.54</time>
   <energy>
    <i name="alphaZ">    271.64501344 </i>
    <i name="ewald"> 148161.35708951 </i>
    <i name="hartreedc">-160381.29619037 </i>
    <i name="XCdc">     91.44857892 </i>
    <i name="pawpsdc">  15263.76002158 </i>
    <i name="pawaedc"> -14859.45209579 </i>
    <i name="eentropy">     -0.00481969 </i>
    <i name="bandstr">   -901.98586723 </i>
    <i name="atom">  12245.18164884 </i>
    <i name="e_fr_energy">   -109.34662079 </i>
    <i name="e_wo_entrp">   -109.34180110 </i>
    <i name="e_0_energy">   -109.34501423 </i>
   </energy>
  </scstep>
  <structure>
   <crystal>
    <varray name="basis" >
     <v>       5.54371716       0.00000000       0.00000000 </v>
     <v>       2.77185858       4.80099990       0.00000000 </v>
     <v>       0.00000000       0.00000000      36.78963917 </v>
    </varray>
    <i name="volume">    979.17042988 </i>
    <varray name="rec_basis" >
     <v>       0.18038438      -0.10414497       0.00000000 </v>
     <v>       0.00000000       0.20828994       0.00000000 </v>
     <v>       0.00000000       0.00000000       0.02718157 </v>
    </varray>
   </crystal>
   <varray name="positions" >
    <v>       0.00000000       0.00000000       0.40772349 </v>
    <v>       0.50000000       0.00000000       0.40772349 </v>
    <v>       0.00000000       0.50000000       0.40772349 </v>
    <v>       0.50000000       0.50000000       0.40772349 </v>
    <v>       0.16666667       0.16666667       0.46924116 </v>
    <v>       0.66666667       0.16666667       0.46924116 </v>
    <v>       0.16666667       0.66666667       0.46924116 </v>
    <v>       0.66666667       0.66666667       0.46924116 </v>
    <v>       0.83746903       0.32702451       0.53176398 </v>
    <v>       0.33550646       0.32702451       0.53176398 </v>
    <v>       0.83569241       0.82861517       0.53323813 </v>
    <v>       0.33491314       0.83017371       0.53205996 </v>
    <v>       0.00470968      -0.01827121       0.59822599 </v>
    <v>       0.51356154      -0.01827121       0.59822599 </v>
    <v>       0.00634960       0.48730080       0.59799775 </v>
    <v>       0.50804605       0.48390789       0.59357373 </v>
    <v>       0.18342035       0.13315930       0.66752957 </v>
    <v>       0.18238399       0.13523202       0.63512620 </v>
   </varray>
  </structure>
  <varray name="forces" >
   <v>       0.02236759       0.02433020      -0.40273279 </v>
   <v>      -0.02236759       0.02433020      -0.40273279 </v>
   <v>       0.00000000      -0.01406744      -0.41463461 </v>
   <v>       0.00000000       0.00245750      -0.46377714 </v>
   <v>       0.00000000      -0.02681367       0.42174010 </v>
   <v>       0.00000000      -0.06671429       0.39200154 </v>
   <v>      -0.02086560       0.00376930       0.40330471 </v>
   <v>       0.02086560       0.00376930       0.40330471 </v>
   <v>       0.03956394       0.01528820       0.06691989 </v>
   <v>      -0.03956394       0.01528820       0.06691989 </v>
   <v>       0.00000000      -0.06349116      -0.03583782 </v>
   <v>       0.00000000      -0.04004312      -0.00834391 </v>
   <v>       0.03557052      -0.00420133      -0.02112509 </v>
   <v>      -0.03557052      -0.00420133      -0.02112509 </v>
   <v>       0.00000000      -0.04708025       0.06304565 </v>
   <v>       0.00000000       0.02355967       0.03597266 </v>
   <v>      -0.00000000       0.09274942       0.01552265 </v>
   <v>      -0.00000000       0.06107061      -0.09842255 </v>
  </varray>
  <varray name="stress" >
   <v>     -11.61812199       0.00000000       0.00000000 </v>
   <v>       0.00000000     -12.06732481       1.03821280 </v>
   <v>       0.00000000       1.03821091       4.64127872 </v>
  </varray>
  <energy>
   <i name="e_fr_energy">   -109.34662079 </i>
   <i name="e_wo_entrp">   -109.34180110 </i>
   <i name="e_0_energy">   -109.34501423 </i>
  </energy>
  <time name="totalsc">   47.72   47.08</time>
 </calculation>
 <calculation>
  <scstep>
   <time name="dav">    4.38    4.38</time>
   <time name="total">    4.75    4.72</time>
   <energy>
    <i name="alphaZ">    271.64501344 </i>
    <i name="ewald"> 148161.41019721 </i>
    <i name="hartreedc">-160381.24846434 </i>
    <i name="XCdc">     91.45046508 </i>
    <i name="pawpsdc">  15263.80017115 </i>
    <i name="pawaedc"> -14859.49288230 </i>
    <i name="eentropy">     -0.00488104 </i>
    <i name="bandstr">   -902.08789131 </i>
    <i name="atom">  12245.18164884 </i>
    <i name="e_fr_energy">   -109.34662325 </i>
    <i name="e_wo_entrp">   -109.34174221 </i>
    <i name="e_0_energy">   -109.34499623 </i>
   </energy>
  </scstep>
  <scstep>
   <time name="dav">    4.73    4.73</time>
   <time name="total">    5.10    5.07</time>
   <energy>
    <i name="e_fr_energy">   -109.34667579 </i>
    <i name="e_wo_entrp">   -109.34187162 </i>
    <i name="e_0_energy">   -109.34507440 </i>
   </energy>
  </scstep>
  <scstep>
   <time name="dav">    3.79    3.79</time>
   <time name="total">    4.15    4.13</time>
   <energy>
    <i name="e_fr_energy">   -109.34665647 </i>
    <i name="e_wo_entrp">   -109.34184329 </i>
    <i name="e_0_energy">   -109.34505207 </i>
   </energy>
  </scstep>
  <scstep>
   <time name="dav">    3.20    3.20</time>
   <time name="total">    3.56    3.54</time>
   <energy>
    <i name="e_fr_energy">   -109.34663255 </i>
    <i name="e_wo_entrp">   -109.34173537 </i>
    <i name="e_0_energy">   -109.34500015 </i>
   </energy>
  </scstep>
  <scstep>
   <time name="dav">    3.01    3.01</time>
   <time name="total">    3.06    3.04</time>
   <energy>
    <i name="alphaZ">    271.64501344 </i>
    <i name="ewald"> 148161.41019721 </i>
    <i name="hartreedc">-160381.40746142 </i>
    <i name="XCdc">     91.45162063 </i>
    <i name="pawpsdc">  15264.35140433 </i>
    <i name="pawaedc"> -14860.04406824 </i>
    <i name="eentropy">     -0.00485864 </i>
    <i name="bandstr">   -901.93012665 </i>
    <i name="atom">  12245.18164884 </i>
    <i name="e_fr_energy">   -109.34663049 </i>
    <i name="e_wo_entrp">   -109.34177185 </i>
    <i name="e_0_energy">   -109.34501094 </i>
   </energy>
  </scstep>
  <structure>
   <crystal>
    <varray name="basis" >
     <v>       5.54371716       0.00000000       0.00000000 </v>
     <v>       2.77185858       4.80099990       0.00000000 </v>
     <v>       0.00000000       0.00000000      36.78963917 </v>
    </varray>
    <i name="volume">    979.17042988 </i>
    <varray name="rec_basis" >
     <v>       0.18038438      -0.10414497       0.00000000 </v>
     <v>       0.00000000       0.20828994       0.00000000 </v>
     <v>       0.00000000       0.00000000       0.02718157 </v>
    </varray>
   </crystal>
   <varray name="positions" >
    <v>       0.00000000       0.00000000       0.40772349 </v>
    <v>       0.50000000       0.00000000       0.40772349 </v>
    <v>       0.00000000       0.50000000       0.40772349 </v>
    <v>       0.50000000       0.50000000       0.40772349 </v>
    <v>       0.16666667       0.16666667       0.46924116 </v>
    <v>       0.66666667       0.16666667       0.46924116 </v>
    <v>       0.16666667       0.66666667       0.46924116 </v>
    <v>       0.66666667       0.66666667       0.46924116 </v>
    <v>       0.83748413       0.32700102       0.53175833 </v>
    <v>       0.33551485       0.32700102       0.53175833 </v>
    <v>       0.83570536       0.82858928       0.53323844 </v>
    <v>       0.33492095       0.83015809       0.53205585 </v>
    <v>       0.00472651      -0.01828885       0.59823074 </v>
    <v>       0.51356234      -0.01828885       0.59823074 </v>
    <v>       0.00636485       0.48727030       0.59800122 </v>
    <v>       0.50805101       0.48389798       0.59356760 </v>
    <v>       0.18338877       0.13322245       0.66752234 </v>
    <v>       0.18231384       0.13537232       0.63513303 </v>
   </varray>
  </structure>
  <varray name="forces" >
   <v>       0.02222188       0.02417045      -0.40312386 </v>
   <v>      -0.02222188       0.02417045      -0.40312386 </v>
   <v>      -0.00000000      -0.01423469      -0.41595192 </v>
   <v>       0.00000000       0.00230110      -0.46288216 </v>
   <v>       0.00000000      -0.02732962       0.42043942 </v>
   <v>      -0.00000000      -0.06729416       0.39002306 </v>
   <v>      -0.02112333       0.00377563       0.40190975 </v>
   <v>       0.02112333       0.00377563       0.40190975 </v>
   <v>       0.03902307       0.01549805       0.07052675 </v>
   <v>      -0.03902307       0.01549805       0.07052675 </v>
   <v>       0.00000000      -0.06285442      -0.03446198 </v>
   <v>       0.00000000      -0.04001711      -0.00501997 </v>
   <v>       0.03425997      -0.00436418      -0.02322563 </v>
   <v>      -0.03425997      -0.00436418      -0.02322563 </v>
   <v>       0.00000000      -0.04552851       0.06094973 </v>
   <v>       0.00000000       0.02294722       0.03689304 </v>
   <v>       0.00000000       0.09306048       0.05537684 </v>
   <v>       0.00000000       0.06078981      -0.13754008 </v>
  </varray>
  <varray name="stress" >
   <v>     -11.59020273       0.00000000       0.00000000 </v>
   <v>       0.00000000     -12.03668053       1.03250935 </v>
   <v>       0.00000000       1.03250747       4.79776196 </v>
  </varray>
  <energy>
   <i name="e_fr_energy">   -109.34663049 </i>
   <i name="e_wo_entrp">   -109.34177185 </i>
   <i name="e_0_energy">   -109.34501094 </i>
  </energy>
  <time name="totalsc">   34.17   33.58</time>
 </calculation>
 <calculation>
  <scstep>
   <time name="dav">    4.38    4.38</time>
   <time name="total">    4.75    4.72</time>
   <energy>
    <i name="alphaZ">    271.64501344 </i>
    <i name="ewald"> 148160.10206693 </i>
    <i name="hartreedc">-160380.12382792 </i>
    <i name="XCdc">     91.45236939 </i>
    <i name="pawpsdc">  15264.49201142 </i>
    <i name="pawaedc"> -14860.18487113 </i>
    <i name="eentropy">     -0.00489086 </i>
    <i name="bandstr">   -901.90659925 </i>
    <i name="atom">  12245.18164884 </i>
    <i name="e_fr_energy">   -109.34707913 </i>
    <i name="e_wo_entrp">   -109.34218827 </i>
    <i name="e_0_energy">   -109.34544884 </i>
   </energy>
  </scstep>
  <scstep>
   <time name="dav">    4.55    4.55</time>
   <time name="total">    4.92    4.89</time>
   <energy>
    <i name="e_fr_energy">   -109.34719501 </i>
    <i name="e_wo_entrp">   -109.34230497 </i>
    <i name="e_0_energy">   -109.34556500 </i>
   </energy>
  </scstep>
  <scstep>
   <time name="dav">    4.84    4.84</time>
   <time name="total">    5.21    5.18</time>
   <energy>
    <i name="e_fr_energy">   -109.34729066 </i>
    <i name="e_wo_entrp">   -109.34237587 </i>
    <i name="e_0_energy">   -109.34565240 </i>
   </energy>
  </scstep>
  <scstep>
   <time name="dav">    4.02    4.02</time>
   <time name="total">    4.38    4.36</time>
   <energy>
    <i name="e_fr_energy">   -109.34720361 </i>
    <i name="e_wo_entrp">   -109.34234006 </i>
    <i name="e_0_energy">   -109.34558243 </i>
   </energy>
  </scstep>
  <scstep>
   <time name="dav">    3.31    3.31</time>
   <time name="total">    3.67    3.65</time>
   <energy>
    <i name="e_fr_energy">   -109.34718647 </i>
    <i name="e_wo_entrp">   -109.34228882 </i>
    <i name="e_0_energy">   -109.34555392 </i>
   </energy>
  </scstep>
  <scstep>
   <time name="dav">    2.96    2.96</time>
   <time name="total">    3.01    2.99</time>
   <energy>
    <i name="alphaZ">    271.64501344 </i>
    <i name="ewald"> 148160.10206693 </i>
    <i name="hartreedc">-160380.11586924 </i>
    <i name="XCdc">     91.45281772 </i>
    <i name="pawpsdc">  15264.71578506 </i>
    <i name="pawaedc"> -14860.40854313 </i>
    <i name="eentropy">     -0.00489517 </i>
    <i name="bandstr">   -901.91520975 </i>
    <i name="atom">  12245.18164884 </i>
    <i name="e_fr_energy">   -109.34718530 </i>
    <i name="e_wo_entrp">   -109.34229013 </i>
    <i name="e_0_energy">   -109.34555358 </i>
   </energy>
  </scstep>
  <structure>
   <crystal>
    <varray name="basis" >
     <v>       5.54371716       0.00000000       0.00000000 </v>
     <v>       2.77185858       4.80099990       0.00000000 </v>
     <v>       0.00000000       0.00000000      36.78963917 </v>
    </varray>
    <i name="volume">    979.17042988 </i>
    <varray name="rec_basis" >
     <v>       0.18038438      -0.10414497       0.00000000 </v>
     <v>       0.00000000       0.20828994       0.00000000 </v>
     <v>       0.00000000       0.00000000       0.02718157 </v>
    </varray>
   </crystal>
   <varray name="positions" >
    <v>       0.00000000       0.00000000       0.40772349 </v>
    <v>       0.50000000       0.00000000       0.40772349 </v>
    <v>       0.00000000       0.50000000       0.40772349 </v>
    <v>       0.50000000       0.50000000       0.40772349 </v>
    <v>       0.16666667       0.16666667       0.46924116 </v>
    <v>       0.66666667       0.16666667       0.46924116 </v>
    <v>       0.16666667       0.66666667       0.46924116 </v>
    <v>       0.66666667       0.66666667       0.46924116 </v>
    <v>       0.83757567       0.32696146       0.53175884 </v>
    <v>       0.33546287       0.32696146       0.53175884 </v>
    <v>       0.83580056       0.82839888       0.53323108 </v>
    <v>       0.33498030       0.83003940       0.53204276 </v>
    <v>       0.00483375      -0.01834795       0.59823891 </v>
    <v>       0.51351420      -0.01834795       0.59823891 </v>
    <v>       0.00645081       0.48709839       0.59802585 </v>
    <v>       0.50804430       0.48391141       0.59355869 </v>
    <v>       0.18321191       0.13357618       0.66751467 </v>
    <v>       0.18205491       0.13589018       0.63511985 </v>
   </varray>
  </structure>
  <varray name="forces" >
   <v>       0.02234088       0.02427924      -0.40338905 </v>
   <v>      -0.02234088       0.02427924      -0.40338905 </v>
   <v>      -0.00000000      -0.01397485      -0.41505976 </v>
   <v>      -0.00000000       0.00268043      -0.46255594 </v>
   <v>       0.00000000      -0.02793799       0.41869433 </v>
   <v>       0.00000000      -0.06715544       0.39032855 </v>
   <v>      -0.02140833       0.00326873       0.40001791 </v>
   <v>       0.02140833       0.00326873       0.40001791 </v>
   <v>       0.03097494       0.00951483       0.07079976 </v>
   <v>      -0.03097494       0.00951483       0.07079976 </v>
   <v>       0.00000000      -0.05333837      -0.02877762 </v>
   <v>      -0.00000000      -0.03644820      -0.00079368 </v>
   <v>       0.02174663      -0.00834343      -0.02992764 </v>
   <v>      -0.02174663      -0.00834343      -0.02992764 </v>
   <v>      -0.00000000      -0.03134007       0.05707595 </v>
   <v>      -0.00000000       0.01801965       0.03883133 </v>
   <v>      -0.00000000       0.09279072       0.04701820 </v>
   <v>       0.00000000       0.05926539      -0.11976332 </v>
  </varray>
  <varray name="stress" >
   <v>     -11.58098355       0.00000000       0.00000000 </v>
   <v>       0.00000000     -12.03228404       1.02983568 </v>
   <v>       0.00000000       1.02983380       4.79921438 </v>
  </varray>
  <energy>
   <i name="e_fr_energy">   -109.34718530 </i>
   <i name="e_wo_entrp">   -109.34229013 </i>
   <i name="e_0_energy">   -109.34555358 </i>
  </energy>
  <time name="totalsc">   39.51   38.89</time>
 </calculation>
 <calculation>
  <scstep>
   <time name="dav">    4.38    4.38</time>
   <time name="total">    4.74    4.72</time>
   <energy>
    <i name="alphaZ">    271.64501344 </i>
    <i name="ewald"> 148156.18595068 </i>
    <i name="hartreedc">-160376.18641676 </i>
    <i name="XCdc">     91.45457476 </i>
    <i name="pawpsdc">  15264.74002219 </i>
    <i name="pawaedc"> -14860.43263406 </i>
    <i name="eentropy">     -0.00497671 </i>
    <i name="bandstr">   -901.93073502 </i>
    <i name="atom">  12245.18164884 </i>
    <i name="e_fr_energy">   -109.34755264 </i>
    <i name="e_wo_entrp">   -109.34257593 </i>
    <i name="e_0_energy">   -109.34589374 </i>
   </energy>
  </scstep>
  <scstep>
   <time name="dav">    4.62    4.62</time>
   <time name="total">    4.98    4.95</time>
   <energy>
    <i name="e_fr_energy">   -109.34871151 </i>
    <i name="e_wo_entrp">   -109.34375683 </i>
    <i name="e_0_energy">   -109.34705995 </i>
   </energy>
  </scstep>
  <scstep>
   <time name="dav">    5.05    5.05</time>
   <time name="total">    5.41    5.39</time>
   <energy>
    <i name="e_fr_energy">   -109.34967106 </i>
    <i name="e_wo_entrp">   -109.34463993 </i>
    <i name="e_0_energy">   -109.34799401 </i>
   </energy>
  </scstep>
  <scstep>
   <time name="dav">    4.95    4.95</time>
   <time name="total">    5.31    5.29</time>
   <energy>
    <i name="e_fr_energy">   -109.34852708 </i>
    <i name="e_wo_entrp">   -109.34364458 </i>
    <i name="e_0_energy">   -109.34689958 </i>
   </energy>
  </scstep>
  <scstep>
   <time name="dav">    4.84    4.84</time>
   <time name="total">    5.21    5.19</time>
   <energy>
    <i name="e_fr_energy">   -109.34851963 </i>
    <i name="e_wo_entrp">   -109.34342824 </i>
    <i name="e_0_energy">   -109.34682250 </i>
   </energy>
  </scstep>
  <scstep>
   <time name="dav">    4.75    4.75</time>
   <time name="total">    5.12    5.09</time>
   <energy>
    <i name="e_fr_energy">   -109.34850279 </i>
    <i name="e_wo_entrp">   -109.34360898 </i>
    <i name="e_0_energy">   -109.34687152 </i>
   </energy>
  </scstep>
  <scstep>
   <time name="dav">    4.09    4.09</time>
   <time name="total">    4.46    4.44</time>
   <energy>
    <i name="e_fr_energy">   -109.34848581 </i>
    <i name="e_wo_entrp">   -109.34347268 </i>
    <i name="e_0_energy">   -109.34681477 </i>
   </energy>
  </scstep>
  <scstep>
   <time name="dav">    3.03    3.03</time>
   <time name="total">    3.08    3.06</time>
   <energy>
    <i name="alphaZ">    271.64501344 </i>
    <i name="ewald"> 148156.18595068 </i>
    <i name="hartreedc">-160375.92510413 </i>
    <i name="XCdc">     91.45511885 </i>
    <i name="pawpsdc">  15265.17563948 </i>
    <i name="pawaedc"> -14860.86678734 </i>
    <i name="eentropy">     -0.00496321 </i>
    <i name="bandstr">   -902.19499980 </i>
    <i name="atom">  12245.18164884 </i>
    <i name="e_fr_energy">   -109.34848318 </i>
    <i name="e_wo_entrp">   -109.34351997 </i>
    <i name="e_0_energy">   -109.34682878 </i>
   </energy>
  </scstep>
  <structure>
   <crystal>
    <varray name="basis" >
     <v>       5.54371716       0.00000000       0.00000000 </v>
     <v>       2.77185858       4.80099990       0.00000000 </v>
     <v>       0.00000000       0.00000000      36.78963917 </v>
    </varray>
    <i name="volume">    979.17042988 </i>
    <varray name="rec_basis" >
     <v>       0.18038438      -0.10414497       0.00000000 </v>
     <v>       0.00000000       0.20828994       0.00000000 </v>
     <v>       0.00000000       0.00000000       0.02718157 </v>
    </varray>
   </crystal>
   <varray name="positions" >
    <v>       0.00000000       0.00000000       0.40772349 </v>
    <v>       0.50000000       0.00000000       0.40772349 </v>
    <v>       0.00000000       0.50000000       0.40772349 </v>
    <v>       0.50000000       0.50000000       0.40772349 </v>
    <v>       0.16666667       0.16666667       0.46924116 </v>
    <v>       0.66666667       0.16666667       0.46924116 </v>
    <v>       0.16666667       0.66666667       0.46924116 </v>
    <v>       0.66666667       0.66666667       0.46924116 </v>
    <v>       0.83785031       0.32684276       0.53176037 </v>
    <v>       0.33530693       0.32684276       0.53176037 </v>
    <v>       0.83608614       0.82782771       0.53320900 </v>
    <v>       0.33515835       0.82968331       0.53200346 </v>
    <v>       0.00515546      -0.01852524       0.59826342 </v>
    <v>       0.51336978      -0.01852524       0.59826342 </v>
    <v>       0.00670867       0.48658266       0.59809974 </v>
    <v>       0.50802416       0.48395169       0.59353196 </v>
    <v>       0.18268132       0.13463735       0.66749165 </v>
    <v>       0.18127811       0.13744377       0.63508034 </v>
   </varray>
  </structure>
  <varray name="forces" >
   <v>       0.02256909       0.02457531      -0.40262736 </v>
   <v>      -0.02256909       0.02457531      -0.40262736 </v>
   <v>      -0.00000000      -0.01361354      -0.41492714 </v>
   <v>      -0.00000000       0.00378010      -0.46105229 </v>
   <v>       0.00000000      -0.02958899       0.41445660 </v>
   <v>      -0.00000000      -0.06607457       0.39037887 </v>
   <v>      -0.02189083       0.00141464       0.39368606 </v>
   <v>       0.02189083       0.00141464       0.39368606 </v>
   <v>       0.00678014      -0.00638878       0.07220713 </v>
   <v>      -0.00678014      -0.00638878       0.07220713 </v>
   <v>      -0.00000000      -0.02447888      -0.01242225 </v>
   <v>      -0.00000000      -0.02589864       0.01237806 </v>
   <v>      -0.01489537      -0.01991743      -0.04912244 </v>
   <v>       0.01489537      -0.01991743      -0.04912244 </v>
   <v>      -0.00000000       0.00964456       0.03944296 </v>
   <v>      -0.00000000       0.00380806       0.04263440 </v>
   <v>       0.00000000       0.08757544       0.02327005 </v>
   <v>      -0.00000000       0.05547896      -0.06244603 </v>
  </varray>
  <varray name="stress" >
   <v>     -11.60360789       0.00000000       0.00000000 </v>
   <v>       0.00000000     -12.03182481       0.99759995 </v>
   <v>       0.00000000       0.99759793       4.76587563 </v>
  </varray>
  <energy>
   <i name="e_fr_energy">   -109.34848318 </i>
   <i name="e_wo_entrp">   -109.34351997 </i>
   <i name="e_0_energy">   -109.34682878 </i>
  </energy>
  <time name="totalsc">   51.91   51.25</time>
 </calculation>
 <calculation>
  <scstep>
   <time name="dav">    4.38    4.38</time>
   <time name="total">    4.75    4.72</time>
   <energy>
    <i name="alphaZ">    271.64501344 </i>
    <i name="ewald"> 148148.39165698 </i>
    <i name="hartreedc">-160368.07773980 </i>
    <i name="XCdc">     91.45902342 </i>
    <i name="pawpsdc">  15265.19635978 </i>
    <i name="pawaedc"> -14860.88731612 </i>
    <i name="eentropy">     -0.00515226 </i>
    <i name="bandstr">   -902.24913110 </i>
    <i name="atom">  12245.18164884 </i>
    <i name="e_fr_energy">   -109.34563681 </i>
    <i name="e_wo_entrp">   -109.34048455 </i>
    <i name="e_0_energy">   -109.34391939 </i>
   </energy>
  </scstep>
  <scstep>
   <time name="dav">    4.60    4.60</time>
   <time name="total">    4.96    4.94</time>
   <energy>
    <i name="e_fr_energy">   -109.35090022 </i>
    <i name="e_wo_entrp">   -109.34591938 </i>
    <i name="e_0_energy">   -109.34923994 </i>
   </energy>
  </scstep>
  <scstep>
   <time name="dav">    5.07    5.07</time>
   <time name="total">    5.44    5.41</time>
   <energy>
    <i name="e_fr_energy">   -109.35300550 </i>
    <i name="e_wo_entrp">   -109.34784273 </i>
    <i name="e_0_energy">   -109.35128458 </i>
   </energy>
  </scstep>
  <scstep>
   <time name="dav">    4.92    4.92</time>
   <time name="total">    5.29    5.26</time>
   <energy>
    <i name="e_fr_energy">   -109.34956891 </i>
    <i name="e_wo_entrp">   -109.34463122 </i>
    <i name="e_0_energy">   -109.34792301 </i>
   </energy>
  </scstep>
  <scstep>
   <time name="dav">    4.80    4.80</time>
   <time name="total">    5.17    5.15</time>
   <energy>
    <i name="e_fr_energy">   -109.34950914 </i>
    <i name="e_wo_entrp">   -109.34415231 </i>
    <i name="e_0_energy">   -109.34772353 </i>
   </energy>
  </scstep>
  <scstep>
   <time name="dav">    4.74    4.74</time>
   <time name="total">    5.10    5.08</time>
   <energy>
    <i name="e_fr_energy">   -109.34941613 </i>
    <i name="e_wo_entrp">   -109.34443785 </i>
    <i name="e_0_energy">   -109.34775670 </i>
   </energy>
  </scstep>
  <scstep>
   <time name="dav">    4.67    4.67</time>
   <time name="total">    5.04    5.02</time>
   <energy>
    <i name="e_fr_energy">   -109.34936003 </i>
    <i name="e_wo_entrp">   -109.34413068 </i>
    <i name="e_0_energy">   -109.34761691 </i>
   </energy>
  </scstep>
  <scstep>
   <time name="dav">    3.96    3.96</time>
   <time name="total">    4.33    4.30</time>
   <energy>
    <i name="e_fr_energy">   -109.34934720 </i>
    <i name="e_wo_entrp">   -109.34423656 </i>
    <i name="e_0_energy">   -109.34764366 </i>
   </energy>
  </scstep>
  <scstep>
   <time name="dav">    2.96    2.96</time>
   <time name="total">    3.01    2.99</time>
   <energy>
    <i name="alphaZ">    271.64501344 </i>
    <i name="ewald"> 148148.39165698 </i>
    <i name="hartreedc">-160367.41616306 </i>
    <i name="XCdc">     91.45972781 </i>
    <i name="pawpsdc">  15266.40924751 </i>
    <i name="pawaedc"> -14862.09920211 </i>
    <i name="eentropy">     -0.00513604 </i>
    <i name="bandstr">   -902.91613949 </i>
    <i name="atom">  12245.18164884 </i>
    <i name="e_fr_energy">   -109.34934610 </i>
    <i name="e_wo_entrp">   -109.34421006 </i>
    <i name="e_0_energy">   -109.34763409 </i>
   </energy>
  </scstep>
  <structure>
   <crystal>
    <varray name="basis" >
     <v>       5.54371716       0.00000000       0.00000000 </v>
     <v>       2.77185858       4.80099990       0.00000000 </v>
     <v>       0.00000000       0.00000000      36.78963917 </v>
    </varray>
    <i name="volume">    979.17042988 </i>
    <varray name="rec_basis" >
     <v>       0.18038438      -0.10414497       0.00000000 </v>
     <v>       0.00000000       0.20828994       0.00000000 </v>
     <v>       0.00000000       0.00000000       0.02718157 </v>
    </varray>
   </crystal>
   <varray name="positions" >
    <v>       0.00000000       0.00000000       0.40772349 </v>
    <v>       0.50000000       0.00000000       0.40772349 </v>
    <v>       0.00000000       0.50000000       0.40772349 </v>
    <v>       0.50000000       0.50000000       0.40772349 </v>
    <v>       0.16666667       0.16666667       0.46924116 </v>
    <v>       0.66666667       0.16666667       0.46924116 </v>
    <v>       0.16666667       0.66666667       0.46924116 </v>
    <v>       0.66666667       0.66666667       0.46924116 </v>
    <v>       0.83839958       0.32660536       0.53176343 </v>
    <v>       0.33499506       0.32660536       0.53176343 </v>
    <v>       0.83665732       0.82668537       0.53316483 </v>
    <v>       0.33551444       0.82897113       0.53192488 </v>
    <v>       0.00579889      -0.01887982       0.59831245 </v>
    <v>       0.51308094      -0.01887982       0.59831245 </v>
    <v>       0.00722440       0.48555120       0.59824752 </v>
    <v>       0.50798387       0.48403225       0.59347849 </v>
    <v>       0.18162015       0.13675971       0.66744560 </v>
    <v>       0.17972452       0.14055096       0.63500130 </v>
   </varray>
  </structure>
  <varray name="forces" >
   <v>       0.02322089       0.02486781      -0.40256110 </v>
   <v>      -0.02322089       0.02486781      -0.40256110 </v>
   <v>       0.00000000      -0.01313677      -0.41342122 </v>
   <v>       0.00000000       0.00555704      -0.45958057 </v>
   <v>       0.00000000      -0.03356633       0.40515479 </v>
   <v>       0.00000000      -0.06513371       0.39102198 </v>
   <v>      -0.02326582      -0.00230756       0.38125896 </v>
   <v>       0.02326582      -0.00230756       0.38125896 </v>
   <v>      -0.04176793      -0.03907934       0.07671453 </v>
   <v>       0.04176793      -0.03907934       0.07671453 </v>
   <v>       0.00000000       0.03403932       0.02139972 </v>
   <v>       0.00000000      -0.00440578       0.04024509 </v>
   <v>      -0.08808738      -0.04312924      -0.08862632 </v>
   <v>       0.08808738      -0.04312924      -0.08862632 </v>
   <v>      -0.00000000       0.10054825      -0.00170606 </v>
   <v>       0.00000000      -0.02517826       0.05197712 </v>
   <v>       0.00000000       0.08068553      -0.03127575 </v>
   <v>       0.00000000       0.03988737       0.06261277 </v>
  </varray>
  <varray name="stress" >
   <v>     -11.59780565       0.00000000       0.00000000 </v>
   <v>       0.00000000     -11.96970324       0.92770251 </v>
   <v>       0.00000000       0.92770061       4.74029739 </v>
  </varray>
  <energy>
   <i name="e_fr_energy">   -109.34934610 </i>
   <i name="e_wo_entrp">   -109.34421006 </i>
   <i name="e_0_energy">   -109.34763409 </i>
  </energy>
  <time name="totalsc">   56.65   55.96</time>
 </calculation>
 <calculation>
  <scstep>
   <time name="dav">    4.38    4.38</time>
   <time name="total">    4.75    4.73</time>
   <energy>
    <i name="alphaZ">    271.64501344 </i>
    <i name="ewald"> 148148.02301179 </i>
    <i name="hartreedc">-160366.96492816 </i>
    <i name="XCdc">     91.46112055 </i>
    <i name="pawpsdc">  15266.40789805 </i>
    <i name="pawaedc"> -14862.09771119 </i>
    <i name="eentropy">     -0.00513315 </i>
    <i name="bandstr">   -903.00063395 </i>
    <i name="atom">  12245.18164884 </i>
    <i name="e_fr_energy">   -109.34971377 </i>
    <i name="e_wo_entrp">   -109.34458062 </i>
    <i name="e_0_energy">   -109.34800272 </i>
   </energy>
  </scstep>
  <scstep>
   <time name="dav">    4.57    4.57</time>
   <time name="total">    4.94    4.92</time>
   <energy>
    <i name="e_fr_energy">   -109.35027756 </i>
    <i name="e_wo_entrp">   -109.34517703 </i>
    <i name="e_0_energy">   -109.34857738 </i>
   </energy>
  </scstep>
  <scstep>
   <time name="dav">    5.16    5.16</time>
   <time name="total">    5.52    5.50</time>
   <energy>
    <i name="e_fr_energy">   -109.35074684 </i>
    <i name="e_wo_entrp">   -109.34556704 </i>
    <i name="e_0_energy">   -109.34902024 </i>
   </energy>
  </scstep>
  <scstep>
   <time name="dav">    5.05    5.05</time>
   <time name="total">    5.41    5.38</time>
   <energy>
    <i name="e_fr_energy">   -109.35017222 </i>
    <i name="e_wo_entrp">   -109.34506587 </i>
    <i name="e_0_energy">   -109.34847010 </i>
   </energy>
  </scstep>
  <scstep>
   <time name="dav">    4.77    4.77</time>
   <time name="total">    5.13    5.11</time>
   <energy>
    <i name="e_fr_energy">   -109.35018634 </i>
    <i name="e_wo_entrp">   -109.34500842 </i>
    <i name="e_0_energy">   -109.34846037 </i>
   </energy>
  </scstep>
  <scstep>
   <time name="dav">    4.00    4.00</time>
   <time name="total">    4.36    4.34</time>
   <energy>
    <i name="e_fr_energy">   -109.35017026 </i>
    <i name="e_wo_entrp">   -109.34505941 </i>
    <i name="e_0_energy">   -109.34846664 </i>
   </energy>
  </scstep>
  <scstep>
   <time name="dav">    2.98    2.97</time>
   <time name="total">    3.03    3.01</time>
   <energy>
    <i name="alphaZ">    271.64501344 </i>
    <i name="ewald"> 148148.02301179 </i>
    <i name="hartreedc">-160367.05866550 </i>
    <i name="XCdc">     91.46269843 </i>
    <i name="pawpsdc">  15267.03835593 </i>
    <i name="pawaedc"> -14862.72665374 </i>
    <i name="eentropy">     -0.00514530 </i>
    <i name="bandstr">   -902.91043015 </i>
    <i name="atom">  12245.18164884 </i>
    <i name="e_fr_energy">   -109.35016625 </i>
    <i name="e_wo_entrp">   -109.34502095 </i>
    <i name="e_0_energy">   -109.34845115 </i>
   </energy>
  </scstep>
  <structure>
   <crystal>
    <varray name="basis" >
     <v>       5.54371716       0.00000000       0.00000000 </v>
     <v>       2.77185858       4.80099990       0.00000000 </v>
     <v>       0.00000000       0.00000000      36.78963917 </v>
    </varray>
    <i name="volume">    979.17042988 </i>
    <varray name="rec_basis" >
     <v>       0.18038438      -0.10414497       0.00000000 </v>
     <v>       0.00000000       0.20828994       0.00000000 </v>
     <v>       0.00000000       0.00000000       0.02718157 </v>
    </varray>
   </crystal>
   <varray name="positions" >
    <v>       0.00000000       0.00000000       0.40772349 </v>
    <v>       0.50000000       0.00000000       0.40772349 </v>
    <v>       0.00000000       0.50000000       0.40772349 </v>
    <v>       0.50000000       0.50000000       0.40772349 </v>
    <v>       0.16666667       0.16666667       0.46924116 </v>
    <v>       0.66666667       0.16666667       0.46924116 </v>
    <v>       0.16666667       0.66666667       0.46924116 </v>
    <v>       0.66666667       0.66666667       0.46924116 </v>
    <v>       0.83852007       0.32643646       0.53178961 </v>
    <v>       0.33504346       0.32643646       0.53178961 </v>
    <v>       0.83678330       0.82643339       0.53315881 </v>
    <v>       0.33562533       0.82874933       0.53191489 </v>
    <v>       0.00585106      -0.01909361       0.59829775 </v>
    <v>       0.51324255      -0.01909361       0.59829775 </v>
    <v>       0.00725002       0.48549995       0.59829067 </v>
    <v>       0.50800374       0.48399252       0.59347979 </v>
    <v>       0.18120438       0.13759124       0.66742168 </v>
    <v>       0.17921460       0.14157081       0.63499856 </v>
   </varray>
  </structure>
  <varray name="forces" >
   <v>       0.02355259       0.02531237      -0.40362711 </v>
   <v>      -0.02355259       0.02531237      -0.40362711 </v>
   <v>      -0.00000000      -0.01296764      -0.41344756 </v>
   <v>      -0.00000000       0.00631538      -0.45998819 </v>
   <v>      -0.00000000      -0.03322704       0.40896033 </v>
   <v>       0.00000000      -0.06388035       0.39399683 </v>
   <v>      -0.02384699      -0.00477295       0.38303758 </v>
   <v>       0.02384699      -0.00477295       0.38303758 </v>
   <v>      -0.04437819      -0.04094686       0.06927801 </v>
   <v>       0.04437819      -0.04094686       0.06927801 </v>
   <v>      -0.00000000       0.03713681       0.02187055 </v>
   <v>      -0.00000000      -0.00047768       0.04343007 </v>
   <v>      -0.07726092      -0.03562083      -0.08273752 </v>
   <v>       0.07726092      -0.03562083      -0.08273752 </v>
   <v>      -0.00000000       0.10045510      -0.00921583 </v>
   <v>      -0.00000000      -0.02889316       0.05338222 </v>
   <v>       0.00000000       0.07450698       0.02939546 </v>
   <v>       0.00000000       0.03308812      -0.00028580 </v>
  </varray>
  <varray name="stress" >
   <v>     -11.61260732       0.00000000       0.00000000 </v>
   <v>       0.00000000     -11.94728331       0.89103623 </v>
   <v>       0.00000000       0.89103433       4.88582959 </v>
  </varray>
  <energy>
   <i name="e_fr_energy">   -109.35016625 </i>
   <i name="e_wo_entrp">   -109.34502095 </i>
   <i name="e_0_energy">   -109.34845115 </i>
  </energy>
  <time name="totalsc">   46.73   46.08</time>
 </calculation>
 <calculation>
  <scstep>
   <time name="dav">    4.38    4.38</time>
   <time name="total">    4.74    4.72</time>
   <energy>
    <i name="alphaZ">    271.64501344 </i>
    <i name="ewald"> 148146.92565232 </i>
    <i name="hartreedc">-160365.79941750 </i>
    <i name="XCdc">     91.46793874 </i>
    <i name="pawpsdc">  15267.04916433 </i>
    <i name="pawaedc"> -14862.73748154 </i>
    <i name="eentropy">     -0.00512611 </i>
    <i name="bandstr">   -903.07501650 </i>
    <i name="atom">  12245.18164884 </i>
    <i name="e_fr_energy">   -109.34762397 </i>
    <i name="e_wo_entrp">   -109.34249786 </i>
    <i name="e_0_energy">   -109.34591527 </i>
   </energy>
  </scstep>
  <scstep>
   <time name="dav">    4.52    4.52</time>
   <time name="total">    4.88    4.86</time>
   <energy>
    <i name="e_fr_energy">   -109.35179045 </i>
    <i name="e_wo_entrp">   -109.34669635 </i>
    <i name="e_0_energy">   -109.35009242 </i>
   </energy>
  </scstep>
  <scstep>
   <time name="dav">    4.97    4.97</time>
   <time name="total">    5.34    5.31</time>
   <energy>
    <i name="e_fr_energy">   -109.35269148 </i>
    <i name="e_wo_entrp">   -109.34767393 </i>
    <i name="e_0_energy">   -109.35101896 </i>
   </energy>
  </scstep>
  <scstep>
   <time name="dav">    5.25    5.25</time>
   <time name="total">    5.61    5.59</time>
   <energy>
    <i name="e_fr_energy">   -109.35357685 </i>
    <i name="e_wo_entrp">   -109.34840400 </i>
    <i name="e_0_energy">   -109.35185256 </i>
   </energy>
  </scstep>
  <scstep>
   <time name="dav">    5.17    5.17</time>
   <time name="total">    5.54    5.51</time>
   <energy>
    <i name="e_fr_energy">   -109.35174331 </i>
    <i name="e_wo_entrp">   -109.34673274 </i>
    <i name="e_0_energy">   -109.35007312 </i>
   </energy>
  </scstep>
  <scstep>
   <time name="dav">    4.67    4.67</time>
   <time name="total">    5.04    5.01</time>
   <energy>
    <i name="e_fr_energy">   -109.35162942 </i>
    <i name="e_wo_entrp">   -109.34644223 </i>
    <i name="e_0_energy">   -109.34990036 </i>
   </energy>
  </scstep>
  <scstep>
   <time name="dav">    4.67    4.67</time>
   <time name="total">    5.04    5.01</time>
   <energy>
    <i name="e_fr_energy">   -109.35158303 </i>
    <i name="e_wo_entrp">   -109.34653453 </i>
    <i name="e_0_energy">   -109.34990019 </i>
   </energy>
  </scstep>
  <scstep>
   <time name="dav">    3.36    3.36</time>
   <time name="total">    3.73    3.71</time>
   <energy>
    <i name="e_fr_energy">   -109.35157117 </i>
    <i name="e_wo_entrp">   -109.34642792 </i>
    <i name="e_0_energy">   -109.34985675 </i>
   </energy>
  </scstep>
  <scstep>
   <time name="dav">    3.04    3.04</time>
   <time name="total">    3.10    3.08</time>
   <energy>
    <i name="alphaZ">    271.64501344 </i>
    <i name="ewald"> 148146.92565232 </i>
    <i name="hartreedc">-160366.40106381 </i>
    <i name="XCdc">     91.47390968 </i>
    <i name="pawpsdc">  15269.51243501 </i>
    <i name="pawaedc"> -14865.19726693 </i>
    <i name="eentropy">     -0.00511239 </i>
    <i name="bandstr">   -902.48678667 </i>
    <i name="atom">  12245.18164884 </i>
    <i name="e_fr_energy">   -109.35157050 </i>
    <i name="e_wo_entrp">   -109.34645811 </i>
    <i name="e_0_energy">   -109.34986637 </i>
   </energy>
  </scstep>
  <structure>
   <crystal>
    <varray name="basis" >
     <v>       5.54371716       0.00000000       0.00000000 </v>
     <v>       2.77185858       4.80099990       0.00000000 </v>
     <v>       0.00000000       0.00000000      36.78963917 </v>
    </varray>
    <i name="volume">    979.17042988 </i>
    <varray name="rec_basis" >
     <v>       0.18038438      -0.10414497       0.00000000 </v>
     <v>       0.00000000       0.20828994       0.00000000 </v>
     <v>       0.00000000       0.00000000       0.02718157 </v>
    </varray>
   </crystal>
   <varray name="positions" >
    <v>       0.00000000       0.00000000       0.40772349 </v>
    <v>       0.50000000       0.00000000       0.40772349 </v>
    <v>       0.00000000       0.50000000       0.40772349 </v>
    <v>       0.50000000       0.50000000       0.40772349 </v>
    <v>       0.16666667       0.16666667       0.46924116 </v>
    <v>       0.66666667       0.16666667       0.46924116 </v>
    <v>       0.16666667       0.66666667       0.46924116 </v>
    <v>       0.66666667       0.66666667       0.46924116 </v>
    <v>       0.83888153       0.32592978       0.53186815 </v>
    <v>       0.33518868       0.32592978       0.53186815 </v>
    <v>       0.83716127       0.82567747       0.53314076 </v>
    <v>       0.33595802       0.82808395       0.53188494 </v>
    <v>       0.00600757      -0.01973496       0.59825365 </v>
    <v>       0.51372739      -0.01973496       0.59825365 </v>
    <v>       0.00732690       0.48534620       0.59842013 </v>
    <v>       0.50806335       0.48387330       0.59348372 </v>
    <v>       0.17995708       0.14008584       0.66734991 </v>
    <v>       0.17768483       0.14463035       0.63499031 </v>
   </varray>
  </structure>
  <varray name="forces" >
   <v>       0.02400056       0.02632256      -0.40489987 </v>
   <v>      -0.02400056       0.02632256      -0.40489987 </v>
   <v>      -0.00000000      -0.01239119      -0.41385193 </v>
   <v>      -0.00000000       0.00791485      -0.45885676 </v>
   <v>       0.00000000      -0.03335796       0.41863502 </v>
   <v>       0.00000000      -0.06123893       0.40113072 </v>
   <v>      -0.02532075      -0.01156054       0.38789299 </v>
   <v>       0.02532075      -0.01156054       0.38789299 </v>
   <v>      -0.05254624      -0.04594777       0.04455881 </v>
   <v>       0.05254624      -0.04594777       0.04455881 </v>
   <v>      -0.00000000       0.04803943       0.02189985 </v>
   <v>      -0.00000000       0.01204856       0.05222106 </v>
   <v>      -0.04570811      -0.01315550      -0.06527507 </v>
   <v>       0.04570811      -0.01315550      -0.06527507 </v>
   <v>      -0.00000000       0.10348466      -0.03799574 </v>
   <v>       0.00000000      -0.03917602       0.06212870 </v>
   <v>       0.00000000       0.05308949       0.22391270 </v>
   <v>      -0.00000000       0.01026961      -0.19377735 </v>
  </varray>
  <varray name="stress" >
   <v>     -11.72222459       0.00000000       0.00000000 </v>
   <v>       0.00000000     -11.92135015       0.75544530 </v>
   <v>       0.00000000       0.75544350       5.22618548 </v>
  </varray>
  <energy>
   <i name="e_fr_energy">   -109.35157050 </i>
   <i name="e_wo_entrp">   -109.34645811 </i>
   <i name="e_0_energy">   -109.34986637 </i>
  </energy>
  <time name="totalsc">   56.64   55.94</time>
 </calculation>
 <calculation>
  <scstep>
   <time name="dav">    4.38    4.38</time>
   <time name="total">    4.75    4.72</time>
   <energy>
    <i name="alphaZ">    271.64501344 </i>
    <i name="ewald"> 148145.17319135 </i>
    <i name="hartreedc">-160364.93037044 </i>
    <i name="XCdc">     91.46204346 </i>
    <i name="pawpsdc">  15269.46067946 </i>
    <i name="pawaedc"> -14865.14562087 </i>
    <i name="eentropy">     -0.00510751 </i>
    <i name="bandstr">   -902.19344407 </i>
    <i name="atom">  12245.18164884 </i>
    <i name="e_fr_energy">   -109.35196634 </i>
    <i name="e_wo_entrp">   -109.34685883 </i>
    <i name="e_0_energy">   -109.35026384 </i>
   </energy>
  </scstep>
  <scstep>
   <time name="dav">    4.55    4.55</time>
   <time name="total">    4.91    4.89</time>
   <energy>
    <i name="e_fr_energy">   -109.35270833 </i>
    <i name="e_wo_entrp">   -109.34772301 </i>
    <i name="e_0_energy">   -109.35104656 </i>
   </energy>
  </scstep>
  <scstep>
   <time name="dav">    5.11    5.11</time>
   <time name="total">    5.48    5.45</time>
   <energy>
    <i name="e_fr_energy">   -109.35337204 </i>
    <i name="e_wo_entrp">   -109.34821831 </i>
    <i name="e_0_energy">   -109.35165413 </i>
   </energy>
  </scstep>
  <scstep>
   <time name="dav">    5.03    5.03</time>
   <time name="total">    5.39    5.37</time>
   <energy>
    <i name="e_fr_energy">   -109.35259374 </i>
    <i name="e_wo_entrp">   -109.34742710 </i>
    <i name="e_0_energy">   -109.35087152 </i>
   </energy>
  </scstep>
  <scstep>
   <time name="dav">    4.81    4.81</time>
   <time name="total">    5.18    5.16</time>
   <energy>
    <i name="e_fr_energy">   -109.35261080 </i>
    <i name="e_wo_entrp">   -109.34767165 </i>
    <i name="e_0_energy">   -109.35096442 </i>
   </energy>
  </scstep>
  <scstep>
   <time name="dav">    4.72    4.72</time>
   <time name="total">    5.09    5.06</time>
   <energy>
    <i name="e_fr_energy">   -109.35258489 </i>
    <i name="e_wo_entrp">   -109.34741110 </i>
    <i name="e_0_energy">   -109.35086030 </i>
   </energy>
  </scstep>
  <scstep>
   <time name="dav">    3.84    3.84</time>
   <time name="total">    4.21    4.18</time>
   <energy>
    <i name="e_fr_energy">   -109.35257230 </i>
    <i name="e_wo_entrp">   -109.34754121 </i>
    <i name="e_0_energy">   -109.35089527 </i>
   </energy>
  </scstep>
  <scstep>
   <time name="dav">    2.98    2.98</time>
   <time name="total">    3.03    3.01</time>
   <energy>
    <i name="alphaZ">    271.64501344 </i>
    <i name="ewald"> 148145.17319135 </i>
    <i name="hartreedc">-160364.19821149 </i>
    <i name="XCdc">     91.45424198 </i>
    <i name="pawpsdc">  15264.86849816 </i>
    <i name="pawaedc"> -14860.55423266 </i>
    <i name="eentropy">     -0.00507447 </i>
    <i name="bandstr">   -902.91764645 </i>
    <i name="atom">  12245.18164884 </i>
    <i name="e_fr_energy">   -109.35257129 </i>
    <i name="e_wo_entrp">   -109.34749683 </i>
    <i name="e_0_energy">   -109.35087981 </i>
   </energy>
  </scstep>
  <structure>
   <crystal>
    <varray name="basis" >
     <v>       5.54371716       0.00000000       0.00000000 </v>
     <v>       2.77185858       4.80099990       0.00000000 </v>
     <v>       0.00000000       0.00000000      36.78963917 </v>
    </varray>
    <i name="volume">    979.17042988 </i>
    <varray name="rec_basis" >
     <v>       0.18038438      -0.10414497       0.00000000 </v>
     <v>       0.00000000       0.20828994       0.00000000 </v>
     <v>       0.00000000       0.00000000       0.02718157 </v>
    </varray>
   </crystal>
   <varray name="positions" >
    <v>       0.00000000       0.00000000       0.40772349 </v>
    <v>       0.50000000       0.00000000       0.40772349 </v>
    <v>       0.00000000       0.50000000       0.40772349 </v>
    <v>       0.50000000       0.50000000       0.40772349 </v>
    <v>       0.16666667       0.16666667       0.46924116 </v>
    <v>       0.66666667       0.16666667       0.46924116 </v>
    <v>       0.16666667       0.66666667       0.46924116 </v>
    <v>       0.66666667       0.66666667       0.46924116 </v>
    <v>       0.83895411       0.32566881       0.53190592 </v>
    <v>       0.33537708       0.32566881       0.53190592 </v>
    <v>       0.83723621       0.82552757       0.53314070 </v>
    <v>       0.33605505       0.82788991       0.53188908 </v>
    <v>       0.00599124      -0.01997286       0.59822166 </v>
    <v>       0.51398162      -0.01997286       0.59822166 </v>
    <v>       0.00724591       0.48550819       0.59845251 </v>
    <v>       0.50812318       0.48375364       0.59350166 </v>
    <v>       0.17949243       0.14101513       0.66738632 </v>
    <v>       0.17717127       0.14565746       0.63493566 </v>
   </varray>
  </structure>
  <varray name="forces" >
   <v>       0.02406685       0.02669324      -0.40610487 </v>
   <v>      -0.02406685       0.02669324      -0.40610487 </v>
   <v>      -0.00000000      -0.01207210      -0.41334165 </v>
   <v>      -0.00000000       0.00854475      -0.45757509 </v>
   <v>      -0.00000000      -0.03261819       0.42446147 </v>
   <v>      -0.00000000      -0.06030643       0.40358065 </v>
   <v>      -0.02593647      -0.01455315       0.39249387 </v>
   <v>       0.02593647      -0.01455315       0.39249387 </v>
   <v>      -0.04446686      -0.03867682       0.03235548 </v>
   <v>       0.04446686      -0.03867682       0.03235548 </v>
   <v>      -0.00000000       0.03786050       0.01370515 </v>
   <v>       0.00000000       0.01119149       0.04963373 </v>
   <v>      -0.02087596       0.00016727      -0.04777594 </v>
   <v>       0.02087596       0.00016727      -0.04777594 </v>
   <v>      -0.00000000       0.08731311      -0.04162228 </v>
   <v>      -0.00000000      -0.03720475       0.06484220 </v>
   <v>       0.00000000       0.05182664      -0.05235341 </v>
   <v>      -0.00000000      -0.00179612       0.06673215 </v>
  </varray>
  <varray name="stress" >
   <v>     -11.73515911       0.00000000       0.00000000 </v>
   <v>       0.00000000     -11.88412911       0.71620471 </v>
   <v>       0.00000000       0.71620289       4.67805927 </v>
  </varray>
  <energy>
   <i name="e_fr_energy">   -109.35257129 </i>
   <i name="e_wo_entrp">   -109.34749683 </i>
   <i name="e_0_energy">   -109.35087981 </i>
  </energy>
  <time name="totalsc">   51.61   50.94</time>
 </calculation>
 <calculation>
  <scstep>
   <time name="dav">    4.38    4.38</time>
   <time name="total">    4.74    4.72</time>
   <energy>
    <i name="alphaZ">    271.64501344 </i>
    <i name="ewald"> 148144.51172148 </i>
    <i name="hartreedc">-160363.65675274 </i>
    <i name="XCdc">     91.44960853 </i>
    <i name="pawpsdc">  15264.80473361 </i>
    <i name="pawaedc"> -14860.49006655 </i>
    <i name="eentropy">     -0.00506323 </i>
    <i name="bandstr">   -902.79340786 </i>
    <i name="atom">  12245.18164884 </i>
    <i name="e_fr_energy">   -109.35256446 </i>
    <i name="e_wo_entrp">   -109.34750123 </i>
    <i name="e_0_energy">   -109.35087672 </i>
   </energy>
  </scstep>
  <scstep>
   <time name="dav">    4.64    4.64</time>
   <time name="total">    5.00    4.98</time>
   <energy>
    <i name="e_fr_energy">   -109.35280627 </i>
    <i name="e_wo_entrp">   -109.34780614 </i>
    <i name="e_0_energy">   -109.35113956 </i>
   </energy>
  </scstep>
  <scstep>
   <time name="dav">    4.86    4.86</time>
   <time name="total">    5.23    5.21</time>
   <energy>
    <i name="e_fr_energy">   -109.35269747 </i>
    <i name="e_wo_entrp">   -109.34763952 </i>
    <i name="e_0_energy">   -109.35101149 </i>
   </energy>
  </scstep>
  <scstep>
   <time name="dav">    3.67    3.67</time>
   <time name="total">    4.03    4.01</time>
   <energy>
    <i name="e_fr_energy">   -109.35265880 </i>
    <i name="e_wo_entrp">   -109.34760098 </i>
    <i name="e_0_energy">   -109.35097286 </i>
   </energy>
  </scstep>
  <scstep>
   <time name="dav">    3.16    3.16</time>
   <time name="total">    3.21    3.19</time>
   <energy>
    <i name="alphaZ">    271.64501344 </i>
    <i name="ewald"> 148144.51172148 </i>
    <i name="hartreedc">-160363.37236340 </i>
    <i name="XCdc">     91.44728288 </i>
    <i name="pawpsdc">  15263.66795240 </i>
    <i name="pawaedc"> -14859.35403843 </i>
    <i name="eentropy">     -0.00506994 </i>
    <i name="bandstr">   -903.07480461 </i>
    <i name="atom">  12245.18164884 </i>
    <i name="e_fr_energy">   -109.35265732 </i>
    <i name="e_wo_entrp">   -109.34758738 </i>
    <i name="e_0_energy">   -109.35096734 </i>
   </energy>
  </scstep>
  <structure>
   <crystal>
    <varray name="basis" >
     <v>       5.54371716       0.00000000       0.00000000 </v>
     <v>       2.77185858       4.80099990       0.00000000 </v>
     <v>       0.00000000       0.00000000      36.78963917 </v>
    </varray>
    <i name="volume">    979.17042988 </i>
    <varray name="rec_basis" >
     <v>       0.18038438      -0.10414497       0.00000000 </v>
     <v>       0.00000000       0.20828994       0.00000000 </v>
     <v>       0.00000000       0.00000000       0.02718157 </v>
    </varray>
   </crystal>
   <varray name="positions" >
    <v>       0.00000000       0.00000000       0.40772349 </v>
    <v>       0.50000000       0.00000000       0.40772349 </v>
    <v>       0.00000000       0.50000000       0.40772349 </v>
    <v>       0.50000000       0.50000000       0.40772349 </v>
    <v>       0.16666667       0.16666667       0.46924116 </v>
    <v>       0.66666667       0.16666667       0.46924116 </v>
    <v>       0.16666667       0.66666667       0.46924116 </v>
    <v>       0.66666667       0.66666667       0.46924116 </v>
    <v>       0.83898159       0.32557000       0.53192022 </v>
    <v>       0.33544841       0.32557000       0.53192022 </v>
    <v>       0.83726459       0.82547082       0.53314068 </v>
    <v>       0.33609178       0.82781644       0.53189065 </v>
    <v>       0.00598506      -0.02006293       0.59820954 </v>
    <v>       0.51407787      -0.02006293       0.59820954 </v>
    <v>       0.00721524       0.48556952       0.59846477 </v>
    <v>       0.50814583       0.48370833       0.59350845 </v>
    <v>       0.17931651       0.14136697       0.66740011 </v>
    <v>       0.17697683       0.14604634       0.63491497 </v>
   </varray>
  </structure>
  <varray name="forces" >
   <v>       0.02407961       0.02670866      -0.40514601 </v>
   <v>      -0.02407961       0.02670866      -0.40514601 </v>
   <v>       0.00000000      -0.01232475      -0.41430543 </v>
   <v>       0.00000000       0.00851948      -0.45813000 </v>
   <v>       0.00000000      -0.03259675       0.42676466 </v>
   <v>      -0.00000000      -0.06022226       0.40404693 </v>
   <v>      -0.02619631      -0.01579099       0.39470113 </v>
   <v>       0.02619631      -0.01579099       0.39470113 </v>
   <v>      -0.04171665      -0.03603345       0.02712843 </v>
   <v>       0.04171665      -0.03603345       0.02712843 </v>
   <v>      -0.00000000       0.03420454       0.01074405 </v>
   <v>       0.00000000       0.01090528       0.04939599 </v>
   <v>      -0.01092650       0.00574726      -0.04068139 </v>
   <v>       0.01092650       0.00574726      -0.04068139 </v>
   <v>       0.00000000       0.08071072      -0.04337030 </v>
   <v>      -0.00000000      -0.03658543       0.06477383 </v>
   <v>       0.00000000       0.05255481      -0.15215287 </v>
   <v>       0.00000000      -0.00642857       0.16022883 </v>
  </varray>
  <varray name="stress" >
   <v>     -11.74577797       0.00000000       0.00000000 </v>
   <v>       0.00000000     -11.88096140       0.70138409 </v>
   <v>       0.00000000       0.70138233       4.46491586 </v>
  </varray>
  <energy>
   <i name="e_fr_energy">   -109.35265732 </i>
   <i name="e_wo_entrp">   -109.34758738 </i>
   <i name="e_0_energy">   -109.35096734 </i>
  </energy>
  <time name="totalsc">   35.79   35.20</time>
 </calculation>
 <calculation>
  <scstep>
   <time name="dav">    4.38    4.38</time>
   <time name="total">    4.74    4.72</time>
   <energy>
    <i name="alphaZ">    271.64501344 </i>
    <i name="ewald"> 148145.61293671 </i>
    <i name="hartreedc">-160364.43514721 </i>
    <i name="XCdc">     91.44584808 </i>
    <i name="pawpsdc">  15263.26781512 </i>
    <i name="pawaedc"> -14858.95386252 </i>
    <i name="eentropy">     -0.00498008 </i>
    <i name="bandstr">   -903.11213537 </i>
    <i name="atom">  12245.18164884 </i>
    <i name="e_fr_energy">   -109.35286298 </i>
    <i name="e_wo_entrp">   -109.34788290 </i>
    <i name="e_0_energy">   -109.35120295 </i>
   </energy>
  </scstep>
  <scstep>
   <time name="dav">    4.57    4.57</time>
   <time name="total">    4.93    4.91</time>
   <energy>
    <i name="e_fr_energy">   -109.35359173 </i>
    <i name="e_wo_entrp">   -109.34850884 </i>
    <i name="e_0_energy">   -109.35189743 </i>
   </energy>
  </scstep>
  <scstep>
   <time name="dav">    4.98    4.98</time>
   <time name="total">    5.34    5.32</time>
   <energy>
    <i name="e_fr_energy">   -109.35358270 </i>
    <i name="e_wo_entrp">   -109.34861033 </i>
    <i name="e_0_energy">   -109.35192525 </i>
   </energy>
  </scstep>
  <scstep>
   <time name="dav">    4.80    4.80</time>
   <time name="total">    5.17    5.15</time>
   <energy>
    <i name="e_fr_energy">   -109.35337594 </i>
    <i name="e_wo_entrp">   -109.34842808 </i>
    <i name="e_0_energy">   -109.35172665 </i>
   </energy>
  </scstep>
  <scstep>
   <time name="dav">    4.53    4.53</time>
   <time name="total">    4.89    4.87</time>
   <energy>
    <i name="e_fr_energy">   -109.35337255 </i>
    <i name="e_wo_entrp">   -109.34832367 </i>
    <i name="e_0_energy">   -109.35168959 </i>
   </energy>
  </scstep>
  <scstep>
   <time name="dav">    3.92    3.92</time>
   <time name="total">    3.97    3.96</time>
   <energy>
    <i name="alphaZ">    271.64501344 </i>
    <i name="ewald"> 148145.61293671 </i>
    <i name="hartreedc">-160364.63755764 </i>
    <i name="XCdc">     91.44582646 </i>
    <i name="pawpsdc">  15262.83216834 </i>
    <i name="pawaedc"> -14858.51495235 </i>
    <i name="eentropy">     -0.00499563 </i>
    <i name="bandstr">   -902.91345549 </i>
    <i name="atom">  12245.18164884 </i>
    <i name="e_fr_energy">   -109.35336731 </i>
    <i name="e_wo_entrp">   -109.34837168 </i>
    <i name="e_0_energy">   -109.35170210 </i>
   </energy>
  </scstep>
  <structure>
   <crystal>
    <varray name="basis" >
     <v>       5.54371716       0.00000000       0.00000000 </v>
     <v>       2.77185858       4.80099990       0.00000000 </v>
     <v>       0.00000000       0.00000000      36.78963917 </v>
    </varray>
    <i name="volume">    979.17042988 </i>
    <varray name="rec_basis" >
     <v>       0.18038438      -0.10414497       0.00000000 </v>
     <v>       0.00000000       0.20828994       0.00000000 </v>
     <v>       0.00000000       0.00000000       0.02718157 </v>
    </varray>
   </crystal>
   <varray name="positions" >
    <v>       0.00000000       0.00000000       0.40772349 </v>
    <v>       0.50000000       0.00000000       0.40772349 </v>
    <v>       0.00000000       0.50000000       0.40772349 </v>
    <v>       0.50000000       0.50000000       0.40772349 </v>
    <v>       0.16666667       0.16666667       0.46924116 </v>
    <v>       0.66666667       0.16666667       0.46924116 </v>
    <v>       0.16666667       0.66666667       0.46924116 </v>
    <v>       0.66666667       0.66666667       0.46924116 </v>
    <v>       0.83900080       0.32527743       0.53195886 </v>
    <v>       0.33572177       0.32527743       0.53195886 </v>
    <v>       0.83728796       0.82542407       0.53314372 </v>
    <v>       0.33615890       0.82768220       0.53190828 </v>
    <v>       0.00594448      -0.02024437       0.59817171 </v>
    <v>       0.51429988      -0.02024437       0.59817171 </v>
    <v>       0.00705999       0.48588002       0.59847870 </v>
    <v>       0.50823507       0.48352986       0.59354177 </v>
    <v>       0.17887930       0.14224140       0.66738595 </v>
    <v>       0.17656486       0.14687027       0.63491657 </v>
   </varray>
  </structure>
  <varray name="forces" >
   <v>       0.02408445       0.02737810      -0.40800211 </v>
   <v>      -0.02408445       0.02737810      -0.40800211 </v>
   <v>      -0.00000000      -0.01144338      -0.41264463 </v>
   <v>      -0.00000000       0.00931010      -0.45639873 </v>
   <v>      -0.00000000      -0.03168964       0.43584801 </v>
   <v>       0.00000000      -0.05894151       0.40693060 </v>
   <v>      -0.02586061      -0.01834696       0.40184147 </v>
   <v>       0.02586061      -0.01834696       0.40184147 </v>
   <v>      -0.02658878      -0.02233220       0.01482440 </v>
   <v>       0.02658878      -0.02233220       0.01482440 </v>
   <v>      -0.00000000       0.01524624       0.00022836 </v>
   <v>      -0.00000000       0.00517137       0.04088708 </v>
   <v>       0.01819826       0.02073049      -0.02181839 </v>
   <v>      -0.01819826       0.02073049      -0.02181839 </v>
   <v>       0.00000000       0.05473549      -0.04240787 </v>
   <v>       0.00000000      -0.02943394       0.06323694 </v>
   <v>      -0.00000000       0.04364993      -0.11639932 </v>
   <v>      -0.00000000      -0.01146352       0.10702883 </v>
  </varray>
  <varray name="stress" >
   <v>     -11.82410892       0.00000000       0.00000000 </v>
   <v>       0.00000000     -11.90926552       0.65656842 </v>
   <v>       0.00000000       0.65656658       4.40914309 </v>
  </varray>
  <energy>
   <i name="e_fr_energy">   -109.35336731 </i>
   <i name="e_wo_entrp">   -109.34837168 </i>
   <i name="e_0_energy">   -109.35170210 </i>
  </energy>
  <time name="totalsc">   42.62   42.00</time>
 </calculation>
 <calculation>
  <scstep>
   <time name="dav">    4.38    4.38</time>
   <time name="total">    4.75    4.72</time>
   <energy>
    <i name="alphaZ">    271.64501344 </i>
    <i name="ewald"> 148147.33243549 </i>
    <i name="hartreedc">-160366.26725629 </i>
    <i name="XCdc">     91.44443710 </i>
    <i name="pawpsdc">  15262.74840990 </i>
    <i name="pawaedc"> -14858.43172118 </i>
    <i name="eentropy">     -0.00496265 </i>
    <i name="bandstr">   -903.00059911 </i>
    <i name="atom">  12245.18164884 </i>
    <i name="e_fr_energy">   -109.35259445 </i>
    <i name="e_wo_entrp">   -109.34763180 </i>
    <i name="e_0_energy">   -109.35094023 </i>
   </energy>
  </scstep>
  <scstep>
   <time name="dav">    4.58    4.58</time>
   <time name="total">    4.95    4.92</time>
   <energy>
    <i name="e_fr_energy">   -109.35442216 </i>
    <i name="e_wo_entrp">   -109.34957845 </i>
    <i name="e_0_energy">   -109.35280759 </i>
   </energy>
  </scstep>
  <scstep>
   <time name="dav">    4.94    4.94</time>
   <time name="total">    5.30    5.28</time>
   <energy>
    <i name="e_fr_energy">   -109.35425308 </i>
    <i name="e_wo_entrp">   -109.34943625 </i>
    <i name="e_0_energy">   -109.35264747 </i>
   </energy>
  </scstep>
  <scstep>
   <time name="dav">    4.79    4.79</time>
   <time name="total">    5.16    5.13</time>
   <energy>
    <i name="e_fr_energy">   -109.35386862 </i>
    <i name="e_wo_entrp">   -109.34875129 </i>
    <i name="e_0_energy">   -109.35216284 </i>
   </energy>
  </scstep>
  <scstep>
   <time name="dav">    4.82    4.82</time>
   <time name="total">    5.18    5.16</time>
   <energy>
    <i name="e_fr_energy">   -109.35381569 </i>
    <i name="e_wo_entrp">   -109.34903330 </i>
    <i name="e_0_energy">   -109.35222156 </i>
   </energy>
  </scstep>
  <scstep>
   <time name="dav">    4.65    4.65</time>
   <time name="total">    5.01    4.99</time>
   <energy>
    <i name="e_fr_energy">   -109.35381769 </i>
    <i name="e_wo_entrp">   -109.34875713 </i>
    <i name="e_0_energy">   -109.35213083 </i>
   </energy>
  </scstep>
  <scstep>
   <time name="dav">    4.35    4.35</time>
   <time name="total">    4.72    4.69</time>
   <energy>
    <i name="e_fr_energy">   -109.35378931 </i>
    <i name="e_wo_entrp">   -109.34889213 </i>
    <i name="e_0_energy">   -109.35215692 </i>
   </energy>
  </scstep>
  <scstep>
   <time name="dav">    3.16    3.16</time>
   <time name="total">    3.21    3.20</time>
   <energy>
    <i name="alphaZ">    271.64501344 </i>
    <i name="ewald"> 148147.33243549 </i>
    <i name="hartreedc">-160366.65324723 </i>
    <i name="XCdc">     91.44556793 </i>
    <i name="pawpsdc">  15262.52448758 </i>
    <i name="pawaedc"> -14858.20528481 </i>
    <i name="eentropy">     -0.00492385 </i>
    <i name="bandstr">   -902.61948222 </i>
    <i name="atom">  12245.18164884 </i>
    <i name="e_fr_energy">   -109.35378483 </i>
    <i name="e_wo_entrp">   -109.34886098 </i>
    <i name="e_0_energy">   -109.35214355 </i>
   </energy>
  </scstep>
  <structure>
   <crystal>
    <varray name="basis" >
     <v>       5.54371716       0.00000000       0.00000000 </v>
     <v>       2.77185858       4.80099990       0.00000000 </v>
     <v>       0.00000000       0.00000000      36.78963917 </v>
    </varray>
    <i name="volume">    979.17042988 </i>
    <varray name="rec_basis" >
     <v>       0.18038438      -0.10414497       0.00000000 </v>
     <v>       0.00000000       0.20828994       0.00000000 </v>
     <v>       0.00000000       0.00000000       0.02718157 </v>
    </varray>
   </crystal>
   <varray name="positions" >
    <v>       0.00000000       0.00000000       0.40772349 </v>
    <v>       0.50000000       0.00000000       0.40772349 </v>
    <v>       0.00000000       0.50000000       0.40772349 </v>
    <v>       0.50000000       0.50000000       0.40772349 </v>
    <v>       0.16666667       0.16666667       0.46924116 </v>
    <v>       0.66666667       0.16666667       0.46924116 </v>
    <v>       0.16666667       0.66666667       0.46924116 </v>
    <v>       0.66666667       0.66666667       0.46924116 </v>
    <v>       0.83903063       0.32482315       0.53201887 </v>
    <v>       0.33614623       0.32482315       0.53201887 </v>
    <v>       0.83732426       0.82535149       0.53314845 </v>
    <v>       0.33626313       0.82747374       0.53193564 </v>
    <v>       0.00588148      -0.02052609       0.59811295 </v>
    <v>       0.51464462      -0.02052609       0.59811295 </v>
    <v>       0.00681893       0.48636215       0.59850031 </v>
    <v>       0.50837363       0.48325273       0.59359350 </v>
    <v>       0.17820041       0.14359918       0.66736397 </v>
    <v>       0.17592518       0.14814965       0.63491906 </v>
   </varray>
  </structure>
  <varray name="forces" >
   <v>       0.02421125       0.02816080      -0.40936692 </v>
   <v>      -0.02421125       0.02816080      -0.40936692 </v>
   <v>      -0.00000000      -0.01142612      -0.41474450 </v>
   <v>       0.00000000       0.01000644      -0.45766815 </v>
   <v>      -0.00000000      -0.03055508       0.44782336 </v>
   <v>       0.00000000      -0.05810048       0.41054358 </v>
   <v>      -0.02627642      -0.02222644       0.41422078 </v>
   <v>       0.02627642      -0.02222644       0.41422078 </v>
   <v>      -0.00281468      -0.00147303      -0.00454131 </v>
   <v>       0.00281468      -0.00147303      -0.00454131 </v>
   <v>      -0.00000000      -0.01278929      -0.01419033 </v>
   <v>       0.00000000      -0.00142295       0.03238669 </v>
   <v>       0.06167596       0.04340338       0.00826480 </v>
   <v>      -0.06167596       0.04340338       0.00826480 </v>
   <v>       0.00000000       0.01357974      -0.04548343 </v>
   <v>       0.00000000      -0.01808210       0.06184832 </v>
   <v>      -0.00000000       0.03200300      -0.06132756 </v>
   <v>       0.00000000      -0.01894257       0.02365733 </v>
  </varray>
  <varray name="stress" >
   <v>     -11.84822175       0.00000000       0.00000000 </v>
   <v>       0.00000000     -11.86222815       0.58428784 </v>
   <v>       0.00000000       0.58428610       4.54603017 </v>
  </varray>
  <energy>
   <i name="e_fr_energy">   -109.35378483 </i>
   <i name="e_wo_entrp">   -109.34886098 </i>
   <i name="e_0_energy">   -109.35214355 </i>
  </energy>
  <time name="totalsc">   51.83   51.17</time>
 </calculation>
 <calculation>
  <scstep>
   <time name="dav">    4.38    4.38</time>
   <time name="total">    4.75    4.73</time>
   <energy>
    <i name="alphaZ">    271.64501344 </i>
    <i name="ewald"> 148147.88193256 </i>
    <i name="hartreedc">-160367.09280948 </i>
    <i name="XCdc">     91.44990940 </i>
    <i name="pawpsdc">  15262.47279347 </i>
    <i name="pawaedc"> -14858.15381533 </i>
    <i name="eentropy">     -0.00497995 </i>
    <i name="bandstr">   -902.73369545 </i>
    <i name="atom">  12245.18164884 </i>
    <i name="e_fr_energy">   -109.35400248 </i>
    <i name="e_wo_entrp">   -109.34902253 </i>
    <i name="e_0_energy">   -109.35234249 </i>
   </energy>
  </scstep>
  <scstep>
   <time name="dav">    4.65    4.65</time>
   <time name="total">    5.02    4.99</time>
   <energy>
    <i name="e_fr_energy">   -109.35405703 </i>
    <i name="e_wo_entrp">   -109.34911867 </i>
    <i name="e_0_energy">   -109.35241091 </i>
   </energy>
  </scstep>
  <scstep>
   <time name="dav">    3.76    3.76</time>
   <time name="total">    3.82    3.80</time>
   <energy>
    <i name="alphaZ">    271.64501344 </i>
    <i name="ewald"> 148147.88193256 </i>
    <i name="hartreedc">-160367.24956342 </i>
    <i name="XCdc">     91.45179380 </i>
    <i name="pawpsdc">  15263.09985370 </i>
    <i name="pawaedc"> -14858.77881426 </i>
    <i name="eentropy">     -0.00500683 </i>
    <i name="bandstr">   -902.58091190 </i>
    <i name="atom">  12245.18164884 </i>
    <i name="e_fr_energy">   -109.35405406 </i>
    <i name="e_wo_entrp">   -109.34904723 </i>
    <i name="e_0_energy">   -109.35238512 </i>
   </energy>
  </scstep>
  <structure>
   <crystal>
    <varray name="basis" >
     <v>       5.54371716       0.00000000       0.00000000 </v>
     <v>       2.77185858       4.80099990       0.00000000 </v>
     <v>       0.00000000       0.00000000      36.78963917 </v>
    </varray>
    <i name="volume">    979.17042988 </i>
    <varray name="rec_basis" >
     <v>       0.18038438      -0.10414497       0.00000000 </v>
     <v>       0.00000000       0.20828994       0.00000000 </v>
     <v>       0.00000000       0.00000000       0.02718157 </v>
    </varray>
   </crystal>
   <varray name="positions" >
    <v>       0.00000000       0.00000000       0.40772349 </v>
    <v>       0.50000000       0.00000000       0.40772349 </v>
    <v>       0.00000000       0.50000000       0.40772349 </v>
    <v>       0.50000000       0.50000000       0.40772349 </v>
    <v>       0.16666667       0.16666667       0.46924116 </v>
    <v>       0.66666667       0.16666667       0.46924116 </v>
    <v>       0.16666667       0.66666667       0.46924116 </v>
    <v>       0.66666667       0.66666667       0.46924116 </v>
    <v>       0.83902660       0.32480523       0.53201895 </v>
    <v>       0.33616818       0.32480523       0.53201895 </v>
    <v>       0.83734386       0.82531228       0.53314323 </v>
    <v>       0.33626832       0.82746336       0.53194870 </v>
    <v>       0.00597140      -0.02040889       0.59811431 </v>
    <v>       0.51443749      -0.02040889       0.59811431 </v>
    <v>       0.00679202       0.48641596       0.59848378 </v>
    <v>       0.50840398       0.48319204       0.59361843 </v>
    <v>       0.17813367       0.14373266       0.66734014 </v>
    <v>       0.17593337       0.14813325       0.63492808 </v>
   </varray>
  </structure>
  <varray name="forces" >
   <v>       0.02388291       0.02803845      -0.40853114 </v>
   <v>      -0.02388291       0.02803845      -0.40853114 </v>
   <v>       0.00000000      -0.01103706      -0.41521955 </v>
   <v>       0.00000000       0.01004574      -0.45444923 </v>
   <v>      -0.00000000      -0.03113588       0.44824820 </v>
   <v>       0.00000000      -0.05806491       0.40957704 </v>
   <v>      -0.02504269      -0.02232965       0.41414342 </v>
   <v>       0.02504269      -0.02232965       0.41414342 </v>
   <v>      -0.00388772      -0.00021169      -0.00445774 </v>
   <v>       0.00388772      -0.00021169      -0.00445774 </v>
   <v>       0.00000000      -0.00949160      -0.01059771 </v>
   <v>       0.00000000      -0.00362009       0.02719578 </v>
   <v>       0.04285493       0.03496083       0.00483180 </v>
   <v>      -0.04285493       0.03496083       0.00483180 </v>
   <v>       0.00000000       0.01934929      -0.04305910 </v>
   <v>       0.00000000      -0.01406288       0.05647618 </v>
   <v>      -0.00000000       0.03195851       0.03253431 </v>
   <v>       0.00000000      -0.01485700      -0.06267859 </v>
  </varray>
  <varray name="stress" >
   <v>     -11.81546007       0.00000000       0.00000000 </v>
   <v>       0.00000000     -11.83253434       0.58250853 </v>
   <v>       0.00000000       0.58250671       4.78496871 </v>
  </varray>
  <energy>
   <i name="e_fr_energy">   -109.35405406 </i>
   <i name="e_wo_entrp">   -109.34904723 </i>
   <i name="e_0_energy">   -109.35238512 </i>
  </energy>
  <time name="totalsc">   27.14   26.60</time>
 </calculation>
 <calculation>
  <scstep>
   <time name="dav">    4.38    4.38</time>
   <time name="total">    4.74    4.72</time>
   <energy>
    <i name="alphaZ">    271.64501344 </i>
    <i name="ewald"> 148148.51899805 </i>
    <i name="hartreedc">-160367.83742473 </i>
    <i name="XCdc">     91.45735283 </i>
    <i name="pawpsdc">  15263.43262386 </i>
    <i name="pawaedc"> -14859.11144993 </i>
    <i name="eentropy">     -0.00499967 </i>
    <i name="bandstr">   -902.63586712 </i>
    <i name="atom">  12245.18164884 </i>
    <i name="e_fr_energy">   -109.35410442 </i>
    <i name="e_wo_entrp">   -109.34910474 </i>
    <i name="e_0_energy">   -109.35243786 </i>
   </energy>
  </scstep>
  <scstep>
   <time name="dav">    4.75    4.75</time>
   <time name="total">    5.12    5.09</time>
   <energy>
    <i name="e_fr_energy">   -109.35425464 </i>
    <i name="e_wo_entrp">   -109.34922658 </i>
    <i name="e_0_energy">   -109.35257862 </i>
   </energy>
  </scstep>
  <scstep>
   <time name="dav">    4.78    4.78</time>
   <time name="total">    5.15    5.12</time>
   <energy>
    <i name="e_fr_energy">   -109.35419001 </i>
    <i name="e_wo_entrp">   -109.34913672 </i>
    <i name="e_0_energy">   -109.35250558 </i>
   </energy>
  </scstep>
  <scstep>
   <time name="dav">    3.76    3.76</time>
   <time name="total">    4.13    4.10</time>
   <energy>
    <i name="e_fr_energy">   -109.35416452 </i>
    <i name="e_wo_entrp">   -109.34921855 </i>
    <i name="e_0_energy">   -109.35251586 </i>
   </energy>
  </scstep>
  <scstep>
   <time name="dav">    3.59    3.59</time>
   <time name="total">    3.65    3.63</time>
   <energy>
    <i name="alphaZ">    271.64501344 </i>
    <i name="ewald"> 148148.51899805 </i>
    <i name="hartreedc">-160368.15160566 </i>
    <i name="XCdc">     91.46135416 </i>
    <i name="pawpsdc">  15265.24804447 </i>
    <i name="pawaedc"> -14860.92452619 </i>
    <i name="eentropy">     -0.00507899 </i>
    <i name="bandstr">   -902.32800576 </i>
    <i name="atom">  12245.18164884 </i>
    <i name="e_fr_energy">   -109.35415763 </i>
    <i name="e_wo_entrp">   -109.34907864 </i>
    <i name="e_0_energy">   -109.35246464 </i>
   </energy>
  </scstep>
  <structure>
   <crystal>
    <varray name="basis" >
     <v>       5.54371716       0.00000000       0.00000000 </v>
     <v>       2.77185858       4.80099990       0.00000000 </v>
     <v>       0.00000000       0.00000000      36.78963917 </v>
    </varray>
    <i name="volume">    979.17042988 </i>
    <varray name="rec_basis" >
     <v>       0.18038438      -0.10414497       0.00000000 </v>
     <v>       0.00000000       0.20828994       0.00000000 </v>
     <v>       0.00000000       0.00000000       0.02718157 </v>
    </varray>
   </crystal>
   <varray name="positions" >
    <v>       0.00000000       0.00000000       0.40772349 </v>
    <v>       0.50000000       0.00000000       0.40772349 </v>
    <v>       0.00000000       0.50000000       0.40772349 </v>
    <v>       0.50000000       0.50000000       0.40772349 </v>
    <v>       0.16666667       0.16666667       0.46924116 </v>
    <v>       0.66666667       0.16666667       0.46924116 </v>
    <v>       0.16666667       0.66666667       0.46924116 </v>
    <v>       0.66666667       0.66666667       0.46924116 </v>
    <v>       0.83902193       0.32478449       0.53201906 </v>
    <v>       0.33619358       0.32478449       0.53201906 </v>
    <v>       0.83736655       0.82526689       0.53313719 </v>
    <v>       0.33627433       0.82745134       0.53196382 </v>
    <v>       0.00607548      -0.02027323       0.59811588 </v>
    <v>       0.51419775      -0.02027323       0.59811588 </v>
    <v>       0.00676088       0.48647824       0.59846464 </v>
    <v>       0.50843910       0.48312181       0.59364728 </v>
    <v>       0.17805643       0.14388714       0.66731255 </v>
    <v>       0.17594286       0.14811428       0.63493851 </v>
   </varray>
  </structure>
  <varray name="forces" >
   <v>       0.02396293       0.02808432      -0.40839591 </v>
   <v>      -0.02396293       0.02808432      -0.40839591 </v>
   <v>       0.00000000      -0.01111978      -0.41500121 </v>
   <v>      -0.00000000       0.01005438      -0.45522522 </v>
   <v>       0.00000000      -0.03184653       0.44853684 </v>
   <v>      -0.00000000      -0.05801395       0.40947976 </v>
   <v>      -0.02381851      -0.02244144       0.41447511 </v>
   <v>       0.02381851      -0.02244144       0.41447511 </v>
   <v>      -0.00523985       0.00016417      -0.00321879 </v>
   <v>       0.00523985       0.00016417      -0.00321879 </v>
   <v>       0.00000000      -0.00727967      -0.00622984 </v>
   <v>       0.00000000      -0.00613864       0.02408965 </v>
   <v>       0.02658009       0.02838702       0.00006625 </v>
   <v>      -0.02658009       0.02838702       0.00006625 </v>
   <v>      -0.00000000       0.02876361      -0.04488053 </v>
   <v>       0.00000000      -0.01144090       0.05173717 </v>
   <v>       0.00000000       0.02950752       0.15614356 </v>
   <v>       0.00000000      -0.01087419      -0.17450350 </v>
  </varray>
  <varray name="stress" >
   <v>     -11.83103139       0.00000000       0.00000000 </v>
   <v>       0.00000000     -11.84772628       0.57897271 </v>
   <v>       0.00000000       0.57897083       5.06080878 </v>
  </varray>
  <energy>
   <i name="e_fr_energy">   -109.35415763 </i>
   <i name="e_wo_entrp">   -109.34907864 </i>
   <i name="e_0_energy">   -109.35246464 </i>
  </energy>
  <time name="totalsc">   36.34   35.75</time>
 </calculation>
 <calculation>
  <scstep>
   <time name="dav">    4.38    4.38</time>
   <time name="total">    4.74    4.72</time>
   <energy>
    <i name="alphaZ">    271.64501344 </i>
    <i name="ewald"> 148148.38109886 </i>
    <i name="hartreedc">-160368.20612925 </i>
    <i name="XCdc">     91.46128790 </i>
    <i name="pawpsdc">  15265.67929301 </i>
    <i name="pawaedc"> -14861.35504806 </i>
    <i name="eentropy">     -0.00501592 </i>
    <i name="bandstr">   -902.13641351 </i>
    <i name="atom">  12245.18164884 </i>
    <i name="e_fr_energy">   -109.35426467 </i>
    <i name="e_wo_entrp">   -109.34924876 </i>
    <i name="e_0_energy">   -109.35259270 </i>
   </energy>
  </scstep>
  <scstep>
   <time name="dav">    4.67    4.67</time>
   <time name="total">    5.03    5.01</time>
   <energy>
    <i name="e_fr_energy">   -109.35428279 </i>
    <i name="e_wo_entrp">   -109.34917505 </i>
    <i name="e_0_energy">   -109.35258021 </i>
   </energy>
  </scstep>
  <scstep>
   <time name="dav">    3.54    3.54</time>
   <time name="total">    3.90    3.87</time>
   <energy>
    <i name="e_fr_energy">   -109.35428028 </i>
    <i name="e_wo_entrp">   -109.34925919 </i>
    <i name="e_0_energy">   -109.35260658 </i>
   </energy>
  </scstep>
  <scstep>
   <time name="dav">    3.19    3.19</time>
   <time name="total">    3.24    3.22</time>
   <energy>
    <i name="alphaZ">    271.64501344 </i>
    <i name="ewald"> 148148.38109886 </i>
    <i name="hartreedc">-160368.21752500 </i>
    <i name="XCdc">     91.46123538 </i>
    <i name="pawpsdc">  15265.73307251 </i>
    <i name="pawaedc"> -14861.40897336 </i>
    <i name="eentropy">     -0.00500290 </i>
    <i name="bandstr">   -902.12484050 </i>
    <i name="atom">  12245.18164884 </i>
    <i name="e_fr_energy">   -109.35427273 </i>
    <i name="e_wo_entrp">   -109.34926983 </i>
    <i name="e_0_energy">   -109.35260510 </i>
   </energy>
  </scstep>
  <structure>
   <crystal>
    <varray name="basis" >
     <v>       5.54371716       0.00000000       0.00000000 </v>
     <v>       2.77185858       4.80099990       0.00000000 </v>
     <v>       0.00000000       0.00000000      36.78963917 </v>
    </varray>
    <i name="volume">    979.17042988 </i>
    <varray name="rec_basis" >
     <v>       0.18038438      -0.10414497       0.00000000 </v>
     <v>       0.00000000       0.20828994       0.00000000 </v>
     <v>       0.00000000       0.00000000       0.02718157 </v>
    </varray>
   </crystal>
   <varray name="positions" >
    <v>       0.00000000       0.00000000       0.40772349 </v>
    <v>       0.50000000       0.00000000       0.40772349 </v>
    <v>       0.00000000       0.50000000       0.40772349 </v>
    <v>       0.50000000       0.50000000       0.40772349 </v>
    <v>       0.16666667       0.16666667       0.46924116 </v>
    <v>       0.66666667       0.16666667       0.46924116 </v>
    <v>       0.16666667       0.66666667       0.46924116 </v>
    <v>       0.66666667       0.66666667       0.46924116 </v>
    <v>       0.83901878       0.32477838       0.53201892 </v>
    <v>       0.33620284       0.32477838       0.53201892 </v>
    <v>       0.83737469       0.82525061       0.53313508 </v>
    <v>       0.33627729       0.82744541       0.53196952 </v>
    <v>       0.00610979      -0.02022204       0.59811635 </v>
    <v>       0.51411225      -0.02022204       0.59811635 </v>
    <v>       0.00674611       0.48650777       0.59845670 </v>
    <v>       0.50845173       0.48309655       0.59365844 </v>
    <v>       0.17802782       0.14394436       0.66731217 </v>
    <v>       0.17594776       0.14810447       0.63493288 </v>
   </varray>
  </structure>
  <varray name="forces" >
   <v>       0.02398035       0.02815239      -0.40909011 </v>
   <v>      -0.02398035       0.02815239      -0.40909011 </v>
   <v>      -0.00000000      -0.01114881      -0.41565989 </v>
   <v>       0.00000000       0.01002134      -0.45654915 </v>
   <v>       0.00000000      -0.03202781       0.45097965 </v>
   <v>       0.00000000      -0.05768935       0.41156304 </v>
   <v>      -0.02314726      -0.02259259       0.41666695 </v>
   <v>       0.02314726      -0.02259259       0.41666695 </v>
   <v>      -0.00563782       0.00053848      -0.00318735 </v>
   <v>       0.00563782       0.00053848      -0.00318735 </v>
   <v>       0.00000000      -0.00597196      -0.00501044 </v>
   <v>      -0.00000000      -0.00685872       0.02145180 </v>
   <v>       0.01878958       0.02463289      -0.00092140 </v>
   <v>      -0.01878958       0.02463289      -0.00092140 </v>
   <v>       0.00000000       0.03076290      -0.04247094 </v>
   <v>       0.00000000      -0.00953455       0.04630048 </v>
   <v>      -0.00000000       0.03081862       0.14508561 </v>
   <v>      -0.00000000      -0.00983400      -0.16262633 </v>
  </varray>
  <varray name="stress" >
   <v>     -11.85981440       0.00000000       0.00000000 </v>
   <v>       0.00000000     -11.87844785       0.58045555 </v>
   <v>       0.00000000       0.58045357       4.92055497 </v>
  </varray>
  <energy>
   <i name="e_fr_energy">   -109.35427273 </i>
   <i name="e_wo_entrp">   -109.34926983 </i>
   <i name="e_0_energy">   -109.35260510 </i>
  </energy>
  <time name="totalsc">   30.46   29.90</time>
 </calculation>
 <calculation>
  <scstep>
   <time name="dav">    4.38    4.38</time>
   <time name="total">    4.74    4.72</time>
   <energy>
    <i name="alphaZ">    271.64501344 </i>
    <i name="ewald"> 148147.96746356 </i>
    <i name="hartreedc">-160367.80861416 </i>
    <i name="XCdc">     91.46034991 </i>
    <i name="pawpsdc">  15265.75004767 </i>
    <i name="pawaedc"> -14861.42587393 </i>
    <i name="eentropy">     -0.00509629 </i>
    <i name="bandstr">   -902.11944273 </i>
    <i name="atom">  12245.18164884 </i>
    <i name="e_fr_energy">   -109.35450368 </i>
    <i name="e_wo_entrp">   -109.34940739 </i>
    <i name="e_0_energy">   -109.35280492 </i>
   </energy>
  </scstep>
  <scstep>
   <time name="dav">    4.69    4.69</time>
   <time name="total">    5.05    5.03</time>
   <energy>
    <i name="e_fr_energy">   -109.35468356 </i>
    <i name="e_wo_entrp">   -109.34968004 </i>
    <i name="e_0_energy">   -109.35301572 </i>
   </energy>
  </scstep>
  <scstep>
   <time name="dav">    4.86    4.86</time>
   <time name="total">    5.22    5.20</time>
   <energy>
    <i name="e_fr_energy">   -109.35458403 </i>
    <i name="e_wo_entrp">   -109.34950789 </i>
    <i name="e_0_energy">   -109.35289198 </i>
   </energy>
  </scstep>
  <scstep>
   <time name="dav">    3.44    3.44</time>
   <time name="total">    3.80    3.78</time>
   <energy>
    <i name="e_fr_energy">   -109.35456127 </i>
    <i name="e_wo_entrp">   -109.34945567 </i>
    <i name="e_0_energy">   -109.35285940 </i>
   </energy>
  </scstep>
  <scstep>
   <time name="dav">    2.98    2.98</time>
   <time name="total">    3.03    3.01</time>
   <energy>
    <i name="alphaZ">    271.64501344 </i>
    <i name="ewald"> 148147.96746356 </i>
    <i name="hartreedc">-160367.74951674 </i>
    <i name="XCdc">     91.45970553 </i>
    <i name="pawpsdc">  15265.50163539 </i>
    <i name="pawaedc"> -14861.17605078 </i>
    <i name="eentropy">     -0.00508157 </i>
    <i name="bandstr">   -902.17937527 </i>
    <i name="atom">  12245.18164884 </i>
    <i name="e_fr_energy">   -109.35455760 </i>
    <i name="e_wo_entrp">   -109.34947602 </i>
    <i name="e_0_energy">   -109.35286374 </i>
   </energy>
  </scstep>
  <structure>
   <crystal>
    <varray name="basis" >
     <v>       5.54371716       0.00000000       0.00000000 </v>
     <v>       2.77185858       4.80099990       0.00000000 </v>
     <v>       0.00000000       0.00000000      36.78963917 </v>
    </varray>
    <i name="volume">    979.17042988 </i>
    <varray name="rec_basis" >
     <v>       0.18038438      -0.10414497       0.00000000 </v>
     <v>       0.00000000       0.20828994       0.00000000 </v>
     <v>       0.00000000       0.00000000       0.02718157 </v>
    </varray>
   </crystal>
   <varray name="positions" >
    <v>       0.00000000       0.00000000       0.40772349 </v>
    <v>       0.50000000       0.00000000       0.40772349 </v>
    <v>       0.00000000       0.50000000       0.40772349 </v>
    <v>       0.50000000       0.50000000       0.40772349 </v>
    <v>       0.16666667       0.16666667       0.46924116 </v>
    <v>       0.66666667       0.16666667       0.46924116 </v>
    <v>       0.16666667       0.66666667       0.46924116 </v>
    <v>       0.66666667       0.66666667       0.46924116 </v>
    <v>       0.83900931       0.32476008       0.53201853 </v>
    <v>       0.33623061       0.32476008       0.53201853 </v>
    <v>       0.83739911       0.82520178       0.53312876 </v>
    <v>       0.33628618       0.82742764       0.53198661 </v>
    <v>       0.00621273      -0.02006847       0.59811776 </v>
    <v>       0.51385574      -0.02006847       0.59811776 </v>
    <v>       0.00670182       0.48659637       0.59843291 </v>
    <v>       0.50848961       0.48302078       0.59369192 </v>
    <v>       0.17794200       0.14411601       0.66731100 </v>
    <v>       0.17596247       0.14807506       0.63491600 </v>
   </varray>
  </structure>
  <varray name="forces" >
   <v>       0.02401701       0.02817887      -0.40763755 </v>
   <v>      -0.02401701       0.02817887      -0.40763755 </v>
   <v>      -0.00000000      -0.01106013      -0.41318965 </v>
   <v>       0.00000000       0.01006389      -0.45612129 </v>
   <v>      -0.00000000      -0.03291876       0.44887712 </v>
   <v>       0.00000000      -0.05782661       0.40979218 </v>
   <v>      -0.02184798      -0.02262761       0.41503909 </v>
   <v>       0.02184798      -0.02262761       0.41503909 </v>
   <v>      -0.00658969       0.00099000      -0.00276412 </v>
   <v>       0.00658969       0.00099000      -0.00276412 </v>
   <v>      -0.00000000      -0.00298623      -0.00138681 </v>
   <v>      -0.00000000      -0.00897620       0.01629343 </v>
   <v>       0.00065366       0.01707621      -0.00311469 </v>
   <v>      -0.00065366       0.01707621      -0.00311469 </v>
   <v>      -0.00000000       0.03923924      -0.04031727 </v>
   <v>      -0.00000000      -0.00568336       0.04350972 </v>
   <v>      -0.00000000       0.03096886       0.10517434 </v>
   <v>       0.00000000      -0.00805565      -0.11567723 </v>
  </varray>
  <varray name="stress" >
   <v>     -11.85255680       0.00000000       0.00000000 </v>
   <v>       0.00000000     -11.87289137       0.58277756 </v>
   <v>       0.00000000       0.58277560       4.83666017 </v>
  </varray>
  <energy>
   <i name="e_fr_energy">   -109.35455760 </i>
   <i name="e_wo_entrp">   -109.34947602 </i>
   <i name="e_0_energy">   -109.35286374 </i>
  </energy>
  <time name="totalsc">   35.40   34.81</time>
 </calculation>
 <calculation>
  <scstep>
   <time name="dav">    4.38    4.38</time>
   <time name="total">    4.74    4.72</time>
   <energy>
    <i name="alphaZ">    271.64501344 </i>
    <i name="ewald"> 148147.14047532 </i>
    <i name="hartreedc">-160366.96811488 </i>
    <i name="XCdc">     91.45806764 </i>
    <i name="pawpsdc">  15265.40988200 </i>
    <i name="pawaedc"> -14861.08413558 </i>
    <i name="eentropy">     -0.00515985 </i>
    <i name="bandstr">   -902.13230485 </i>
    <i name="atom">  12245.18164884 </i>
    <i name="e_fr_energy">   -109.35462790 </i>
    <i name="e_wo_entrp">   -109.34946805 </i>
    <i name="e_0_energy">   -109.35290795 </i>
   </energy>
  </scstep>
  <scstep>
   <time name="dav">    4.61    4.61</time>
   <time name="total">    4.97    4.95</time>
   <energy>
    <i name="e_fr_energy">   -109.35490191 </i>
    <i name="e_wo_entrp">   -109.34970571 </i>
    <i name="e_0_energy">   -109.35316984 </i>
   </energy>
  </scstep>
  <scstep>
   <time name="dav">    4.92    4.92</time>
   <time name="total">    5.29    5.26</time>
   <energy>
    <i name="e_fr_energy">   -109.35508947 </i>
    <i name="e_wo_entrp">   -109.34990435 </i>
    <i name="e_0_energy">   -109.35336110 </i>
   </energy>
  </scstep>
  <scstep>
   <time name="dav">    4.87    4.87</time>
   <time name="total">    5.24    5.21</time>
   <energy>
    <i name="e_fr_energy">   -109.35486481 </i>
    <i name="e_wo_entrp">   -109.34976564 </i>
    <i name="e_0_energy">   -109.35316509 </i>
   </energy>
  </scstep>
  <scstep>
   <time name="dav">    4.31    4.31</time>
   <time name="total">    4.67    4.64</time>
   <energy>
    <i name="e_fr_energy">   -109.35486008 </i>
    <i name="e_wo_entrp">   -109.34961660 </i>
    <i name="e_0_energy">   -109.35311225 </i>
   </energy>
  </scstep>
  <scstep>
   <time name="dav">    3.79    3.79</time>
   <time name="total">    4.16    4.13</time>
   <energy>
    <i name="e_fr_energy">   -109.35484837 </i>
    <i name="e_wo_entrp">   -109.34973517 </i>
    <i name="e_0_energy">   -109.35314397 </i>
   </energy>
  </scstep>
  <scstep>
   <time name="dav">    3.21    3.21</time>
   <time name="total">    3.26    3.24</time>
   <energy>
    <i name="alphaZ">    271.64501344 </i>
    <i name="ewald"> 148147.14047532 </i>
    <i name="hartreedc">-160366.65653172 </i>
    <i name="XCdc">     91.45668524 </i>
    <i name="pawpsdc">  15264.60992861 </i>
    <i name="pawaedc"> -14860.28098026 </i>
    <i name="eentropy">     -0.00519283 </i>
    <i name="bandstr">   -902.44588984 </i>
    <i name="atom">  12245.18164884 </i>
    <i name="e_fr_energy">   -109.35484319 </i>
    <i name="e_wo_entrp">   -109.34965035 </i>
    <i name="e_0_energy">   -109.35311224 </i>
   </energy>
  </scstep>
  <structure>
   <crystal>
    <varray name="basis" >
     <v>       5.54371716       0.00000000       0.00000000 </v>
     <v>       2.77185858       4.80099990       0.00000000 </v>
     <v>       0.00000000       0.00000000      36.78963917 </v>
    </varray>
    <i name="volume">    979.17042988 </i>
    <varray name="rec_basis" >
     <v>       0.18038438      -0.10414497       0.00000000 </v>
     <v>       0.00000000       0.20828994       0.00000000 </v>
     <v>       0.00000000       0.00000000       0.02718157 </v>
    </varray>
   </crystal>
   <varray name="positions" >
    <v>       0.00000000       0.00000000       0.40772349 </v>
    <v>       0.50000000       0.00000000       0.40772349 </v>
    <v>       0.00000000       0.50000000       0.40772349 </v>
    <v>       0.50000000       0.50000000       0.40772349 </v>
    <v>       0.16666667       0.16666667       0.46924116 </v>
    <v>       0.66666667       0.16666667       0.46924116 </v>
    <v>       0.16666667       0.66666667       0.46924116 </v>
    <v>       0.66666667       0.66666667       0.46924116 </v>
    <v>       0.83899037       0.32472348       0.53201775 </v>
    <v>       0.33628615       0.32472348       0.53201775 </v>
    <v>       0.83744794       0.82510412       0.53311612 </v>
    <v>       0.33630395       0.82739209       0.53202078 </v>
    <v>       0.00641859      -0.01976133       0.59812058 </v>
    <v>       0.51334273      -0.01976133       0.59812058 </v>
    <v>       0.00661322       0.48677355       0.59838532 </v>
    <v>       0.50856538       0.48286923       0.59375888 </v>
    <v>       0.17777035       0.14445931       0.66730867 </v>
    <v>       0.17599189       0.14801623       0.63488224 </v>
   </varray>
  </structure>
  <varray name="forces" >
   <v>       0.02377408       0.02821761      -0.40780579 </v>
   <v>      -0.02377408       0.02821761      -0.40780579 </v>
   <v>      -0.00000000      -0.01093788      -0.41680296 </v>
   <v>      -0.00000000       0.01008127      -0.45519582 </v>
   <v>      -0.00000000      -0.03439492       0.45098492 </v>
   <v>      -0.00000000      -0.05793796       0.40971247 </v>
   <v>      -0.01917137      -0.02259705       0.41668081 </v>
   <v>       0.01917137      -0.02259705       0.41668081 </v>
   <v>      -0.00968585       0.00191330      -0.00043665 </v>
   <v>       0.00968585       0.00191330      -0.00043665 </v>
   <v>       0.00000000       0.00367523       0.00607489 </v>
   <v>      -0.00000000      -0.01366192       0.00787912 </v>
   <v>      -0.03909972      -0.00043628      -0.00943833 </v>
   <v>       0.03909972      -0.00043628      -0.00943833 </v>
   <v>      -0.00000000       0.05636349      -0.03665930 </v>
   <v>      -0.00000000       0.00252038       0.02861561 </v>
   <v>      -0.00000000       0.03359976       0.01907990 </v>
   <v>       0.00000000      -0.00350260      -0.01168891 </v>
  </varray>
  <varray name="stress" >
   <v>     -11.81355081       0.00000000       0.00000000 </v>
   <v>       0.00000000     -11.83931925       0.58634080 </v>
   <v>       0.00000000       0.58633885       4.74252725 </v>
  </varray>
  <energy>
   <i name="e_fr_energy">   -109.35484319 </i>
   <i name="e_wo_entrp">   -109.34965035 </i>
   <i name="e_0_energy">   -109.35311224 </i>
  </energy>
  <time name="totalsc">   45.92   45.28</time>
 </calculation>
 <calculation>
  <scstep>
   <time name="dav">    4.38    4.38</time>
   <time name="total">    4.75    4.72</time>
   <energy>
    <i name="alphaZ">    271.64501344 </i>
    <i name="ewald"> 148146.91861581 </i>
    <i name="hartreedc">-160366.48091957 </i>
    <i name="XCdc">     91.45608881 </i>
    <i name="pawpsdc">  15264.62173476 </i>
    <i name="pawaedc"> -14860.29237931 </i>
    <i name="eentropy">     -0.00518107 </i>
    <i name="bandstr">   -902.39946019 </i>
    <i name="atom">  12245.18164884 </i>
    <i name="e_fr_energy">   -109.35483846 </i>
    <i name="e_wo_entrp">   -109.34965739 </i>
    <i name="e_0_energy">   -109.35311144 </i>
   </energy>
  </scstep>
  <scstep>
   <time name="dav">    4.59    4.59</time>
   <time name="total">    4.96    4.93</time>
   <energy>
    <i name="e_fr_energy">   -109.35486128 </i>
    <i name="e_wo_entrp">   -109.34964387 </i>
    <i name="e_0_energy">   -109.35312215 </i>
   </energy>
  </scstep>
  <scstep>
   <time name="dav">    3.43    3.43</time>
   <time name="total">    3.79    3.76</time>
   <energy>
    <i name="e_fr_energy">   -109.35487774 </i>
    <i name="e_wo_entrp">   -109.34967984 </i>
    <i name="e_0_energy">   -109.35314511 </i>
   </energy>
  </scstep>
  <scstep>
   <time name="dav">    3.20    3.20</time>
   <time name="total">    3.56    3.54</time>
   <energy>
    <i name="e_fr_energy">   -109.35485588 </i>
    <i name="e_wo_entrp">   -109.34969546 </i>
    <i name="e_0_energy">   -109.35313574 </i>
   </energy>
  </scstep>
  <scstep>
   <time name="dav">    3.00    3.00</time>
   <time name="total">    3.06    3.04</time>
   <energy>
    <i name="alphaZ">    271.64501344 </i>
    <i name="ewald"> 148146.91861581 </i>
    <i name="hartreedc">-160366.38794692 </i>
    <i name="XCdc">     91.45566448 </i>
    <i name="pawpsdc">  15264.46409855 </i>
    <i name="pawaedc"> -14860.13419933 </i>
    <i name="eentropy">     -0.00521549 </i>
    <i name="bandstr">   -902.49253529 </i>
    <i name="atom">  12245.18164884 </i>
    <i name="e_fr_energy">   -109.35485590 </i>
    <i name="e_wo_entrp">   -109.34964041 </i>
    <i name="e_0_energy">   -109.35311741 </i>
   </energy>
  </scstep>
  <structure>
   <crystal>
    <varray name="basis" >
     <v>       5.54371716       0.00000000       0.00000000 </v>
     <v>       2.77185858       4.80099990       0.00000000 </v>
     <v>       0.00000000       0.00000000      36.78963917 </v>
    </varray>
    <i name="volume">    979.17042988 </i>
    <varray name="rec_basis" >
     <v>       0.18038438      -0.10414497       0.00000000 </v>
     <v>       0.00000000       0.20828994       0.00000000 </v>
     <v>       0.00000000       0.00000000       0.02718157 </v>
    </varray>
   </crystal>
   <varray name="positions" >
    <v>       0.00000000       0.00000000       0.40772349 </v>
    <v>       0.50000000       0.00000000       0.40772349 </v>
    <v>       0.00000000       0.50000000       0.40772349 </v>
    <v>       0.50000000       0.50000000       0.40772349 </v>
    <v>       0.16666667       0.16666667       0.46924116 </v>
    <v>       0.66666667       0.16666667       0.46924116 </v>
    <v>       0.16666667       0.66666667       0.46924116 </v>
    <v>       0.66666667       0.66666667       0.46924116 </v>
    <v>       0.83898529       0.32471366       0.53201754 </v>
    <v>       0.33630105       0.32471366       0.53201754 </v>
    <v>       0.83746104       0.82507792       0.53311273 </v>
    <v>       0.33630872       0.82738255       0.53202996 </v>
    <v>       0.00647384      -0.01967890       0.59812134 </v>
    <v>       0.51320506      -0.01967890       0.59812134 </v>
    <v>       0.00658945       0.48682110       0.59837254 </v>
    <v>       0.50858572       0.48282857       0.59377685 </v>
    <v>       0.17772428       0.14455143       0.66730804 </v>
    <v>       0.17599978       0.14800044       0.63487318 </v>
   </varray>
  </structure>
  <varray name="forces" >
   <v>       0.02379755       0.02829447      -0.40704601 </v>
   <v>      -0.02379755       0.02829447      -0.40704601 </v>
   <v>       0.00000000      -0.01075837      -0.41540941 </v>
   <v>       0.00000000       0.01021347      -0.45490870 </v>
   <v>       0.00000000      -0.03475813       0.45050625 </v>
   <v>       0.00000000      -0.05785693       0.40961167 </v>
   <v>      -0.01842216      -0.02256711       0.41661489 </v>
   <v>       0.01842216      -0.02256711       0.41661489 </v>
   <v>      -0.00990419       0.00239462      -0.00036333 </v>
   <v>       0.00990419       0.00239462      -0.00036333 </v>
   <v>       0.00000000       0.00584562       0.00834080 </v>
   <v>       0.00000000      -0.01451025       0.00367950 </v>
   <v>      -0.05066496      -0.00585435      -0.01139910 </v>
   <v>       0.05066496      -0.00585435      -0.01139910 </v>
   <v>       0.00000000       0.06031158      -0.03393032 </v>
   <v>       0.00000000       0.00537796       0.02513905 </v>
   <v>       0.00000000       0.03358488      -0.00154413 </v>
   <v>       0.00000000      -0.00198508       0.01290238 </v>
  </varray>
  <varray name="stress" >
   <v>     -11.82336636       0.00000000       0.00000000 </v>
   <v>       0.00000000     -11.85390958       0.58894567 </v>
   <v>       0.00000000       0.58894378       4.66022191 </v>
  </varray>
  <energy>
   <i name="e_fr_energy">   -109.35485590 </i>
   <i name="e_wo_entrp">   -109.34964041 </i>
   <i name="e_0_energy">   -109.35311741 </i>
  </energy>
  <time name="totalsc">   33.66   33.06</time>
 </calculation>
 <calculation>
  <scstep>
   <time name="dav">    4.38    4.38</time>
   <time name="total">    4.74    4.72</time>
   <energy>
    <i name="alphaZ">    271.64501344 </i>
    <i name="ewald"> 148147.14653178 </i>
    <i name="hartreedc">-160366.63932470 </i>
    <i name="XCdc">     91.45494714 </i>
    <i name="pawpsdc">  15264.43473555 </i>
    <i name="pawaedc"> -14860.10455573 </i>
    <i name="eentropy">     -0.00518248 </i>
    <i name="bandstr">   -902.46873286 </i>
    <i name="atom">  12245.18164884 </i>
    <i name="e_fr_energy">   -109.35491901 </i>
    <i name="e_wo_entrp">   -109.34973653 </i>
    <i name="e_0_energy">   -109.35319152 </i>
   </energy>
  </scstep>
  <scstep>
   <time name="dav">    4.66    4.66</time>
   <time name="total">    5.02    5.00</time>
   <energy>
    <i name="e_fr_energy">   -109.35493476 </i>
    <i name="e_wo_entrp">   -109.34973195 </i>
    <i name="e_0_energy">   -109.35320049 </i>
   </energy>
  </scstep>
  <scstep>
   <time name="dav">    3.16    3.16</time>
   <time name="total">    3.21    3.20</time>
   <energy>
    <i name="alphaZ">    271.64501344 </i>
    <i name="ewald"> 148147.14653178 </i>
    <i name="hartreedc">-160366.60734223 </i>
    <i name="XCdc">     91.45485283 </i>
    <i name="pawpsdc">  15264.38346697 </i>
    <i name="pawaedc"> -14860.05293632 </i>
    <i name="eentropy">     -0.00520771 </i>
    <i name="bandstr">   -902.50095561 </i>
    <i name="atom">  12245.18164884 </i>
    <i name="e_fr_energy">   -109.35492800 </i>
    <i name="e_wo_entrp">   -109.34972029 </i>
    <i name="e_0_energy">   -109.35319210 </i>
   </energy>
  </scstep>
  <structure>
   <crystal>
    <varray name="basis" >
     <v>       5.54371716       0.00000000       0.00000000 </v>
     <v>       2.77185858       4.80099990       0.00000000 </v>
     <v>       0.00000000       0.00000000      36.78963917 </v>
    </varray>
    <i name="volume">    979.17042988 </i>
    <varray name="rec_basis" >
     <v>       0.18038438      -0.10414497       0.00000000 </v>
     <v>       0.00000000       0.20828994       0.00000000 </v>
     <v>       0.00000000       0.00000000       0.02718157 </v>
    </varray>
   </crystal>
   <varray name="positions" >
    <v>       0.00000000       0.00000000       0.40772349 </v>
    <v>       0.50000000       0.00000000       0.40772349 </v>
    <v>       0.00000000       0.50000000       0.40772349 </v>
    <v>       0.50000000       0.50000000       0.40772349 </v>
    <v>       0.16666667       0.16666667       0.46924116 </v>
    <v>       0.66666667       0.16666667       0.46924116 </v>
    <v>       0.16666667       0.66666667       0.46924116 </v>
    <v>       0.66666667       0.66666667       0.46924116 </v>
    <v>       0.83897170       0.32471285       0.53201740 </v>
    <v>       0.33631545       0.32471285       0.53201740 </v>
    <v>       0.83746244       0.82507513       0.53311277 </v>
    <v>       0.33631919       0.82736163       0.53203396 </v>
    <v>       0.00644547      -0.01965514       0.59811984 </v>
    <v>       0.51320967      -0.01965514       0.59811984 </v>
    <v>       0.00654449       0.48691101       0.59836248 </v>
    <v>       0.50859009       0.48281982       0.59378748 </v>
    <v>       0.17768700       0.14462601       0.66730757 </v>
    <v>       0.17600391       0.14799217       0.63487182 </v>
   </varray>
  </structure>
  <varray name="forces" >
   <v>       0.02370126       0.02847629      -0.40614053 </v>
   <v>      -0.02370126       0.02847629      -0.40614053 </v>
   <v>       0.00000000      -0.01050997      -0.41404605 </v>
   <v>       0.00000000       0.01029714      -0.45387389 </v>
   <v>      -0.00000000      -0.03476233       0.45011720 </v>
   <v>       0.00000000      -0.05785553       0.40906857 </v>
   <v>      -0.01830579      -0.02241635       0.41604142 </v>
   <v>       0.01830579      -0.02241635       0.41604142 </v>
   <v>      -0.00835516       0.00228082      -0.00113829 </v>
   <v>       0.00835516       0.00228082      -0.00113829 </v>
   <v>       0.00000000       0.00601422       0.00566623 </v>
   <v>      -0.00000000      -0.01283393       0.00129892 </v>
   <v>      -0.04525235      -0.00425059      -0.00894456 </v>
   <v>       0.04525235      -0.00425059      -0.00894456 </v>
   <v>       0.00000000       0.05176217      -0.02899960 </v>
   <v>       0.00000000       0.00732028       0.02158676 </v>
   <v>      -0.00000000       0.03316504      -0.00425036 </v>
   <v>       0.00000000      -0.00077745       0.01379617 </v>
  </varray>
  <varray name="stress" >
   <v>     -11.82980589       0.00000000       0.00000000 </v>
   <v>       0.00000000     -11.86107642       0.58639030 </v>
   <v>       0.00000000       0.58638850       4.63390402 </v>
  </varray>
  <energy>
   <i name="e_fr_energy">   -109.35492800 </i>
   <i name="e_wo_entrp">   -109.34972029 </i>
   <i name="e_0_energy">   -109.35319210 </i>
  </energy>
  <time name="totalsc">   26.53   25.99</time>
 </calculation>
 <calculation>
  <scstep>
   <time name="dav">    4.38    4.38</time>
   <time name="total">    4.74    4.72</time>
   <energy>
    <i name="alphaZ">    271.64501344 </i>
    <i name="ewald"> 148147.82958710 </i>
    <i name="hartreedc">-160367.34822723 </i>
    <i name="XCdc">     91.45294030 </i>
    <i name="pawpsdc">  15264.36263539 </i>
    <i name="pawaedc"> -14860.03200598 </i>
    <i name="eentropy">     -0.00516934 </i>
    <i name="bandstr">   -902.44147820 </i>
    <i name="atom">  12245.18164884 </i>
    <i name="e_fr_energy">   -109.35505568 </i>
    <i name="e_wo_entrp">   -109.34988634 </i>
    <i name="e_0_energy">   -109.35333256 </i>
   </energy>
  </scstep>
  <scstep>
   <time name="dav">    4.62    4.62</time>
   <time name="total">    4.99    4.96</time>
   <energy>
    <i name="e_fr_energy">   -109.35512697 </i>
    <i name="e_wo_entrp">   -109.34986305 </i>
    <i name="e_0_energy">   -109.35337233 </i>
   </energy>
  </scstep>
  <scstep>
   <time name="dav">    4.16    4.16</time>
   <time name="total">    4.53    4.50</time>
   <energy>
    <i name="e_fr_energy">   -109.35514512 </i>
    <i name="e_wo_entrp">   -109.34999391 </i>
    <i name="e_0_energy">   -109.35342805 </i>
   </energy>
  </scstep>
  <scstep>
   <time name="dav">    3.35    3.35</time>
   <time name="total">    3.71    3.69</time>
   <energy>
    <i name="e_fr_energy">   -109.35510620 </i>
    <i name="e_wo_entrp">   -109.34994676 </i>
    <i name="e_0_energy">   -109.35338639 </i>
   </energy>
  </scstep>
  <scstep>
   <time name="dav">    3.08    3.08</time>
   <time name="total">    3.13    3.12</time>
   <energy>
    <i name="alphaZ">    271.64501344 </i>
    <i name="ewald"> 148147.82958710 </i>
    <i name="hartreedc">-160367.29857320 </i>
    <i name="XCdc">     91.45246870 </i>
    <i name="pawpsdc">  15263.91733641 </i>
    <i name="pawaedc"> -14859.58583271 </i>
    <i name="eentropy">     -0.00521554 </i>
    <i name="bandstr">   -902.49153696 </i>
    <i name="atom">  12245.18164884 </i>
    <i name="e_fr_energy">   -109.35510391 </i>
    <i name="e_wo_entrp">   -109.34988837 </i>
    <i name="e_0_energy">   -109.35336539 </i>
   </energy>
  </scstep>
  <structure>
   <crystal>
    <varray name="basis" >
     <v>       5.54371716       0.00000000       0.00000000 </v>
     <v>       2.77185858       4.80099990       0.00000000 </v>
     <v>       0.00000000       0.00000000      36.78963917 </v>
    </varray>
    <i name="volume">    979.17042988 </i>
    <varray name="rec_basis" >
     <v>       0.18038438      -0.10414497       0.00000000 </v>
     <v>       0.00000000       0.20828994       0.00000000 </v>
     <v>       0.00000000       0.00000000       0.02718157 </v>
    </varray>
   </crystal>
   <varray name="positions" >
    <v>       0.00000000       0.00000000       0.40772349 </v>
    <v>       0.50000000       0.00000000       0.40772349 </v>
    <v>       0.00000000       0.50000000       0.40772349 </v>
    <v>       0.50000000       0.50000000       0.40772349 </v>
    <v>       0.16666667       0.16666667       0.46924116 </v>
    <v>       0.66666667       0.16666667       0.46924116 </v>
    <v>       0.16666667       0.66666667       0.46924116 </v>
    <v>       0.66666667       0.66666667       0.46924116 </v>
    <v>       0.83893092       0.32471045       0.53201699 </v>
    <v>       0.33635863       0.32471045       0.53201699 </v>
    <v>       0.83746662       0.82506676       0.53311287 </v>
    <v>       0.33635057       0.82729886       0.53204595 </v>
    <v>       0.00636036      -0.01958384       0.59811535 </v>
    <v>       0.51322348      -0.01958384       0.59811535 </v>
    <v>       0.00640963       0.48718074       0.59833228 </v>
    <v>       0.50860321       0.48279358       0.59381938 </v>
    <v>       0.17757513       0.14484973       0.66730614 </v>
    <v>       0.17601632       0.14796736       0.63486771 </v>
   </varray>
  </structure>
  <varray name="forces" >
   <v>       0.02370228       0.02822359      -0.40770990 </v>
   <v>      -0.02370228       0.02822359      -0.40770990 </v>
   <v>       0.00000000      -0.01068212      -0.41576163 </v>
   <v>      -0.00000000       0.01007870      -0.45528470 </v>
   <v>      -0.00000000      -0.03560368       0.45280214 </v>
   <v>      -0.00000000      -0.05861890       0.41042817 </v>
   <v>      -0.01790822      -0.02246945       0.41805269 </v>
   <v>       0.01790822      -0.02246945       0.41805269 </v>
   <v>      -0.00542311       0.00108828       0.00142561 </v>
   <v>       0.00542311       0.00108828       0.00142561 </v>
   <v>      -0.00000000       0.00647766       0.00322881 </v>
   <v>      -0.00000000      -0.01023830       0.00129721 </v>
   <v>      -0.03549100       0.00026262      -0.00591544 </v>
   <v>       0.03549100       0.00026262      -0.00591544 </v>
   <v>      -0.00000000       0.03631287      -0.02396933 </v>
   <v>      -0.00000000       0.01198767       0.01667667 </v>
   <v>      -0.00000000       0.03447815      -0.01758240 </v>
   <v>       0.00000000       0.00159785       0.01645915 </v>
  </varray>
  <varray name="stress" >
   <v>     -11.82088609       0.00000000       0.00000000 </v>
   <v>       0.00000000     -11.85399800       0.58411574 </v>
   <v>       0.00000000       0.58411383       4.62056708 </v>
  </varray>
  <energy>
   <i name="e_fr_energy">   -109.35510391 </i>
   <i name="e_wo_entrp">   -109.34988837 </i>
   <i name="e_0_energy">   -109.35336539 </i>
  </energy>
  <time name="totalsc">   33.80   33.26</time>
  <eigenvalues>
   <array>
    <dimension dim="1">band</dimension>
    <dimension dim="2">kpoint</dimension>
    <dimension dim="3">spin</dimension>
    <field>eigene</field>
    <field>occ</field>
    <set>
     <set comment="spin 1">
      <set comment="kpoint 1">
       <r>  -23.8737    1.0000 </r>
       <r>  -12.5232    1.0000 </r>
       <r>  -11.0535    1.0000 </r>
       <r>   -9.7045    1.0000 </r>
       <r>   -8.7659    1.0000 </r>
       <r>   -8.6641    1.0000 </r>
       <r>   -8.4655    1.0000 </r>
       <r>   -8.4578    1.0000 </r>
       <r>   -8.4004    1.0000 </r>
       <r>   -8.2906    1.0000 </r>
       <r>   -8.2889    1.0000 </r>
       <r>   -8.2134    1.0000 </r>
       <r>   -8.1546    1.0000 </r>
       <r>   -8.1479    1.0000 </r>
       <r>   -8.1336    1.0000 </r>
       <r>   -7.7567    1.0000 </r>
       <r>   -7.7079    1.0000 </r>
       <r>   -7.7055    1.0000 </r>
       <r>   -7.5751    1.0000 </r>
       <r>   -7.5516    1.0000 </r>
       <r>   -7.5505    1.0000 </r>
       <r>   -7.2236    1.0000 </r>
       <r>   -7.2225    1.0000 </r>
       <r>   -6.9113    1.0000 </r>
       <r>   -6.5375    1.0000 </r>
       <r>   -6.5326    1.0000 </r>
       <r>   -6.1072    1.0000 </r>
       <r>   -5.6914    1.0000 </r>
       <r>   -5.6666    1.0000 </r>
       <r>   -5.6409    1.0000 </r>
       <r>   -5.6117    1.0000 </r>
       <r>   -5.6047    1.0000 </r>
       <r>   -5.5752    1.0000 </r>
       <r>   -5.3897    1.0000 </r>
       <r>   -5.2676    1.0000 </r>
       <r>   -5.2632    1.0000 </r>
       <r>   -5.1482    1.0000 </r>
       <r>   -5.0908    1.0000 </r>
       <r>   -5.0900    1.0000 </r>
       <r>   -4.9007    1.0000 </r>
       <r>   -4.8980    1.0000 </r>
       <r>   -4.8672    1.0000 </r>
       <r>   -4.8376    1.0000 </r>
       <r>   -4.8247    1.0000 </r>
       <r>   -4.7353    1.0000 </r>
       <r>   -4.7352    1.0000 </r>
       <r>   -4.5006    1.0000 </r>
       <r>   -4.3169    1.0000 </r>
       <r>   -4.3132    1.0000 </r>
       <r>   -4.2286    1.0000 </r>
       <r>   -3.9563    1.0000 </r>
       <r>   -3.9435    1.0000 </r>
       <r>   -3.7898    1.0000 </r>
       <r>   -3.7873    1.0000 </r>
       <r>   -3.7661    1.0000 </r>
       <r>   -3.4438    1.0000 </r>
       <r>   -3.2483    1.0000 </r>
       <r>   -3.1479    1.0000 </r>
       <r>   -3.0375    1.0000 </r>
       <r>   -3.0324    1.0000 </r>
       <r>   -2.8142    1.0000 </r>
       <r>   -2.8033    1.0000 </r>
       <r>   -2.7572    1.0000 </r>
       <r>   -2.5837    1.0000 </r>
       <r>   -2.5572    1.0000 </r>
       <r>   -2.4543    1.0000 </r>
       <r>   -2.3619    1.0000 </r>
       <r>   -2.3323    1.0000 </r>
       <r>   -2.1295    1.0000 </r>
       <r>   -1.9934    1.0008 </r>
       <r>   -1.9752    1.0017 </r>
       <r>   -1.9005    1.0204 </r>
       <r>   -1.8998    1.0207 </r>
       <r>   -1.8943    1.0232 </r>
       <r>   -1.8008    0.9457 </r>
       <r>   -1.7644    0.7398 </r>
       <r>   -1.5255   -0.0059 </r>
       <r>   -1.5219   -0.0052 </r>
       <r>   -1.5068   -0.0029 </r>
       <r>   -1.4878   -0.0013 </r>
       <r>   -1.4004   -0.0000 </r>
       <r>   -1.3611   -0.0000 </r>
       <r>   -1.3579   -0.0000 </r>
       <r>   -1.2944   -0.0000 </r>
       <r>   -1.2679   -0.0000 </r>
       <r>   -1.2637   -0.0000 </r>
       <r>   -1.0845   -0.0000 </r>
       <r>   -1.0804   -0.0000 </r>
       <r>   -1.0797   -0.0000 </r>
       <r>   -0.9225   -0.0000 </r>
       <r>   -0.8898   -0.0000 </r>
       <r>   -0.8455   -0.0000 </r>
       <r>   -0.1798   -0.0000 </r>
       <r>    0.5296   -0.0000 </r>
       <r>    0.5371   -0.0000 </r>
       <r>    0.9391    0.0000 </r>
       <r>    0.9575    0.0000 </r>
       <r>    1.0411    0.0000 </r>
       <r>    1.2483    0.0000 </r>
       <r>    1.3346    0.0000 </r>
       <r>    1.3400    0.0000 </r>
       <r>    1.8785    0.0000 </r>
      </set>
      <set comment="kpoint 2">
       <r>  -23.8737    1.0000 </r>
       <r>  -12.4559    1.0000 </r>
       <r>  -10.8829    1.0000 </r>
       <r>   -9.5477    1.0000 </r>
       <r>   -8.6224    1.0000 </r>
       <r>   -8.5544    1.0000 </r>
       <r>   -8.4271    1.0000 </r>
       <r>   -8.3577    1.0000 </r>
       <r>   -8.3214    1.0000 </r>
       <r>   -8.2397    1.0000 </r>
       <r>   -8.1740    1.0000 </r>
       <r>   -8.1251    1.0000 </r>
       <r>   -8.0624    1.0000 </r>
       <r>   -8.0279    1.0000 </r>
       <r>   -8.0114    1.0000 </r>
       <r>   -7.6635    1.0000 </r>
       <r>   -7.6423    1.0000 </r>
       <r>   -7.6184    1.0000 </r>
       <r>   -7.4960    1.0000 </r>
       <r>   -7.4175    1.0000 </r>
       <r>   -7.4063    1.0000 </r>
       <r>   -7.1702    1.0000 </r>
       <r>   -7.1266    1.0000 </r>
       <r>   -6.8517    1.0000 </r>
       <r>   -6.5102    1.0000 </r>
       <r>   -6.4975    1.0000 </r>
       <r>   -6.1072    1.0000 </r>
       <r>   -5.7303    1.0000 </r>
       <r>   -5.7208    1.0000 </r>
       <r>   -5.6629    1.0000 </r>
       <r>   -5.5644    1.0000 </r>
       <r>   -5.5450    1.0000 </r>
       <r>   -5.5171    1.0000 </r>
       <r>   -5.4932    1.0000 </r>
       <r>   -5.3583    1.0000 </r>
       <r>   -5.2966    1.0000 </r>
       <r>   -5.1367    1.0000 </r>
       <r>   -5.0833    1.0000 </r>
       <r>   -4.9871    1.0000 </r>
       <r>   -4.9650    1.0000 </r>
       <r>   -4.8911    1.0000 </r>
       <r>   -4.8678    1.0000 </r>
       <r>   -4.8346    1.0000 </r>
       <r>   -4.7965    1.0000 </r>
       <r>   -4.7707    1.0000 </r>
       <r>   -4.6122    1.0000 </r>
       <r>   -4.5999    1.0000 </r>
       <r>   -4.5062    1.0000 </r>
       <r>   -4.4505    1.0000 </r>
       <r>   -4.3860    1.0000 </r>
       <r>   -4.1751    1.0000 </r>
       <r>   -4.1033    1.0000 </r>
       <r>   -3.8755    1.0000 </r>
       <r>   -3.8315    1.0000 </r>
       <r>   -3.7086    1.0000 </r>
       <r>   -3.6530    1.0000 </r>
       <r>   -3.3600    1.0000 </r>
       <r>   -3.2715    1.0000 </r>
       <r>   -3.0597    1.0000 </r>
       <r>   -3.0005    1.0000 </r>
       <r>   -2.9284    1.0000 </r>
       <r>   -2.8686    1.0000 </r>
       <r>   -2.8203    1.0000 </r>
       <r>   -2.7890    1.0000 </r>
       <r>   -2.7238    1.0000 </r>
       <r>   -2.7075    1.0000 </r>
       <r>   -2.5835    1.0000 </r>
       <r>   -2.5051    1.0000 </r>
       <r>   -2.3796    1.0000 </r>
       <r>   -2.3387    1.0000 </r>
       <r>   -2.3043    1.0000 </r>
       <r>   -2.0447    1.0001 </r>
       <r>   -2.0243    1.0002 </r>
       <r>   -1.9794    1.0015 </r>
       <r>   -1.9721    1.0020 </r>
       <r>   -1.9183    1.0131 </r>
       <r>   -1.8016    0.9488 </r>
       <r>   -1.7764    0.8214 </r>
       <r>   -1.7450    0.5870 </r>
       <r>   -1.7377    0.5259 </r>
       <r>   -1.7086    0.2875 </r>
       <r>   -1.6444   -0.0118 </r>
       <r>   -1.6007   -0.0338 </r>
       <r>   -1.5395   -0.0093 </r>
       <r>   -1.5275   -0.0063 </r>
       <r>   -1.4722   -0.0007 </r>
       <r>   -1.3781   -0.0000 </r>
       <r>   -1.3712   -0.0000 </r>
       <r>   -1.2978   -0.0000 </r>
       <r>   -0.8692   -0.0000 </r>
       <r>   -0.6579   -0.0000 </r>
       <r>   -0.2885   -0.0000 </r>
       <r>   -0.2430   -0.0000 </r>
       <r>   -0.1077   -0.0000 </r>
       <r>    0.4138   -0.0000 </r>
       <r>    0.5032   -0.0000 </r>
       <r>    0.8633   -0.0000 </r>
       <r>    0.8986   -0.0000 </r>
       <r>    1.6837    0.0000 </r>
       <r>    1.9029    0.0000 </r>
       <r>    2.1932    0.0000 </r>
       <r>    2.6118    0.0000 </r>
      </set>
      <set comment="kpoint 3">
       <r>  -23.8737    1.0000 </r>
       <r>  -12.4562    1.0000 </r>
       <r>  -10.8832    1.0000 </r>
       <r>   -9.5482    1.0000 </r>
       <r>   -8.6233    1.0000 </r>
       <r>   -8.5558    1.0000 </r>
       <r>   -8.4410    1.0000 </r>
       <r>   -8.3533    1.0000 </r>
       <r>   -8.3198    1.0000 </r>
       <r>   -8.2329    1.0000 </r>
       <r>   -8.1729    1.0000 </r>
       <r>   -8.1296    1.0000 </r>
       <r>   -8.0629    1.0000 </r>
       <r>   -8.0236    1.0000 </r>
       <r>   -8.0137    1.0000 </r>
       <r>   -7.6652    1.0000 </r>
       <r>   -7.6439    1.0000 </r>
       <r>   -7.6189    1.0000 </r>
       <r>   -7.4923    1.0000 </r>
       <r>   -7.4205    1.0000 </r>
       <r>   -7.4063    1.0000 </r>
       <r>   -7.1709    1.0000 </r>
       <r>   -7.1270    1.0000 </r>
       <r>   -6.8513    1.0000 </r>
       <r>   -6.5057    1.0000 </r>
       <r>   -6.5025    1.0000 </r>
       <r>   -6.1097    1.0000 </r>
       <r>   -5.7525    1.0000 </r>
       <r>   -5.7162    1.0000 </r>
       <r>   -5.6495    1.0000 </r>
       <r>   -5.5597    1.0000 </r>
       <r>   -5.5331    1.0000 </r>
       <r>   -5.5172    1.0000 </r>
       <r>   -5.4899    1.0000 </r>
       <r>   -5.3494    1.0000 </r>
       <r>   -5.2868    1.0000 </r>
       <r>   -5.1374    1.0000 </r>
       <r>   -5.0881    1.0000 </r>
       <r>   -4.9842    1.0000 </r>
       <r>   -4.9669    1.0000 </r>
       <r>   -4.8716    1.0000 </r>
       <r>   -4.8658    1.0000 </r>
       <r>   -4.8364    1.0000 </r>
       <r>   -4.8267    1.0000 </r>
       <r>   -4.7759    1.0000 </r>
       <r>   -4.6110    1.0000 </r>
       <r>   -4.5995    1.0000 </r>
       <r>   -4.5016    1.0000 </r>
       <r>   -4.4452    1.0000 </r>
       <r>   -4.3863    1.0000 </r>
       <r>   -4.1722    1.0000 </r>
       <r>   -4.0930    1.0000 </r>
       <r>   -3.8907    1.0000 </r>
       <r>   -3.8055    1.0000 </r>
       <r>   -3.7156    1.0000 </r>
       <r>   -3.6672    1.0000 </r>
       <r>   -3.3407    1.0000 </r>
       <r>   -3.2825    1.0000 </r>
       <r>   -3.0665    1.0000 </r>
       <r>   -2.9964    1.0000 </r>
       <r>   -2.9322    1.0000 </r>
       <r>   -2.8783    1.0000 </r>
       <r>   -2.8245    1.0000 </r>
       <r>   -2.7784    1.0000 </r>
       <r>   -2.7195    1.0000 </r>
       <r>   -2.7162    1.0000 </r>
       <r>   -2.5834    1.0000 </r>
       <r>   -2.5045    1.0000 </r>
       <r>   -2.3801    1.0000 </r>
       <r>   -2.3245    1.0000 </r>
       <r>   -2.3147    1.0000 </r>
       <r>   -2.0476    1.0000 </r>
       <r>   -2.0323    1.0001 </r>
       <r>   -1.9801    1.0014 </r>
       <r>   -1.9679    1.0024 </r>
       <r>   -1.9154    1.0142 </r>
       <r>   -1.7805    0.8464 </r>
       <r>   -1.7779    0.8310 </r>
       <r>   -1.7413    0.5563 </r>
       <r>   -1.7255    0.4232 </r>
       <r>   -1.6976    0.2090 </r>
       <r>   -1.6548    0.0104 </r>
       <r>   -1.5985   -0.0331 </r>
       <r>   -1.5348   -0.0080 </r>
       <r>   -1.5290   -0.0066 </r>
       <r>   -1.4802   -0.0009 </r>
       <r>   -1.3913   -0.0000 </r>
       <r>   -1.3908   -0.0000 </r>
       <r>   -1.2976   -0.0000 </r>
       <r>   -0.8530   -0.0000 </r>
       <r>   -0.6559   -0.0000 </r>
       <r>   -0.2775   -0.0000 </r>
       <r>   -0.2437   -0.0000 </r>
       <r>   -0.1028   -0.0000 </r>
       <r>    0.3984   -0.0000 </r>
       <r>    0.4876   -0.0000 </r>
       <r>    0.8637   -0.0000 </r>
       <r>    0.8660   -0.0000 </r>
       <r>    1.6727    0.0000 </r>
       <r>    1.9018    0.0000 </r>
       <r>    2.1881    0.0000 </r>
       <r>    2.6111    0.0000 </r>
      </set>
      <set comment="kpoint 4">
       <r>  -23.8735    1.0000 </r>
       <r>  -12.3003    1.0000 </r>
       <r>  -10.3948    1.0000 </r>
       <r>   -9.1327    1.0000 </r>
       <r>   -8.5309    1.0000 </r>
       <r>   -8.3948    1.0000 </r>
       <r>   -8.2652    1.0000 </r>
       <r>   -8.1295    1.0000 </r>
       <r>   -8.0999    1.0000 </r>
       <r>   -7.9949    1.0000 </r>
       <r>   -7.8965    1.0000 </r>
       <r>   -7.8495    1.0000 </r>
       <r>   -7.7448    1.0000 </r>
       <r>   -7.6990    1.0000 </r>
       <r>   -7.6829    1.0000 </r>
       <r>   -7.4744    1.0000 </r>
       <r>   -7.3831    1.0000 </r>
       <r>   -7.3544    1.0000 </r>
       <r>   -7.2870    1.0000 </r>
       <r>   -7.0631    1.0000 </r>
       <r>   -7.0390    1.0000 </r>
       <r>   -6.9766    1.0000 </r>
       <r>   -6.8024    1.0000 </r>
       <r>   -6.6763    1.0000 </r>
       <r>   -6.4379    1.0000 </r>
       <r>   -6.3913    1.0000 </r>
       <r>   -6.1710    1.0000 </r>
       <r>   -5.9547    1.0000 </r>
       <r>   -5.8628    1.0000 </r>
       <r>   -5.8160    1.0000 </r>
       <r>   -5.7199    1.0000 </r>
       <r>   -5.6492    1.0000 </r>
       <r>   -5.5965    1.0000 </r>
       <r>   -5.3966    1.0000 </r>
       <r>   -5.3550    1.0000 </r>
       <r>   -5.2988    1.0000 </r>
       <r>   -5.1915    1.0000 </r>
       <r>   -5.1353    1.0000 </r>
       <r>   -5.0169    1.0000 </r>
       <r>   -4.9793    1.0000 </r>
       <r>   -4.9350    1.0000 </r>
       <r>   -4.9049    1.0000 </r>
       <r>   -4.8423    1.0000 </r>
       <r>   -4.8066    1.0000 </r>
       <r>   -4.7777    1.0000 </r>
       <r>   -4.7553    1.0000 </r>
       <r>   -4.7072    1.0000 </r>
       <r>   -4.6430    1.0000 </r>
       <r>   -4.5784    1.0000 </r>
       <r>   -4.5369    1.0000 </r>
       <r>   -4.3815    1.0000 </r>
       <r>   -4.2669    1.0000 </r>
       <r>   -4.2595    1.0000 </r>
       <r>   -3.9092    1.0000 </r>
       <r>   -3.8759    1.0000 </r>
       <r>   -3.7999    1.0000 </r>
       <r>   -3.7785    1.0000 </r>
       <r>   -3.6788    1.0000 </r>
       <r>   -3.5818    1.0000 </r>
       <r>   -3.5218    1.0000 </r>
       <r>   -3.4657    1.0000 </r>
       <r>   -3.4191    1.0000 </r>
       <r>   -3.4037    1.0000 </r>
       <r>   -3.2546    1.0000 </r>
       <r>   -3.1322    1.0000 </r>
       <r>   -3.1076    1.0000 </r>
       <r>   -3.0351    1.0000 </r>
       <r>   -2.9449    1.0000 </r>
       <r>   -2.8705    1.0000 </r>
       <r>   -2.6567    1.0000 </r>
       <r>   -2.6357    1.0000 </r>
       <r>   -2.5769    1.0000 </r>
       <r>   -2.5232    1.0000 </r>
       <r>   -2.5092    1.0000 </r>
       <r>   -2.4052    1.0000 </r>
       <r>   -2.3778    1.0000 </r>
       <r>   -2.2973    1.0000 </r>
       <r>   -2.2400    1.0000 </r>
       <r>   -2.2069    1.0000 </r>
       <r>   -2.1381    1.0000 </r>
       <r>   -2.0743    1.0000 </r>
       <r>   -2.0259    1.0002 </r>
       <r>   -1.9300    1.0093 </r>
       <r>   -1.7793    0.8393 </r>
       <r>   -1.7658    0.7500 </r>
       <r>   -1.7330    0.4866 </r>
       <r>   -1.6350   -0.0248 </r>
       <r>   -1.4744   -0.0007 </r>
       <r>   -1.4204   -0.0000 </r>
       <r>   -1.1047   -0.0000 </r>
       <r>   -0.8321   -0.0000 </r>
       <r>    0.0498   -0.0000 </r>
       <r>    0.1556   -0.0000 </r>
       <r>    0.3900   -0.0000 </r>
       <r>    0.4909   -0.0000 </r>
       <r>    0.8407   -0.0000 </r>
       <r>    1.1750    0.0000 </r>
       <r>    1.1862    0.0000 </r>
       <r>    1.5316    0.0000 </r>
       <r>    2.4510    0.0000 </r>
       <r>    2.5981    0.0000 </r>
       <r>    3.1857    0.0000 </r>
      </set>
      <set comment="kpoint 5">
       <r>  -23.8735    1.0000 </r>
       <r>  -12.3013    1.0000 </r>
       <r>  -10.3964    1.0000 </r>
       <r>   -9.1341    1.0000 </r>
       <r>   -8.5494    1.0000 </r>
       <r>   -8.3989    1.0000 </r>
       <r>   -8.2555    1.0000 </r>
       <r>   -8.1314    1.0000 </r>
       <r>   -8.1039    1.0000 </r>
       <r>   -7.9964    1.0000 </r>
       <r>   -7.8949    1.0000 </r>
       <r>   -7.8495    1.0000 </r>
       <r>   -7.7505    1.0000 </r>
       <r>   -7.6976    1.0000 </r>
       <r>   -7.6861    1.0000 </r>
       <r>   -7.4779    1.0000 </r>
       <r>   -7.3876    1.0000 </r>
       <r>   -7.3578    1.0000 </r>
       <r>   -7.2838    1.0000 </r>
       <r>   -7.0684    1.0000 </r>
       <r>   -7.0391    1.0000 </r>
       <r>   -6.9809    1.0000 </r>
       <r>   -6.8032    1.0000 </r>
       <r>   -6.6737    1.0000 </r>
       <r>   -6.4288    1.0000 </r>
       <r>   -6.3974    1.0000 </r>
       <r>   -6.1682    1.0000 </r>
       <r>   -5.9286    1.0000 </r>
       <r>   -5.8886    1.0000 </r>
       <r>   -5.8212    1.0000 </r>
       <r>   -5.7226    1.0000 </r>
       <r>   -5.6274    1.0000 </r>
       <r>   -5.5829    1.0000 </r>
       <r>   -5.3451    1.0000 </r>
       <r>   -5.3436    1.0000 </r>
       <r>   -5.2796    1.0000 </r>
       <r>   -5.1809    1.0000 </r>
       <r>   -5.1204    1.0000 </r>
       <r>   -5.0204    1.0000 </r>
       <r>   -5.0121    1.0000 </r>
       <r>   -4.9416    1.0000 </r>
       <r>   -4.9112    1.0000 </r>
       <r>   -4.8422    1.0000 </r>
       <r>   -4.8046    1.0000 </r>
       <r>   -4.7741    1.0000 </r>
       <r>   -4.7682    1.0000 </r>
       <r>   -4.7347    1.0000 </r>
       <r>   -4.6595    1.0000 </r>
       <r>   -4.5677    1.0000 </r>
       <r>   -4.5174    1.0000 </r>
       <r>   -4.3750    1.0000 </r>
       <r>   -4.2603    1.0000 </r>
       <r>   -4.2207    1.0000 </r>
       <r>   -3.9128    1.0000 </r>
       <r>   -3.8832    1.0000 </r>
       <r>   -3.8057    1.0000 </r>
       <r>   -3.7534    1.0000 </r>
       <r>   -3.6841    1.0000 </r>
       <r>   -3.5709    1.0000 </r>
       <r>   -3.5284    1.0000 </r>
       <r>   -3.4842    1.0000 </r>
       <r>   -3.4193    1.0000 </r>
       <r>   -3.4170    1.0000 </r>
       <r>   -3.2512    1.0000 </r>
       <r>   -3.1185    1.0000 </r>
       <r>   -3.1081    1.0000 </r>
       <r>   -3.0272    1.0000 </r>
       <r>   -2.9602    1.0000 </r>
       <r>   -2.8822    1.0000 </r>
       <r>   -2.6470    1.0000 </r>
       <r>   -2.6429    1.0000 </r>
       <r>   -2.5868    1.0000 </r>
       <r>   -2.5215    1.0000 </r>
       <r>   -2.5111    1.0000 </r>
       <r>   -2.4035    1.0000 </r>
       <r>   -2.3691    1.0000 </r>
       <r>   -2.2894    1.0000 </r>
       <r>   -2.2317    1.0000 </r>
       <r>   -2.2143    1.0000 </r>
       <r>   -2.1237    1.0000 </r>
       <r>   -2.0666    1.0000 </r>
       <r>   -2.0257    1.0002 </r>
       <r>   -1.9292    1.0095 </r>
       <r>   -1.7719    0.7926 </r>
       <r>   -1.7503    0.6307 </r>
       <r>   -1.7212    0.3873 </r>
       <r>   -1.6244   -0.0327 </r>
       <r>   -1.5005   -0.0023 </r>
       <r>   -1.4480   -0.0002 </r>
       <r>   -1.1319   -0.0000 </r>
       <r>   -0.8539   -0.0000 </r>
       <r>    0.0462   -0.0000 </r>
       <r>    0.1583   -0.0000 </r>
       <r>    0.3807   -0.0000 </r>
       <r>    0.4762   -0.0000 </r>
       <r>    0.8162   -0.0000 </r>
       <r>    1.1573    0.0000 </r>
       <r>    1.1734    0.0000 </r>
       <r>    1.5239    0.0000 </r>
       <r>    2.4307    0.0000 </r>
       <r>    2.6028    0.0000 </r>
       <r>    3.1959    0.0000 </r>
      </set>
      <set comment="kpoint 6">
       <r>  -23.8735    1.0000 </r>
       <r>  -12.1708    1.0000 </r>
       <r>   -9.6803    1.0000 </r>
       <r>   -8.9599    1.0000 </r>
       <r>   -8.6773    1.0000 </r>
       <r>   -8.3363    1.0000 </r>
       <r>   -8.1235    1.0000 </r>
       <r>   -7.9709    1.0000 </r>
       <r>   -7.9062    1.0000 </r>
       <r>   -7.5806    1.0000 </r>
       <r>   -7.4818    1.0000 </r>
       <r>   -7.4625    1.0000 </r>
       <r>   -7.4429    1.0000 </r>
       <r>   -7.3733    1.0000 </r>
       <r>   -7.3617    1.0000 </r>
       <r>   -7.2183    1.0000 </r>
       <r>   -7.0052    1.0000 </r>
       <r>   -6.9718    1.0000 </r>
       <r>   -6.9228    1.0000 </r>
       <r>   -6.8146    1.0000 </r>
       <r>   -6.7489    1.0000 </r>
       <r>   -6.6657    1.0000 </r>
       <r>   -6.4500    1.0000 </r>
       <r>   -6.3866    1.0000 </r>
       <r>   -6.3832    1.0000 </r>
       <r>   -6.2256    1.0000 </r>
       <r>   -6.1927    1.0000 </r>
       <r>   -6.1378    1.0000 </r>
       <r>   -6.0166    1.0000 </r>
       <r>   -5.9957    1.0000 </r>
       <r>   -5.9746    1.0000 </r>
       <r>   -5.8194    1.0000 </r>
       <r>   -5.6545    1.0000 </r>
       <r>   -5.6196    1.0000 </r>
       <r>   -5.6088    1.0000 </r>
       <r>   -5.4839    1.0000 </r>
       <r>   -5.3948    1.0000 </r>
       <r>   -5.3313    1.0000 </r>
       <r>   -5.3219    1.0000 </r>
       <r>   -5.2109    1.0000 </r>
       <r>   -5.0990    1.0000 </r>
       <r>   -5.0366    1.0000 </r>
       <r>   -4.9281    1.0000 </r>
       <r>   -4.8278    1.0000 </r>
       <r>   -4.7273    1.0000 </r>
       <r>   -4.7132    1.0000 </r>
       <r>   -4.6905    1.0000 </r>
       <r>   -4.6181    1.0000 </r>
       <r>   -4.5907    1.0000 </r>
       <r>   -4.5303    1.0000 </r>
       <r>   -4.5021    1.0000 </r>
       <r>   -4.4668    1.0000 </r>
       <r>   -4.4307    1.0000 </r>
       <r>   -4.3802    1.0000 </r>
       <r>   -4.3307    1.0000 </r>
       <r>   -4.1777    1.0000 </r>
       <r>   -4.1621    1.0000 </r>
       <r>   -4.0071    1.0000 </r>
       <r>   -3.9515    1.0000 </r>
       <r>   -3.8844    1.0000 </r>
       <r>   -3.8185    1.0000 </r>
       <r>   -3.8030    1.0000 </r>
       <r>   -3.7211    1.0000 </r>
       <r>   -3.4991    1.0000 </r>
       <r>   -3.4487    1.0000 </r>
       <r>   -3.3715    1.0000 </r>
       <r>   -3.3156    1.0000 </r>
       <r>   -3.2946    1.0000 </r>
       <r>   -3.1804    1.0000 </r>
       <r>   -3.1420    1.0000 </r>
       <r>   -3.0978    1.0000 </r>
       <r>   -3.0147    1.0000 </r>
       <r>   -2.9397    1.0000 </r>
       <r>   -2.9225    1.0000 </r>
       <r>   -2.8650    1.0000 </r>
       <r>   -2.8424    1.0000 </r>
       <r>   -2.8001    1.0000 </r>
       <r>   -2.6114    1.0000 </r>
       <r>   -2.4302    1.0000 </r>
       <r>   -2.2438    1.0000 </r>
       <r>   -2.1795    1.0000 </r>
       <r>   -2.1447    1.0000 </r>
       <r>   -1.9423    1.0062 </r>
       <r>   -1.7623    0.7248 </r>
       <r>   -1.7514    0.6394 </r>
       <r>   -1.7385    0.5328 </r>
       <r>   -1.6723    0.0699 </r>
       <r>   -1.4961   -0.0019 </r>
       <r>   -1.4090   -0.0000 </r>
       <r>   -1.3603   -0.0000 </r>
       <r>   -0.4145   -0.0000 </r>
       <r>    0.2717   -0.0000 </r>
       <r>    0.3021   -0.0000 </r>
       <r>    0.4821   -0.0000 </r>
       <r>    0.5511   -0.0000 </r>
       <r>    0.8333   -0.0000 </r>
       <r>    1.3765    0.0000 </r>
       <r>    1.5178    0.0000 </r>
       <r>    1.9293    0.0000 </r>
       <r>    2.5669    0.0000 </r>
       <r>    2.9338    0.0000 </r>
       <r>    3.2661    0.0000 </r>
      </set>
      <set comment="kpoint 7">
       <r>  -23.8735    1.0000 </r>
       <r>  -12.1724    1.0000 </r>
       <r>   -9.6853    1.0000 </r>
       <r>   -8.9723    1.0000 </r>
       <r>   -8.6753    1.0000 </r>
       <r>   -8.3332    1.0000 </r>
       <r>   -8.1239    1.0000 </r>
       <r>   -7.9781    1.0000 </r>
       <r>   -7.9100    1.0000 </r>
       <r>   -7.5903    1.0000 </r>
       <r>   -7.4893    1.0000 </r>
       <r>   -7.4723    1.0000 </r>
       <r>   -7.4564    1.0000 </r>
       <r>   -7.3845    1.0000 </r>
       <r>   -7.3768    1.0000 </r>
       <r>   -7.2352    1.0000 </r>
       <r>   -7.0082    1.0000 </r>
       <r>   -6.9622    1.0000 </r>
       <r>   -6.9135    1.0000 </r>
       <r>   -6.8197    1.0000 </r>
       <r>   -6.7481    1.0000 </r>
       <r>   -6.6686    1.0000 </r>
       <r>   -6.4335    1.0000 </r>
       <r>   -6.3879    1.0000 </r>
       <r>   -6.3764    1.0000 </r>
       <r>   -6.2239    1.0000 </r>
       <r>   -6.1743    1.0000 </r>
       <r>   -6.1321    1.0000 </r>
       <r>   -6.0184    1.0000 </r>
       <r>   -6.0039    1.0000 </r>
       <r>   -5.9713    1.0000 </r>
       <r>   -5.8081    1.0000 </r>
       <r>   -5.6432    1.0000 </r>
       <r>   -5.5918    1.0000 </r>
       <r>   -5.5818    1.0000 </r>
       <r>   -5.4634    1.0000 </r>
       <r>   -5.3815    1.0000 </r>
       <r>   -5.3195    1.0000 </r>
       <r>   -5.3004    1.0000 </r>
       <r>   -5.1985    1.0000 </r>
       <r>   -5.0914    1.0000 </r>
       <r>   -5.0208    1.0000 </r>
       <r>   -4.9429    1.0000 </r>
       <r>   -4.8487    1.0000 </r>
       <r>   -4.7163    1.0000 </r>
       <r>   -4.7076    1.0000 </r>
       <r>   -4.6784    1.0000 </r>
       <r>   -4.6020    1.0000 </r>
       <r>   -4.5681    1.0000 </r>
       <r>   -4.5658    1.0000 </r>
       <r>   -4.4998    1.0000 </r>
       <r>   -4.4987    1.0000 </r>
       <r>   -4.4337    1.0000 </r>
       <r>   -4.3764    1.0000 </r>
       <r>   -4.3275    1.0000 </r>
       <r>   -4.1623    1.0000 </r>
       <r>   -4.1566    1.0000 </r>
       <r>   -4.0122    1.0000 </r>
       <r>   -3.9576    1.0000 </r>
       <r>   -3.8847    1.0000 </r>
       <r>   -3.8157    1.0000 </r>
       <r>   -3.8090    1.0000 </r>
       <r>   -3.7143    1.0000 </r>
       <r>   -3.5076    1.0000 </r>
       <r>   -3.4474    1.0000 </r>
       <r>   -3.3717    1.0000 </r>
       <r>   -3.3225    1.0000 </r>
       <r>   -3.2845    1.0000 </r>
       <r>   -3.1810    1.0000 </r>
       <r>   -3.1403    1.0000 </r>
       <r>   -3.0817    1.0000 </r>
       <r>   -3.0101    1.0000 </r>
       <r>   -2.9434    1.0000 </r>
       <r>   -2.9347    1.0000 </r>
       <r>   -2.8799    1.0000 </r>
       <r>   -2.8305    1.0000 </r>
       <r>   -2.8005    1.0000 </r>
       <r>   -2.6082    1.0000 </r>
       <r>   -2.4359    1.0000 </r>
       <r>   -2.2601    1.0000 </r>
       <r>   -2.1653    1.0000 </r>
       <r>   -2.1415    1.0000 </r>
       <r>   -1.9525    1.0043 </r>
       <r>   -1.7480    0.6121 </r>
       <r>   -1.7448    0.5859 </r>
       <r>   -1.7303    0.4636 </r>
       <r>   -1.6521    0.0039 </r>
       <r>   -1.5159   -0.0042 </r>
       <r>   -1.4402   -0.0001 </r>
       <r>   -1.3908   -0.0000 </r>
       <r>   -0.4539   -0.0000 </r>
       <r>    0.2528   -0.0000 </r>
       <r>    0.2979   -0.0000 </r>
       <r>    0.4698   -0.0000 </r>
       <r>    0.5415   -0.0000 </r>
       <r>    0.8166   -0.0000 </r>
       <r>    1.3733    0.0000 </r>
       <r>    1.5143    0.0000 </r>
       <r>    1.9122    0.0000 </r>
       <r>    2.5344    0.0000 </r>
       <r>    2.9458    0.0000 </r>
       <r>    3.2556    0.0000 </r>
      </set>
      <set comment="kpoint 8">
       <r>  -23.8738    1.0000 </r>
       <r>  -12.3440    1.0000 </r>
       <r>  -10.5520    1.0000 </r>
       <r>   -9.2577    1.0000 </r>
       <r>   -8.4942    1.0000 </r>
       <r>   -8.3343    1.0000 </r>
       <r>   -8.2808    1.0000 </r>
       <r>   -8.2391    1.0000 </r>
       <r>   -8.2070    1.0000 </r>
       <r>   -8.1478    1.0000 </r>
       <r>   -7.9860    1.0000 </r>
       <r>   -7.9295    1.0000 </r>
       <r>   -7.8951    1.0000 </r>
       <r>   -7.7906    1.0000 </r>
       <r>   -7.7474    1.0000 </r>
       <r>   -7.5074    1.0000 </r>
       <r>   -7.4783    1.0000 </r>
       <r>   -7.4440    1.0000 </r>
       <r>   -7.3120    1.0000 </r>
       <r>   -7.2937    1.0000 </r>
       <r>   -7.0589    1.0000 </r>
       <r>   -7.0499    1.0000 </r>
       <r>   -6.9313    1.0000 </r>
       <r>   -6.7301    1.0000 </r>
       <r>   -6.4511    1.0000 </r>
       <r>   -6.4373    1.0000 </r>
       <r>   -6.1438    1.0000 </r>
       <r>   -5.8839    1.0000 </r>
       <r>   -5.8353    1.0000 </r>
       <r>   -5.7234    1.0000 </r>
       <r>   -5.6800    1.0000 </r>
       <r>   -5.5959    1.0000 </r>
       <r>   -5.5515    1.0000 </r>
       <r>   -5.4193    1.0000 </r>
       <r>   -5.3771    1.0000 </r>
       <r>   -5.3439    1.0000 </r>
       <r>   -5.1586    1.0000 </r>
       <r>   -5.1002    1.0000 </r>
       <r>   -4.9688    1.0000 </r>
       <r>   -4.9439    1.0000 </r>
       <r>   -4.9187    1.0000 </r>
       <r>   -4.8754    1.0000 </r>
       <r>   -4.8435    1.0000 </r>
       <r>   -4.7985    1.0000 </r>
       <r>   -4.7414    1.0000 </r>
       <r>   -4.7171    1.0000 </r>
       <r>   -4.7013    1.0000 </r>
       <r>   -4.6842    1.0000 </r>
       <r>   -4.5533    1.0000 </r>
       <r>   -4.4806    1.0000 </r>
       <r>   -4.3552    1.0000 </r>
       <r>   -4.3071    1.0000 </r>
       <r>   -4.2215    1.0000 </r>
       <r>   -3.8516    1.0000 </r>
       <r>   -3.8092    1.0000 </r>
       <r>   -3.7279    1.0000 </r>
       <r>   -3.5907    1.0000 </r>
       <r>   -3.5091    1.0000 </r>
       <r>   -3.4448    1.0000 </r>
       <r>   -3.4074    1.0000 </r>
       <r>   -3.3179    1.0000 </r>
       <r>   -3.1931    1.0000 </r>
       <r>   -3.1663    1.0000 </r>
       <r>   -3.1116    1.0000 </r>
       <r>   -3.0140    1.0000 </r>
       <r>   -2.9932    1.0000 </r>
       <r>   -2.9307    1.0000 </r>
       <r>   -2.8669    1.0000 </r>
       <r>   -2.7437    1.0000 </r>
       <r>   -2.6653    1.0000 </r>
       <r>   -2.5411    1.0000 </r>
       <r>   -2.4515    1.0000 </r>
       <r>   -2.3799    1.0000 </r>
       <r>   -2.3587    1.0000 </r>
       <r>   -2.3318    1.0000 </r>
       <r>   -2.2226    1.0000 </r>
       <r>   -2.1512    1.0000 </r>
       <r>   -2.1044    1.0000 </r>
       <r>   -2.0448    1.0001 </r>
       <r>   -1.9416    1.0063 </r>
       <r>   -1.8811    1.0292 </r>
       <r>   -1.8402    1.0300 </r>
       <r>   -1.8338    1.0243 </r>
       <r>   -1.7914    0.9052 </r>
       <r>   -1.5890   -0.0296 </r>
       <r>   -1.5737   -0.0226 </r>
       <r>   -1.5289   -0.0066 </r>
       <r>   -1.3103   -0.0000 </r>
       <r>   -1.2011   -0.0000 </r>
       <r>   -1.0804   -0.0000 </r>
       <r>   -0.9095   -0.0000 </r>
       <r>   -0.8526   -0.0000 </r>
       <r>   -0.3064   -0.0000 </r>
       <r>   -0.0587   -0.0000 </r>
       <r>    0.3068   -0.0000 </r>
       <r>    1.0356    0.0000 </r>
       <r>    1.4807    0.0000 </r>
       <r>    1.6583    0.0000 </r>
       <r>    1.8920    0.0000 </r>
       <r>    2.0934    0.0000 </r>
       <r>    2.4538    0.0000 </r>
       <r>    2.5516    0.0000 </r>
      </set>
      <set comment="kpoint 9">
       <r>  -23.8738    1.0000 </r>
       <r>  -12.3447    1.0000 </r>
       <r>  -10.5529    1.0000 </r>
       <r>   -9.2589    1.0000 </r>
       <r>   -8.4978    1.0000 </r>
       <r>   -8.3403    1.0000 </r>
       <r>   -8.2898    1.0000 </r>
       <r>   -8.2422    1.0000 </r>
       <r>   -8.2051    1.0000 </r>
       <r>   -8.1469    1.0000 </r>
       <r>   -7.9829    1.0000 </r>
       <r>   -7.9288    1.0000 </r>
       <r>   -7.8913    1.0000 </r>
       <r>   -7.7928    1.0000 </r>
       <r>   -7.7508    1.0000 </r>
       <r>   -7.5105    1.0000 </r>
       <r>   -7.4827    1.0000 </r>
       <r>   -7.4425    1.0000 </r>
       <r>   -7.3144    1.0000 </r>
       <r>   -7.2914    1.0000 </r>
       <r>   -7.0598    1.0000 </r>
       <r>   -7.0525    1.0000 </r>
       <r>   -6.9341    1.0000 </r>
       <r>   -6.7282    1.0000 </r>
       <r>   -6.4493    1.0000 </r>
       <r>   -6.4383    1.0000 </r>
       <r>   -6.1433    1.0000 </r>
       <r>   -5.8863    1.0000 </r>
       <r>   -5.8314    1.0000 </r>
       <r>   -5.7362    1.0000 </r>
       <r>   -5.6827    1.0000 </r>
       <r>   -5.5868    1.0000 </r>
       <r>   -5.5479    1.0000 </r>
       <r>   -5.4202    1.0000 </r>
       <r>   -5.3428    1.0000 </r>
       <r>   -5.3166    1.0000 </r>
       <r>   -5.1481    1.0000 </r>
       <r>   -5.0970    1.0000 </r>
       <r>   -4.9662    1.0000 </r>
       <r>   -4.9449    1.0000 </r>
       <r>   -4.9299    1.0000 </r>
       <r>   -4.8803    1.0000 </r>
       <r>   -4.8539    1.0000 </r>
       <r>   -4.8008    1.0000 </r>
       <r>   -4.7318    1.0000 </r>
       <r>   -4.7147    1.0000 </r>
       <r>   -4.7007    1.0000 </r>
       <r>   -4.6792    1.0000 </r>
       <r>   -4.5493    1.0000 </r>
       <r>   -4.4832    1.0000 </r>
       <r>   -4.3548    1.0000 </r>
       <r>   -4.2872    1.0000 </r>
       <r>   -4.2009    1.0000 </r>
       <r>   -3.8578    1.0000 </r>
       <r>   -3.8228    1.0000 </r>
       <r>   -3.7411    1.0000 </r>
       <r>   -3.5597    1.0000 </r>
       <r>   -3.5148    1.0000 </r>
       <r>   -3.4437    1.0000 </r>
       <r>   -3.4050    1.0000 </r>
       <r>   -3.3212    1.0000 </r>
       <r>   -3.1999    1.0000 </r>
       <r>   -3.1722    1.0000 </r>
       <r>   -3.1182    1.0000 </r>
       <r>   -3.0334    1.0000 </r>
       <r>   -2.9944    1.0000 </r>
       <r>   -2.9328    1.0000 </r>
       <r>   -2.8736    1.0000 </r>
       <r>   -2.7277    1.0000 </r>
       <r>   -2.6688    1.0000 </r>
       <r>   -2.5560    1.0000 </r>
       <r>   -2.4572    1.0000 </r>
       <r>   -2.3727    1.0000 </r>
       <r>   -2.3528    1.0000 </r>
       <r>   -2.3210    1.0000 </r>
       <r>   -2.2164    1.0000 </r>
       <r>   -2.1468    1.0000 </r>
       <r>   -2.1036    1.0000 </r>
       <r>   -2.0379    1.0001 </r>
       <r>   -1.9413    1.0064 </r>
       <r>   -1.8663    1.0343 </r>
       <r>   -1.8395    1.0294 </r>
       <r>   -1.8151    0.9913 </r>
       <r>   -1.7923    0.9095 </r>
       <r>   -1.6156   -0.0353 </r>
       <r>   -1.5959   -0.0322 </r>
       <r>   -1.5413   -0.0099 </r>
       <r>   -1.3228   -0.0000 </r>
       <r>   -1.2001   -0.0000 </r>
       <r>   -1.0828   -0.0000 </r>
       <r>   -0.9062   -0.0000 </r>
       <r>   -0.8583   -0.0000 </r>
       <r>   -0.2983   -0.0000 </r>
       <r>   -0.0530   -0.0000 </r>
       <r>    0.2957   -0.0000 </r>
       <r>    1.0416    0.0000 </r>
       <r>    1.4624    0.0000 </r>
       <r>    1.6615    0.0000 </r>
       <r>    1.8843    0.0000 </r>
       <r>    2.0449    0.0000 </r>
       <r>    2.4459    0.0000 </r>
       <r>    2.5180    0.0000 </r>
      </set>
      <set comment="kpoint 10">
       <r>  -23.8736    1.0000 </r>
       <r>  -12.2000    1.0000 </r>
       <r>   -9.9394    1.0000 </r>
       <r>   -8.8157    1.0000 </r>
       <r>   -8.5469    1.0000 </r>
       <r>   -8.2822    1.0000 </r>
       <r>   -8.2034    1.0000 </r>
       <r>   -8.0434    1.0000 </r>
       <r>   -7.9419    1.0000 </r>
       <r>   -7.8190    1.0000 </r>
       <r>   -7.6880    1.0000 </r>
       <r>   -7.5977    1.0000 </r>
       <r>   -7.4642    1.0000 </r>
       <r>   -7.4268    1.0000 </r>
       <r>   -7.3954    1.0000 </r>
       <r>   -7.2742    1.0000 </r>
       <r>   -7.1583    1.0000 </r>
       <r>   -7.0736    1.0000 </r>
       <r>   -7.0160    1.0000 </r>
       <r>   -6.9716    1.0000 </r>
       <r>   -6.8212    1.0000 </r>
       <r>   -6.6632    1.0000 </r>
       <r>   -6.5909    1.0000 </r>
       <r>   -6.4533    1.0000 </r>
       <r>   -6.3395    1.0000 </r>
       <r>   -6.2927    1.0000 </r>
       <r>   -6.2242    1.0000 </r>
       <r>   -6.1246    1.0000 </r>
       <r>   -6.0917    1.0000 </r>
       <r>   -5.9734    1.0000 </r>
       <r>   -5.8480    1.0000 </r>
       <r>   -5.7987    1.0000 </r>
       <r>   -5.6455    1.0000 </r>
       <r>   -5.5228    1.0000 </r>
       <r>   -5.4709    1.0000 </r>
       <r>   -5.4506    1.0000 </r>
       <r>   -5.3642    1.0000 </r>
       <r>   -5.2777    1.0000 </r>
       <r>   -5.1946    1.0000 </r>
       <r>   -5.1460    1.0000 </r>
       <r>   -5.1208    1.0000 </r>
       <r>   -5.0708    1.0000 </r>
       <r>   -4.9811    1.0000 </r>
       <r>   -4.9002    1.0000 </r>
       <r>   -4.8431    1.0000 </r>
       <r>   -4.7887    1.0000 </r>
       <r>   -4.7276    1.0000 </r>
       <r>   -4.6196    1.0000 </r>
       <r>   -4.5353    1.0000 </r>
       <r>   -4.4812    1.0000 </r>
       <r>   -4.4382    1.0000 </r>
       <r>   -4.3482    1.0000 </r>
       <r>   -4.2875    1.0000 </r>
       <r>   -4.2385    1.0000 </r>
       <r>   -4.1770    1.0000 </r>
       <r>   -4.0648    1.0000 </r>
       <r>   -4.0085    1.0000 </r>
       <r>   -3.9711    1.0000 </r>
       <r>   -3.9186    1.0000 </r>
       <r>   -3.8549    1.0000 </r>
       <r>   -3.7939    1.0000 </r>
       <r>   -3.7557    1.0000 </r>
       <r>   -3.6663    1.0000 </r>
       <r>   -3.5040    1.0000 </r>
       <r>   -3.3605    1.0000 </r>
       <r>   -3.3040    1.0000 </r>
       <r>   -3.2402    1.0000 </r>
       <r>   -3.1710    1.0000 </r>
       <r>   -3.0571    1.0000 </r>
       <r>   -2.9992    1.0000 </r>
       <r>   -2.9029    1.0000 </r>
       <r>   -2.8367    1.0000 </r>
       <r>   -2.8049    1.0000 </r>
       <r>   -2.7458    1.0000 </r>
       <r>   -2.5803    1.0000 </r>
       <r>   -2.5260    1.0000 </r>
       <r>   -2.4110    1.0000 </r>
       <r>   -2.3072    1.0000 </r>
       <r>   -2.2076    1.0000 </r>
       <r>   -2.1138    1.0000 </r>
       <r>   -2.0696    1.0000 </r>
       <r>   -1.9942    1.0007 </r>
       <r>   -1.9271    1.0101 </r>
       <r>   -1.9044    1.0187 </r>
       <r>   -1.8538    1.0353 </r>
       <r>   -1.7885    0.8907 </r>
       <r>   -1.7268    0.4340 </r>
       <r>   -1.5945   -0.0317 </r>
       <r>   -1.5720   -0.0219 </r>
       <r>   -1.1064   -0.0000 </r>
       <r>   -0.8969   -0.0000 </r>
       <r>   -0.7773   -0.0000 </r>
       <r>   -0.4005   -0.0000 </r>
       <r>    0.0220   -0.0000 </r>
       <r>    0.8421   -0.0000 </r>
       <r>    1.2345    0.0000 </r>
       <r>    1.6571    0.0000 </r>
       <r>    1.7706    0.0000 </r>
       <r>    2.1258    0.0000 </r>
       <r>    2.4395    0.0000 </r>
       <r>    2.9175    0.0000 </r>
       <r>    3.3699    0.0000 </r>
      </set>
      <set comment="kpoint 11">
       <r>  -23.8736    1.0000 </r>
       <r>  -12.2005    1.0000 </r>
       <r>   -9.9408    1.0000 </r>
       <r>   -8.8164    1.0000 </r>
       <r>   -8.5474    1.0000 </r>
       <r>   -8.2840    1.0000 </r>
       <r>   -8.2055    1.0000 </r>
       <r>   -8.0508    1.0000 </r>
       <r>   -7.9465    1.0000 </r>
       <r>   -7.8178    1.0000 </r>
       <r>   -7.6907    1.0000 </r>
       <r>   -7.5852    1.0000 </r>
       <r>   -7.4677    1.0000 </r>
       <r>   -7.4355    1.0000 </r>
       <r>   -7.3968    1.0000 </r>
       <r>   -7.2794    1.0000 </r>
       <r>   -7.1649    1.0000 </r>
       <r>   -7.0769    1.0000 </r>
       <r>   -7.0142    1.0000 </r>
       <r>   -6.9720    1.0000 </r>
       <r>   -6.8213    1.0000 </r>
       <r>   -6.6602    1.0000 </r>
       <r>   -6.5994    1.0000 </r>
       <r>   -6.4502    1.0000 </r>
       <r>   -6.3414    1.0000 </r>
       <r>   -6.2859    1.0000 </r>
       <r>   -6.2228    1.0000 </r>
       <r>   -6.1250    1.0000 </r>
       <r>   -6.0849    1.0000 </r>
       <r>   -5.9603    1.0000 </r>
       <r>   -5.8561    1.0000 </r>
       <r>   -5.8056    1.0000 </r>
       <r>   -5.6640    1.0000 </r>
       <r>   -5.5264    1.0000 </r>
       <r>   -5.4729    1.0000 </r>
       <r>   -5.4596    1.0000 </r>
       <r>   -5.3598    1.0000 </r>
       <r>   -5.2527    1.0000 </r>
       <r>   -5.1673    1.0000 </r>
       <r>   -5.1212    1.0000 </r>
       <r>   -5.1077    1.0000 </r>
       <r>   -5.0531    1.0000 </r>
       <r>   -4.9773    1.0000 </r>
       <r>   -4.8847    1.0000 </r>
       <r>   -4.8263    1.0000 </r>
       <r>   -4.7910    1.0000 </r>
       <r>   -4.7307    1.0000 </r>
       <r>   -4.5982    1.0000 </r>
       <r>   -4.5569    1.0000 </r>
       <r>   -4.4984    1.0000 </r>
       <r>   -4.4330    1.0000 </r>
       <r>   -4.3396    1.0000 </r>
       <r>   -4.2875    1.0000 </r>
       <r>   -4.2338    1.0000 </r>
       <r>   -4.1720    1.0000 </r>
       <r>   -4.0642    1.0000 </r>
       <r>   -4.0212    1.0000 </r>
       <r>   -3.9618    1.0000 </r>
       <r>   -3.9209    1.0000 </r>
       <r>   -3.8618    1.0000 </r>
       <r>   -3.7990    1.0000 </r>
       <r>   -3.7544    1.0000 </r>
       <r>   -3.6727    1.0000 </r>
       <r>   -3.5032    1.0000 </r>
       <r>   -3.3754    1.0000 </r>
       <r>   -3.3210    1.0000 </r>
       <r>   -3.2445    1.0000 </r>
       <r>   -3.1840    1.0000 </r>
       <r>   -3.0775    1.0000 </r>
       <r>   -3.0140    1.0000 </r>
       <r>   -2.8778    1.0000 </r>
       <r>   -2.8277    1.0000 </r>
       <r>   -2.8057    1.0000 </r>
       <r>   -2.7508    1.0000 </r>
       <r>   -2.5723    1.0000 </r>
       <r>   -2.5116    1.0000 </r>
       <r>   -2.4169    1.0000 </r>
       <r>   -2.3127    1.0000 </r>
       <r>   -2.2092    1.0000 </r>
       <r>   -2.1095    1.0000 </r>
       <r>   -2.0741    1.0000 </r>
       <r>   -1.9866    1.0011 </r>
       <r>   -1.9227    1.0115 </r>
       <r>   -1.9028    1.0194 </r>
       <r>   -1.8547    1.0354 </r>
       <r>   -1.7976    0.9330 </r>
       <r>   -1.7447    0.5849 </r>
       <r>   -1.5968   -0.0326 </r>
       <r>   -1.5812   -0.0261 </r>
       <r>   -1.0977   -0.0000 </r>
       <r>   -0.8897   -0.0000 </r>
       <r>   -0.7714   -0.0000 </r>
       <r>   -0.4159   -0.0000 </r>
       <r>    0.0244   -0.0000 </r>
       <r>    0.8425   -0.0000 </r>
       <r>    1.2404    0.0000 </r>
       <r>    1.6413    0.0000 </r>
       <r>    1.7632    0.0000 </r>
       <r>    2.1211    0.0000 </r>
       <r>    2.4410    0.0000 </r>
       <r>    2.8929    0.0000 </r>
       <r>    3.3572    0.0000 </r>
      </set>
      <set comment="kpoint 12">
       <r>  -23.8736    1.0000 </r>
       <r>  -12.2012    1.0000 </r>
       <r>   -9.9425    1.0000 </r>
       <r>   -8.8174    1.0000 </r>
       <r>   -8.5631    1.0000 </r>
       <r>   -8.2809    1.0000 </r>
       <r>   -8.1998    1.0000 </r>
       <r>   -8.0477    1.0000 </r>
       <r>   -7.9441    1.0000 </r>
       <r>   -7.8194    1.0000 </r>
       <r>   -7.6948    1.0000 </r>
       <r>   -7.6000    1.0000 </r>
       <r>   -7.4731    1.0000 </r>
       <r>   -7.4386    1.0000 </r>
       <r>   -7.3989    1.0000 </r>
       <r>   -7.2804    1.0000 </r>
       <r>   -7.1688    1.0000 </r>
       <r>   -7.0751    1.0000 </r>
       <r>   -7.0116    1.0000 </r>
       <r>   -6.9730    1.0000 </r>
       <r>   -6.8296    1.0000 </r>
       <r>   -6.6646    1.0000 </r>
       <r>   -6.5958    1.0000 </r>
       <r>   -6.4438    1.0000 </r>
       <r>   -6.3350    1.0000 </r>
       <r>   -6.2848    1.0000 </r>
       <r>   -6.2051    1.0000 </r>
       <r>   -6.1194    1.0000 </r>
       <r>   -6.0893    1.0000 </r>
       <r>   -5.9712    1.0000 </r>
       <r>   -5.8575    1.0000 </r>
       <r>   -5.8004    1.0000 </r>
       <r>   -5.6562    1.0000 </r>
       <r>   -5.5108    1.0000 </r>
       <r>   -5.4558    1.0000 </r>
       <r>   -5.4369    1.0000 </r>
       <r>   -5.3521    1.0000 </r>
       <r>   -5.2480    1.0000 </r>
       <r>   -5.1575    1.0000 </r>
       <r>   -5.1214    1.0000 </r>
       <r>   -5.1074    1.0000 </r>
       <r>   -5.0500    1.0000 </r>
       <r>   -5.0004    1.0000 </r>
       <r>   -4.9089    1.0000 </r>
       <r>   -4.8420    1.0000 </r>
       <r>   -4.7890    1.0000 </r>
       <r>   -4.7187    1.0000 </r>
       <r>   -4.6013    1.0000 </r>
       <r>   -4.5498    1.0000 </r>
       <r>   -4.4927    1.0000 </r>
       <r>   -4.4254    1.0000 </r>
       <r>   -4.3407    1.0000 </r>
       <r>   -4.2859    1.0000 </r>
       <r>   -4.2281    1.0000 </r>
       <r>   -4.1778    1.0000 </r>
       <r>   -4.0668    1.0000 </r>
       <r>   -4.0179    1.0000 </r>
       <r>   -3.9610    1.0000 </r>
       <r>   -3.9208    1.0000 </r>
       <r>   -3.8507    1.0000 </r>
       <r>   -3.8037    1.0000 </r>
       <r>   -3.7549    1.0000 </r>
       <r>   -3.6728    1.0000 </r>
       <r>   -3.5051    1.0000 </r>
       <r>   -3.3774    1.0000 </r>
       <r>   -3.3260    1.0000 </r>
       <r>   -3.2489    1.0000 </r>
       <r>   -3.1695    1.0000 </r>
       <r>   -3.0665    1.0000 </r>
       <r>   -3.0075    1.0000 </r>
       <r>   -2.8779    1.0000 </r>
       <r>   -2.8443    1.0000 </r>
       <r>   -2.8007    1.0000 </r>
       <r>   -2.7475    1.0000 </r>
       <r>   -2.5809    1.0000 </r>
       <r>   -2.5197    1.0000 </r>
       <r>   -2.4091    1.0000 </r>
       <r>   -2.3147    1.0000 </r>
       <r>   -2.2036    1.0000 </r>
       <r>   -2.1042    1.0000 </r>
       <r>   -2.0677    1.0000 </r>
       <r>   -1.9897    1.0009 </r>
       <r>   -1.9181    1.0131 </r>
       <r>   -1.9003    1.0205 </r>
       <r>   -1.8533    1.0352 </r>
       <r>   -1.7867    0.8811 </r>
       <r>   -1.7304    0.4642 </r>
       <r>   -1.6177   -0.0350 </r>
       <r>   -1.6026   -0.0342 </r>
       <r>   -1.1144   -0.0000 </r>
       <r>   -0.8986   -0.0000 </r>
       <r>   -0.7831   -0.0000 </r>
       <r>   -0.4294   -0.0000 </r>
       <r>    0.0321   -0.0000 </r>
       <r>    0.8163   -0.0000 </r>
       <r>    1.2216    0.0000 </r>
       <r>    1.6451    0.0000 </r>
       <r>    1.7692    0.0000 </r>
       <r>    2.1297    0.0000 </r>
       <r>    2.4210    0.0000 </r>
       <r>    2.8965    0.0000 </r>
       <r>    3.3579    0.0000 </r>
      </set>
      <set comment="kpoint 13">
       <r>  -23.8737    1.0000 </r>
       <r>  -12.1343    1.0000 </r>
       <r>   -9.1987    1.0000 </r>
       <r>   -9.1705    1.0000 </r>
       <r>   -8.5424    1.0000 </r>
       <r>   -8.2654    1.0000 </r>
       <r>   -8.0544    1.0000 </r>
       <r>   -7.9414    1.0000 </r>
       <r>   -7.8697    1.0000 </r>
       <r>   -7.7394    1.0000 </r>
       <r>   -7.4002    1.0000 </r>
       <r>   -7.3548    1.0000 </r>
       <r>   -7.2715    1.0000 </r>
       <r>   -7.1906    1.0000 </r>
       <r>   -7.1338    1.0000 </r>
       <r>   -7.0442    1.0000 </r>
       <r>   -6.9555    1.0000 </r>
       <r>   -6.8439    1.0000 </r>
       <r>   -6.7170    1.0000 </r>
       <r>   -6.6428    1.0000 </r>
       <r>   -6.6215    1.0000 </r>
       <r>   -6.5942    1.0000 </r>
       <r>   -6.5386    1.0000 </r>
       <r>   -6.4796    1.0000 </r>
       <r>   -6.3382    1.0000 </r>
       <r>   -6.1960    1.0000 </r>
       <r>   -6.1747    1.0000 </r>
       <r>   -6.1342    1.0000 </r>
       <r>   -6.1146    1.0000 </r>
       <r>   -6.0470    1.0000 </r>
       <r>   -6.0128    1.0000 </r>
       <r>   -5.9710    1.0000 </r>
       <r>   -5.9004    1.0000 </r>
       <r>   -5.6874    1.0000 </r>
       <r>   -5.6058    1.0000 </r>
       <r>   -5.5010    1.0000 </r>
       <r>   -5.4422    1.0000 </r>
       <r>   -5.4373    1.0000 </r>
       <r>   -5.3579    1.0000 </r>
       <r>   -5.3113    1.0000 </r>
       <r>   -5.2657    1.0000 </r>
       <r>   -5.1556    1.0000 </r>
       <r>   -5.1161    1.0000 </r>
       <r>   -5.0595    1.0000 </r>
       <r>   -5.0210    1.0000 </r>
       <r>   -4.8910    1.0000 </r>
       <r>   -4.7783    1.0000 </r>
       <r>   -4.7128    1.0000 </r>
       <r>   -4.6761    1.0000 </r>
       <r>   -4.6469    1.0000 </r>
       <r>   -4.5831    1.0000 </r>
       <r>   -4.5616    1.0000 </r>
       <r>   -4.5136    1.0000 </r>
       <r>   -4.4751    1.0000 </r>
       <r>   -4.2764    1.0000 </r>
       <r>   -4.2153    1.0000 </r>
       <r>   -4.0412    1.0000 </r>
       <r>   -3.9614    1.0000 </r>
       <r>   -3.8799    1.0000 </r>
       <r>   -3.8654    1.0000 </r>
       <r>   -3.8400    1.0000 </r>
       <r>   -3.7818    1.0000 </r>
       <r>   -3.6166    1.0000 </r>
       <r>   -3.5230    1.0000 </r>
       <r>   -3.4782    1.0000 </r>
       <r>   -3.3957    1.0000 </r>
       <r>   -3.3473    1.0000 </r>
       <r>   -3.2539    1.0000 </r>
       <r>   -3.1843    1.0000 </r>
       <r>   -3.1505    1.0000 </r>
       <r>   -3.0190    1.0000 </r>
       <r>   -2.9855    1.0000 </r>
       <r>   -2.9542    1.0000 </r>
       <r>   -2.9205    1.0000 </r>
       <r>   -2.8232    1.0000 </r>
       <r>   -2.7260    1.0000 </r>
       <r>   -2.6819    1.0000 </r>
       <r>   -2.5884    1.0000 </r>
       <r>   -2.4752    1.0000 </r>
       <r>   -2.3107    1.0000 </r>
       <r>   -2.2565    1.0000 </r>
       <r>   -2.1307    1.0000 </r>
       <r>   -1.9418    1.0063 </r>
       <r>   -1.9147    1.0144 </r>
       <r>   -1.8948    1.0230 </r>
       <r>   -1.8189    1.0002 </r>
       <r>   -1.6425   -0.0149 </r>
       <r>   -1.5837   -0.0272 </r>
       <r>   -1.5360   -0.0084 </r>
       <r>   -1.3635   -0.0000 </r>
       <r>   -0.8666   -0.0000 </r>
       <r>   -0.7290   -0.0000 </r>
       <r>    0.0104   -0.0000 </r>
       <r>    0.1150   -0.0000 </r>
       <r>    0.4810   -0.0000 </r>
       <r>    1.3845    0.0000 </r>
       <r>    1.7588    0.0000 </r>
       <r>    1.9077    0.0000 </r>
       <r>    2.0947    0.0000 </r>
       <r>    2.8183    0.0000 </r>
       <r>    3.0717    0.0000 </r>
       <r>    3.5584    0.0000 </r>
      </set>
      <set comment="kpoint 14">
       <r>  -23.8737    1.0000 </r>
       <r>  -12.1356    1.0000 </r>
       <r>   -9.2066    1.0000 </r>
       <r>   -9.1773    1.0000 </r>
       <r>   -8.5386    1.0000 </r>
       <r>   -8.2617    1.0000 </r>
       <r>   -8.0561    1.0000 </r>
       <r>   -7.9452    1.0000 </r>
       <r>   -7.8715    1.0000 </r>
       <r>   -7.7440    1.0000 </r>
       <r>   -7.4201    1.0000 </r>
       <r>   -7.3681    1.0000 </r>
       <r>   -7.2843    1.0000 </r>
       <r>   -7.2044    1.0000 </r>
       <r>   -7.1536    1.0000 </r>
       <r>   -7.0572    1.0000 </r>
       <r>   -6.9541    1.0000 </r>
       <r>   -6.8388    1.0000 </r>
       <r>   -6.7163    1.0000 </r>
       <r>   -6.6416    1.0000 </r>
       <r>   -6.6138    1.0000 </r>
       <r>   -6.5898    1.0000 </r>
       <r>   -6.5284    1.0000 </r>
       <r>   -6.4708    1.0000 </r>
       <r>   -6.3315    1.0000 </r>
       <r>   -6.1902    1.0000 </r>
       <r>   -6.1813    1.0000 </r>
       <r>   -6.1273    1.0000 </r>
       <r>   -6.1097    1.0000 </r>
       <r>   -6.0380    1.0000 </r>
       <r>   -6.0077    1.0000 </r>
       <r>   -5.9612    1.0000 </r>
       <r>   -5.8969    1.0000 </r>
       <r>   -5.6761    1.0000 </r>
       <r>   -5.5947    1.0000 </r>
       <r>   -5.4904    1.0000 </r>
       <r>   -5.4391    1.0000 </r>
       <r>   -5.4212    1.0000 </r>
       <r>   -5.3370    1.0000 </r>
       <r>   -5.2901    1.0000 </r>
       <r>   -5.2483    1.0000 </r>
       <r>   -5.1562    1.0000 </r>
       <r>   -5.1205    1.0000 </r>
       <r>   -5.0452    1.0000 </r>
       <r>   -5.0136    1.0000 </r>
       <r>   -4.8758    1.0000 </r>
       <r>   -4.7465    1.0000 </r>
       <r>   -4.7230    1.0000 </r>
       <r>   -4.6791    1.0000 </r>
       <r>   -4.6510    1.0000 </r>
       <r>   -4.5946    1.0000 </r>
       <r>   -4.5722    1.0000 </r>
       <r>   -4.5120    1.0000 </r>
       <r>   -4.4813    1.0000 </r>
       <r>   -4.2917    1.0000 </r>
       <r>   -4.2269    1.0000 </r>
       <r>   -4.0402    1.0000 </r>
       <r>   -3.9659    1.0000 </r>
       <r>   -3.8887    1.0000 </r>
       <r>   -3.8629    1.0000 </r>
       <r>   -3.8459    1.0000 </r>
       <r>   -3.7717    1.0000 </r>
       <r>   -3.6136    1.0000 </r>
       <r>   -3.5337    1.0000 </r>
       <r>   -3.4785    1.0000 </r>
       <r>   -3.4073    1.0000 </r>
       <r>   -3.3333    1.0000 </r>
       <r>   -3.2435    1.0000 </r>
       <r>   -3.1791    1.0000 </r>
       <r>   -3.1422    1.0000 </r>
       <r>   -3.0143    1.0000 </r>
       <r>   -2.9817    1.0000 </r>
       <r>   -2.9517    1.0000 </r>
       <r>   -2.9209    1.0000 </r>
       <r>   -2.8177    1.0000 </r>
       <r>   -2.7308    1.0000 </r>
       <r>   -2.6895    1.0000 </r>
       <r>   -2.5885    1.0000 </r>
       <r>   -2.4830    1.0000 </r>
       <r>   -2.3260    1.0000 </r>
       <r>   -2.2524    1.0000 </r>
       <r>   -2.1182    1.0000 </r>
       <r>   -1.9407    1.0065 </r>
       <r>   -1.9070    1.0175 </r>
       <r>   -1.8914    1.0245 </r>
       <r>   -1.8119    0.9828 </r>
       <r>   -1.6619    0.0311 </r>
       <r>   -1.6125   -0.0355 </r>
       <r>   -1.5353   -0.0082 </r>
       <r>   -1.3886   -0.0000 </r>
       <r>   -0.8692   -0.0000 </r>
       <r>   -0.7346   -0.0000 </r>
       <r>   -0.0011   -0.0000 </r>
       <r>    0.0954   -0.0000 </r>
       <r>    0.4583   -0.0000 </r>
       <r>    1.3811    0.0000 </r>
       <r>    1.7642    0.0000 </r>
       <r>    1.9039    0.0000 </r>
       <r>    2.0919    0.0000 </r>
       <r>    2.7961    0.0000 </r>
       <r>    3.0575    0.0000 </r>
       <r>    3.5224    0.0000 </r>
      </set>
      <set comment="kpoint 15">
       <r>  -23.8737    1.0000 </r>
       <r>  -12.1180    1.0000 </r>
       <r>   -9.2577    1.0000 </r>
       <r>   -8.6400    1.0000 </r>
       <r>   -8.4812    1.0000 </r>
       <r>   -8.3594    1.0000 </r>
       <r>   -8.1767    1.0000 </r>
       <r>   -8.0582    1.0000 </r>
       <r>   -7.8874    1.0000 </r>
       <r>   -7.6422    1.0000 </r>
       <r>   -7.5004    1.0000 </r>
       <r>   -7.1299    1.0000 </r>
       <r>   -7.0985    1.0000 </r>
       <r>   -7.0819    1.0000 </r>
       <r>   -7.0213    1.0000 </r>
       <r>   -7.0071    1.0000 </r>
       <r>   -6.8680    1.0000 </r>
       <r>   -6.8159    1.0000 </r>
       <r>   -6.7661    1.0000 </r>
       <r>   -6.7102    1.0000 </r>
       <r>   -6.5381    1.0000 </r>
       <r>   -6.4585    1.0000 </r>
       <r>   -6.4508    1.0000 </r>
       <r>   -6.3974    1.0000 </r>
       <r>   -6.3646    1.0000 </r>
       <r>   -6.3209    1.0000 </r>
       <r>   -6.3039    1.0000 </r>
       <r>   -6.2628    1.0000 </r>
       <r>   -6.1293    1.0000 </r>
       <r>   -6.1105    1.0000 </r>
       <r>   -6.0714    1.0000 </r>
       <r>   -6.0250    1.0000 </r>
       <r>   -5.9635    1.0000 </r>
       <r>   -5.7275    1.0000 </r>
       <r>   -5.6736    1.0000 </r>
       <r>   -5.6441    1.0000 </r>
       <r>   -5.5663    1.0000 </r>
       <r>   -5.4810    1.0000 </r>
       <r>   -5.3554    1.0000 </r>
       <r>   -5.3273    1.0000 </r>
       <r>   -5.3175    1.0000 </r>
       <r>   -5.2502    1.0000 </r>
       <r>   -5.2031    1.0000 </r>
       <r>   -5.1729    1.0000 </r>
       <r>   -5.0990    1.0000 </r>
       <r>   -5.0335    1.0000 </r>
       <r>   -4.9407    1.0000 </r>
       <r>   -4.8103    1.0000 </r>
       <r>   -4.7228    1.0000 </r>
       <r>   -4.6926    1.0000 </r>
       <r>   -4.6115    1.0000 </r>
       <r>   -4.4723    1.0000 </r>
       <r>   -4.4081    1.0000 </r>
       <r>   -4.3775    1.0000 </r>
       <r>   -4.3546    1.0000 </r>
       <r>   -4.2846    1.0000 </r>
       <r>   -4.0066    1.0000 </r>
       <r>   -3.9209    1.0000 </r>
       <r>   -3.8999    1.0000 </r>
       <r>   -3.8574    1.0000 </r>
       <r>   -3.8262    1.0000 </r>
       <r>   -3.7132    1.0000 </r>
       <r>   -3.6673    1.0000 </r>
       <r>   -3.5877    1.0000 </r>
       <r>   -3.4566    1.0000 </r>
       <r>   -3.3007    1.0000 </r>
       <r>   -3.2364    1.0000 </r>
       <r>   -3.1648    1.0000 </r>
       <r>   -3.1596    1.0000 </r>
       <r>   -3.0074    1.0000 </r>
       <r>   -2.9292    1.0000 </r>
       <r>   -2.8933    1.0000 </r>
       <r>   -2.7990    1.0000 </r>
       <r>   -2.6570    1.0000 </r>
       <r>   -2.5321    1.0000 </r>
       <r>   -2.5234    1.0000 </r>
       <r>   -2.4321    1.0000 </r>
       <r>   -2.3662    1.0000 </r>
       <r>   -2.3425    1.0000 </r>
       <r>   -2.3100    1.0000 </r>
       <r>   -2.1186    1.0000 </r>
       <r>   -2.0748    1.0000 </r>
       <r>   -2.0291    1.0001 </r>
       <r>   -1.9870    1.0010 </r>
       <r>   -1.9681    1.0023 </r>
       <r>   -1.9459    1.0055 </r>
       <r>   -1.8842    1.0278 </r>
       <r>   -1.8677    1.0340 </r>
       <r>   -1.8081    0.9715 </r>
       <r>   -1.7939    0.9168 </r>
       <r>   -1.4155   -0.0000 </r>
       <r>   -0.9935   -0.0000 </r>
       <r>   -0.8709   -0.0000 </r>
       <r>    0.1508   -0.0000 </r>
       <r>    0.7824   -0.0000 </r>
       <r>    1.0490    0.0000 </r>
       <r>    1.8672    0.0000 </r>
       <r>    2.1142    0.0000 </r>
       <r>    2.7941    0.0000 </r>
       <r>    2.9862    0.0000 </r>
       <r>    3.0991    0.0000 </r>
       <r>    3.5412    0.0000 </r>
      </set>
      <set comment="kpoint 16">
       <r>  -23.8737    1.0000 </r>
       <r>  -12.1186    1.0000 </r>
       <r>   -9.2614    1.0000 </r>
       <r>   -8.6421    1.0000 </r>
       <r>   -8.4814    1.0000 </r>
       <r>   -8.3613    1.0000 </r>
       <r>   -8.1757    1.0000 </r>
       <r>   -8.0586    1.0000 </r>
       <r>   -7.8893    1.0000 </r>
       <r>   -7.6423    1.0000 </r>
       <r>   -7.4995    1.0000 </r>
       <r>   -7.1411    1.0000 </r>
       <r>   -7.1184    1.0000 </r>
       <r>   -7.0874    1.0000 </r>
       <r>   -7.0214    1.0000 </r>
       <r>   -7.0090    1.0000 </r>
       <r>   -6.8788    1.0000 </r>
       <r>   -6.8250    1.0000 </r>
       <r>   -6.7739    1.0000 </r>
       <r>   -6.6932    1.0000 </r>
       <r>   -6.5356    1.0000 </r>
       <r>   -6.4640    1.0000 </r>
       <r>   -6.4454    1.0000 </r>
       <r>   -6.3816    1.0000 </r>
       <r>   -6.3594    1.0000 </r>
       <r>   -6.3169    1.0000 </r>
       <r>   -6.2986    1.0000 </r>
       <r>   -6.2593    1.0000 </r>
       <r>   -6.1367    1.0000 </r>
       <r>   -6.1034    1.0000 </r>
       <r>   -6.0753    1.0000 </r>
       <r>   -6.0276    1.0000 </r>
       <r>   -5.9631    1.0000 </r>
       <r>   -5.7251    1.0000 </r>
       <r>   -5.6739    1.0000 </r>
       <r>   -5.6418    1.0000 </r>
       <r>   -5.5630    1.0000 </r>
       <r>   -5.4766    1.0000 </r>
       <r>   -5.3537    1.0000 </r>
       <r>   -5.3149    1.0000 </r>
       <r>   -5.2966    1.0000 </r>
       <r>   -5.2548    1.0000 </r>
       <r>   -5.1945    1.0000 </r>
       <r>   -5.1544    1.0000 </r>
       <r>   -5.0918    1.0000 </r>
       <r>   -5.0382    1.0000 </r>
       <r>   -4.8970    1.0000 </r>
       <r>   -4.7962    1.0000 </r>
       <r>   -4.7217    1.0000 </r>
       <r>   -4.6812    1.0000 </r>
       <r>   -4.6120    1.0000 </r>
       <r>   -4.5393    1.0000 </r>
       <r>   -4.4101    1.0000 </r>
       <r>   -4.3717    1.0000 </r>
       <r>   -4.3564    1.0000 </r>
       <r>   -4.2665    1.0000 </r>
       <r>   -4.0080    1.0000 </r>
       <r>   -3.9307    1.0000 </r>
       <r>   -3.8962    1.0000 </r>
       <r>   -3.8668    1.0000 </r>
       <r>   -3.8432    1.0000 </r>
       <r>   -3.7272    1.0000 </r>
       <r>   -3.6772    1.0000 </r>
       <r>   -3.5763    1.0000 </r>
       <r>   -3.4536    1.0000 </r>
       <r>   -3.2941    1.0000 </r>
       <r>   -3.2262    1.0000 </r>
       <r>   -3.1626    1.0000 </r>
       <r>   -3.1585    1.0000 </r>
       <r>   -3.0038    1.0000 </r>
       <r>   -2.9324    1.0000 </r>
       <r>   -2.8961    1.0000 </r>
       <r>   -2.8003    1.0000 </r>
       <r>   -2.6664    1.0000 </r>
       <r>   -2.5250    1.0000 </r>
       <r>   -2.5181    1.0000 </r>
       <r>   -2.4448    1.0000 </r>
       <r>   -2.3604    1.0000 </r>
       <r>   -2.3414    1.0000 </r>
       <r>   -2.3217    1.0000 </r>
       <r>   -2.0997    1.0000 </r>
       <r>   -2.0699    1.0000 </r>
       <r>   -2.0364    1.0001 </r>
       <r>   -1.9970    1.0007 </r>
       <r>   -1.9716    1.0020 </r>
       <r>   -1.9463    1.0054 </r>
       <r>   -1.8898    1.0253 </r>
       <r>   -1.8730    1.0323 </r>
       <r>   -1.8099    0.9770 </r>
       <r>   -1.7938    0.9161 </r>
       <r>   -1.4360   -0.0001 </r>
       <r>   -0.9899   -0.0000 </r>
       <r>   -0.8534   -0.0000 </r>
       <r>    0.1229   -0.0000 </r>
       <r>    0.7848   -0.0000 </r>
       <r>    1.0550    0.0000 </r>
       <r>    1.8513    0.0000 </r>
       <r>    2.1280    0.0000 </r>
       <r>    2.7811    0.0000 </r>
       <r>    2.9817    0.0000 </r>
       <r>    3.0860    0.0000 </r>
       <r>    3.5363    0.0000 </r>
      </set>
     </set>
    </set>
   </array>
  </eigenvalues>
  <separator name="orbital magnetization" >
   <v name="MAGDIPOLOUT">      0.00000000      0.00000000      0.00000000</v>
  </separator>
  <dos>
   <i name="efermi">     -1.73462453 </i>
   <total>
    <array>
     <dimension dim="1">gridpoints</dimension>
     <dimension dim="2">spin</dimension>
     <field>energy</field>
     <field>total</field>
     <field>integrated</field>
     <set>
      <set comment="spin 1">
       <r>   -25.2454     0.0000     0.0000 </r>
       <r>   -25.1448     0.0000     0.0000 </r>
       <r>   -25.0442     0.0000     0.0000 </r>
       <r>   -24.9436     0.0000     0.0000 </r>
       <r>   -24.8430     0.0000     0.0000 </r>
       <r>   -24.7425    -0.0000    -0.0000 </r>
       <r>   -24.6419    -0.0000    -0.0000 </r>
       <r>   -24.5413    -0.0000    -0.0000 </r>
       <r>   -24.4407    -0.0000    -0.0000 </r>
       <r>   -24.3401    -0.0000    -0.0000 </r>
       <r>   -24.2395    -0.0000    -0.0000 </r>
       <r>   -24.1390    -0.0113    -0.0011 </r>
       <r>   -24.0384    -0.4041    -0.0418 </r>
       <r>   -23.9378     1.6523     0.1244 </r>
       <r>   -23.8372    14.4072     1.5736 </r>
       <r>   -23.7366     4.8919     2.0656 </r>
       <r>   -23.6360    -0.6130     2.0040 </r>
       <r>   -23.5354    -0.0392     2.0000 </r>
       <r>   -23.4349    -0.0002     2.0000 </r>
       <r>   -23.3343    -0.0000     2.0000 </r>
       <r>   -23.2337    -0.0000     2.0000 </r>
       <r>   -23.1331     0.0000     2.0000 </r>
       <r>   -23.0325     0.0000     2.0000 </r>
       <r>   -22.9319     0.0000     2.0000 </r>
       <r>   -22.8314     0.0000     2.0000 </r>
       <r>   -22.7308     0.0000     2.0000 </r>
       <r>   -22.6302     0.0000     2.0000 </r>
       <r>   -22.5296     0.0000     2.0000 </r>
       <r>   -22.4290     0.0000     2.0000 </r>
       <r>   -22.3284     0.0000     2.0000 </r>
       <r>   -22.2278     0.0000     2.0000 </r>
       <r>   -22.1273     0.0000     2.0000 </r>
       <r>   -22.0267     0.0000     2.0000 </r>
       <r>   -21.9261     0.0000     2.0000 </r>
       <r>   -21.8255     0.0000     2.0000 </r>
       <r>   -21.7249     0.0000     2.0000 </r>
       <r>   -21.6243     0.0000     2.0000 </r>
       <r>   -21.5237     0.0000     2.0000 </r>
       <r>   -21.4232     0.0000     2.0000 </r>
       <r>   -21.3226     0.0000     2.0000 </r>
       <r>   -21.2220     0.0000     2.0000 </r>
       <r>   -21.1214     0.0000     2.0000 </r>
       <r>   -21.0208     0.0000     2.0000 </r>
       <r>   -20.9202     0.0000     2.0000 </r>
       <r>   -20.8197     0.0000     2.0000 </r>
       <r>   -20.7191     0.0000     2.0000 </r>
       <r>   -20.6185     0.0000     2.0000 </r>
       <r>   -20.5179     0.0000     2.0000 </r>
       <r>   -20.4173     0.0000     2.0000 </r>
       <r>   -20.3167     0.0000     2.0000 </r>
       <r>   -20.2161     0.0000     2.0000 </r>
       <r>   -20.1156     0.0000     2.0000 </r>
       <r>   -20.0150     0.0000     2.0000 </r>
       <r>   -19.9144     0.0000     2.0000 </r>
       <r>   -19.8138     0.0000     2.0000 </r>
       <r>   -19.7132     0.0000     2.0000 </r>
       <r>   -19.6126     0.0000     2.0000 </r>
       <r>   -19.5121     0.0000     2.0000 </r>
       <r>   -19.4115     0.0000     2.0000 </r>
       <r>   -19.3109     0.0000     2.0000 </r>
       <r>   -19.2103     0.0000     2.0000 </r>
       <r>   -19.1097     0.0000     2.0000 </r>
       <r>   -19.0091     0.0000     2.0000 </r>
       <r>   -18.9085     0.0000     2.0000 </r>
       <r>   -18.8080     0.0000     2.0000 </r>
       <r>   -18.7074     0.0000     2.0000 </r>
       <r>   -18.6068     0.0000     2.0000 </r>
       <r>   -18.5062     0.0000     2.0000 </r>
       <r>   -18.4056     0.0000     2.0000 </r>
       <r>   -18.3050     0.0000     2.0000 </r>
       <r>   -18.2045     0.0000     2.0000 </r>
       <r>   -18.1039     0.0000     2.0000 </r>
       <r>   -18.0033     0.0000     2.0000 </r>
       <r>   -17.9027     0.0000     2.0000 </r>
       <r>   -17.8021     0.0000     2.0000 </r>
       <r>   -17.7015     0.0000     2.0000 </r>
       <r>   -17.6009     0.0000     2.0000 </r>
       <r>   -17.5004     0.0000     2.0000 </r>
       <r>   -17.3998     0.0000     2.0000 </r>
       <r>   -17.2992     0.0000     2.0000 </r>
       <r>   -17.1986     0.0000     2.0000 </r>
       <r>   -17.0980     0.0000     2.0000 </r>
       <r>   -16.9974     0.0000     2.0000 </r>
       <r>   -16.8968     0.0000     2.0000 </r>
       <r>   -16.7963     0.0000     2.0000 </r>
       <r>   -16.6957     0.0000     2.0000 </r>
       <r>   -16.5951     0.0000     2.0000 </r>
       <r>   -16.4945     0.0000     2.0000 </r>
       <r>   -16.3939     0.0000     2.0000 </r>
       <r>   -16.2933     0.0000     2.0000 </r>
       <r>   -16.1928     0.0000     2.0000 </r>
       <r>   -16.0922     0.0000     2.0000 </r>
       <r>   -15.9916     0.0000     2.0000 </r>
       <r>   -15.8910     0.0000     2.0000 </r>
       <r>   -15.7904     0.0000     2.0000 </r>
       <r>   -15.6898     0.0000     2.0000 </r>
       <r>   -15.5892     0.0000     2.0000 </r>
       <r>   -15.4887     0.0000     2.0000 </r>
       <r>   -15.3881     0.0000     2.0000 </r>
       <r>   -15.2875     0.0000     2.0000 </r>
       <r>   -15.1869     0.0000     2.0000 </r>
       <r>   -15.0863     0.0000     2.0000 </r>
       <r>   -14.9857     0.0000     2.0000 </r>
       <r>   -14.8852     0.0000     2.0000 </r>
       <r>   -14.7846     0.0000     2.0000 </r>
       <r>   -14.6840     0.0000     2.0000 </r>
       <r>   -14.5834     0.0000     2.0000 </r>
       <r>   -14.4828     0.0000     2.0000 </r>
       <r>   -14.3822     0.0000     2.0000 </r>
       <r>   -14.2816     0.0000     2.0000 </r>
       <r>   -14.1811     0.0000     2.0000 </r>
       <r>   -14.0805     0.0000     2.0000 </r>
       <r>   -13.9799     0.0000     2.0000 </r>
       <r>   -13.8793     0.0000     2.0000 </r>
       <r>   -13.7787     0.0000     2.0000 </r>
       <r>   -13.6781     0.0000     2.0000 </r>
       <r>   -13.5776     0.0000     2.0000 </r>
       <r>   -13.4770     0.0000     2.0000 </r>
       <r>   -13.3764    -0.0000     2.0000 </r>
       <r>   -13.2758    -0.0000     2.0000 </r>
       <r>   -13.1752    -0.0000     2.0000 </r>
       <r>   -13.0746    -0.0000     2.0000 </r>
       <r>   -12.9740    -0.0000     2.0000 </r>
       <r>   -12.8735    -0.0000     2.0000 </r>
       <r>   -12.7729    -0.0006     1.9999 </r>
       <r>   -12.6723    -0.0220     1.9977 </r>
       <r>   -12.5717    -0.0141     1.9963 </r>
       <r>   -12.4711     1.1719     2.1142 </r>
       <r>   -12.3705     2.4031     2.3559 </r>
       <r>   -12.2700     3.5249     2.7105 </r>
       <r>   -12.1694     6.5342     3.3677 </r>
       <r>   -12.0688     6.0718     3.9784 </r>
       <r>   -11.9682     0.3601     4.0146 </r>
       <r>   -11.8676    -0.1413     4.0004 </r>
       <r>   -11.7670    -0.0042     4.0000 </r>
       <r>   -11.6664    -0.0000     4.0000 </r>
       <r>   -11.5659    -0.0000     4.0000 </r>
       <r>   -11.4653    -0.0000     4.0000 </r>
       <r>   -11.3647    -0.0000     4.0000 </r>
       <r>   -11.2641    -0.0022     3.9998 </r>
       <r>   -11.1635    -0.0116     3.9986 </r>
       <r>   -11.0629     0.1493     4.0136 </r>
       <r>   -10.9623     0.3040     4.0442 </r>
       <r>   -10.8618     1.6143     4.2066 </r>
       <r>   -10.7612     0.8585     4.2929 </r>
       <r>   -10.6606    -0.1411     4.2787 </r>
       <r>   -10.5600     1.0836     4.3877 </r>
       <r>   -10.4594     1.6129     4.5500 </r>
       <r>   -10.3588     1.7479     4.7258 </r>
       <r>   -10.2583     0.5744     4.7836 </r>
       <r>   -10.1577    -0.0970     4.7738 </r>
       <r>   -10.0571    -0.1522     4.7585 </r>
       <r>    -9.9565     1.9684     4.9565 </r>
       <r>    -9.8559     3.0262     5.2609 </r>
       <r>    -9.7553     0.2116     5.2821 </r>
       <r>    -9.6547     1.8669     5.4699 </r>
       <r>    -9.5542     1.9901     5.6701 </r>
       <r>    -9.4536     1.2525     5.7961 </r>
       <r>    -9.3530    -0.1724     5.7787 </r>
       <r>    -9.2524     3.1359     6.0942 </r>
       <r>    -9.1518     6.6167     6.7597 </r>
       <r>    -9.0512     2.7392     7.0352 </r>
       <r>    -8.9507     1.2153     7.1575 </r>
       <r>    -8.8501     2.2192     7.3807 </r>
       <r>    -8.7495     3.5567     7.7385 </r>
       <r>    -8.6489     4.0340     8.1442 </r>
       <r>    -8.5483    10.5044     9.2008 </r>
       <r>    -8.4477    11.4052    10.3480 </r>
       <r>    -8.3471    10.9968    11.4541 </r>
       <r>    -8.2466    19.5796    13.4235 </r>
       <r>    -8.1460    20.3149    15.4669 </r>
       <r>    -8.0454    19.1434    17.3924 </r>
       <r>    -7.9448    20.3324    19.4375 </r>
       <r>    -7.8442    18.5347    21.3018 </r>
       <r>    -7.7436    13.5717    22.6670 </r>
       <r>    -7.6431    17.2831    24.4054 </r>
       <r>    -7.5425    14.4367    25.8575 </r>
       <r>    -7.4419    25.1678    28.3890 </r>
       <r>    -7.3413    28.5826    31.2640 </r>
       <r>    -7.2407    16.2319    32.8966 </r>
       <r>    -7.1401    15.3210    34.4377 </r>
       <r>    -7.0395    25.1531    36.9677 </r>
       <r>    -6.9390    25.3592    39.5185 </r>
       <r>    -6.8384    15.5005    41.0776 </r>
       <r>    -6.7378    16.1352    42.7005 </r>
       <r>    -6.6372    16.6480    44.3751 </r>
       <r>    -6.5366    15.1778    45.9017 </r>
       <r>    -6.4360    21.5254    48.0669 </r>
       <r>    -6.3354    23.8788    50.4687 </r>
       <r>    -6.2349    17.4643    52.2253 </r>
       <r>    -6.1343    23.3002    54.5690 </r>
       <r>    -6.0337    25.7311    57.1571 </r>
       <r>    -5.9331    19.5765    59.1262 </r>
       <r>    -5.8325    16.3782    60.7736 </r>
       <r>    -5.7319    16.8974    62.4733 </r>
       <r>    -5.6314    25.8001    65.0684 </r>
       <r>    -5.5308    27.6339    67.8479 </r>
       <r>    -5.4302    26.6688    70.5304 </r>
       <r>    -5.3296    30.1031    73.5583 </r>
       <r>    -5.2290    27.5869    76.3331 </r>
       <r>    -5.1284    27.6951    79.1188 </r>
       <r>    -5.0278    32.0682    82.3444 </r>
       <r>    -4.9273    28.4025    85.2012 </r>
       <r>    -4.8267    34.5054    88.6720 </r>
       <r>    -4.7261    38.1534    92.5096 </r>
       <r>    -4.6255    33.5321    95.8824 </r>
       <r>    -4.5249    32.5593    99.1574 </r>
       <r>    -4.4243    29.3631   102.1109 </r>
       <r>    -4.3238    24.8362   104.6090 </r>
       <r>    -4.2232    24.4243   107.0657 </r>
       <r>    -4.1226    17.0031   108.7760 </r>
       <r>    -4.0220    12.6495   110.0483 </r>
       <r>    -3.9214    23.4227   112.4043 </r>
       <r>    -3.8208    36.6070   116.0864 </r>
       <r>    -3.7202    30.2459   119.1287 </r>
       <r>    -3.6197    17.2394   120.8627 </r>
       <r>    -3.5191    15.5057   122.4224 </r>
       <r>    -3.4185    23.0897   124.7448 </r>
       <r>    -3.3179    24.3412   127.1932 </r>
       <r>    -3.2173    24.6466   129.6723 </r>
       <r>    -3.1167    26.5387   132.3416 </r>
       <r>    -3.0162    25.7923   134.9360 </r>
       <r>    -2.9156    31.2161   138.0758 </r>
       <r>    -2.8150    31.9920   141.2937 </r>
       <r>    -2.7144    24.4190   143.7499 </r>
       <r>    -2.6138    18.4919   145.6099 </r>
       <r>    -2.5132    23.7618   148.0000 </r>
       <r>    -2.4126    22.5236   150.2655 </r>
       <r>    -2.3121    27.4940   153.0310 </r>
       <r>    -2.2115    22.2825   155.2723 </r>
       <r>    -2.1109    21.5385   157.4387 </r>
       <r>    -2.0103    28.4103   160.2964 </r>
       <r>    -1.9097    34.9232   163.8091 </r>
       <r>    -1.8091    35.5232   167.3822 </r>
       <r>    -1.7086    33.4286   170.7446 </r>
       <r>    -1.6080    22.6078   173.0186 </r>
       <r>    -1.5074    23.0257   175.3347 </r>
       <r>    -1.4068    16.1408   176.9582 </r>
       <r>    -1.3062    12.8631   178.2520 </r>
       <r>    -1.2056     4.7166   178.7264 </r>
       <r>    -1.1050     6.2566   179.3558 </r>
       <r>    -1.0045     6.5044   180.0100 </r>
       <r>    -0.9039     7.5546   180.7699 </r>
       <r>    -0.8033    15.1869   182.2975 </r>
       <r>    -0.7027     7.1676   183.0184 </r>
       <r>    -0.6021     2.2797   183.2477 </r>
       <r>    -0.5015     0.3249   183.2804 </r>
       <r>    -0.4009     4.3682   183.7198 </r>
       <r>    -0.3004     5.3356   184.2564 </r>
       <r>    -0.1998     4.4302   184.7021 </r>
       <r>    -0.0992     2.2680   184.9302 </r>
       <r>     0.0014     5.8830   185.5219 </r>
       <r>     0.1020     8.8167   186.4088 </r>
       <r>     0.2026     5.4077   186.9527 </r>
       <r>     0.3031     4.6894   187.4244 </r>
       <r>     0.4037     5.8328   188.0110 </r>
       <r>     0.5043     9.1881   188.9352 </r>
       <r>     0.6049     5.7406   189.5127 </r>
       <r>     0.7055    -0.2969   189.4828 </r>
       <r>     0.8061     5.0223   189.9880 </r>
       <r>     0.9067    10.7968   191.0740 </r>
       <r>     1.0072     3.5033   191.4263 </r>
       <r>     1.1078     3.8001   191.8086 </r>
       <r>     1.2084     5.5438   192.3662 </r>
       <r>     1.3090     5.2412   192.8934 </r>
       <r>     1.4096     4.1777   193.3136 </r>
       <r>     1.5102     4.9620   193.8127 </r>
       <r>     1.6107     4.8626   194.3018 </r>
       <r>     1.7113     7.8019   195.0865 </r>
       <r>     1.8119     7.3408   195.8249 </r>
       <r>     1.9125     8.5865   196.6886 </r>
       <r>     2.0131     5.0088   197.1924 </r>
       <r>     2.1137     6.2925   197.8253 </r>
       <r>     2.2143     7.2430   198.5539 </r>
       <r>     2.3148     0.4126   198.5954 </r>
       <r>     2.4154     2.9128   198.8884 </r>
       <r>     2.5160     8.1404   199.7072 </r>
       <r>     2.6166     6.4631   200.3573 </r>
       <r>     2.7172     2.3876   200.5974 </r>
       <r>     2.8178     2.8483   200.8839 </r>
       <r>     2.9183     5.8494   201.4723 </r>
       <r>     3.0189     5.6695   202.0425 </r>
       <r>     3.1195     4.0761   202.4525 </r>
       <r>     3.2201     3.0260   202.7569 </r>
       <r>     3.3207     3.3735   203.0962 </r>
       <r>     3.4213     3.6137   203.4597 </r>
       <r>     3.5219     2.2525   203.6863 </r>
       <r>     3.6224     3.0420   203.9923 </r>
       <r>     3.7230     0.1481   204.0071 </r>
       <r>     3.8236    -0.0695   204.0002 </r>
       <r>     3.9242    -0.0015   204.0000 </r>
       <r>     4.0248    -0.0000   204.0000 </r>
       <r>     4.1254    -0.0000   204.0000 </r>
       <r>     4.2260    -0.0000   204.0000 </r>
       <r>     4.3265     0.0000   204.0000 </r>
       <r>     4.4271     0.0000   204.0000 </r>
       <r>     4.5277     0.0000   204.0000 </r>
       <r>     4.6283     0.0000   204.0000 </r>
       <r>     4.7289     0.0000   204.0000 </r>
       <r>     4.8295     0.0000   204.0000 </r>
       <r>     4.9300     0.0000   204.0000 </r>
      </set>
     </set>
    </array>
   </total>
  </dos>
 </calculation>
 <structure name="finalpos" >
  <crystal>
   <varray name="basis" >
    <v>       5.54371716       0.00000000       0.00000000 </v>
    <v>       2.77185858       4.80099990       0.00000000 </v>
    <v>       0.00000000       0.00000000      36.78963917 </v>
   </varray>
   <i name="volume">    979.17042988 </i>
   <varray name="rec_basis" >
    <v>       0.18038438      -0.10414497       0.00000000 </v>
    <v>       0.00000000       0.20828994       0.00000000 </v>
    <v>       0.00000000       0.00000000       0.02718157 </v>
   </varray>
  </crystal>
  <varray name="positions" >
   <v>       0.00000000       0.00000000       0.40772349 </v>
   <v>       0.50000000       0.00000000       0.40772349 </v>
   <v>       0.00000000       0.50000000       0.40772349 </v>
   <v>       0.50000000       0.50000000       0.40772349 </v>
   <v>       0.16666667       0.16666667       0.46924116 </v>
   <v>       0.66666667       0.16666667       0.46924116 </v>
   <v>       0.16666667       0.66666667       0.46924116 </v>
   <v>       0.66666667       0.66666667       0.46924116 </v>
   <v>       0.83893092       0.32471045       0.53201699 </v>
   <v>       0.33635863       0.32471045       0.53201699 </v>
   <v>       0.83746662       0.82506676       0.53311287 </v>
   <v>       0.33635057       0.82729886       0.53204595 </v>
   <v>       0.00636036      -0.01958384       0.59811535 </v>
   <v>       0.51322348      -0.01958384       0.59811535 </v>
   <v>       0.00640963       0.48718074       0.59833228 </v>
   <v>       0.50860321       0.48279358       0.59381938 </v>
   <v>       0.17757513       0.14484973       0.66730614 </v>
   <v>       0.17601632       0.14796736       0.63486771 </v>
  </varray>
  <varray name="selective"  type="logical" >
   <v type="logical" >  F  F  F </v>
   <v type="logical" >  F  F  F </v>
   <v type="logical" >  F  F  F </v>
   <v type="logical" >  F  F  F </v>
   <v type="logical" >  F  F  F </v>
   <v type="logical" >  F  F  F </v>
   <v type="logical" >  F  F  F </v>
   <v type="logical" >  F  F  F </v>
   <v type="logical" >  T  T  T </v>
   <v type="logical" >  T  T  T </v>
   <v type="logical" >  T  T  T </v>
   <v type="logical" >  T  T  T </v>
   <v type="logical" >  T  T  T </v>
   <v type="logical" >  T  T  T </v>
   <v type="logical" >  T  T  T </v>
   <v type="logical" >  T  T  T </v>
   <v type="logical" >  T  T  T </v>
   <v type="logical" >  T  T  T </v>
  </varray>
  <nose>
   <v>      -3.00000000       0.00000000       0.00010000       0.00010000 </v>
  </nose>
 </structure>
</modeling>
