 running    1 mpi-ranks, with    2 threads/rank, on    1 nodes
 distrk:  each k-point on    1 cores,    1 groups
 distr:  one band on    1 cores,    1 groups
 OpenACC runtime initialized ...    1 GPUs detected
 vasp.6.4.2 20Jul23 (build Mar  2 2025 11:04:54) complex                         
 POSCAR found type information on POSCAR V 
 POSCAR found :  1 types and       1 ions
 scaLAPACK will be used selectively (only on CPU)
 LDA part: xc-table for Pade appr. of Perdew
 -----------------------------------------------------------------------------
|                                                                             |
|           W    W    AA    RRRRR   N    N  II  N    N   GGGG   !!!           |
|           W    W   A  A   R    R  NN   N  II  NN   N  G    G  !!!           |
|           W    W  A    A  R    R  N N  N  II  N N  N  G       !!!           |
|           W WW W  AAAAAA  RRRRR   N  N N  II  N  N N  G  GGG   !            |
|           WW  WW  A    A  R   R   N   NN  II  N   NN  G    G                |
|           W    W  A    A  R    R  N    N  II  N    N   GGGG   !!!           |
|                                                                             |
|     The requested file  could not be found or opened for reading            |
|     k-point information. Automatic k-point generation is used as a          |
|     fallback, which may lead to unwanted results.                           |
|                                                                             |
 -----------------------------------------------------------------------------

 POSCAR, INCAR and KPOINTS ok, starting setup
 FFT: planning ... GRIDC
 FFT: planning ... GRID_SOFT
 FFT: planning ... GRID
 WAVECAR not read
 entering main loop
       N       E                     dE             d eps       ncg     rms          rms(c)
DAV:   1     0.407117092190E+01    0.40712E+01   -0.16424E+03  3456   0.599E+02
DAV:   2    -0.100301198891E+02   -0.14101E+02   -0.13474E+02  3456   0.999E+01
DAV:   3    -0.101586022729E+02   -0.12848E+00   -0.12818E+00  3624   0.128E+01
DAV:   4    -0.101599269183E+02   -0.13246E-02   -0.13246E-02  3942   0.137E+00
DAV:   5    -0.101599439774E+02   -0.17059E-04   -0.17059E-04  3612   0.118E-01    0.130E+01
DAV:   6    -0.901173025048E+01    0.11482E+01   -0.33177E+00  3450   0.368E+01    0.203E+00
DAV:   7    -0.892846724994E+01    0.83263E-01   -0.24769E-01  3432   0.903E+00    0.115E+00
DAV:   8    -0.891644468612E+01    0.12023E-01   -0.71583E-03  3432   0.167E+00    0.239E-01
DAV:   9    -0.891560671917E+01    0.83797E-03   -0.14098E-03  4482   0.375E-01    0.599E-02
DAV:  10    -0.891555541911E+01    0.51300E-04   -0.86354E-06  4350   0.345E-02    0.154E-02
DAV:  11    -0.891554375058E+01    0.11669E-04   -0.82389E-06  3456   0.490E-02    0.579E-04
DAV:  12    -0.891554403852E+01   -0.28795E-06   -0.20899E-08  1716   0.177E-03
   1 F= -.89155440E+01 E0= -.89155387E+01  d E =-.158833E-04
Warning: ieee_invalid is signaling
Warning: ieee_divide_by_zero is signaling
Warning: ieee_underflow is signaling
Warning: ieee_inexact is signaling
FORTRAN STOP
