 running    1 mpi-ranks, with    1 threads/rank, on    1 nodes
 distrk:  each k-point on    1 cores,    1 groups
 distr:  one band on    1 cores,    1 groups
 OpenACC runtime initialized ...    1 GPUs detected
 vasp.6.4.2 20Jul23 (build Mar  2 2025 11:04:54) complex                         
 POSCAR found type information on POSCAR Ir
 POSCAR found :  1 types and       1 ions
 scaLAPACK will be used selectively (only on CPU)
 LDA part: xc-table for Pade appr. of Perdew
 -----------------------------------------------------------------------------
|                                                                             |
|           W    W    AA    RRRRR   N    N  II  N    N   GGGG   !!!           |
|           W    W   A  A   R    R  NN   N  II  NN   N  G    G  !!!           |
|           W    W  A    A  R    R  N N  N  II  N N  N  G       !!!           |
|           W WW W  AAAAAA  RRRRR   N  N N  II  N  N N  G  GGG   !            |
|           WW  WW  A    A  R   R   N   NN  II  N   NN  G    G                |
|           W    W  A    A  R    R  N    N  II  N    N   GGGG   !!!           |
|                                                                             |
|     The requested file  could not be found or opened for reading            |
|     k-point information. Automatic k-point generation is used as a          |
|     fallback, which may lead to unwanted results.                           |
|                                                                             |
 -----------------------------------------------------------------------------

 POSCAR, INCAR and KPOINTS ok, starting setup
 FFT: planning ... GRIDC
 FFT: planning ... GRID_SOFT
 FFT: planning ... GRID
 WAVECAR not read
 entering main loop
       N       E                     dE             d eps       ncg     rms          rms(c)
DAV:   1     0.326507885181E+02    0.32651E+02   -0.38900E+03 11816   0.820E+02
DAV:   2    -0.881826501717E+01   -0.41469E+02   -0.39300E+02 11024   0.184E+02
DAV:   3    -0.928174211968E+01   -0.46348E+00   -0.46271E+00 16240   0.262E+01
DAV:   4    -0.928398952017E+01   -0.22474E-02   -0.22472E-02 13488   0.126E+00
DAV:   5    -0.928400602918E+01   -0.16509E-04   -0.16509E-04 16664   0.672E-02    0.174E+01
DAV:   6    -0.885415936583E+01    0.42985E+00   -0.79074E-01 12944   0.125E+01    0.750E+00
DAV:   7    -0.875894003683E+01    0.95219E-01   -0.31451E-01 14384   0.739E+00    0.145E+00
DAV:   8    -0.875641061164E+01    0.25294E-02   -0.11386E-03 11488   0.462E-01    0.111E+00
DAV:   9    -0.875242526622E+01    0.39853E-02   -0.30731E-03 13928   0.923E-01    0.205E-02
DAV:  10    -0.875242929259E+01   -0.40264E-05   -0.83301E-06 14504   0.357E-02    0.201E-02
DAV:  11    -0.875243077985E+01   -0.14873E-05   -0.12141E-06 11936   0.130E-02    0.877E-04
DAV:  12    -0.875243073553E+01    0.44322E-07   -0.23619E-08  6184   0.177E-03
   1 F= -.87524307E+01 E0= -.87523983E+01  d E =-.974033E-04
Warning: ieee_invalid is signaling
Warning: ieee_divide_by_zero is signaling
Warning: ieee_underflow is signaling
Warning: ieee_inexact is signaling
FORTRAN STOP
