   1   1   0   0
  0.1550375E+02  0.2798877E-09  0.2798878E-09  0.2798878E-09  0.5000000E-15
   1.0000000000000000E-004
  CAR 
 Rh FCC EOS static single-point          
     29.77516515      0.59747924  301      9.64701845      1.00000000
      0.597  0.0000E+00  0.0000E+00
      0.695  0.0000E+00  0.0000E+00
      0.792  0.0000E+00  0.0000E+00
      0.889  0.0000E+00  0.0000E+00
      0.987 -0.4531E-30 -0.4407E-31
      1.084 -0.8514E-27 -0.8285E-28
      1.181 -0.9916E-24 -0.9653E-25
      1.278 -0.7173E-21 -0.6986E-22
      1.376 -0.3223E-18 -0.3142E-19
      1.473 -0.8733E-16 -0.8526E-17
      1.570 -0.1506E-13 -0.1473E-14
      1.667 -0.1619E-11 -0.1590E-12
      1.765 -0.1087E-09 -0.1074E-10
      1.862 -0.4585E-08 -0.4566E-09
      1.959 -0.1221E-06 -0.1234E-07
      2.056 -0.2067E-05 -0.2134E-06
      2.154 -0.2217E-04 -0.2370E-05
      2.251 -0.1473E-03 -0.1670E-04
      2.348 -0.5614E-03 -0.7130E-04
      2.445 -0.9068E-03 -0.1595E-03
      2.543  0.1174E-02 -0.4527E-04
      2.640  0.8406E-02  0.7723E-03
      2.737  0.1943E-01  0.2662E-02
      2.834  0.3245E-01  0.5818E-02
      2.932  0.4478E-01  0.1017E-01
      3.029  0.4836E-01  0.1488E-01
      3.126  0.5111E-01  0.1985E-01
      3.223  0.6683E-01  0.2635E-01
      3.321  0.7997E-01  0.3413E-01
      3.418  0.7547E-01  0.4147E-01
      3.515  0.6931E-01  0.4821E-01
      3.613  0.8706E-01  0.5667E-01
      3.710  0.1173E+00  0.6809E-01
      3.807  0.1227E+00  0.8002E-01
      3.904  0.1030E+00  0.9004E-01
      4.002  0.9634E-01  0.9941E-01
      4.099  0.1332E+00  0.1124E+00
      4.196  0.1766E+00  0.1295E+00
      4.293  0.1715E+00  0.1462E+00
      4.391  0.1739E+00  0.1631E+00
      4.488  0.3193E+00  0.1942E+00
      4.585  0.6286E+00  0.2553E+00
      4.682  0.9470E+00  0.3474E+00
      4.780  0.1169E+01  0.4611E+00
      4.877  0.1366E+01  0.5940E+00
      4.974  0.1630E+01  0.7525E+00
      5.071  0.1935E+01  0.9407E+00
      5.169  0.2195E+01  0.1154E+01
      5.266  0.2274E+01  0.1375E+01
      5.363  0.2139E+01  0.1583E+01
      5.460  0.1994E+01  0.1777E+01
      5.558  0.1888E+01  0.1961E+01
      5.655  0.1730E+01  0.2129E+01
      5.752  0.1576E+01  0.2283E+01
      5.849  0.1455E+01  0.2424E+01
      5.947  0.1339E+01  0.2554E+01
      6.044  0.1333E+01  0.2684E+01
      6.141  0.1467E+01  0.2827E+01
      6.238  0.1575E+01  0.2980E+01
      6.336  0.1570E+01  0.3133E+01
      6.433  0.1522E+01  0.3281E+01
      6.530  0.1515E+01  0.3428E+01
      6.628  0.1589E+01  0.3583E+01
      6.725  0.1653E+01  0.3743E+01
      6.822  0.1630E+01  0.3902E+01
      6.919  0.1645E+01  0.4062E+01
      7.017  0.1775E+01  0.4235E+01
      7.114  0.1946E+01  0.4424E+01
      7.211  0.2193E+01  0.4637E+01
      7.308  0.2596E+01  0.4890E+01
      7.406  0.2936E+01  0.5175E+01
      7.503  0.2830E+01  0.5450E+01
      7.600  0.2322E+01  0.5676E+01
      7.697  0.1879E+01  0.5859E+01
      7.795  0.1724E+01  0.6027E+01
      7.892  0.1629E+01  0.6185E+01
      7.989  0.1456E+01  0.6327E+01
      8.086  0.1412E+01  0.6464E+01
      8.184  0.1528E+01  0.6613E+01
      8.281  0.1564E+01  0.6765E+01
      8.378  0.1538E+01  0.6914E+01
      8.475  0.1626E+01  0.7072E+01
      8.573  0.1828E+01  0.7250E+01
      8.670  0.2037E+01  0.7448E+01
      8.767  0.2063E+01  0.7649E+01
      8.864  0.1798E+01  0.7824E+01
      8.962  0.1476E+01  0.7967E+01
      9.059  0.1411E+01  0.8105E+01
      9.156  0.1571E+01  0.8257E+01
      9.254  0.1633E+01  0.8416E+01
      9.351  0.1469E+01  0.8559E+01
      9.448  0.1353E+01  0.8691E+01
      9.545  0.1472E+01  0.8834E+01
      9.643  0.1633E+01  0.8993E+01
      9.740  0.1681E+01  0.9156E+01
      9.837  0.1772E+01  0.9328E+01
      9.934  0.2091E+01  0.9532E+01
     10.032  0.2526E+01  0.9777E+01
     10.129  0.2684E+01  0.1004E+02
     10.226  0.2292E+01  0.1026E+02
     10.323  0.1541E+01  0.1041E+02
     10.421  0.8082E+00  0.1049E+02
     10.518  0.3035E+00  0.1052E+02
     10.615  0.7378E-01  0.1053E+02
     10.712  0.5870E-01  0.1053E+02
     10.810  0.1805E+00  0.1055E+02
     10.907  0.3840E+00  0.1059E+02
     11.004  0.5303E+00  0.1064E+02
     11.101  0.4543E+00  0.1068E+02
     11.199  0.2486E+00  0.1071E+02
     11.296  0.1547E+00  0.1072E+02
     11.393  0.1727E+00  0.1074E+02
     11.490  0.1629E+00  0.1075E+02
     11.588  0.1433E+00  0.1077E+02
     11.685  0.1998E+00  0.1079E+02
     11.782  0.3053E+00  0.1082E+02
     11.880  0.3758E+00  0.1085E+02
     11.977  0.3694E+00  0.1089E+02
     12.074  0.3021E+00  0.1092E+02
     12.171  0.2504E+00  0.1094E+02
     12.269  0.2602E+00  0.1097E+02
     12.366  0.2501E+00  0.1099E+02
     12.463  0.1834E+00  0.1101E+02
     12.560  0.1621E+00  0.1103E+02
     12.658  0.2339E+00  0.1105E+02
     12.755  0.3310E+00  0.1108E+02
     12.852  0.3665E+00  0.1112E+02
     12.949  0.3155E+00  0.1115E+02
     13.047  0.2538E+00  0.1117E+02
     13.144  0.2523E+00  0.1120E+02
     13.241  0.2689E+00  0.1122E+02
     13.338  0.2354E+00  0.1125E+02
     13.436  0.1807E+00  0.1126E+02
     13.533  0.1882E+00  0.1128E+02
     13.630  0.2719E+00  0.1131E+02
     13.727  0.3529E+00  0.1134E+02
     13.825  0.3581E+00  0.1138E+02
     13.922  0.3044E+00  0.1141E+02
     14.019  0.2376E+00  0.1143E+02
     14.116  0.1865E+00  0.1145E+02
     14.214  0.1911E+00  0.1147E+02
     14.311  0.2262E+00  0.1149E+02
     14.408  0.2218E+00  0.1151E+02
     14.506  0.1730E+00  0.1153E+02
     14.603  0.1466E+00  0.1154E+02
     14.700  0.2193E+00  0.1156E+02
     14.797  0.3540E+00  0.1160E+02
     14.895  0.3833E+00  0.1164E+02
     14.992  0.2555E+00  0.1166E+02
     15.089  0.1427E+00  0.1167E+02
     15.186  0.1498E+00  0.1169E+02
     15.284  0.1865E+00  0.1171E+02
     15.381  0.1914E+00  0.1173E+02
     15.478  0.1775E+00  0.1174E+02
     15.575  0.1319E+00  0.1176E+02
     15.673  0.9888E-01  0.1177E+02
     15.770  0.1402E+00  0.1178E+02
     15.867  0.2124E+00  0.1180E+02
     15.964  0.2568E+00  0.1182E+02
     16.062  0.2599E+00  0.1185E+02
     16.159  0.2083E+00  0.1187E+02
     16.256  0.1409E+00  0.1188E+02
     16.353  0.1078E+00  0.1189E+02
     16.451  0.7632E-01  0.1190E+02
     16.548  0.4495E-01  0.1191E+02
     16.645  0.7414E-01  0.1191E+02
     16.742  0.1329E+00  0.1193E+02
     16.840  0.1238E+00  0.1194E+02
     16.937  0.8750E-01  0.1195E+02
     17.034  0.1716E+00  0.1196E+02
     17.132  0.3720E+00  0.1200E+02
     17.229  0.5287E+00  0.1205E+02
     17.326  0.5450E+00  0.1210E+02
     17.423  0.4681E+00  0.1215E+02
     17.521  0.4285E+00  0.1219E+02
     17.618  0.4238E+00  0.1223E+02
     17.715  0.3460E+00  0.1227E+02
     17.812  0.2682E+00  0.1229E+02
     17.910  0.2974E+00  0.1232E+02
     18.007  0.3469E+00  0.1235E+02
     18.104  0.3229E+00  0.1239E+02
     18.201  0.2893E+00  0.1241E+02
     18.299  0.3125E+00  0.1244E+02
     18.396  0.3518E+00  0.1248E+02
     18.493  0.3641E+00  0.1251E+02
     18.590  0.3345E+00  0.1255E+02
     18.688  0.2548E+00  0.1257E+02
     18.785  0.1995E+00  0.1259E+02
     18.882  0.2406E+00  0.1261E+02
     18.979  0.3043E+00  0.1264E+02
     19.077  0.3106E+00  0.1267E+02
     19.174  0.2908E+00  0.1270E+02
     19.271  0.2852E+00  0.1273E+02
     19.368  0.3003E+00  0.1276E+02
     19.466  0.3268E+00  0.1279E+02
     19.563  0.3059E+00  0.1282E+02
     19.660  0.2007E+00  0.1284E+02
     19.757  0.1261E+00  0.1285E+02
     19.855  0.2027E+00  0.1287E+02
     19.952  0.3545E+00  0.1291E+02
     20.049  0.4207E+00  0.1295E+02
     20.147  0.3752E+00  0.1298E+02
     20.244  0.3324E+00  0.1302E+02
     20.341  0.3606E+00  0.1305E+02
     20.438  0.3944E+00  0.1309E+02
     20.536  0.3977E+00  0.1313E+02
     20.633  0.4450E+00  0.1317E+02
     20.730  0.5435E+00  0.1323E+02
     20.827  0.6014E+00  0.1328E+02
     20.925  0.5944E+00  0.1334E+02
     21.022  0.5547E+00  0.1340E+02
     21.119  0.4925E+00  0.1344E+02
     21.216  0.4393E+00  0.1349E+02
     21.314  0.4365E+00  0.1353E+02
     21.411  0.4348E+00  0.1357E+02
     21.508  0.3772E+00  0.1361E+02
     21.605  0.3276E+00  0.1364E+02
     21.703  0.3670E+00  0.1367E+02
     21.800  0.4626E+00  0.1372E+02
     21.897  0.5163E+00  0.1377E+02
     21.994  0.4891E+00  0.1382E+02
     22.092  0.4550E+00  0.1386E+02
     22.189  0.4850E+00  0.1391E+02
     22.286  0.4853E+00  0.1396E+02
     22.383  0.3775E+00  0.1399E+02
     22.481  0.2594E+00  0.1402E+02
     22.578  0.2299E+00  0.1404E+02
     22.675  0.3181E+00  0.1407E+02
     22.773  0.4376E+00  0.1411E+02
     22.870  0.4511E+00  0.1416E+02
     22.967  0.4134E+00  0.1420E+02
     23.064  0.4204E+00  0.1424E+02
     23.162  0.4017E+00  0.1428E+02
     23.259  0.3256E+00  0.1431E+02
     23.356  0.2722E+00  0.1434E+02
     23.453  0.2788E+00  0.1436E+02
     23.551  0.3498E+00  0.1440E+02
     23.648  0.4512E+00  0.1444E+02
     23.745  0.4650E+00  0.1449E+02
     23.842  0.3498E+00  0.1452E+02
     23.940  0.2416E+00  0.1454E+02
     24.037  0.2521E+00  0.1457E+02
     24.134  0.3286E+00  0.1460E+02
     24.231  0.3606E+00  0.1464E+02
     24.329  0.3373E+00  0.1467E+02
     24.426  0.3389E+00  0.1470E+02
     24.523  0.3908E+00  0.1474E+02
     24.620  0.4452E+00  0.1478E+02
     24.718  0.4401E+00  0.1483E+02
     24.815  0.3487E+00  0.1486E+02
     24.912  0.2331E+00  0.1488E+02
     25.009  0.2009E+00  0.1490E+02
     25.107  0.2977E+00  0.1493E+02
     25.204  0.4825E+00  0.1498E+02
     25.301  0.6560E+00  0.1504E+02
     25.399  0.7065E+00  0.1511E+02
     25.496  0.6402E+00  0.1517E+02
     25.593  0.5949E+00  0.1523E+02
     25.690  0.6023E+00  0.1529E+02
     25.788  0.5311E+00  0.1534E+02
     25.885  0.3668E+00  0.1538E+02
     25.982  0.3555E+00  0.1541E+02
     26.079  0.8435E+00  0.1549E+02
     26.177  0.1633E+01  0.1565E+02
     26.274  0.1766E+01  0.1582E+02
     26.371  0.1011E+01  0.1592E+02
     26.468  0.2993E+00  0.1595E+02
     26.566  0.9384E-01  0.1596E+02
     26.663  0.1030E+00  0.1597E+02
     26.760  0.8765E-01  0.1598E+02
     26.857  0.4342E-01  0.1598E+02
     26.955  0.2649E-01  0.1599E+02
     27.052  0.4100E-01  0.1599E+02
     27.149  0.5010E-01  0.1599E+02
     27.246  0.3512E-01  0.1600E+02
     27.344  0.1158E-01  0.1600E+02
     27.441 -0.9322E-03  0.1600E+02
     27.538 -0.2233E-02  0.1600E+02
     27.635  0.6735E-03  0.1600E+02
     27.733  0.4993E-02  0.1600E+02
     27.830  0.7143E-02  0.1600E+02
     27.927  0.4616E-02  0.1600E+02
     28.025  0.1010E-02  0.1600E+02
     28.122 -0.3283E-03  0.1600E+02
     28.219 -0.2417E-03  0.1600E+02
     28.316 -0.5858E-04  0.1600E+02
     28.414 -0.7367E-05  0.1600E+02
     28.511 -0.5290E-06  0.1600E+02
     28.608 -0.2250E-07  0.1600E+02
     28.705 -0.5770E-09  0.1600E+02
     28.803 -0.9017E-11  0.1600E+02
     28.900 -0.8636E-13  0.1600E+02
     28.997 -0.5113E-15  0.1600E+02
     29.094  0.0000E+00  0.1600E+02
     29.192  0.0000E+00  0.1600E+02
     29.289  0.0000E+00  0.1600E+02
     29.386  0.0000E+00  0.1600E+02
     29.483  0.0000E+00  0.1600E+02
     29.581  0.0000E+00  0.1600E+02
     29.678  0.0000E+00  0.1600E+02
     29.775  0.0000E+00  0.1600E+02
