       N       E                     dE             d eps       ncg     rms          rms(c)
DAV:   1     0.353658051272E+04    0.35366E+04   -0.57627E+04  2340   0.261E+03
DAV:   2     0.136747645366E+04   -0.21691E+04   -0.20668E+04  2016   0.803E+02
DAV:   3     0.238966952184E+03   -0.11285E+04   -0.10925E+04  2712   0.376E+02
DAV:   4    -0.108483930567E+03   -0.34745E+03   -0.34381E+03  2884   0.207E+02
DAV:   5    -0.130050382738E+03   -0.21566E+02   -0.21153E+02  2928   0.614E+01    0.170E+01
DAV:   6    -0.122546987852E+03    0.75034E+01   -0.37509E+01  3272   0.286E+01    0.595E+00
DAV:   7    -0.122775418012E+03   -0.22843E+00   -0.26028E+00  3048   0.901E+00    0.381E+00
DAV:   8    -0.122916380189E+03   -0.14096E+00   -0.30140E-01  2976   0.374E+00    0.169E+00
DAV:   9    -0.123020043019E+03   -0.10366E+00   -0.10759E-01  2760   0.174E+00    0.504E-01
DAV:  10    -0.123031859140E+03   -0.11816E-01   -0.31538E-02  3072   0.101E+00    0.289E-01
DAV:  11    -0.123035623633E+03   -0.37645E-02   -0.74803E-03  2920   0.536E-01    0.114E-01
DAV:  12    -0.123036196453E+03   -0.57282E-03   -0.38443E-03  3152   0.287E-01    0.802E-02
DAV:  13    -0.123036241642E+03   -0.45188E-04   -0.56257E-04  2688   0.145E-01    0.335E-02
DAV:  14    -0.123036254649E+03   -0.13007E-04   -0.16651E-04  3152   0.572E-02    0.526E-03
DAV:  15    -0.123036259894E+03   -0.52449E-05   -0.97565E-06  2552   0.143E-02    0.478E-03
DAV:  16    -0.123036260174E+03   -0.28000E-06   -0.70477E-07  1608   0.582E-03
   1 F= -.12303626E+03 E0= -.12301573E+03  d E =-.123036E+03
       N       E                     dE             d eps       ncg     rms          rms(c)
DAV:   1    -0.123246897833E+03   -0.21064E+00   -0.51291E+01  2180   0.293E+01    0.369E+00
DAV:   2    -0.123177840553E+03    0.69057E-01   -0.23000E+00  2840   0.726E+00    0.117E+00
DAV:   3    -0.123164463569E+03    0.13377E-01   -0.12981E-01  3024   0.203E+00    0.447E-01
DAV:   4    -0.123160546732E+03    0.39168E-02   -0.12033E-02  3128   0.940E-01    0.202E-01
DAV:   5    -0.123160053030E+03    0.49370E-03   -0.34763E-03  3216   0.379E-01    0.617E-02
DAV:   6    -0.123160131691E+03   -0.78661E-04   -0.14563E-03  3232   0.203E-01    0.526E-02
DAV:   7    -0.123160117433E+03    0.14258E-04   -0.10161E-04  2872   0.541E-02    0.335E-02
DAV:   8    -0.123160110547E+03    0.68865E-05   -0.90765E-05  2440   0.358E-02    0.409E-03
DAV:   9    -0.123160109663E+03    0.88409E-06   -0.93150E-06  2752   0.185E-02
   2 F= -.12316011E+03 E0= -.12314002E+03  d E =-.123849E+00
       N       E                     dE             d eps       ncg     rms          rms(c)
DAV:   1    -0.123447254877E+03   -0.28714E+00   -0.13693E+02  2188   0.480E+01    0.618E+00
DAV:   2    -0.123269088214E+03    0.17817E+00   -0.66026E+00  2808   0.122E+01    0.190E+00
DAV:   3    -0.123235217591E+03    0.33871E-01   -0.33220E-01  3028   0.340E+00    0.770E-01
DAV:   4    -0.123223205637E+03    0.12012E-01   -0.34626E-02  3112   0.164E+00    0.304E-01
DAV:   5    -0.123222447617E+03    0.75802E-03   -0.10191E-02  3064   0.583E-01    0.930E-02
DAV:   6    -0.123222565845E+03   -0.11823E-03   -0.26209E-03  3196   0.271E-01    0.690E-02
DAV:   7    -0.123222521354E+03    0.44491E-04   -0.27432E-04  2976   0.836E-02    0.264E-02
DAV:   8    -0.123222536377E+03   -0.15022E-04   -0.95587E-05  2664   0.426E-02    0.882E-03
DAV:   9    -0.123222534922E+03    0.14550E-05   -0.79635E-06  2704   0.203E-02    0.566E-03
DAV:  10    -0.123222532552E+03    0.23699E-05   -0.35430E-06  1856   0.110E-02    0.266E-03
DAV:  11    -0.123222532819E+03   -0.26716E-06   -0.73335E-07  1440   0.582E-03
   3 F= -.12322253E+03 E0= -.12320311E+03  d E =-.186273E+00
       N       E                     dE             d eps       ncg     rms          rms(c)
DAV:   1    -0.123279124588E+03   -0.56592E-01   -0.40430E+01  2112   0.254E+01    0.230E+00
DAV:   2    -0.123314706858E+03   -0.35582E-01   -0.14073E+00  2712   0.559E+00    0.928E-01
DAV:   3    -0.123304280189E+03    0.10427E-01   -0.92954E-02  3036   0.150E+00    0.297E-01
DAV:   4    -0.123302504725E+03    0.17755E-02   -0.10167E-02  3224   0.776E-01    0.200E-01
DAV:   5    -0.123301831786E+03    0.67294E-03   -0.19385E-03  3208   0.316E-01    0.842E-02
DAV:   6    -0.123301778903E+03    0.52883E-04   -0.10290E-03  3024   0.137E-01    0.305E-02
DAV:   7    -0.123301770529E+03    0.83735E-05   -0.10923E-04  3112   0.494E-02    0.248E-02
DAV:   8    -0.123301758427E+03    0.12102E-04   -0.22518E-05  3176   0.364E-02    0.146E-02
DAV:   9    -0.123301758174E+03    0.25368E-06   -0.28403E-05  2816   0.250E-02    0.468E-03
DAV:  10    -0.123301758655E+03   -0.48120E-06   -0.33581E-06  1672   0.998E-03
   4 F= -.12330176E+03 E0= -.12328232E+03  d E =-.792258E-01
       N       E                     dE             d eps       ncg     rms          rms(c)
DAV:   1    -0.122979283510E+03    0.32247E+00   -0.36551E+02  2188   0.764E+01    0.604E+00
DAV:   2    -0.123614137269E+03   -0.63485E+00   -0.13248E+01  2696   0.170E+01    0.330E+00
DAV:   3    -0.123476973552E+03    0.13716E+00   -0.14179E+00  2840   0.505E+00    0.111E+00
DAV:   4    -0.123452743790E+03    0.24230E-01   -0.17452E-01  3152   0.296E+00    0.691E-01
DAV:   5    -0.123446618416E+03    0.61254E-02   -0.26465E-02  3056   0.119E+00    0.439E-01
DAV:   6    -0.123442545498E+03    0.40729E-02   -0.15982E-02  3112   0.637E-01    0.123E-01
DAV:   7    -0.123442726531E+03   -0.18103E-03   -0.50366E-03  3064   0.379E-01    0.102E-01
DAV:   8    -0.123442642597E+03    0.83934E-04   -0.41479E-04  3168   0.104E-01    0.642E-02
DAV:   9    -0.123442589049E+03    0.53548E-04   -0.46764E-04  3120   0.835E-02    0.159E-02
DAV:  10    -0.123442589041E+03    0.87275E-08   -0.46036E-05  3032   0.334E-02    0.433E-03
DAV:  11    -0.123442591941E+03   -0.29004E-05   -0.28411E-06  1800   0.995E-03    0.209E-03
DAV:  12    -0.123442593074E+03   -0.11332E-05   -0.68163E-07  1520   0.565E-03    0.141E-03
DAV:  13    -0.123442593133E+03   -0.59090E-07   -0.44257E-07  1348   0.433E-03
   5 F= -.12344259E+03 E0= -.12342340E+03  d E =-.220060E+00
       N       E                     dE             d eps       ncg     rms          rms(c)
DAV:   1    -0.118642325515E+03    0.48003E+01   -0.14468E+03  2244   0.153E+02    0.999E+00
DAV:   2    -0.124725302159E+03   -0.60830E+01   -0.75858E+01  2612   0.366E+01    0.930E+00
DAV:   3    -0.123834451856E+03    0.89085E+00   -0.24799E+00  3040   0.903E+00    0.558E+00
DAV:   4    -0.123407162115E+03    0.42729E+00   -0.29853E+00  2768   0.652E+00    0.197E+00
DAV:   5    -0.123341515839E+03    0.65646E-01   -0.27920E-01  2792   0.444E+00    0.698E-01
DAV:   6    -0.123322399728E+03    0.19116E-01   -0.94457E-02  3152   0.236E+00    0.320E-01
DAV:   7    -0.123323821164E+03   -0.14214E-02   -0.45831E-02  3048   0.117E+00    0.303E-01
DAV:   8    -0.123322913248E+03    0.90792E-03   -0.85233E-03  3116   0.503E-01    0.680E-02
DAV:   9    -0.123323022711E+03   -0.10946E-03   -0.13291E-03  2952   0.191E-01    0.610E-02
DAV:  10    -0.123322968486E+03    0.54225E-04   -0.24610E-04  3040   0.688E-02    0.156E-02
DAV:  11    -0.123322976002E+03   -0.75155E-05   -0.32901E-05  2952   0.275E-02    0.831E-03
DAV:  12    -0.123322975240E+03    0.76159E-06   -0.87603E-06  2736   0.148E-02
   6 F= -.12332298E+03 E0= -.12330503E+03  d E =-.100442E+00
       N       E                     dE             d eps       ncg     rms          rms(c)
DAV:   1    -0.122390532091E+03    0.93244E+00   -0.76365E+02  2064   0.110E+02    0.127E+01
DAV:   2    -0.123759032657E+03   -0.13685E+01   -0.46773E+01  2808   0.303E+01    0.424E+00
DAV:   3    -0.123584170012E+03    0.17486E+00   -0.16517E+00  3092   0.101E+01    0.267E+00
DAV:   4    -0.123497297922E+03    0.86872E-01   -0.36686E-01  3192   0.401E+00    0.127E+00
DAV:   5    -0.123459796643E+03    0.37501E-01   -0.16495E-01  3080   0.318E+00    0.449E-01
DAV:   6    -0.123461721309E+03   -0.19247E-02   -0.55556E-02  2984   0.120E+00    0.220E-01
DAV:   7    -0.123461130519E+03    0.59079E-03   -0.39668E-03  3168   0.404E-01    0.118E-01
DAV:   8    -0.123460934223E+03    0.19630E-03   -0.17800E-03  3104   0.202E-01    0.445E-02
DAV:   9    -0.123460923792E+03    0.10431E-04   -0.33379E-04  3240   0.848E-02    0.227E-02
DAV:  10    -0.123460912511E+03    0.11281E-04   -0.60907E-05  2864   0.428E-02    0.626E-03
DAV:  11    -0.123460910724E+03    0.17864E-05   -0.71474E-06  2408   0.155E-02    0.372E-03
DAV:  12    -0.123460909182E+03    0.15417E-05   -0.84381E-07  1440   0.721E-03    0.910E-04
DAV:  13    -0.123460909304E+03   -0.12180E-06   -0.55529E-07  1372   0.463E-03
   7 F= -.12346091E+03 E0= -.12344204E+03  d E =-.238376E+00
       N       E                     dE             d eps       ncg     rms          rms(c)
DAV:   1    -0.123510487460E+03   -0.49578E-01   -0.12232E+01  2148   0.152E+01    0.185E+00
DAV:   2    -0.123489709669E+03    0.20778E-01   -0.51043E-01  3136   0.361E+00    0.693E-01
DAV:   3    -0.123485315398E+03    0.43943E-02   -0.54141E-02  2984   0.126E+00    0.345E-01
DAV:   4    -0.123483672581E+03    0.16428E-02   -0.81512E-03  3192   0.663E-01    0.175E-01
DAV:   5    -0.123483212251E+03    0.46033E-03   -0.33243E-03  3128   0.401E-01    0.995E-02
DAV:   6    -0.123483087967E+03    0.12428E-03   -0.86805E-04  3136   0.143E-01    0.309E-02
DAV:   7    -0.123483081698E+03    0.62687E-05   -0.20812E-04  3096   0.624E-02    0.124E-02
DAV:   8    -0.123483075888E+03    0.58098E-05   -0.17923E-05  3088   0.392E-02    0.104E-02
DAV:   9    -0.123483073552E+03    0.23363E-05   -0.16150E-05  3032   0.196E-02    0.202E-03
DAV:  10    -0.123483073792E+03   -0.23968E-06   -0.16692E-06  1736   0.733E-03
   8 F= -.12348307E+03 E0= -.12346415E+03  d E =-.221645E-01
       N       E                     dE             d eps       ncg     rms          rms(c)
DAV:   1    -0.123494991057E+03   -0.11918E-01   -0.38226E+00  2152   0.846E+00    0.105E+00
DAV:   2    -0.123488232940E+03    0.67581E-02   -0.16178E-01  3144   0.205E+00    0.383E-01
DAV:   3    -0.123486942465E+03    0.12905E-02   -0.16509E-02  2992   0.714E-01    0.197E-01
DAV:   4    -0.123486421397E+03    0.52107E-03   -0.25503E-03  3272   0.373E-01    0.101E-01
DAV:   5    -0.123486262352E+03    0.15904E-03   -0.10388E-03  3120   0.232E-01    0.548E-02
DAV:   6    -0.123486223559E+03    0.38793E-04   -0.27503E-04  3120   0.814E-02    0.176E-02
DAV:   7    -0.123486219352E+03    0.42062E-05   -0.69754E-05  3088   0.362E-02    0.722E-03
DAV:   8    -0.123486215421E+03    0.39320E-05   -0.49758E-06  2144   0.228E-02    0.585E-03
DAV:   9    -0.123486213980E+03    0.14408E-05   -0.59461E-06  2512   0.128E-02    0.147E-03
DAV:  10    -0.123486214381E+03   -0.40083E-06   -0.12114E-06  1536   0.740E-03
   9 F= -.12348621E+03 E0= -.12346727E+03  d E =-.253051E-01
       N       E                     dE             d eps       ncg     rms          rms(c)
DAV:   1    -0.123509405909E+03   -0.23192E-01   -0.28923E+00  2212   0.758E+00    0.122E+00
DAV:   2    -0.123492050887E+03    0.17355E-01   -0.14803E-01  3112   0.193E+00    0.399E-01
DAV:   3    -0.123490426818E+03    0.16241E-02   -0.18015E-02  3088   0.758E-01    0.190E-01
DAV:   4    -0.123490042194E+03    0.38462E-03   -0.27496E-03  3040   0.406E-01    0.105E-01
DAV:   5    -0.123489863325E+03    0.17887E-03   -0.96734E-04  3216   0.297E-01    0.560E-02
DAV:   6    -0.123489843389E+03    0.19936E-04   -0.30938E-04  3216   0.929E-02    0.178E-02
DAV:   7    -0.123489847003E+03   -0.36147E-05   -0.60552E-05  3200   0.386E-02    0.688E-03
DAV:   8    -0.123489855019E+03   -0.80154E-05   -0.95221E-06  2392   0.288E-02    0.720E-03
DAV:   9    -0.123489854905E+03    0.11400E-06   -0.82595E-06  2440   0.139E-02
  10 F= -.12348985E+03 E0= -.12347113E+03  d E =-.364052E-02
