   1   1   0   0
  0.1173494E+02  0.2479520E-09  0.2479520E-09  0.2479520E-09  0.5000000E-15
   1.0000000000000000E-004
  CAR 
 V EOS scale_0.960                       
     20.08492950     -0.22969900  301      7.49653112      1.00000000
     -0.230  0.0000E+00  0.0000E+00
     -0.162  0.0000E+00  0.0000E+00
     -0.094  0.0000E+00  0.0000E+00
     -0.027  0.0000E+00  0.0000E+00
      0.041  0.0000E+00  0.0000E+00
      0.109  0.0000E+00  0.0000E+00
      0.177  0.0000E+00  0.0000E+00
      0.244 -0.6700E-37 -0.4537E-38
      0.312 -0.3397E-27 -0.2301E-28
      0.380 -0.4258E-19 -0.2883E-20
      0.447 -0.1246E-12 -0.8437E-14
      0.515 -0.8634E-08 -0.5846E-09
      0.583 -0.1192E-04 -0.8080E-06
      0.651 -0.6285E-05 -0.1234E-05
      0.718  0.1886E-02  0.1265E-03
      0.786  0.1293E-01  0.1002E-02
      0.854  0.2756E-01  0.2868E-02
      0.921  0.1303E-01  0.3750E-02
      0.989  0.2657E-01  0.5549E-02
      1.057  0.5697E-01  0.9407E-02
      1.125  0.2814E-01  0.1131E-01
      1.192  0.3261E-01  0.1352E-01
      1.260  0.5495E-01  0.1724E-01
      1.328  0.1526E-01  0.1827E-01
      1.395  0.7866E-01  0.2360E-01
      1.463  0.8797E-01  0.2956E-01
      1.531  0.8293E-02  0.3012E-01
      1.599  0.7961E-01  0.3551E-01
      1.666  0.6269E-01  0.3976E-01
      1.734  0.5730E-01  0.4364E-01
      1.802  0.6340E-01  0.4793E-01
      1.869  0.5106E-01  0.5139E-01
      1.937  0.9727E-01  0.5797E-01
      2.005  0.1733E+00  0.6971E-01
      2.073 -0.1049E-01  0.6900E-01
      2.140  0.1075E+00  0.7627E-01
      2.208  0.7800E-01  0.8156E-01
      2.276  0.4369E-01  0.8451E-01
      2.343  0.1247E+00  0.9296E-01
      2.411  0.7584E-01  0.9809E-01
      2.479  0.1773E+00  0.1101E+00
      2.547  0.1074E+00  0.1174E+00
      2.614  0.1641E+00  0.1285E+00
      2.682  0.3918E-01  0.1311E+00
      2.750  0.1121E+00  0.1387E+00
      2.817  0.1094E+00  0.1461E+00
      2.885  0.3652E-01  0.1486E+00
      2.953  0.2307E+00  0.1642E+00
      3.021  0.1153E+00  0.1720E+00
      3.088  0.2456E+00  0.1887E+00
      3.156  0.2091E+00  0.2028E+00
      3.224  0.1309E+00  0.2117E+00
      3.292  0.9388E-01  0.2180E+00
      3.359  0.1516E+00  0.2283E+00
      3.427  0.1661E+00  0.2396E+00
      3.495  0.8550E-01  0.2453E+00
      3.562  0.2887E+00  0.2649E+00
      3.630  0.2535E+00  0.2821E+00
      3.698  0.4755E+00  0.3143E+00
      3.766  0.3304E+00  0.3366E+00
      3.833  0.7375E-01  0.3416E+00
      3.901  0.5959E+00  0.3820E+00
      3.969  0.8570E+00  0.4400E+00
      4.036  0.4603E+00  0.4712E+00
      4.104  0.1309E+01  0.5598E+00
      4.172  0.1149E+01  0.6376E+00
      4.240  0.6915E+00  0.6844E+00
      4.307  0.8453E+00  0.7417E+00
      4.375  0.1187E+01  0.8220E+00
      4.443  0.1123E+01  0.8980E+00
      4.510  0.7308E+00  0.9475E+00
      4.578  0.8155E+00  0.1003E+01
      4.646  0.1452E+01  0.1101E+01
      4.714  0.1701E+01  0.1216E+01
      4.781  0.9677E+00  0.1282E+01
      4.849  0.1317E+01  0.1371E+01
      4.917  0.1133E+01  0.1448E+01
      4.984  0.2042E+01  0.1586E+01
      5.052  0.1704E+01  0.1701E+01
      5.120  0.6350E+00  0.1744E+01
      5.188  0.1077E+01  0.1817E+01
      5.255  0.1035E+01  0.1887E+01
      5.323  0.1008E+01  0.1956E+01
      5.391  0.6260E+00  0.1998E+01
      5.458  0.9403E+00  0.2062E+01
      5.526  0.9382E+00  0.2125E+01
      5.594  0.4935E+00  0.2159E+01
      5.662  0.3151E+00  0.2180E+01
      5.729  0.6942E+00  0.2227E+01
      5.797  0.5451E+00  0.2264E+01
      5.865  0.4322E+00  0.2293E+01
      5.932  0.3864E+00  0.2319E+01
      6.000  0.1515E+01  0.2422E+01
      6.068  0.1899E+01  0.2551E+01
      6.136  0.2364E+01  0.2711E+01
      6.203  0.2848E+01  0.2904E+01
      6.271  0.1769E+01  0.3023E+01
      6.339  0.1849E+01  0.3149E+01
      6.406  0.1695E+01  0.3263E+01
      6.474  0.1109E+01  0.3338E+01
      6.542  0.1600E+01  0.3447E+01
      6.610  0.1213E+01  0.3529E+01
      6.677  0.1364E+01  0.3621E+01
      6.745  0.1443E+01  0.3719E+01
      6.813  0.1874E+01  0.3846E+01
      6.880  0.1280E+01  0.3932E+01
      6.948  0.9913E+00  0.4000E+01
      7.016  0.1619E+01  0.4109E+01
      7.084  0.1559E+01  0.4215E+01
      7.151  0.1815E+01  0.4338E+01
      7.219  0.2070E+01  0.4478E+01
      7.287  0.2144E+01  0.4623E+01
      7.354  0.1545E+01  0.4728E+01
      7.422  0.1763E+01  0.4847E+01
      7.490  0.2056E+01  0.4986E+01
      7.558  0.1564E+01  0.5092E+01
      7.625  0.1091E+01  0.5166E+01
      7.693  0.1435E+01  0.5263E+01
      7.761  0.1325E+01  0.5353E+01
      7.828  0.1110E+01  0.5428E+01
      7.896  0.7639E+00  0.5480E+01
      7.964  0.6675E+00  0.5525E+01
      8.032  0.4389E+00  0.5555E+01
      8.099  0.6867E+00  0.5601E+01
      8.167  0.5441E+00  0.5638E+01
      8.235  0.4423E+00  0.5668E+01
      8.302  0.3418E+00  0.5691E+01
      8.370  0.5183E+00  0.5726E+01
      8.438  0.4550E+00  0.5757E+01
      8.506  0.8372E+00  0.5814E+01
      8.573  0.4931E+00  0.5847E+01
      8.641  0.4141E+00  0.5875E+01
      8.709  0.3424E+00  0.5898E+01
      8.776  0.2418E+00  0.5915E+01
      8.844  0.4195E+00  0.5943E+01
      8.912  0.6168E+00  0.5985E+01
      8.980  0.6401E+00  0.6028E+01
      9.047  0.6253E+00  0.6071E+01
      9.115  0.8752E+00  0.6130E+01
      9.183  0.9437E+00  0.6194E+01
      9.250  0.6219E+00  0.6236E+01
      9.318  0.1078E+01  0.6309E+01
      9.386  0.1024E+01  0.6378E+01
      9.454  0.1580E+01  0.6485E+01
      9.521  0.1126E+01  0.6562E+01
      9.589  0.9373E+00  0.6625E+01
      9.657  0.1158E+01  0.6703E+01
      9.724  0.1804E+01  0.6826E+01
      9.792  0.1051E+01  0.6897E+01
      9.860  0.1414E+01  0.6993E+01
      9.928  0.1542E+01  0.7097E+01
      9.995  0.2646E+01  0.7276E+01
     10.063  0.1738E+01  0.7394E+01
     10.131  0.2099E+01  0.7536E+01
     10.198  0.1687E+01  0.7650E+01
     10.266  0.1950E+01  0.7782E+01
     10.334  0.2108E+01  0.7925E+01
     10.402  0.1897E+01  0.8053E+01
     10.469  0.2015E+01  0.8190E+01
     10.537  0.1873E+01  0.8317E+01
     10.605  0.2275E+01  0.8471E+01
     10.672  0.2132E+01  0.8615E+01
     10.740  0.2848E+01  0.8808E+01
     10.808  0.4875E+01  0.9138E+01
     10.876  0.2720E+01  0.9322E+01
     10.943  0.1822E+01  0.9446E+01
     11.011  0.1517E+01  0.9548E+01
     11.079  0.1379E+01  0.9642E+01
     11.146  0.1140E+01  0.9719E+01
     11.214  0.1223E+01  0.9802E+01
     11.282  0.9994E+00  0.9870E+01
     11.350  0.7288E+00  0.9919E+01
     11.417  0.9257E+00  0.9982E+01
     11.485  0.1335E+01  0.1007E+02
     11.553  0.1738E+01  0.1019E+02
     11.621  0.1150E+01  0.1027E+02
     11.688  0.7505E+00  0.1032E+02
     11.756  0.8813E+00  0.1038E+02
     11.824  0.8336E+00  0.1043E+02
     11.891  0.4716E+00  0.1047E+02
     11.959  0.7421E+00  0.1052E+02
     12.027  0.6461E+00  0.1056E+02
     12.095  0.6700E+00  0.1061E+02
     12.162  0.5799E+00  0.1065E+02
     12.230  0.2444E+00  0.1066E+02
     12.298  0.3669E+00  0.1069E+02
     12.365  0.7347E+00  0.1074E+02
     12.433  0.7251E+00  0.1079E+02
     12.501  0.1892E+00  0.1080E+02
     12.569  0.3334E+00  0.1082E+02
     12.636  0.2234E+00  0.1084E+02
     12.704  0.2456E+00  0.1085E+02
     12.772  0.2353E+00  0.1087E+02
     12.839  0.1757E+00  0.1088E+02
     12.907  0.4188E+00  0.1091E+02
     12.975  0.1778E+00  0.1092E+02
     13.043  0.3617E+00  0.1095E+02
     13.110  0.4545E+00  0.1098E+02
     13.178  0.1517E+00  0.1099E+02
     13.246  0.2438E+00  0.1100E+02
     13.313  0.5975E+00  0.1104E+02
     13.381  0.2950E+00  0.1106E+02
     13.449  0.5554E+00  0.1110E+02
     13.517  0.1779E+00  0.1111E+02
     13.584  0.1938E+00  0.1113E+02
     13.652  0.2259E+00  0.1114E+02
     13.720  0.1181E+00  0.1115E+02
     13.787  0.2471E+00  0.1117E+02
     13.855  0.3731E+00  0.1119E+02
     13.923  0.3676E+00  0.1122E+02
     13.991  0.6780E-01  0.1122E+02
     14.058  0.1302E+00  0.1123E+02
     14.126  0.2901E+00  0.1125E+02
     14.194  0.5617E+00  0.1129E+02
     14.261  0.5484E+00  0.1132E+02
     14.329  0.1197E+00  0.1133E+02
     14.397  0.2006E+00  0.1135E+02
     14.465  0.5388E+00  0.1138E+02
     14.532  0.1085E+00  0.1139E+02
     14.600  0.1636E+00  0.1140E+02
     14.668  0.2483E-01  0.1140E+02
     14.735  0.2189E+00  0.1142E+02
     14.803  0.4677E+00  0.1145E+02
     14.871  0.7448E-01  0.1145E+02
     14.939  0.1210E+00  0.1146E+02
     15.006  0.3353E+00  0.1149E+02
     15.074  0.2314E+00  0.1150E+02
     15.142  0.3814E+00  0.1153E+02
     15.209  0.2033E+00  0.1154E+02
     15.277  0.3477E+00  0.1156E+02
     15.345  0.3992E+00  0.1159E+02
     15.413  0.1785E+00  0.1160E+02
     15.480  0.5320E-01  0.1161E+02
     15.548  0.1477E+00  0.1162E+02
     15.616  0.2651E+00  0.1163E+02
     15.683  0.2023E+00  0.1165E+02
     15.751  0.1055E+00  0.1166E+02
     15.819  0.1633E+00  0.1167E+02
     15.887  0.2407E+00  0.1168E+02
     15.954  0.2070E+00  0.1170E+02
     16.022  0.5684E-01  0.1170E+02
     16.090  0.1033E+00  0.1171E+02
     16.157  0.4379E+00  0.1174E+02
     16.225  0.6476E-01  0.1174E+02
     16.293  0.4461E+00  0.1177E+02
     16.361  0.2203E+00  0.1179E+02
     16.428  0.1541E+00  0.1180E+02
     16.496  0.1296E+00  0.1181E+02
     16.564  0.7161E-01  0.1181E+02
     16.631  0.1500E+00  0.1182E+02
     16.699  0.8168E-01  0.1183E+02
     16.767  0.6643E-01  0.1183E+02
     16.835  0.1980E+00  0.1184E+02
     16.902  0.9670E-01  0.1185E+02
     16.970  0.1373E+00  0.1186E+02
     17.038  0.4970E-01  0.1186E+02
     17.105  0.1967E+00  0.1188E+02
     17.173  0.1145E+00  0.1188E+02
     17.241  0.2621E+00  0.1190E+02
     17.309  0.1720E+00  0.1191E+02
     17.376  0.1107E+00  0.1192E+02
     17.444  0.1183E+00  0.1193E+02
     17.512  0.3023E-02  0.1193E+02
     17.579  0.3779E-01  0.1193E+02
     17.647  0.1637E+00  0.1194E+02
     17.715  0.4969E-01  0.1195E+02
     17.783  0.4832E-01  0.1195E+02
     17.850  0.2672E-01  0.1195E+02
     17.918  0.6883E-01  0.1196E+02
     17.986  0.7005E-01  0.1196E+02
     18.053  0.1194E+00  0.1197E+02
     18.121 -0.3115E-02  0.1197E+02
     18.189  0.1959E-01  0.1197E+02
     18.257  0.7517E-01  0.1198E+02
     18.324  0.8523E-01  0.1198E+02
     18.392  0.8249E-02  0.1198E+02
     18.460  0.2134E-01  0.1198E+02
     18.527  0.7480E-01  0.1199E+02
     18.595  0.2368E-01  0.1199E+02
     18.663  0.1982E-02  0.1199E+02
     18.731  0.6896E-01  0.1199E+02
     18.798  0.4566E-02  0.1200E+02
     18.866  0.1567E-01  0.1200E+02
     18.934  0.1093E-01  0.1200E+02
     19.001  0.1617E-01  0.1200E+02
     19.069  0.2049E-02  0.1200E+02
     19.137  0.3528E-02  0.1200E+02
     19.205  0.2220E-01  0.1200E+02
     19.272 -0.1219E-04  0.1200E+02
     19.340 -0.9538E-04  0.1200E+02
     19.408 -0.6907E-07  0.1200E+02
     19.475 -0.9967E-12  0.1200E+02
     19.543  0.0000E+00  0.1200E+02
     19.611  0.0000E+00  0.1200E+02
     19.679  0.0000E+00  0.1200E+02
     19.746  0.0000E+00  0.1200E+02
     19.814  0.0000E+00  0.1200E+02
     19.882  0.0000E+00  0.1200E+02
     19.949  0.0000E+00  0.1200E+02
     20.017  0.0000E+00  0.1200E+02
     20.085  0.0000E+00  0.1200E+02
