Fe15 Se16                               
    1.000000000000000     
     7.3455454554340252   -0.0000081502497511    0.0000085508631844
    -0.0000061146402797    7.3455434085263525    0.0000003791782112
    -0.0000041913357532    0.0000087618795035   12.1572719450222788
   Fe   Se
    15    16
Direct
     0.1250000000000000    0.3750000000000000    0.5000000000000000
     0.1249999985982738    0.8749999986786778    0.0075372855398401
     0.1249999999916960    0.8749999999921725    0.4999057747360955
     0.6250000014017263    0.3750000013213227    0.9924627144601602
     0.6250000000083037    0.3750000000078276    0.5000942252639040
     0.6250000000000000    0.8750000000000000    0.0000000000000000
     0.6250000000000000    0.8750000000000000    0.5000000000000000
     0.3718701178869594    0.1281298822971697    0.0000000000017107
     0.3750568457425735    0.1249431542465621    0.4999999999997658
     0.3718701166037685    0.6218701164196392    0.0000000000579374
     0.3750568458182867    0.6250568458291513    0.4999999999920684
     0.8781298833962317    0.1281298835803606    0.9999999999420623
     0.8749431541817131    0.1249431541708487    0.5000000000079317
     0.8781298821130405    0.6218701177028304    0.9999999999982893
     0.8749431542574263    0.6250568457534376    0.5000000000002343
     0.1249994987254336    0.1269733031439387    0.1120794514345805
     0.1249995007492138    0.1249629613787213    0.6141309774407377
     0.1249995052334576    0.6230267005878666    0.1120794509431223
     0.1249995005732211    0.6250370398678559    0.6141309774513179
     0.6249995010841343    0.1291174310888280    0.1121403967003455
     0.6249995006194322    0.1249850438994942    0.6142866144877948
     0.6249995001990384    0.6208825701207390    0.1121403968178142
     0.6249995007316034    0.6250149573740428    0.6142866144673242
     0.3750375386086037    0.3749999992887150    0.3858690225595839
     0.3730271958086612    0.3750000013881094    0.8879205485504663
     0.3750154560456608    0.8749999994193171    0.3857133855115820
     0.3708830690013747    0.8749999989526687    0.8878596033032283
     0.8749634600689614    0.3749999994647077    0.3858690225483601
     0.8769738002324478    0.3749999948800853    0.8879205490718307
     0.8749855426033039    0.8749999993071456    0.3857133855332986
     0.8791179297154529    0.8749999998377643    0.8878596031786116
 
  0.00000000E+00  0.00000000E+00  0.00000000E+00
  0.00000000E+00  0.00000000E+00  0.00000000E+00
  0.00000000E+00  0.00000000E+00  0.00000000E+00
  0.00000000E+00  0.00000000E+00  0.00000000E+00
  0.00000000E+00  0.00000000E+00  0.00000000E+00
  0.00000000E+00  0.00000000E+00  0.00000000E+00
  0.00000000E+00  0.00000000E+00  0.00000000E+00
  0.00000000E+00  0.00000000E+00  0.00000000E+00
  0.00000000E+00  0.00000000E+00  0.00000000E+00
  0.00000000E+00  0.00000000E+00  0.00000000E+00
  0.00000000E+00  0.00000000E+00  0.00000000E+00
  0.00000000E+00  0.00000000E+00  0.00000000E+00
  0.00000000E+00  0.00000000E+00  0.00000000E+00
  0.00000000E+00  0.00000000E+00  0.00000000E+00
  0.00000000E+00  0.00000000E+00  0.00000000E+00
  0.00000000E+00  0.00000000E+00  0.00000000E+00
  0.00000000E+00  0.00000000E+00  0.00000000E+00
  0.00000000E+00  0.00000000E+00  0.00000000E+00
  0.00000000E+00  0.00000000E+00  0.00000000E+00
  0.00000000E+00  0.00000000E+00  0.00000000E+00
  0.00000000E+00  0.00000000E+00  0.00000000E+00
  0.00000000E+00  0.00000000E+00  0.00000000E+00
  0.00000000E+00  0.00000000E+00  0.00000000E+00
  0.00000000E+00  0.00000000E+00  0.00000000E+00
  0.00000000E+00  0.00000000E+00  0.00000000E+00
  0.00000000E+00  0.00000000E+00  0.00000000E+00
  0.00000000E+00  0.00000000E+00  0.00000000E+00
  0.00000000E+00  0.00000000E+00  0.00000000E+00
  0.00000000E+00  0.00000000E+00  0.00000000E+00
  0.00000000E+00  0.00000000E+00  0.00000000E+00
  0.00000000E+00  0.00000000E+00  0.00000000E+00
