 running    1 mpi-ranks, with    2 threads/rank, on    1 nodes
 distrk:  each k-point on    1 cores,    1 groups
 distr:  one band on    1 cores,    1 groups
 OpenACC runtime initialized ...    1 GPUs detected
 vasp.6.4.2 20Jul23 (build Mar  2 2025 11:04:54) complex                         
 POSCAR found type information on POSCAR V 
 POSCAR found :  1 types and       1 ions
 scaLAPACK will be used selectively (only on CPU)
 LDA part: xc-table for Pade appr. of Perdew
 -----------------------------------------------------------------------------
|                                                                             |
|           W    W    AA    RRRRR   N    N  II  N    N   GGGG   !!!           |
|           W    W   A  A   R    R  NN   N  II  NN   N  G    G  !!!           |
|           W    W  A    A  R    R  N N  N  II  N N  N  G       !!!           |
|           W WW W  AAAAAA  RRRRR   N  N N  II  N  N N  G  GGG   !            |
|           WW  WW  A    A  R   R   N   NN  II  N   NN  G    G                |
|           W    W  A    A  R    R  N    N  II  N    N   GGGG   !!!           |
|                                                                             |
|     The requested file  could not be found or opened for reading            |
|     k-point information. Automatic k-point generation is used as a          |
|     fallback, which may lead to unwanted results.                           |
|                                                                             |
 -----------------------------------------------------------------------------

 POSCAR, INCAR and KPOINTS ok, starting setup
 FFT: planning ... GRIDC
 FFT: planning ... GRID_SOFT
 FFT: planning ... GRID
 WAVECAR not read
 entering main loop
       N       E                     dE             d eps       ncg     rms          rms(c)
DAV:   1     0.133445412405E+01    0.13345E+01   -0.14138E+03  3108   0.469E+02
DAV:   2    -0.101977119039E+02   -0.11532E+02   -0.11041E+02  3102   0.916E+01
DAV:   3    -0.103097858194E+02   -0.11207E+00   -0.11079E+00  3252   0.110E+01
DAV:   4    -0.103109664991E+02   -0.11807E-02   -0.11807E-02  3594   0.123E+00
DAV:   5    -0.103109786173E+02   -0.12118E-04   -0.12120E-04  3246   0.917E-02    0.119E+01
DAV:   6    -0.902270076205E+01    0.12883E+01   -0.41757E+00  3108   0.394E+01    0.182E+00
DAV:   7    -0.895776772992E+01    0.64933E-01   -0.17915E-01  3084   0.722E+00    0.118E+00
DAV:   8    -0.894595598760E+01    0.11812E-01   -0.49150E-03  3072   0.123E+00    0.214E-01
DAV:   9    -0.894560106756E+01    0.35492E-03   -0.71508E-04  3954   0.213E-01    0.698E-02
DAV:  10    -0.894553600459E+01    0.65063E-04   -0.39210E-05  3348   0.940E-02    0.566E-03
DAV:  11    -0.894553635924E+01   -0.35465E-06   -0.14191E-06  1542   0.243E-02
   1 F= -.89455364E+01 E0= -.89454376E+01  d E =-.296289E-03
Warning: ieee_invalid is signaling
Warning: ieee_divide_by_zero is signaling
Warning: ieee_underflow is signaling
Warning: ieee_inexact is signaling
FORTRAN STOP
