 running    1 mpi-ranks, with    2 threads/rank, on    1 nodes
 distrk:  each k-point on    1 cores,    1 groups
 distr:  one band on    1 cores,    1 groups
 OpenACC runtime initialized ...    1 GPUs detected
 vasp.6.4.2 20Jul23 (build Mar  2 2025 11:04:54) complex                         
 POSCAR found type information on POSCAR V 
 POSCAR found :  1 types and       1 ions
 scaLAPACK will be used selectively (only on CPU)
 LDA part: xc-table for Pade appr. of Perdew
 -----------------------------------------------------------------------------
|                                                                             |
|           W    W    AA    RRRRR   N    N  II  N    N   GGGG   !!!           |
|           W    W   A  A   R    R  NN   N  II  NN   N  G    G  !!!           |
|           W    W  A    A  R    R  N N  N  II  N N  N  G       !!!           |
|           W WW W  AAAAAA  RRRRR   N  N N  II  N  N N  G  GGG   !            |
|           WW  WW  A    A  R   R   N   NN  II  N   NN  G    G                |
|           W    W  A    A  R    R  N    N  II  N    N   GGGG   !!!           |
|                                                                             |
|     The requested file  could not be found or opened for reading            |
|     k-point information. Automatic k-point generation is used as a          |
|     fallback, which may lead to unwanted results.                           |
|                                                                             |
 -----------------------------------------------------------------------------

 POSCAR, INCAR and KPOINTS ok, starting setup
 FFT: planning ... GRIDC
 FFT: planning ... GRID_SOFT
 FFT: planning ... GRID
 WAVECAR not read
 WARNING: random wavefunctions but no delay for mixing, default for NELMDL
 entering main loop
       N       E                     dE             d eps       ncg     rms          rms(c)
DAV:   1     0.257856037615E+01    0.25786E+01   -0.15322E+03  3102   0.533E+02
DAV:   2    -0.101732030523E+02   -0.12752E+02   -0.12119E+02  3096   0.937E+01
DAV:   3    -0.103092304826E+02   -0.13603E+00   -0.13561E+00  3240   0.126E+01
DAV:   4    -0.103107182108E+02   -0.14877E-02   -0.14877E-02  3588   0.143E+00
DAV:   5    -0.103107377935E+02   -0.19583E-04   -0.19583E-04  3240   0.118E-01    0.120E+01
DAV:   6    -0.901893327652E+01    0.12918E+01   -0.41909E+00  3108   0.402E+01    0.183E+00
DAV:   7    -0.895421613704E+01    0.64717E-01   -0.17984E-01  3090   0.733E+00    0.119E+00
DAV:   8    -0.894241698779E+01    0.11799E-01   -0.49514E-03  3072   0.126E+00    0.216E-01
DAV:   9    -0.894205814455E+01    0.35884E-03   -0.74181E-04  3984   0.221E-01    0.715E-02
DAV:  10    -0.894199023489E+01    0.67910E-04   -0.41339E-05  3360   0.991E-02    0.529E-03
DAV:  11    -0.894199040086E+01   -0.16597E-06   -0.13526E-06  1554   0.244E-02
   1 F= -.89419904E+01 E0= -.89418924E+01  d E =-.294139E-03
Warning: ieee_invalid is signaling
Warning: ieee_divide_by_zero is signaling
Warning: ieee_underflow is signaling
Warning: ieee_inexact is signaling
FORTRAN STOP
