 vasp.6.4.2 20Jul23 (build Mar  2 2025 11:04:54) complex                         
 executed on              LinuxNV date 2026.04.07  10:23:07
 running    1 mpi-ranks, with    2 threads/rank, on    1 nodes
 distrk:  each k-point on    1 cores,    1 groups
 distr:  one band on NCORE=   1 cores,    1 groups
 OpenACC runtime initialized ...    1 GPUs detected


--------------------------------------------------------------------------------------------------------


 INCAR:
   EDIFF = 1e-06
   ENCUT = 400
   IBRION = -1
   ISIF = 2
   ISMEAR = 1
   KGAMMA = True
   KSPACING = 0.12
   LCHARG = False
   LWAVE = False
   NSW = 0
   PREC = Accurate
   SIGMA = 0.05
   SYSTEM = V KSPACING 0.12

 POTCAR:    PAW_PBE V 08Apr2002                   
 POTCAR:    PAW_PBE V 08Apr2002                   
   SHA256 =  ef546ef2c242197bded3fc1a147275a02051e3e940c74ac2c3352ea17412f79c V/POTCAR              
   COPYR  = (c) Copyright 08Apr2002 Georg Kresse                                                    
   COPYR  = This file is part of the software VASP. Any use, copying, and all other rights are regul
   COPYR  = If you do not have a valid VASP license, you may not use, copy or distribute this file. 
   VRHFIN =V: p6 d4 s1                                                                              
   LEXCH  = PE                                                                                      
   EATOM  =   170.8679 eV,   12.5584 Ry                                                             
                                                                                                    
   TITEL  = PAW_PBE V 08Apr2002                                                                     
   LULTRA =        F    use ultrasoft PP ?                                                          
   IUNSCR =        1    unscreen: 0-lin 1-nonlin 2-no                                               
   RPACOR =    2.000    partial core radius                                                         
   POMASS =   50.941; ZVAL   =    5.000    mass and valenz                                          
   RCORE  =    2.700    outmost cutoff radius                                                       
   RWIGS  =    2.500; RWIGS  =    1.323    wigner-seitz radius (au A)                               
   ENMAX  =  192.543; ENMIN  =  144.408 eV                                                          
   RCLOC  =    1.779    cutoff for local pot                                                        
   LCOR   =        T    correct aug charges                                                         
   LPAW   =        T    paw PP                                                                      
   EAUG   =  358.662                                                                                
   DEXC   =    0.000                                                                                
   RMAX   =    2.768    core radius for proj-oper                                                   
   RAUG   =    1.300    factor for augmentation sphere                                              
   RDEP   =    2.762    radius for radial grids                                                     
   RDEPT  =    2.240    core radius for aug-charge                                                  
                                                                                                    
   Atomic configuration                                                                             
    9 entries                                                                                       
     n  l   j            E        occ.                                                              
     1  0  0.50     -5360.7193   2.0000                                                             
     2  0  0.50      -598.4546   2.0000                                                             
     2  1  1.50      -499.0155   6.0000                                                             
     3  0  0.50       -66.5711   2.0000                                                             
     3  1  1.50       -40.5282   6.0000                                                             
     3  2  2.50        -2.4291   4.0000                                                             
     4  0  0.50        -3.8743   1.0000                                                             
     4  1  0.50        -2.7212   0.0000                                                             
     4  3  2.50        -1.3606   0.0000                                                             
   Description                                                                                      
     l       E           TYP  RCUT    TYP  RCUT                                                     
     2     -2.4290901     23  2.700                                                                 
     2     -3.7896727     23  2.700                                                                 
     0     -3.8742752     23  2.700                                                                 
     0     27.2116520     23  2.700                                                                 
     1     -2.7211652     23  2.700                                                                 
     1     27.2116520     23  2.700                                                                 
  local pseudopotential read in
  partial core-charges read in
  partial kinetic energy density read in
  atomic valenz-charges read in
  non local Contribution for L=            2  read in
    real space projection operators read in
  non local Contribution for L=            2  read in
    real space projection operators read in
  non local Contribution for L=            0  read in
    real space projection operators read in
  non local Contribution for L=            0  read in
    real space projection operators read in
  non local Contribution for L=            1  read in
    real space projection operators read in
  non local Contribution for L=            1  read in
    real space projection operators read in
    PAW grid and wavefunctions read in
 
   number of l-projection  operators is LMAX  =            6
   number of lm-projection operators is LMMAX =           18
 
  PAW_PBE V 08Apr2002                   :
 energy of atom  1       EATOM= -170.8679
 kinetic energy error for atom=    0.0010 (will be added to EATOM!!)
 
 
 POSCAR: V1
  positions in direct lattice
  No initial velocities read in
 exchange correlation table for  LEXCH =        8
   RHO(1)=    0.500       N(1)  =     2000
   RHO(2)=  100.500       N(2)  =     4000
 


--------------------------------------------------------------------------------------------------------


 ion  position               nearest neighbor table
   1  0.000  0.000  0.000-
 
  LATTYP: Found a body centered cubic cell.
 ALAT       =     2.9823993716
  
  Lattice vectors:
  
 A1 = (   2.4351187600,   0.0000000000,  -0.8609448800)
 A2 = (  -1.2175593800,   2.1088745100,  -0.8609448800)
 A3 = (  -0.0000000000,  -0.0000000000,   2.5828336200)


Analysis of symmetry for initial positions (statically):
=====================================================================
 Subroutine PRICEL returns:
 Original cell was already a primitive cell.
 

 Routine SETGRP: Setting up the symmetry group for a 
 body centered cubic supercell.


 Subroutine GETGRP returns: Found 48 space group operations
 (whereof 48 operations were pure point group operations)
 out of a pool of 48 trial point group operations.


The static configuration has the point symmetry O_h .


Analysis of symmetry for dynamics (positions and initial velocities):
=====================================================================
 Subroutine PRICEL returns:
 Original cell was already a primitive cell.
 

 Routine SETGRP: Setting up the symmetry group for a 
 body centered cubic supercell.


 Subroutine GETGRP returns: Found 48 space group operations
 (whereof 48 operations were pure point group operations)
 out of a pool of 48 trial point group operations.


The dynamic configuration has the point symmetry O_h .


 Subroutine INISYM returns: Found 48 space group operations
 (whereof 48 operations are pure point group operations),
 and found     1 'primitive' translations


----------------------------------------------------------------------------------------

                                     Primitive cell                                     

  volume of cell :      13.2638

  direct lattice vectors                    reciprocal lattice vectors
     2.435118760  0.000000000 -0.860944880     0.410657589  0.237093292  0.000000000
    -1.217559380  2.108874510 -0.860944880     0.000000000  0.474186584  0.000000000
    -0.000000000 -0.000000000  2.582833620     0.136885917  0.237093386  0.387171668

  length of vectors
     2.582833611  2.582833450  2.582833620     0.474186551  0.474186584  0.474186596

  position of ions in fractional coordinates (direct lattice)
     0.000000000  0.000000000  0.000000000

  ion indices of the primitive-cell ions
   primitive index   ion index
                 1           1

----------------------------------------------------------------------------------------

 
 -----------------------------------------------------------------------------
|                                                                             |
|           W    W    AA    RRRRR   N    N  II  N    N   GGGG   !!!           |
|           W    W   A  A   R    R  NN   N  II  NN   N  G    G  !!!           |
|           W    W  A    A  R    R  N N  N  II  N N  N  G       !!!           |
|           W WW W  AAAAAA  RRRRR   N  N N  II  N  N N  G  GGG   !            |
|           WW  WW  A    A  R   R   N   NN  II  N   NN  G    G                |
|           W    W  A    A  R    R  N    N  II  N    N   GGGG   !!!           |
|                                                                             |
|     The requested file  could not be found or opened for reading            |
|     k-point information. Automatic k-point generation is used as a          |
|     fallback, which may lead to unwanted results.                           |
|                                                                             |
 -----------------------------------------------------------------------------

 

Automatic generation of k-mesh.
 Grid dimensions derived from KSPACING:
 generate k-points for:   25   25   25

 Generating k-lattice:

  Cartesian coordinates                     Fractional coordinates (reciprocal lattice)
     0.016426304  0.009483732  0.000000000     0.040000000  0.000000000  0.000000000
     0.000000000  0.018967463  0.000000000     0.000000000  0.040000000  0.000000000
     0.005475437  0.009483735  0.015486867    -0.000000000 -0.000000000  0.040000000

  Length of vectors
     0.018967462  0.018967463  0.018967464

  Shift w.r.t. Gamma in fractional coordinates (k-lattice)
     0.000000000  0.000000000  0.000000000

 
 Subroutine IBZKPT returns following result:
 ===========================================
 
 Found    455 irreducible k-points:
 
 Following reciprocal coordinates:
            Coordinates               Weight
  0.000000  0.000000  0.000000      1.000000
  0.040000  0.000000  0.000000     12.000000
  0.080000  0.000000  0.000000     12.000000
  0.120000  0.000000  0.000000     12.000000
  0.160000  0.000000  0.000000     12.000000
  0.200000  0.000000  0.000000     12.000000
  0.240000  0.000000  0.000000     12.000000
  0.280000  0.000000  0.000000     12.000000
  0.320000  0.000000  0.000000     12.000000
  0.360000  0.000000  0.000000     12.000000
  0.400000  0.000000  0.000000     12.000000
  0.440000  0.000000  0.000000     12.000000
  0.480000  0.000000  0.000000     12.000000
  0.040000  0.040000  0.000000     24.000000
  0.080000  0.040000  0.000000     48.000000
  0.120000  0.040000  0.000000     48.000000
  0.160000  0.040000  0.000000     48.000000
  0.200000  0.040000  0.000000     48.000000
  0.240000  0.040000  0.000000     48.000000
  0.280000  0.040000  0.000000     48.000000
  0.320000  0.040000  0.000000     48.000000
  0.360000  0.040000  0.000000     48.000000
  0.400000  0.040000  0.000000     48.000000
  0.440000  0.040000  0.000000     48.000000
  0.480000  0.040000  0.000000     24.000000
  0.080000  0.080000  0.000000     24.000000
  0.120000  0.080000  0.000000     48.000000
  0.160000  0.080000  0.000000     48.000000
  0.200000  0.080000  0.000000     48.000000
  0.240000  0.080000  0.000000     48.000000
  0.280000  0.080000  0.000000     48.000000
  0.320000  0.080000  0.000000     48.000000
  0.360000  0.080000  0.000000     48.000000
  0.400000  0.080000  0.000000     48.000000
  0.440000  0.080000  0.000000     48.000000
  0.120000  0.120000  0.000000     24.000000
  0.160000  0.120000  0.000000     48.000000
  0.200000  0.120000  0.000000     48.000000
  0.240000  0.120000  0.000000     48.000000
  0.280000  0.120000  0.000000     48.000000
  0.320000  0.120000  0.000000     48.000000
  0.360000  0.120000  0.000000     48.000000
  0.400000  0.120000  0.000000     48.000000
  0.440000  0.120000  0.000000     24.000000
  0.160000  0.160000  0.000000     24.000000
  0.200000  0.160000  0.000000     48.000000
  0.240000  0.160000  0.000000     48.000000
  0.280000  0.160000  0.000000     48.000000
  0.320000  0.160000  0.000000     48.000000
  0.360000  0.160000  0.000000     48.000000
  0.400000  0.160000  0.000000     48.000000
  0.200000  0.200000  0.000000     24.000000
  0.240000  0.200000  0.000000     48.000000
  0.280000  0.200000  0.000000     48.000000
  0.320000  0.200000  0.000000     48.000000
  0.360000  0.200000  0.000000     48.000000
  0.400000  0.200000  0.000000     24.000000
  0.240000  0.240000  0.000000     24.000000
  0.280000  0.240000  0.000000     48.000000
  0.320000  0.240000  0.000000     48.000000
  0.360000  0.240000  0.000000     48.000000
  0.280000  0.280000  0.000000     24.000000
  0.320000  0.280000  0.000000     48.000000
  0.360000  0.280000  0.000000     24.000000
  0.320000  0.320000  0.000000     24.000000
  0.040000  0.040000  0.040000      8.000000
  0.080000  0.040000  0.040000     24.000000
  0.120000  0.040000  0.040000     24.000000
  0.160000  0.040000  0.040000     24.000000
  0.200000  0.040000  0.040000     24.000000
  0.240000  0.040000  0.040000     24.000000
  0.280000  0.040000  0.040000     24.000000
  0.320000  0.040000  0.040000     24.000000
  0.360000  0.040000  0.040000     24.000000
  0.400000  0.040000  0.040000     24.000000
  0.440000  0.040000  0.040000     24.000000
 -0.040000  0.040000  0.040000      6.000000
  0.080000  0.080000  0.040000     24.000000
  0.120000  0.080000  0.040000     48.000000
  0.160000  0.080000  0.040000     48.000000
  0.200000  0.080000  0.040000     48.000000
  0.240000  0.080000  0.040000     48.000000
  0.280000  0.080000  0.040000     48.000000
  0.320000  0.080000  0.040000     48.000000
  0.360000  0.080000  0.040000     48.000000
  0.400000  0.080000  0.040000     48.000000
  0.440000  0.080000  0.040000     24.000000
 -0.080000  0.080000  0.040000     24.000000
  0.120000  0.120000  0.040000     24.000000
  0.160000  0.120000  0.040000     48.000000
  0.200000  0.120000  0.040000     48.000000
  0.240000  0.120000  0.040000     48.000000
  0.280000  0.120000  0.040000     48.000000
  0.320000  0.120000  0.040000     48.000000
  0.360000  0.120000  0.040000     48.000000
  0.400000  0.120000  0.040000     48.000000
 -0.120000  0.120000  0.040000     24.000000
 -0.080000  0.120000  0.040000     24.000000
  0.160000  0.160000  0.040000     24.000000
  0.200000  0.160000  0.040000     48.000000
  0.240000  0.160000  0.040000     48.000000
  0.280000  0.160000  0.040000     48.000000
  0.320000  0.160000  0.040000     48.000000
  0.360000  0.160000  0.040000     48.000000
  0.400000  0.160000  0.040000     24.000000
 -0.160000  0.160000  0.040000     24.000000
 -0.120000  0.160000  0.040000     48.000000
  0.200000  0.200000  0.040000     24.000000
  0.240000  0.200000  0.040000     48.000000
  0.280000  0.200000  0.040000     48.000000
  0.320000  0.200000  0.040000     48.000000
  0.360000  0.200000  0.040000     48.000000
 -0.200000  0.200000  0.040000     24.000000
 -0.160000  0.200000  0.040000     48.000000
 -0.120000  0.200000  0.040000     24.000000
  0.240000  0.240000  0.040000     24.000000
  0.280000  0.240000  0.040000     48.000000
  0.320000  0.240000  0.040000     48.000000
  0.360000  0.240000  0.040000     24.000000
 -0.240000  0.240000  0.040000     24.000000
 -0.200000  0.240000  0.040000     48.000000
 -0.160000  0.240000  0.040000     48.000000
  0.280000  0.280000  0.040000     24.000000
  0.320000  0.280000  0.040000     48.000000
 -0.280000  0.280000  0.040000     24.000000
 -0.240000  0.280000  0.040000     48.000000
 -0.200000  0.280000  0.040000     48.000000
 -0.160000  0.280000  0.040000     24.000000
  0.320000  0.320000  0.040000      8.000000
 -0.320000  0.320000  0.040000     24.000000
 -0.280000  0.320000  0.040000     48.000000
 -0.240000  0.320000  0.040000     48.000000
 -0.200000  0.320000  0.040000     48.000000
 -0.360000  0.360000  0.040000     24.000000
 -0.320000  0.360000  0.040000     48.000000
 -0.280000  0.360000  0.040000     48.000000
 -0.240000  0.360000  0.040000     48.000000
 -0.200000  0.360000  0.040000     24.000000
 -0.400000  0.400000  0.040000     24.000000
 -0.360000  0.400000  0.040000     48.000000
 -0.320000  0.400000  0.040000     48.000000
 -0.280000  0.400000  0.040000     48.000000
 -0.240000  0.400000  0.040000     48.000000
 -0.440000  0.440000  0.040000     24.000000
 -0.400000  0.440000  0.040000     48.000000
 -0.360000  0.440000  0.040000     48.000000
 -0.320000  0.440000  0.040000     48.000000
 -0.280000  0.440000  0.040000     48.000000
 -0.240000  0.440000  0.040000     24.000000
 -0.480000  0.480000  0.040000     24.000000
 -0.440000  0.480000  0.040000     48.000000
 -0.400000  0.480000  0.040000     48.000000
 -0.360000  0.480000  0.040000     48.000000
 -0.320000  0.480000  0.040000     48.000000
 -0.280000  0.480000  0.040000     48.000000
 -0.480000 -0.480000  0.040000     24.000000
 -0.440000 -0.480000  0.040000     48.000000
 -0.400000 -0.480000  0.040000     48.000000
 -0.360000 -0.480000  0.040000     48.000000
 -0.320000 -0.480000  0.040000     48.000000
 -0.280000 -0.480000  0.040000     24.000000
 -0.440000 -0.440000  0.040000     24.000000
 -0.400000 -0.440000  0.040000     48.000000
 -0.360000 -0.440000  0.040000     48.000000
 -0.320000 -0.440000  0.040000     48.000000
 -0.400000 -0.400000  0.040000     24.000000
 -0.360000 -0.400000  0.040000     48.000000
 -0.320000 -0.400000  0.040000     24.000000
 -0.360000 -0.360000  0.040000     24.000000
  0.080000  0.080000  0.080000      8.000000
  0.120000  0.080000  0.080000     24.000000
  0.160000  0.080000  0.080000     24.000000
  0.200000  0.080000  0.080000     24.000000
  0.240000  0.080000  0.080000     24.000000
  0.280000  0.080000  0.080000     24.000000
  0.320000  0.080000  0.080000     24.000000
  0.360000  0.080000  0.080000     24.000000
  0.400000  0.080000  0.080000     24.000000
 -0.080000  0.080000  0.080000      6.000000
  0.120000  0.120000  0.080000     24.000000
  0.160000  0.120000  0.080000     48.000000
  0.200000  0.120000  0.080000     48.000000
  0.240000  0.120000  0.080000     48.000000
  0.280000  0.120000  0.080000     48.000000
  0.320000  0.120000  0.080000     48.000000
  0.360000  0.120000  0.080000     48.000000
  0.400000  0.120000  0.080000     24.000000
 -0.120000  0.120000  0.080000     24.000000
  0.160000  0.160000  0.080000     24.000000
  0.200000  0.160000  0.080000     48.000000
  0.240000  0.160000  0.080000     48.000000
  0.280000  0.160000  0.080000     48.000000
  0.320000  0.160000  0.080000     48.000000
  0.360000  0.160000  0.080000     48.000000
 -0.160000  0.160000  0.080000     24.000000
 -0.120000  0.160000  0.080000     24.000000
  0.200000  0.200000  0.080000     24.000000
  0.240000  0.200000  0.080000     48.000000
  0.280000  0.200000  0.080000     48.000000
  0.320000  0.200000  0.080000     48.000000
  0.360000  0.200000  0.080000     24.000000
 -0.200000  0.200000  0.080000     24.000000
 -0.160000  0.200000  0.080000     48.000000
  0.240000  0.240000  0.080000     24.000000
  0.280000  0.240000  0.080000     48.000000
  0.320000  0.240000  0.080000     48.000000
 -0.240000  0.240000  0.080000     24.000000
 -0.200000  0.240000  0.080000     48.000000
 -0.160000  0.240000  0.080000     24.000000
  0.280000  0.280000  0.080000     24.000000
  0.320000  0.280000  0.080000     24.000000
 -0.280000  0.280000  0.080000     24.000000
 -0.240000  0.280000  0.080000     48.000000
 -0.200000  0.280000  0.080000     48.000000
 -0.320000  0.320000  0.080000     24.000000
 -0.280000  0.320000  0.080000     48.000000
 -0.240000  0.320000  0.080000     48.000000
 -0.200000  0.320000  0.080000     24.000000
 -0.360000  0.360000  0.080000     24.000000
 -0.320000  0.360000  0.080000     48.000000
 -0.280000  0.360000  0.080000     48.000000
 -0.240000  0.360000  0.080000     48.000000
 -0.400000  0.400000  0.080000     24.000000
 -0.360000  0.400000  0.080000     48.000000
 -0.320000  0.400000  0.080000     48.000000
 -0.280000  0.400000  0.080000     48.000000
 -0.240000  0.400000  0.080000     24.000000
 -0.440000  0.440000  0.080000     24.000000
 -0.400000  0.440000  0.080000     48.000000
 -0.360000  0.440000  0.080000     48.000000
 -0.320000  0.440000  0.080000     48.000000
 -0.280000  0.440000  0.080000     48.000000
 -0.480000  0.480000  0.080000     24.000000
 -0.440000  0.480000  0.080000     48.000000
 -0.400000  0.480000  0.080000     48.000000
 -0.360000  0.480000  0.080000     48.000000
 -0.320000  0.480000  0.080000     48.000000
 -0.280000  0.480000  0.080000     24.000000
 -0.480000 -0.480000  0.080000     24.000000
 -0.440000 -0.480000  0.080000     48.000000
 -0.400000 -0.480000  0.080000     48.000000
 -0.360000 -0.480000  0.080000     48.000000
 -0.320000 -0.480000  0.080000     48.000000
 -0.440000 -0.440000  0.080000     24.000000
 -0.400000 -0.440000  0.080000     48.000000
 -0.360000 -0.440000  0.080000     48.000000
 -0.320000 -0.440000  0.080000     24.000000
 -0.400000 -0.400000  0.080000     24.000000
 -0.360000 -0.400000  0.080000     48.000000
 -0.360000 -0.360000  0.080000      8.000000
  0.120000  0.120000  0.120000      8.000000
  0.160000  0.120000  0.120000     24.000000
  0.200000  0.120000  0.120000     24.000000
  0.240000  0.120000  0.120000     24.000000
  0.280000  0.120000  0.120000     24.000000
  0.320000  0.120000  0.120000     24.000000
  0.360000  0.120000  0.120000     24.000000
 -0.120000  0.120000  0.120000      6.000000
  0.160000  0.160000  0.120000     24.000000
  0.200000  0.160000  0.120000     48.000000
  0.240000  0.160000  0.120000     48.000000
  0.280000  0.160000  0.120000     48.000000
  0.320000  0.160000  0.120000     48.000000
  0.360000  0.160000  0.120000     24.000000
 -0.160000  0.160000  0.120000     24.000000
  0.200000  0.200000  0.120000     24.000000
  0.240000  0.200000  0.120000     48.000000
  0.280000  0.200000  0.120000     48.000000
  0.320000  0.200000  0.120000     48.000000
 -0.200000  0.200000  0.120000     24.000000
 -0.160000  0.200000  0.120000     24.000000
  0.240000  0.240000  0.120000     24.000000
  0.280000  0.240000  0.120000     48.000000
  0.320000  0.240000  0.120000     24.000000
 -0.240000  0.240000  0.120000     24.000000
 -0.200000  0.240000  0.120000     48.000000
  0.280000  0.280000  0.120000     24.000000
 -0.280000  0.280000  0.120000     24.000000
 -0.240000  0.280000  0.120000     48.000000
 -0.200000  0.280000  0.120000     24.000000
 -0.320000  0.320000  0.120000     24.000000
 -0.280000  0.320000  0.120000     48.000000
 -0.240000  0.320000  0.120000     48.000000
 -0.360000  0.360000  0.120000     24.000000
 -0.320000  0.360000  0.120000     48.000000
 -0.280000  0.360000  0.120000     48.000000
 -0.240000  0.360000  0.120000     24.000000
 -0.400000  0.400000  0.120000     24.000000
 -0.360000  0.400000  0.120000     48.000000
 -0.320000  0.400000  0.120000     48.000000
 -0.280000  0.400000  0.120000     48.000000
 -0.440000  0.440000  0.120000     24.000000
 -0.400000  0.440000  0.120000     48.000000
 -0.360000  0.440000  0.120000     48.000000
 -0.320000  0.440000  0.120000     48.000000
 -0.280000  0.440000  0.120000     24.000000
 -0.480000  0.480000  0.120000     24.000000
 -0.440000  0.480000  0.120000     48.000000
 -0.400000  0.480000  0.120000     48.000000
 -0.360000  0.480000  0.120000     48.000000
 -0.320000  0.480000  0.120000     48.000000
 -0.480000 -0.480000  0.120000     24.000000
 -0.440000 -0.480000  0.120000     48.000000
 -0.400000 -0.480000  0.120000     48.000000
 -0.360000 -0.480000  0.120000     48.000000
 -0.320000 -0.480000  0.120000     24.000000
 -0.440000 -0.440000  0.120000     24.000000
 -0.400000 -0.440000  0.120000     48.000000
 -0.360000 -0.440000  0.120000     48.000000
 -0.400000 -0.400000  0.120000     24.000000
 -0.360000 -0.400000  0.120000     24.000000
  0.160000  0.160000  0.160000      8.000000
  0.200000  0.160000  0.160000     24.000000
  0.240000  0.160000  0.160000     24.000000
  0.280000  0.160000  0.160000     24.000000
  0.320000  0.160000  0.160000     24.000000
 -0.160000  0.160000  0.160000      6.000000
  0.200000  0.200000  0.160000     24.000000
  0.240000  0.200000  0.160000     48.000000
  0.280000  0.200000  0.160000     48.000000
  0.320000  0.200000  0.160000     24.000000
 -0.200000  0.200000  0.160000     24.000000
  0.240000  0.240000  0.160000     24.000000
  0.280000  0.240000  0.160000     48.000000
 -0.240000  0.240000  0.160000     24.000000
 -0.200000  0.240000  0.160000     24.000000
  0.280000  0.280000  0.160000      8.000000
 -0.280000  0.280000  0.160000     24.000000
 -0.240000  0.280000  0.160000     48.000000
 -0.320000  0.320000  0.160000     24.000000
 -0.280000  0.320000  0.160000     48.000000
 -0.240000  0.320000  0.160000     24.000000
 -0.360000  0.360000  0.160000     24.000000
 -0.320000  0.360000  0.160000     48.000000
 -0.280000  0.360000  0.160000     48.000000
 -0.400000  0.400000  0.160000     24.000000
 -0.360000  0.400000  0.160000     48.000000
 -0.320000  0.400000  0.160000     48.000000
 -0.280000  0.400000  0.160000     24.000000
 -0.440000  0.440000  0.160000     24.000000
 -0.400000  0.440000  0.160000     48.000000
 -0.360000  0.440000  0.160000     48.000000
 -0.320000  0.440000  0.160000     48.000000
 -0.480000  0.480000  0.160000     24.000000
 -0.440000  0.480000  0.160000     48.000000
 -0.400000  0.480000  0.160000     48.000000
 -0.360000  0.480000  0.160000     48.000000
 -0.320000  0.480000  0.160000     24.000000
 -0.480000 -0.480000  0.160000     24.000000
 -0.440000 -0.480000  0.160000     48.000000
 -0.400000 -0.480000  0.160000     48.000000
 -0.360000 -0.480000  0.160000     48.000000
 -0.440000 -0.440000  0.160000     24.000000
 -0.400000 -0.440000  0.160000     48.000000
 -0.360000 -0.440000  0.160000     24.000000
 -0.400000 -0.400000  0.160000     24.000000
  0.200000  0.200000  0.200000      8.000000
  0.240000  0.200000  0.200000     24.000000
  0.280000  0.200000  0.200000     24.000000
 -0.200000  0.200000  0.200000      6.000000
  0.240000  0.240000  0.200000     24.000000
  0.280000  0.240000  0.200000     24.000000
 -0.240000  0.240000  0.200000     24.000000
 -0.280000  0.280000  0.200000     24.000000
 -0.240000  0.280000  0.200000     24.000000
 -0.320000  0.320000  0.200000     24.000000
 -0.280000  0.320000  0.200000     48.000000
 -0.360000  0.360000  0.200000     24.000000
 -0.320000  0.360000  0.200000     48.000000
 -0.280000  0.360000  0.200000     24.000000
 -0.400000  0.400000  0.200000     24.000000
 -0.360000  0.400000  0.200000     48.000000
 -0.320000  0.400000  0.200000     48.000000
 -0.440000  0.440000  0.200000     24.000000
 -0.400000  0.440000  0.200000     48.000000
 -0.360000  0.440000  0.200000     48.000000
 -0.320000  0.440000  0.200000     24.000000
 -0.480000  0.480000  0.200000     24.000000
 -0.440000  0.480000  0.200000     48.000000
 -0.400000  0.480000  0.200000     48.000000
 -0.360000  0.480000  0.200000     48.000000
 -0.480000 -0.480000  0.200000     24.000000
 -0.440000 -0.480000  0.200000     48.000000
 -0.400000 -0.480000  0.200000     48.000000
 -0.360000 -0.480000  0.200000     24.000000
 -0.440000 -0.440000  0.200000     24.000000
 -0.400000 -0.440000  0.200000     48.000000
 -0.400000 -0.400000  0.200000      8.000000
  0.240000  0.240000  0.240000      8.000000
 -0.240000  0.240000  0.240000      6.000000
 -0.280000  0.280000  0.240000     24.000000
 -0.320000  0.320000  0.240000     24.000000
 -0.280000  0.320000  0.240000     24.000000
 -0.360000  0.360000  0.240000     24.000000
 -0.320000  0.360000  0.240000     48.000000
 -0.400000  0.400000  0.240000     24.000000
 -0.360000  0.400000  0.240000     48.000000
 -0.320000  0.400000  0.240000     24.000000
 -0.440000  0.440000  0.240000     24.000000
 -0.400000  0.440000  0.240000     48.000000
 -0.360000  0.440000  0.240000     48.000000
 -0.480000  0.480000  0.240000     24.000000
 -0.440000  0.480000  0.240000     48.000000
 -0.400000  0.480000  0.240000     48.000000
 -0.360000  0.480000  0.240000     24.000000
 -0.480000 -0.480000  0.240000     24.000000
 -0.440000 -0.480000  0.240000     48.000000
 -0.400000 -0.480000  0.240000     48.000000
 -0.440000 -0.440000  0.240000     24.000000
 -0.400000 -0.440000  0.240000     24.000000
 -0.280000  0.280000  0.280000      6.000000
 -0.320000  0.320000  0.280000     24.000000
 -0.360000  0.360000  0.280000     24.000000
 -0.320000  0.360000  0.280000     24.000000
 -0.400000  0.400000  0.280000     24.000000
 -0.360000  0.400000  0.280000     48.000000
 -0.440000  0.440000  0.280000     24.000000
 -0.400000  0.440000  0.280000     48.000000
 -0.360000  0.440000  0.280000     24.000000
 -0.480000  0.480000  0.280000     24.000000
 -0.440000  0.480000  0.280000     48.000000
 -0.400000  0.480000  0.280000     48.000000
 -0.480000 -0.480000  0.280000     24.000000
 -0.440000 -0.480000  0.280000     48.000000
 -0.400000 -0.480000  0.280000     24.000000
 -0.440000 -0.440000  0.280000     24.000000
 -0.320000  0.320000  0.320000      6.000000
 -0.360000  0.360000  0.320000     24.000000
 -0.400000  0.400000  0.320000     24.000000
 -0.360000  0.400000  0.320000     24.000000
 -0.440000  0.440000  0.320000     24.000000
 -0.400000  0.440000  0.320000     48.000000
 -0.480000  0.480000  0.320000     24.000000
 -0.440000  0.480000  0.320000     48.000000
 -0.400000  0.480000  0.320000     24.000000
 -0.480000 -0.480000  0.320000     24.000000
 -0.440000 -0.480000  0.320000     48.000000
 -0.440000 -0.440000  0.320000      8.000000
 -0.360000  0.360000  0.360000      6.000000
 -0.400000  0.400000  0.360000     24.000000
 -0.440000  0.440000  0.360000     24.000000
 -0.400000  0.440000  0.360000     24.000000
 -0.480000  0.480000  0.360000     24.000000
 -0.440000  0.480000  0.360000     48.000000
 -0.480000 -0.480000  0.360000     24.000000
 -0.440000 -0.480000  0.360000     24.000000
 -0.400000  0.400000  0.400000      6.000000
 -0.440000  0.440000  0.400000     24.000000
 -0.480000  0.480000  0.400000     24.000000
 -0.440000  0.480000  0.400000     24.000000
 -0.480000 -0.480000  0.400000     24.000000
 -0.440000  0.440000  0.440000      6.000000
 -0.480000  0.480000  0.440000     24.000000
 -0.480000 -0.480000  0.440000      8.000000
 -0.480000  0.480000  0.480000      6.000000
 
 Following cartesian coordinates:
            Coordinates               Weight
  0.000000  0.000000  0.000000      1.000000
  0.016426  0.009484  0.000000     12.000000
  0.032853  0.018967  0.000000     12.000000
  0.049279  0.028451  0.000000     12.000000
  0.065705  0.037935  0.000000     12.000000
  0.082132  0.047419  0.000000     12.000000
  0.098558  0.056902  0.000000     12.000000
  0.114984  0.066386  0.000000     12.000000
  0.131410  0.075870  0.000000     12.000000
  0.147837  0.085354  0.000000     12.000000
  0.164263  0.094837  0.000000     12.000000
  0.180689  0.104321  0.000000     12.000000
  0.197116  0.113805  0.000000     12.000000
  0.016426  0.028451  0.000000     24.000000
  0.032853  0.037935  0.000000     48.000000
  0.049279  0.047419  0.000000     48.000000
  0.065705  0.056902  0.000000     48.000000
  0.082132  0.066386  0.000000     48.000000
  0.098558  0.075870  0.000000     48.000000
  0.114984  0.085354  0.000000     48.000000
  0.131410  0.094837  0.000000     48.000000
  0.147837  0.104321  0.000000     48.000000
  0.164263  0.113805  0.000000     48.000000
  0.180689  0.123289  0.000000     48.000000
  0.197116  0.132772  0.000000     24.000000
  0.032853  0.056902  0.000000     24.000000
  0.049279  0.066386  0.000000     48.000000
  0.065705  0.075870  0.000000     48.000000
  0.082132  0.085354  0.000000     48.000000
  0.098558  0.094837  0.000000     48.000000
  0.114984  0.104321  0.000000     48.000000
  0.131410  0.113805  0.000000     48.000000
  0.147837  0.123289  0.000000     48.000000
  0.164263  0.132772  0.000000     48.000000
  0.180689  0.142256  0.000000     48.000000
  0.049279  0.085354  0.000000     24.000000
  0.065705  0.094837  0.000000     48.000000
  0.082132  0.104321  0.000000     48.000000
  0.098558  0.113805  0.000000     48.000000
  0.114984  0.123289  0.000000     48.000000
  0.131410  0.132772  0.000000     48.000000
  0.147837  0.142256  0.000000     48.000000
  0.164263  0.151740  0.000000     48.000000
  0.180689  0.161223  0.000000     24.000000
  0.065705  0.113805  0.000000     24.000000
  0.082132  0.123289  0.000000     48.000000
  0.098558  0.132772  0.000000     48.000000
  0.114984  0.142256  0.000000     48.000000
  0.131410  0.151740  0.000000     48.000000
  0.147837  0.161223  0.000000     48.000000
  0.164263  0.170707  0.000000     48.000000
  0.082132  0.142256  0.000000     24.000000
  0.098558  0.151740  0.000000     48.000000
  0.114984  0.161223  0.000000     48.000000
  0.131410  0.170707  0.000000     48.000000
  0.147837  0.180191  0.000000     48.000000
  0.164263  0.189675  0.000000     24.000000
  0.098558  0.170707  0.000000     24.000000
  0.114984  0.180191  0.000000     48.000000
  0.131410  0.189675  0.000000     48.000000
  0.147837  0.199158  0.000000     48.000000
  0.114984  0.199158  0.000000     24.000000
  0.131410  0.208642  0.000000     48.000000
  0.147837  0.218126  0.000000     24.000000
  0.131410  0.227610  0.000000     24.000000
  0.021902  0.037935  0.015487      8.000000
  0.038328  0.047419  0.015487     24.000000
  0.054754  0.056902  0.015487     24.000000
  0.071181  0.066386  0.015487     24.000000
  0.087607  0.075870  0.015487     24.000000
  0.104033  0.085354  0.015487     24.000000
  0.120460  0.094837  0.015487     24.000000
  0.136886  0.104321  0.015487     24.000000
  0.153312  0.113805  0.015487     24.000000
  0.169738  0.123289  0.015487     24.000000
  0.186165  0.132772  0.015487     24.000000
 -0.010951  0.018967  0.015487      6.000000
  0.038328  0.066386  0.015487     24.000000
  0.054754  0.075870  0.015487     48.000000
  0.071181  0.085354  0.015487     48.000000
  0.087607  0.094837  0.015487     48.000000
  0.104033  0.104321  0.015487     48.000000
  0.120460  0.113805  0.015487     48.000000
  0.136886  0.123289  0.015487     48.000000
  0.153312  0.132772  0.015487     48.000000
  0.169738  0.142256  0.015487     48.000000
  0.186165  0.151740  0.015487     24.000000
 -0.027377  0.028451  0.015487     24.000000
  0.054754  0.094837  0.015487     24.000000
  0.071181  0.104321  0.015487     48.000000
  0.087607  0.113805  0.015487     48.000000
  0.104033  0.123289  0.015487     48.000000
  0.120460  0.132772  0.015487     48.000000
  0.136886  0.142256  0.015487     48.000000
  0.153312  0.151740  0.015487     48.000000
  0.169738  0.161223  0.015487     48.000000
 -0.043803  0.037935  0.015487     24.000000
 -0.027377  0.047419  0.015487     24.000000
  0.071181  0.123289  0.015487     24.000000
  0.087607  0.132772  0.015487     48.000000
  0.104033  0.142256  0.015487     48.000000
  0.120460  0.151740  0.015487     48.000000
  0.136886  0.161223  0.015487     48.000000
  0.153312  0.170707  0.015487     48.000000
  0.169738  0.180191  0.015487     24.000000
 -0.060230  0.047419  0.015487     24.000000
 -0.043803  0.056902  0.015487     48.000000
  0.087607  0.151740  0.015487     24.000000
  0.104033  0.161223  0.015487     48.000000
  0.120460  0.170707  0.015487     48.000000
  0.136886  0.180191  0.015487     48.000000
  0.153312  0.189675  0.015487     48.000000
 -0.076656  0.056902  0.015487     24.000000
 -0.060230  0.066386  0.015487     48.000000
 -0.043803  0.075870  0.015487     24.000000
  0.104033  0.180191  0.015487     24.000000
  0.120460  0.189675  0.015487     48.000000
  0.136886  0.199158  0.015487     48.000000
  0.153312  0.208642  0.015487     24.000000
 -0.093082  0.066386  0.015487     24.000000
 -0.076656  0.075870  0.015487     48.000000
 -0.060230  0.085354  0.015487     48.000000
  0.120460  0.208642  0.015487     24.000000
  0.136886  0.218126  0.015487     48.000000
 -0.109509  0.075870  0.015487     24.000000
 -0.093082  0.085354  0.015487     48.000000
 -0.076656  0.094837  0.015487     48.000000
 -0.060230  0.104321  0.015487     24.000000
  0.136886  0.237093  0.015487      8.000000
 -0.125935  0.085354  0.015487     24.000000
 -0.109509  0.094837  0.015487     48.000000
 -0.093082  0.104321  0.015487     48.000000
 -0.076656  0.113805  0.015487     48.000000
 -0.142361  0.094837  0.015487     24.000000
 -0.125935  0.104321  0.015487     48.000000
 -0.109509  0.113805  0.015487     48.000000
 -0.093082  0.123289  0.015487     48.000000
 -0.076656  0.132772  0.015487     24.000000
 -0.158788  0.104321  0.015487     24.000000
 -0.142361  0.113805  0.015487     48.000000
 -0.125935  0.123289  0.015487     48.000000
 -0.109509  0.132772  0.015487     48.000000
 -0.093082  0.142256  0.015487     48.000000
 -0.175214  0.113805  0.015487     24.000000
 -0.158788  0.123289  0.015487     48.000000
 -0.142361  0.132772  0.015487     48.000000
 -0.125935  0.142256  0.015487     48.000000
 -0.109509  0.151740  0.015487     48.000000
 -0.093082  0.161223  0.015487     24.000000
 -0.191640  0.123289  0.015487     24.000000
 -0.175214  0.132772  0.015487     48.000000
 -0.158788  0.142256  0.015487     48.000000
 -0.142361  0.151740  0.015487     48.000000
 -0.125935  0.161223  0.015487     48.000000
 -0.109509  0.170707  0.015487     48.000000
 -0.191640 -0.331931  0.015487     24.000000
 -0.175214 -0.322447  0.015487     48.000000
 -0.158788 -0.312963  0.015487     48.000000
 -0.142361 -0.303479  0.015487     48.000000
 -0.125935 -0.293996  0.015487     48.000000
 -0.109509 -0.284512  0.015487     24.000000
 -0.175214 -0.303479  0.015487     24.000000
 -0.158788 -0.293996  0.015487     48.000000
 -0.142361 -0.284512  0.015487     48.000000
 -0.125935 -0.275028  0.015487     48.000000
 -0.158788 -0.275028  0.015487     24.000000
 -0.142361 -0.265544  0.015487     48.000000
 -0.125935 -0.256061  0.015487     24.000000
 -0.142361 -0.246577  0.015487     24.000000
  0.043803  0.075870  0.030974      8.000000
  0.060230  0.085354  0.030974     24.000000
  0.076656  0.094837  0.030974     24.000000
  0.093082  0.104321  0.030974     24.000000
  0.109509  0.113805  0.030974     24.000000
  0.125935  0.123289  0.030974     24.000000
  0.142361  0.132772  0.030974     24.000000
  0.158788  0.142256  0.030974     24.000000
  0.175214  0.151740  0.030974     24.000000
 -0.021902  0.037935  0.030974      6.000000
  0.060230  0.104321  0.030974     24.000000
  0.076656  0.113805  0.030974     48.000000
  0.093082  0.123289  0.030974     48.000000
  0.109509  0.132772  0.030974     48.000000
  0.125935  0.142256  0.030974     48.000000
  0.142361  0.151740  0.030974     48.000000
  0.158788  0.161223  0.030974     48.000000
  0.175214  0.170707  0.030974     24.000000
 -0.038328  0.047419  0.030974     24.000000
  0.076656  0.132772  0.030974     24.000000
  0.093082  0.142256  0.030974     48.000000
  0.109509  0.151740  0.030974     48.000000
  0.125935  0.161223  0.030974     48.000000
  0.142361  0.170707  0.030974     48.000000
  0.158788  0.180191  0.030974     48.000000
 -0.054754  0.056902  0.030974     24.000000
 -0.038328  0.066386  0.030974     24.000000
  0.093082  0.161223  0.030974     24.000000
  0.109509  0.170707  0.030974     48.000000
  0.125935  0.180191  0.030974     48.000000
  0.142361  0.189675  0.030974     48.000000
  0.158788  0.199158  0.030974     24.000000
 -0.071181  0.066386  0.030974     24.000000
 -0.054754  0.075870  0.030974     48.000000
  0.109509  0.189675  0.030974     24.000000
  0.125935  0.199158  0.030974     48.000000
  0.142361  0.208642  0.030974     48.000000
 -0.087607  0.075870  0.030974     24.000000
 -0.071181  0.085354  0.030974     48.000000
 -0.054754  0.094837  0.030974     24.000000
  0.125935  0.218126  0.030974     24.000000
  0.142361  0.227610  0.030974     24.000000
 -0.104033  0.085354  0.030974     24.000000
 -0.087607  0.094837  0.030974     48.000000
 -0.071181  0.104321  0.030974     48.000000
 -0.120460  0.094837  0.030974     24.000000
 -0.104033  0.104321  0.030974     48.000000
 -0.087607  0.113805  0.030974     48.000000
 -0.071181  0.123289  0.030974     24.000000
 -0.136886  0.104321  0.030974     24.000000
 -0.120460  0.113805  0.030974     48.000000
 -0.104033  0.123289  0.030974     48.000000
 -0.087607  0.132772  0.030974     48.000000
 -0.153312  0.113805  0.030974     24.000000
 -0.136886  0.123289  0.030974     48.000000
 -0.120460  0.132772  0.030974     48.000000
 -0.104033  0.142256  0.030974     48.000000
 -0.087607  0.151740  0.030974     24.000000
 -0.169738  0.123289  0.030974     24.000000
 -0.153312  0.132772  0.030974     48.000000
 -0.136886  0.142256  0.030974     48.000000
 -0.120460  0.151740  0.030974     48.000000
 -0.104033  0.161223  0.030974     48.000000
 -0.186165  0.132772  0.030974     24.000000
 -0.169738  0.142256  0.030974     48.000000
 -0.153312  0.151740  0.030974     48.000000
 -0.136886  0.161223  0.030974     48.000000
 -0.120460  0.170707  0.030974     48.000000
 -0.104033  0.180191  0.030974     24.000000
 -0.186165 -0.322447  0.030974     24.000000
 -0.169738 -0.312963  0.030974     48.000000
 -0.153312 -0.303479  0.030974     48.000000
 -0.136886 -0.293996  0.030974     48.000000
 -0.120460 -0.284512  0.030974     48.000000
 -0.169738 -0.293996  0.030974     24.000000
 -0.153312 -0.284512  0.030974     48.000000
 -0.136886 -0.275028  0.030974     48.000000
 -0.120460 -0.265544  0.030974     24.000000
 -0.153312 -0.265544  0.030974     24.000000
 -0.136886 -0.256061  0.030974     48.000000
 -0.136886 -0.237093  0.030974      8.000000
  0.065705  0.113805  0.046461      8.000000
  0.082132  0.123289  0.046461     24.000000
  0.098558  0.132772  0.046461     24.000000
  0.114984  0.142256  0.046461     24.000000
  0.131410  0.151740  0.046461     24.000000
  0.147837  0.161223  0.046461     24.000000
  0.164263  0.170707  0.046461     24.000000
 -0.032853  0.056902  0.046461      6.000000
  0.082132  0.142256  0.046461     24.000000
  0.098558  0.151740  0.046461     48.000000
  0.114984  0.161223  0.046461     48.000000
  0.131410  0.170707  0.046461     48.000000
  0.147837  0.180191  0.046461     48.000000
  0.164263  0.189675  0.046461     24.000000
 -0.049279  0.066386  0.046461     24.000000
  0.098558  0.170707  0.046461     24.000000
  0.114984  0.180191  0.046461     48.000000
  0.131410  0.189675  0.046461     48.000000
  0.147837  0.199158  0.046461     48.000000
 -0.065705  0.075870  0.046461     24.000000
 -0.049279  0.085354  0.046461     24.000000
  0.114984  0.199158  0.046461     24.000000
  0.131410  0.208642  0.046461     48.000000
  0.147837  0.218126  0.046461     24.000000
 -0.082132  0.085354  0.046461     24.000000
 -0.065705  0.094837  0.046461     48.000000
  0.131410  0.227610  0.046461     24.000000
 -0.098558  0.094837  0.046461     24.000000
 -0.082132  0.104321  0.046461     48.000000
 -0.065705  0.113805  0.046461     24.000000
 -0.114984  0.104321  0.046461     24.000000
 -0.098558  0.113805  0.046461     48.000000
 -0.082132  0.123289  0.046461     48.000000
 -0.131410  0.113805  0.046461     24.000000
 -0.114984  0.123289  0.046461     48.000000
 -0.098558  0.132772  0.046461     48.000000
 -0.082132  0.142256  0.046461     24.000000
 -0.147837  0.123289  0.046461     24.000000
 -0.131410  0.132772  0.046461     48.000000
 -0.114984  0.142256  0.046461     48.000000
 -0.098558  0.151740  0.046461     48.000000
 -0.164263  0.132772  0.046461     24.000000
 -0.147837  0.142256  0.046461     48.000000
 -0.131410  0.151740  0.046461     48.000000
 -0.114984  0.161223  0.046461     48.000000
 -0.098558  0.170707  0.046461     24.000000
 -0.180689  0.142256  0.046461     24.000000
 -0.164263  0.151740  0.046461     48.000000
 -0.147837  0.161223  0.046461     48.000000
 -0.131410  0.170707  0.046461     48.000000
 -0.114984  0.180191  0.046461     48.000000
 -0.180689 -0.312963  0.046461     24.000000
 -0.164263 -0.303479  0.046461     48.000000
 -0.147837 -0.293996  0.046461     48.000000
 -0.131410 -0.284512  0.046461     48.000000
 -0.114984 -0.275028  0.046461     24.000000
 -0.164263 -0.284512  0.046461     24.000000
 -0.147837 -0.275028  0.046461     48.000000
 -0.131410 -0.265544  0.046461     48.000000
 -0.147837 -0.256061  0.046461     24.000000
 -0.131410 -0.246577  0.046461     24.000000
  0.087607  0.151740  0.061947      8.000000
  0.104033  0.161223  0.061947     24.000000
  0.120460  0.170707  0.061947     24.000000
  0.136886  0.180191  0.061947     24.000000
  0.153312  0.189675  0.061947     24.000000
 -0.043803  0.075870  0.061947      6.000000
  0.104033  0.180191  0.061947     24.000000
  0.120460  0.189675  0.061947     48.000000
  0.136886  0.199158  0.061947     48.000000
  0.153312  0.208642  0.061947     24.000000
 -0.060230  0.085354  0.061947     24.000000
  0.120460  0.208642  0.061947     24.000000
  0.136886  0.218126  0.061947     48.000000
 -0.076656  0.094837  0.061947     24.000000
 -0.060230  0.104321  0.061947     24.000000
  0.136886  0.237093  0.061947      8.000000
 -0.093082  0.104321  0.061947     24.000000
 -0.076656  0.113805  0.061947     48.000000
 -0.109509  0.113805  0.061947     24.000000
 -0.093082  0.123289  0.061947     48.000000
 -0.076656  0.132772  0.061947     24.000000
 -0.125935  0.123289  0.061947     24.000000
 -0.109509  0.132772  0.061947     48.000000
 -0.093082  0.142256  0.061947     48.000000
 -0.142361  0.132772  0.061947     24.000000
 -0.125935  0.142256  0.061947     48.000000
 -0.109509  0.151740  0.061947     48.000000
 -0.093082  0.161223  0.061947     24.000000
 -0.158788  0.142256  0.061947     24.000000
 -0.142361  0.151740  0.061947     48.000000
 -0.125935  0.161223  0.061947     48.000000
 -0.109509  0.170707  0.061947     48.000000
 -0.175214  0.151740  0.061947     24.000000
 -0.158788  0.161223  0.061947     48.000000
 -0.142361  0.170707  0.061947     48.000000
 -0.125935  0.180191  0.061947     48.000000
 -0.109509  0.189675  0.061947     24.000000
 -0.175214 -0.303479  0.061947     24.000000
 -0.158788 -0.293996  0.061947     48.000000
 -0.142361 -0.284512  0.061947     48.000000
 -0.125935 -0.275028  0.061947     48.000000
 -0.158788 -0.275028  0.061947     24.000000
 -0.142361 -0.265544  0.061947     48.000000
 -0.125935 -0.256061  0.061947     24.000000
 -0.142361 -0.246577  0.061947     24.000000
  0.109509  0.189675  0.077434      8.000000
  0.125935  0.199158  0.077434     24.000000
  0.142361  0.208642  0.077434     24.000000
 -0.054754  0.094837  0.077434      6.000000
  0.125935  0.218126  0.077434     24.000000
  0.142361  0.227610  0.077434     24.000000
 -0.071181  0.104321  0.077434     24.000000
 -0.087607  0.113805  0.077434     24.000000
 -0.071181  0.123289  0.077434     24.000000
 -0.104033  0.123289  0.077434     24.000000
 -0.087607  0.132772  0.077434     48.000000
 -0.120460  0.132772  0.077434     24.000000
 -0.104033  0.142256  0.077434     48.000000
 -0.087607  0.151740  0.077434     24.000000
 -0.136886  0.142256  0.077434     24.000000
 -0.120460  0.151740  0.077434     48.000000
 -0.104033  0.161223  0.077434     48.000000
 -0.153312  0.151740  0.077434     24.000000
 -0.136886  0.161223  0.077434     48.000000
 -0.120460  0.170707  0.077434     48.000000
 -0.104033  0.180191  0.077434     24.000000
 -0.169738  0.161223  0.077434     24.000000
 -0.153312  0.170707  0.077434     48.000000
 -0.136886  0.180191  0.077434     48.000000
 -0.120460  0.189675  0.077434     48.000000
 -0.169738 -0.293996  0.077434     24.000000
 -0.153312 -0.284512  0.077434     48.000000
 -0.136886 -0.275028  0.077434     48.000000
 -0.120460 -0.265544  0.077434     24.000000
 -0.153312 -0.265544  0.077434     24.000000
 -0.136886 -0.256061  0.077434     48.000000
 -0.136886 -0.237093  0.077434      8.000000
  0.131410  0.227610  0.092921      8.000000
 -0.065705  0.113805  0.092921      6.000000
 -0.082132  0.123289  0.092921     24.000000
 -0.098558  0.132772  0.092921     24.000000
 -0.082132  0.142256  0.092921     24.000000
 -0.114984  0.142256  0.092921     24.000000
 -0.098558  0.151740  0.092921     48.000000
 -0.131410  0.151740  0.092921     24.000000
 -0.114984  0.161223  0.092921     48.000000
 -0.098558  0.170707  0.092921     24.000000
 -0.147837  0.161223  0.092921     24.000000
 -0.131410  0.170707  0.092921     48.000000
 -0.114984  0.180191  0.092921     48.000000
 -0.164263  0.170707  0.092921     24.000000
 -0.147837  0.180191  0.092921     48.000000
 -0.131410  0.189675  0.092921     48.000000
 -0.114984  0.199158  0.092921     24.000000
 -0.164263 -0.284512  0.092921     24.000000
 -0.147837 -0.275028  0.092921     48.000000
 -0.131410 -0.265544  0.092921     48.000000
 -0.147837 -0.256061  0.092921     24.000000
 -0.131410 -0.246577  0.092921     24.000000
 -0.076656  0.132772  0.108408      6.000000
 -0.093082  0.142256  0.108408     24.000000
 -0.109509  0.151740  0.108408     24.000000
 -0.093082  0.161223  0.108408     24.000000
 -0.125935  0.161223  0.108408     24.000000
 -0.109509  0.170707  0.108408     48.000000
 -0.142361  0.170707  0.108408     24.000000
 -0.125935  0.180191  0.108408     48.000000
 -0.109509  0.189675  0.108408     24.000000
 -0.158788  0.180191  0.108408     24.000000
 -0.142361  0.189675  0.108408     48.000000
 -0.125935  0.199158  0.108408     48.000000
 -0.158788 -0.275028  0.108408     24.000000
 -0.142361 -0.265544  0.108408     48.000000
 -0.125935 -0.256061  0.108408     24.000000
 -0.142361 -0.246577  0.108408     24.000000
 -0.087607  0.151740  0.123895      6.000000
 -0.104033  0.161223  0.123895     24.000000
 -0.120460  0.170707  0.123895     24.000000
 -0.104033  0.180191  0.123895     24.000000
 -0.136886  0.180191  0.123895     24.000000
 -0.120460  0.189675  0.123895     48.000000
 -0.153312  0.189675  0.123895     24.000000
 -0.136886  0.199158  0.123895     48.000000
 -0.120460  0.208642  0.123895     24.000000
 -0.153312 -0.265544  0.123895     24.000000
 -0.136886 -0.256061  0.123895     48.000000
 -0.136886 -0.237093  0.123895      8.000000
 -0.098558  0.170707  0.139382      6.000000
 -0.114984  0.180191  0.139382     24.000000
 -0.131410  0.189675  0.139382     24.000000
 -0.114984  0.199158  0.139382     24.000000
 -0.147837  0.199158  0.139382     24.000000
 -0.131410  0.208642  0.139382     48.000000
 -0.147837 -0.256061  0.139382     24.000000
 -0.131410 -0.246577  0.139382     24.000000
 -0.109509  0.189675  0.154869      6.000000
 -0.125935  0.199158  0.154869     24.000000
 -0.142361  0.208642  0.154869     24.000000
 -0.125935  0.218126  0.154869     24.000000
 -0.142361 -0.246577  0.154869     24.000000
 -0.120460  0.208642  0.170356      6.000000
 -0.136886  0.218126  0.170356     24.000000
 -0.136886 -0.237093  0.170356      8.000000
 -0.131410  0.227610  0.185842      6.000000
 


--------------------------------------------------------------------------------------------------------




 Dimension of arrays:
   k-points           NKPTS =    455   k-points in BZ     NKDIM =    455   number of bands    NBANDS=      6
   number of dos      NEDOS =    301   number of ions     NIONS =      1
   non local maximal  LDIM  =      6   non local SUM 2l+1 LMDIM =     18
   total plane-waves  NPLWV =   5832
   max r-space proj   IRMAX =      1   max aug-charges    IRDMAX=  26861
   dimension x,y,z NGX =    18 NGY =   18 NGZ =   18
   dimension x,y,z NGXF=    36 NGYF=   36 NGZF=   36
   support grid    NGXF=    36 NGYF=   36 NGZF=   36
   ions per type =               1
   NGX,Y,Z   is equivalent  to a cutoff of  11.59, 11.59, 11.59 a.u.
   NGXF,Y,Z  is equivalent  to a cutoff of  23.17, 23.17, 23.17 a.u.

 SYSTEM =  V KSPACING 0.12                         
 POSCAR =  V1                                      

 Startparameter for this run:
   NWRITE =      2    write-flag & timer
   PREC   = accura    normal or accurate (medium, high low for compatibility)
   ISTART =      0    job   : 0-new  1-cont  2-samecut
   ICHARG =      2    charge: 1-file 2-atom 10-const
   ISPIN  =      1    spin polarized calculation?
   LNONCOLLINEAR =      F non collinear calculations
   LSORBIT =      F    spin-orbit coupling
   INIWAV =      1    electr: 0-lowe 1-rand  2-diag
   LASPH  =      F    aspherical Exc in radial PAW
 Electronic Relaxation 1
   ENCUT  =  400.0 eV  29.40 Ry    5.42 a.u.   4.21  4.21  4.21*2*pi/ulx,y,z
   ENINI  =  400.0     initial cutoff
   ENAUG  =  358.7 eV  augmentation charge cutoff
   NELM   =     60;   NELMIN=  2; NELMDL=  0     # of ELM steps 
   EDIFF  = 0.1E-05   stopping-criterion for ELM
   LREAL  =      F    real-space projection
   NLSPLINE    = F    spline interpolate recip. space projectors
   LCOMPAT=      F    compatible to vasp.4.4
   GGA_COMPAT  = T    GGA compatible to vasp.4.4-vasp.4.6
   LMAXPAW     = -100 max onsite density
   LMAXMIX     =    2 max onsite mixed and CHGCAR
   VOSKOWN=      0    Vosko Wilk Nusair interpolation
   ROPT   =    0.00000
 Ionic relaxation
   EDIFFG = 0.1E-04   stopping-criterion for IOM
   NSW    =      0    number of steps for IOM
   NBLOCK =      1;   KBLOCK =      1    inner block; outer block 
   IBRION =     -1    ionic relax: 0-MD 1-quasi-New 2-CG
   NFREE  =      0    steps in history (QN), initial steepest desc. (CG)
   ISIF   =      2    stress and relaxation
   IWAVPR =     10    prediction:  0-non 1-charg 2-wave 3-comb
   ISYM   =      2    0-nonsym 1-usesym 2-fastsym
   LCORR  =      T    Harris-Foulkes like correction to forces

   POTIM  = 0.5000    time-step for ionic-motion
   TEIN   =    0.0    initial temperature
   TEBEG  =    0.0;   TEEND  =   0.0 temperature during run
   SMASS  =  -3.00    Nose mass-parameter (am)
   estimated Nose-frequenzy (Omega)   =  0.10E-29 period in steps = 0.13E+47 mass=  -0.152E-27a.u.
   SCALEE = 1.0000    scale energy and forces
   NPACO  =    256;   APACO  = 10.0  distance and # of slots for P.C.
   PSTRESS=    0.0 pullay stress

  Mass of Ions in am
   POMASS =  50.94
  Ionic Valenz
   ZVAL   =   5.00
  Atomic Wigner-Seitz radii
   RWIGS  =  -1.00
  virtual crystal weights 
   VCA    =   1.00
   NELECT =       5.0000    total number of electrons
   NUPDOWN=      -1.0000    fix difference up-down

 DOS related values:
   EMIN   =  10.00;   EMAX   =-10.00  energy-range for DOS
   EFERMI =   0.00;   METHOD = LEGACY      
   ISMEAR =     1;   SIGMA  =   0.05  broadening in eV -4-tet -1-fermi 0-gaus

 Electronic relaxation 2 (details)
   IALGO  =     38    algorithm
   LDIAG  =      T    sub-space diagonalisation (order eigenvalues)
   LSUBROT=      F    optimize rotation matrix (better conditioning)
   TURBO    =      0    0=normal 1=particle mesh
   IRESTART =      0    0=no restart 2=restart with 2 vectors
   NREBOOT  =      0    no. of reboots
   NMIN     =      0    reboot dimension
   EREF     =   0.00    reference energy to select bands
   IMIX   =      4    mixing-type and parameters
     AMIX     =   0.40;   BMIX     =  1.00
     AMIX_MAG =   1.60;   BMIX_MAG =  1.00
     AMIN     =   0.10
     WC   =   100.;   INIMIX=   1;  MIXPRE=   1;  MAXMIX= -45

 Intra band minimization:
   WEIMIN = 0.0000     energy-eigenvalue tresh-hold
   EBREAK =  0.42E-07  absolut break condition
   DEPER  =   0.30     relativ break condition  

   TIME   =   0.40     timestep for ELM

  volume/ion in A,a.u.               =      13.26        89.51
  Fermi-wavevector in a.u.,A,eV,Ry     =   1.182612  2.234813 19.028725  1.398572
  Thomas-Fermi vector in A             =   2.318863
 
 Write flags
   LWAVE        =      F    write WAVECAR
   LDOWNSAMPLE  =      F    k-point downsampling of WAVECAR
   LCHARG       =      F    write CHGCAR
   LVTOT        =      F    write LOCPOT, total local potential
   LVHAR        =      F    write LOCPOT, Hartree potential only
   LELF         =      F    write electronic localiz. function (ELF)
   LORBIT       =      0    0 simple, 1 ext, 2 COOP (PROOUT), +10 PAW based schemes


 Dipole corrections
   LMONO  =      F    monopole corrections only (constant potential shift)
   LDIPOL =      F    correct potential (dipole corrections)
   IDIPOL =      0    1-x, 2-y, 3-z, 4-all directions 
   EPSILON=  1.0000000 bulk dielectric constant

 Exchange correlation treatment:
   GGA     =    --    GGA type
   LEXCH   =     8    internal setting for exchange type
   LIBXC   =     F    Libxc                    
   VOSKOWN =     0    Vosko Wilk Nusair interpolation
   LHFCALC =     F    Hartree Fock is set to
   LHFONE  =     F    Hartree Fock one center treatment
   AEXX    =    0.0000 exact exchange contribution

 Linear response parameters
   LEPSILON=     F    determine dielectric tensor
   LRPA    =     F    only Hartree local field effects (RPA)
   LNABLA  =     F    use nabla operator in PAW spheres
   LVEL    =     F    velocity operator in full k-point grid
   CSHIFT  =0.1000    complex shift for real part using Kramers Kronig
   OMEGAMAX=  -1.0    maximum frequency
   DEG_THRESHOLD= 0.2000000E-02 threshold for treating states as degnerate
   RTIME   =   -0.100 relaxation time in fs
  (WPLASMAI=    0.000 imaginary part of plasma frequency in eV, 0.658/RTIME)
   DFIELD  = 0.0000000 0.0000000 0.0000000 field for delta impulse in time
 
  Optional k-point grid parameters
   LKPOINTS_OPT  =     F    use optional k-point grid
   KPOINTS_OPT_MODE=     1    mode for optional k-point grid
 
 Orbital magnetization related:
   ORBITALMAG=     F  switch on orbital magnetization
   LCHIMAG   =     F  perturbation theory with respect to B field
   DQ        =  0.001000  dq finite difference perturbation B field
   LLRAUG    =     F  two centre corrections for induced B field
   LBONE     =     F  B-component reconstruction in AE one-centre
   LVGVCALC  =     T  calculate vGv susceptibility
   LVGVAPPL  =     F  apply vGv susceptibility instead of pGv for G=0

 Random number generation:
   RANDOM_GENERATOR = DEFAULT
   PCG_SEED         = not used


--------------------------------------------------------------------------------------------------------


 Static calculation
 charge density and potential will be updated during run
 non-spin polarized calculation
 Variant of blocked Davidson
 Davidson routine will perform the subspace rotation
 perform sub-space diagonalisation
    after iterative eigenvector-optimisation
 modified Broyden-mixing scheme, WC =      100.0
 initial mixing is a Kerker type mixing with AMIX =  0.4000 and BMIX =      1.0000
 Hartree-type preconditioning will be used
 using additional bands             3
 reciprocal scheme for non local part
 use partial core corrections
 calculate Harris-corrections to forces 
   (improved forces if not selfconsistent)
 use gradient corrections 
 use of overlap-Matrix (Vanderbilt PP)
 Methfessel and Paxton  Order N= 1 SIGMA  =   0.05


--------------------------------------------------------------------------------------------------------


  energy-cutoff  :      400.00
  volume of cell :       13.26
      direct lattice vectors                 reciprocal lattice vectors
     2.435118760  0.000000000 -0.860944880     0.410657589  0.237093292  0.000000000
    -1.217559380  2.108874510 -0.860944880     0.000000000  0.474186584  0.000000000
    -0.000000000 -0.000000000  2.582833620     0.136885917  0.237093386  0.387171668

  length of vectors
     2.582833611  2.582833450  2.582833620     0.474186551  0.474186584  0.474186596


 
 k-points in units of 2pi/SCALE and weight: read from INCAR                         
   0.00000000  0.00000000  0.00000000       0.000
   0.01642630  0.00948373  0.00000000       0.001
   0.03285261  0.01896746  0.00000000       0.001
   0.04927891  0.02845120  0.00000000       0.001
   0.06570521  0.03793493  0.00000000       0.001
   0.08213152  0.04741866  0.00000000       0.001
   0.09855782  0.05690239  0.00000000       0.001
   0.11498413  0.06638612  0.00000000       0.001
   0.13141043  0.07586985  0.00000000       0.001
   0.14783673  0.08535359  0.00000000       0.001
   0.16426304  0.09483732  0.00000000       0.001
   0.18068934  0.10432105  0.00000000       0.001
   0.19711564  0.11380478  0.00000000       0.001
   0.01642630  0.02845120  0.00000000       0.002
   0.03285261  0.03793493  0.00000000       0.003
   0.04927891  0.04741866  0.00000000       0.003
   0.06570521  0.05690239  0.00000000       0.003
   0.08213152  0.06638612  0.00000000       0.003
   0.09855782  0.07586985  0.00000000       0.003
   0.11498413  0.08535359  0.00000000       0.003
   0.13141043  0.09483732  0.00000000       0.003
   0.14783673  0.10432105  0.00000000       0.003
   0.16426304  0.11380478  0.00000000       0.003
   0.18068934  0.12328851  0.00000000       0.003
   0.19711564  0.13277224  0.00000000       0.002
   0.03285261  0.05690239  0.00000000       0.002
   0.04927891  0.06638612  0.00000000       0.003
   0.06570521  0.07586985  0.00000000       0.003
   0.08213152  0.08535359  0.00000000       0.003
   0.09855782  0.09483732  0.00000000       0.003
   0.11498413  0.10432105  0.00000000       0.003
   0.13141043  0.11380478  0.00000000       0.003
   0.14783673  0.12328851  0.00000000       0.003
   0.16426304  0.13277224  0.00000000       0.003
   0.18068934  0.14225598  0.00000000       0.003
   0.04927891  0.08535359  0.00000000       0.002
   0.06570521  0.09483732  0.00000000       0.003
   0.08213152  0.10432105  0.00000000       0.003
   0.09855782  0.11380478  0.00000000       0.003
   0.11498413  0.12328851  0.00000000       0.003
   0.13141043  0.13277224  0.00000000       0.003
   0.14783673  0.14225598  0.00000000       0.003
   0.16426304  0.15173971  0.00000000       0.003
   0.18068934  0.16122344  0.00000000       0.002
   0.06570521  0.11380478  0.00000000       0.002
   0.08213152  0.12328851  0.00000000       0.003
   0.09855782  0.13277224  0.00000000       0.003
   0.11498413  0.14225598  0.00000000       0.003
   0.13141043  0.15173971  0.00000000       0.003
   0.14783673  0.16122344  0.00000000       0.003
   0.16426304  0.17070717  0.00000000       0.003
   0.08213152  0.14225598  0.00000000       0.002
   0.09855782  0.15173971  0.00000000       0.003
   0.11498413  0.16122344  0.00000000       0.003
   0.13141043  0.17070717  0.00000000       0.003
   0.14783673  0.18019090  0.00000000       0.003
   0.16426304  0.18967463  0.00000000       0.002
   0.09855782  0.17070717  0.00000000       0.002
   0.11498413  0.18019090  0.00000000       0.003
   0.13141043  0.18967463  0.00000000       0.003
   0.14783673  0.19915837  0.00000000       0.003
   0.11498413  0.19915837  0.00000000       0.002
   0.13141043  0.20864210  0.00000000       0.003
   0.14783673  0.21812583  0.00000000       0.002
   0.13141043  0.22760956  0.00000000       0.002
   0.02190174  0.03793493  0.01548687       0.001
   0.03832804  0.04741866  0.01548687       0.002
   0.05475435  0.05690239  0.01548687       0.002
   0.07118065  0.06638613  0.01548687       0.002
   0.08760695  0.07586986  0.01548687       0.002
   0.10403326  0.08535359  0.01548687       0.002
   0.12045956  0.09483732  0.01548687       0.002
   0.13688587  0.10432105  0.01548687       0.002
   0.15331217  0.11380478  0.01548687       0.002
   0.16973847  0.12328852  0.01548687       0.002
   0.18616478  0.13277225  0.01548687       0.002
  -0.01095087  0.01896747  0.01548687       0.000
   0.03832804  0.06638613  0.01548687       0.002
   0.05475435  0.07586986  0.01548687       0.003
   0.07118065  0.08535359  0.01548687       0.003
   0.08760695  0.09483732  0.01548687       0.003
   0.10403326  0.10432105  0.01548687       0.003
   0.12045956  0.11380478  0.01548687       0.003
   0.13688587  0.12328852  0.01548687       0.003
   0.15331217  0.13277225  0.01548687       0.003
   0.16973847  0.14225598  0.01548687       0.003
   0.18616478  0.15173971  0.01548687       0.002
  -0.02737717  0.02845120  0.01548687       0.002
   0.05475435  0.09483732  0.01548687       0.002
   0.07118065  0.10432105  0.01548687       0.003
   0.08760695  0.11380478  0.01548687       0.003
   0.10403326  0.12328852  0.01548687       0.003
   0.12045956  0.13277225  0.01548687       0.003
   0.13688587  0.14225598  0.01548687       0.003
   0.15331217  0.15173971  0.01548687       0.003
   0.16973847  0.16122344  0.01548687       0.003
  -0.04380347  0.03793493  0.01548687       0.002
  -0.02737717  0.04741866  0.01548687       0.002
   0.07118065  0.12328852  0.01548687       0.002
   0.08760695  0.13277225  0.01548687       0.003
   0.10403326  0.14225598  0.01548687       0.003
   0.12045956  0.15173971  0.01548687       0.003
   0.13688587  0.16122344  0.01548687       0.003
   0.15331217  0.17070717  0.01548687       0.003
   0.16973847  0.18019091  0.01548687       0.002
  -0.06022978  0.04741866  0.01548687       0.002
  -0.04380347  0.05690239  0.01548687       0.003
   0.08760695  0.15173971  0.01548687       0.002
   0.10403326  0.16122344  0.01548687       0.003
   0.12045956  0.17070717  0.01548687       0.003
   0.13688587  0.18019091  0.01548687       0.003
   0.15331217  0.18967464  0.01548687       0.003
  -0.07665608  0.05690239  0.01548687       0.002
  -0.06022978  0.06638613  0.01548687       0.003
  -0.04380347  0.07586986  0.01548687       0.002
   0.10403326  0.18019091  0.01548687       0.002
   0.12045956  0.18967464  0.01548687       0.003
   0.13688587  0.19915837  0.01548687       0.003
   0.15331217  0.20864210  0.01548687       0.002
  -0.09308238  0.06638613  0.01548687       0.002
  -0.07665608  0.07586986  0.01548687       0.003
  -0.06022978  0.08535359  0.01548687       0.003
   0.12045956  0.20864210  0.01548687       0.002
   0.13688587  0.21812583  0.01548687       0.003
  -0.10950869  0.07586986  0.01548687       0.002
  -0.09308238  0.08535359  0.01548687       0.003
  -0.07665608  0.09483732  0.01548687       0.003
  -0.06022978  0.10432105  0.01548687       0.002
   0.13688587  0.23709330  0.01548687       0.001
  -0.12593499  0.08535359  0.01548687       0.002
  -0.10950869  0.09483732  0.01548687       0.003
  -0.09308238  0.10432105  0.01548687       0.003
  -0.07665608  0.11380478  0.01548687       0.003
  -0.14236130  0.09483732  0.01548687       0.002
  -0.12593499  0.10432105  0.01548687       0.003
  -0.10950869  0.11380478  0.01548687       0.003
  -0.09308238  0.12328852  0.01548687       0.003
  -0.07665608  0.13277225  0.01548687       0.002
  -0.15878760  0.10432105  0.01548687       0.002
  -0.14236130  0.11380478  0.01548687       0.003
  -0.12593499  0.12328852  0.01548687       0.003
  -0.10950869  0.13277225  0.01548687       0.003
  -0.09308238  0.14225598  0.01548687       0.003
  -0.17521390  0.11380478  0.01548687       0.002
  -0.15878760  0.12328852  0.01548687       0.003
  -0.14236130  0.13277225  0.01548687       0.003
  -0.12593499  0.14225598  0.01548687       0.003
  -0.10950869  0.15173971  0.01548687       0.003
  -0.09308238  0.16122344  0.01548687       0.002
  -0.19164021  0.12328852  0.01548687       0.002
  -0.17521390  0.13277225  0.01548687       0.003
  -0.15878760  0.14225598  0.01548687       0.003
  -0.14236130  0.15173971  0.01548687       0.003
  -0.12593499  0.16122344  0.01548687       0.003
  -0.10950869  0.17070717  0.01548687       0.003
  -0.19164021 -0.33193061  0.01548687       0.002
  -0.17521390 -0.32244687  0.01548687       0.003
  -0.15878760 -0.31296314  0.01548687       0.003
  -0.14236130 -0.30347941  0.01548687       0.003
  -0.12593499 -0.29399568  0.01548687       0.003
  -0.10950869 -0.28451195  0.01548687       0.002
  -0.17521390 -0.30347941  0.01548687       0.002
  -0.15878760 -0.29399568  0.01548687       0.003
  -0.14236130 -0.28451195  0.01548687       0.003
  -0.12593499 -0.27502821  0.01548687       0.003
  -0.15878760 -0.27502821  0.01548687       0.002
  -0.14236130 -0.26554448  0.01548687       0.003
  -0.12593499 -0.25606075  0.01548687       0.002
  -0.14236130 -0.24657702  0.01548687       0.002
   0.04380348  0.07586986  0.03097373       0.001
   0.06022978  0.08535359  0.03097373       0.002
   0.07665609  0.09483732  0.03097373       0.002
   0.09308239  0.10432106  0.03097373       0.002
   0.10950869  0.11380479  0.03097373       0.002
   0.12593500  0.12328852  0.03097373       0.002
   0.14236130  0.13277225  0.03097373       0.002
   0.15878761  0.14225598  0.03097373       0.002
   0.17521391  0.15173971  0.03097373       0.002
  -0.02190173  0.03793493  0.03097373       0.000
   0.06022978  0.10432106  0.03097373       0.002
   0.07665609  0.11380479  0.03097373       0.003
   0.09308239  0.12328852  0.03097373       0.003
   0.10950869  0.13277225  0.03097373       0.003
   0.12593500  0.14225598  0.03097373       0.003
   0.14236130  0.15173971  0.03097373       0.003
   0.15878761  0.16122345  0.03097373       0.003
   0.17521391  0.17070718  0.03097373       0.002
  -0.03832804  0.04741867  0.03097373       0.002
   0.07665609  0.13277225  0.03097373       0.002
   0.09308239  0.14225598  0.03097373       0.003
   0.10950869  0.15173971  0.03097373       0.003
   0.12593500  0.16122345  0.03097373       0.003
   0.14236130  0.17070718  0.03097373       0.003
   0.15878761  0.18019091  0.03097373       0.003
  -0.05475434  0.05690240  0.03097373       0.002
  -0.03832804  0.06638613  0.03097373       0.002
   0.09308239  0.16122345  0.03097373       0.002
   0.10950869  0.17070718  0.03097373       0.003
   0.12593500  0.18019091  0.03097373       0.003
   0.14236130  0.18967464  0.03097373       0.003
   0.15878761  0.19915837  0.03097373       0.002
  -0.07118064  0.06638613  0.03097373       0.002
  -0.05475434  0.07586986  0.03097373       0.003
   0.10950869  0.18967464  0.03097373       0.002
   0.12593500  0.19915837  0.03097373       0.003
   0.14236130  0.20864210  0.03097373       0.003
  -0.08760695  0.07586986  0.03097373       0.002
  -0.07118064  0.08535359  0.03097373       0.003
  -0.05475434  0.09483732  0.03097373       0.002
   0.12593500  0.21812584  0.03097373       0.002
   0.14236130  0.22760957  0.03097373       0.002
  -0.10403325  0.08535359  0.03097373       0.002
  -0.08760695  0.09483732  0.03097373       0.003
  -0.07118064  0.10432106  0.03097373       0.003
  -0.12045956  0.09483732  0.03097373       0.002
  -0.10403325  0.10432106  0.03097373       0.003
  -0.08760695  0.11380479  0.03097373       0.003
  -0.07118064  0.12328852  0.03097373       0.002
  -0.13688586  0.10432106  0.03097373       0.002
  -0.12045956  0.11380479  0.03097373       0.003
  -0.10403325  0.12328852  0.03097373       0.003
  -0.08760695  0.13277225  0.03097373       0.003
  -0.15331216  0.11380479  0.03097373       0.002
  -0.13688586  0.12328852  0.03097373       0.003
  -0.12045956  0.13277225  0.03097373       0.003
  -0.10403325  0.14225598  0.03097373       0.003
  -0.08760695  0.15173971  0.03097373       0.002
  -0.16973847  0.12328852  0.03097373       0.002
  -0.15331216  0.13277225  0.03097373       0.003
  -0.13688586  0.14225598  0.03097373       0.003
  -0.12045956  0.15173971  0.03097373       0.003
  -0.10403325  0.16122345  0.03097373       0.003
  -0.18616477  0.13277225  0.03097373       0.002
  -0.16973847  0.14225598  0.03097373       0.003
  -0.15331216  0.15173971  0.03097373       0.003
  -0.13688586  0.16122345  0.03097373       0.003
  -0.12045956  0.17070718  0.03097373       0.003
  -0.10403325  0.18019091  0.03097373       0.002
  -0.18616477 -0.32244687  0.03097373       0.002
  -0.16973847 -0.31296314  0.03097373       0.003
  -0.15331216 -0.30347941  0.03097373       0.003
  -0.13688586 -0.29399567  0.03097373       0.003
  -0.12045956 -0.28451194  0.03097373       0.003
  -0.16973847 -0.29399567  0.03097373       0.002
  -0.15331216 -0.28451194  0.03097373       0.003
  -0.13688586 -0.27502821  0.03097373       0.003
  -0.12045956 -0.26554448  0.03097373       0.002
  -0.15331216 -0.26554448  0.03097373       0.002
  -0.13688586 -0.25606075  0.03097373       0.003
  -0.13688586 -0.23709328  0.03097373       0.001
   0.06570522  0.11380479  0.04646060       0.001
   0.08213152  0.12328852  0.04646060       0.002
   0.09855783  0.13277225  0.04646060       0.002
   0.11498413  0.14225599  0.04646060       0.002
   0.13141044  0.15173972  0.04646060       0.002
   0.14783674  0.16122345  0.04646060       0.002
   0.16426304  0.17070718  0.04646060       0.002
  -0.03285260  0.05690240  0.04646060       0.000
   0.08213152  0.14225599  0.04646060       0.002
   0.09855783  0.15173972  0.04646060       0.003
   0.11498413  0.16122345  0.04646060       0.003
   0.13141044  0.17070718  0.04646060       0.003
   0.14783674  0.18019091  0.04646060       0.003
   0.16426304  0.18967464  0.04646060       0.002
  -0.04927890  0.06638613  0.04646060       0.002
   0.09855783  0.17070718  0.04646060       0.002
   0.11498413  0.18019091  0.04646060       0.003
   0.13141044  0.18967464  0.04646060       0.003
   0.14783674  0.19915838  0.04646060       0.003
  -0.06570521  0.07586986  0.04646060       0.002
  -0.04927890  0.08535360  0.04646060       0.002
   0.11498413  0.19915838  0.04646060       0.002
   0.13141044  0.20864211  0.04646060       0.003
   0.14783674  0.21812584  0.04646060       0.002
  -0.08213151  0.08535360  0.04646060       0.002
  -0.06570521  0.09483733  0.04646060       0.003
   0.13141044  0.22760957  0.04646060       0.002
  -0.09855781  0.09483733  0.04646060       0.002
  -0.08213151  0.10432106  0.04646060       0.003
  -0.06570521  0.11380479  0.04646060       0.002
  -0.11498412  0.10432106  0.04646060       0.002
  -0.09855781  0.11380479  0.04646060       0.003
  -0.08213151  0.12328852  0.04646060       0.003
  -0.13141042  0.11380479  0.04646060       0.002
  -0.11498412  0.12328852  0.04646060       0.003
  -0.09855781  0.13277225  0.04646060       0.003
  -0.08213151  0.14225599  0.04646060       0.002
  -0.14783673  0.12328852  0.04646060       0.002
  -0.13141042  0.13277225  0.04646060       0.003
  -0.11498412  0.14225599  0.04646060       0.003
  -0.09855781  0.15173972  0.04646060       0.003
  -0.16426303  0.13277225  0.04646060       0.002
  -0.14783673  0.14225599  0.04646060       0.003
  -0.13141042  0.15173972  0.04646060       0.003
  -0.11498412  0.16122345  0.04646060       0.003
  -0.09855781  0.17070718  0.04646060       0.002
  -0.18068933  0.14225599  0.04646060       0.002
  -0.16426303  0.15173972  0.04646060       0.003
  -0.14783673  0.16122345  0.04646060       0.003
  -0.13141042  0.17070718  0.04646060       0.003
  -0.11498412  0.18019091  0.04646060       0.003
  -0.18068933 -0.31296313  0.04646060       0.002
  -0.16426303 -0.30347940  0.04646060       0.003
  -0.14783673 -0.29399567  0.04646060       0.003
  -0.13141042 -0.28451194  0.04646060       0.003
  -0.11498412 -0.27502821  0.04646060       0.002
  -0.16426303 -0.28451194  0.04646060       0.002
  -0.14783673 -0.27502821  0.04646060       0.003
  -0.13141042 -0.26554448  0.04646060       0.003
  -0.14783673 -0.25606074  0.04646060       0.002
  -0.13141042 -0.24657701  0.04646060       0.002
   0.08760696  0.15173972  0.06194747       0.001
   0.10403326  0.16122345  0.06194747       0.002
   0.12045957  0.17070719  0.06194747       0.002
   0.13688587  0.18019092  0.06194747       0.002
   0.15331218  0.18967465  0.06194747       0.002
  -0.04380347  0.07586987  0.06194747       0.000
   0.10403326  0.18019092  0.06194747       0.002
   0.12045957  0.18967465  0.06194747       0.003
   0.13688587  0.19915838  0.06194747       0.003
   0.15331218  0.20864211  0.06194747       0.002
  -0.06022977  0.08535360  0.06194747       0.002
   0.12045957  0.20864211  0.06194747       0.002
   0.13688587  0.21812584  0.06194747       0.003
  -0.07665607  0.09483733  0.06194747       0.002
  -0.06022977  0.10432106  0.06194747       0.002
   0.13688587  0.23709331  0.06194747       0.001
  -0.09308238  0.10432106  0.06194747       0.002
  -0.07665607  0.11380480  0.06194747       0.003
  -0.10950868  0.11380480  0.06194747       0.002
  -0.09308238  0.12328853  0.06194747       0.003
  -0.07665607  0.13277226  0.06194747       0.002
  -0.12593499  0.12328853  0.06194747       0.002
  -0.10950868  0.13277226  0.06194747       0.003
  -0.09308238  0.14225599  0.06194747       0.003
  -0.14236129  0.13277226  0.06194747       0.002
  -0.12593499  0.14225599  0.06194747       0.003
  -0.10950868  0.15173972  0.06194747       0.003
  -0.09308238  0.16122345  0.06194747       0.002
  -0.15878759  0.14225599  0.06194747       0.002
  -0.14236129  0.15173972  0.06194747       0.003
  -0.12593499  0.16122345  0.06194747       0.003
  -0.10950868  0.17070719  0.06194747       0.003
  -0.17521390  0.15173972  0.06194747       0.002
  -0.15878759  0.16122345  0.06194747       0.003
  -0.14236129  0.17070719  0.06194747       0.003
  -0.12593499  0.18019092  0.06194747       0.003
  -0.10950868  0.18967465  0.06194747       0.002
  -0.17521390 -0.30347940  0.06194747       0.002
  -0.15878759 -0.29399567  0.06194747       0.003
  -0.14236129 -0.28451194  0.06194747       0.003
  -0.12593499 -0.27502820  0.06194747       0.003
  -0.15878759 -0.27502820  0.06194747       0.002
  -0.14236129 -0.26554447  0.06194747       0.003
  -0.12593499 -0.25606074  0.06194747       0.002
  -0.14236129 -0.24657701  0.06194747       0.002
   0.10950870  0.18967465  0.07743433       0.001
   0.12593500  0.19915838  0.07743433       0.002
   0.14236131  0.20864212  0.07743433       0.002
  -0.05475433  0.09483734  0.07743433       0.000
   0.12593500  0.21812585  0.07743433       0.002
   0.14236131  0.22760958  0.07743433       0.002
  -0.07118064  0.10432107  0.07743433       0.002
  -0.08760694  0.11380480  0.07743433       0.002
  -0.07118064  0.12328853  0.07743433       0.002
  -0.10403325  0.12328853  0.07743433       0.002
  -0.08760694  0.13277226  0.07743433       0.003
  -0.12045955  0.13277226  0.07743433       0.002
  -0.10403325  0.14225599  0.07743433       0.003
  -0.08760694  0.15173973  0.07743433       0.002
  -0.13688585  0.14225599  0.07743433       0.002
  -0.12045955  0.15173973  0.07743433       0.003
  -0.10403325  0.16122346  0.07743433       0.003
  -0.15331216  0.15173973  0.07743433       0.002
  -0.13688585  0.16122346  0.07743433       0.003
  -0.12045955  0.17070719  0.07743433       0.003
  -0.10403325  0.18019092  0.07743433       0.002
  -0.16973846  0.16122346  0.07743433       0.002
  -0.15331216  0.17070719  0.07743433       0.003
  -0.13688585  0.18019092  0.07743433       0.003
  -0.12045955  0.18967465  0.07743433       0.003
  -0.16973846 -0.29399566  0.07743433       0.002
  -0.15331216 -0.28451193  0.07743433       0.003
  -0.13688585 -0.27502820  0.07743433       0.003
  -0.12045955 -0.26554447  0.07743433       0.002
  -0.15331216 -0.26554447  0.07743433       0.002
  -0.13688585 -0.25606074  0.07743433       0.003
  -0.13688585 -0.23709327  0.07743433       0.001
   0.13141044  0.22760958  0.09292120       0.001
  -0.06570520  0.11380480  0.09292120       0.000
  -0.08213150  0.12328853  0.09292120       0.002
  -0.09855781  0.13277227  0.09292120       0.002
  -0.08213150  0.14225600  0.09292120       0.002
  -0.11498411  0.14225600  0.09292120       0.002
  -0.09855781  0.15173973  0.09292120       0.003
  -0.13141042  0.15173973  0.09292120       0.002
  -0.11498411  0.16122346  0.09292120       0.003
  -0.09855781  0.17070719  0.09292120       0.002
  -0.14783672  0.16122346  0.09292120       0.002
  -0.13141042  0.17070719  0.09292120       0.003
  -0.11498411  0.18019092  0.09292120       0.003
  -0.16426302  0.17070719  0.09292120       0.002
  -0.14783672  0.18019092  0.09292120       0.003
  -0.13141042  0.18967466  0.09292120       0.003
  -0.11498411  0.19915839  0.09292120       0.002
  -0.16426302 -0.28451193  0.09292120       0.002
  -0.14783672 -0.27502820  0.09292120       0.003
  -0.13141042 -0.26554446  0.09292120       0.003
  -0.14783672 -0.25606073  0.09292120       0.002
  -0.13141042 -0.24657700  0.09292120       0.002
  -0.07665607  0.13277227  0.10840807       0.000
  -0.09308237  0.14225600  0.10840807       0.002
  -0.10950868  0.15173973  0.10840807       0.002
  -0.09308237  0.16122346  0.10840807       0.002
  -0.12593498  0.16122346  0.10840807       0.002
  -0.10950868  0.17070720  0.10840807       0.003
  -0.14236128  0.17070720  0.10840807       0.002
  -0.12593498  0.18019093  0.10840807       0.003
  -0.10950868  0.18967466  0.10840807       0.002
  -0.15878759  0.18019093  0.10840807       0.002
  -0.14236128  0.18967466  0.10840807       0.003
  -0.12593498  0.19915839  0.10840807       0.003
  -0.15878759 -0.27502819  0.10840807       0.002
  -0.14236128 -0.26554446  0.10840807       0.003
  -0.12593498 -0.25606073  0.10840807       0.002
  -0.14236128 -0.24657700  0.10840807       0.002
  -0.08760694  0.15173974  0.12389493       0.000
  -0.10403324  0.16122347  0.12389493       0.002
  -0.12045954  0.17070720  0.12389493       0.002
  -0.10403324  0.18019093  0.12389493       0.002
  -0.13688585  0.18019093  0.12389493       0.002
  -0.12045954  0.18967466  0.12389493       0.003
  -0.15331215  0.18967466  0.12389493       0.002
  -0.13688585  0.19915840  0.12389493       0.003
  -0.12045954  0.20864213  0.12389493       0.002
  -0.15331215 -0.26554446  0.12389493       0.002
  -0.13688585 -0.25606073  0.12389493       0.003
  -0.13688585 -0.23709326  0.12389493       0.001
  -0.09855780  0.17070720  0.13938180       0.000
  -0.11498411  0.18019094  0.13938180       0.002
  -0.13141041  0.18967467  0.13938180       0.002
  -0.11498411  0.19915840  0.13938180       0.002
  -0.14783671  0.19915840  0.13938180       0.002
  -0.13141041  0.20864213  0.13938180       0.003
  -0.14783671 -0.25606072  0.13938180       0.002
  -0.13141041 -0.24657699  0.13938180       0.002
  -0.10950867  0.18967467  0.15486867       0.000
  -0.12593497  0.19915840  0.15486867       0.002
  -0.14236128  0.20864213  0.15486867       0.002
  -0.12593497  0.21812587  0.15486867       0.002
  -0.14236128 -0.24657699  0.15486867       0.002
  -0.12045954  0.20864214  0.17035553       0.000
  -0.13688584  0.21812587  0.17035553       0.002
  -0.13688584 -0.23709325  0.17035553       0.001
  -0.13141040  0.22760961  0.18584240       0.000
 
 k-points in reciprocal lattice and weights: read from INCAR                         
   0.00000000  0.00000000  0.00000000       0.000
   0.04000000  0.00000000  0.00000000       0.001
   0.08000000  0.00000000  0.00000000       0.001
   0.12000000  0.00000000  0.00000000       0.001
   0.16000000  0.00000000  0.00000000       0.001
   0.20000000  0.00000000  0.00000000       0.001
   0.24000000  0.00000000  0.00000000       0.001
   0.28000000  0.00000000  0.00000000       0.001
   0.32000000  0.00000000  0.00000000       0.001
   0.36000000  0.00000000  0.00000000       0.001
   0.40000000  0.00000000  0.00000000       0.001
   0.44000000  0.00000000  0.00000000       0.001
   0.48000000  0.00000000  0.00000000       0.001
   0.04000000  0.04000000  0.00000000       0.002
   0.08000000  0.04000000  0.00000000       0.003
   0.12000000  0.04000000  0.00000000       0.003
   0.16000000  0.04000000  0.00000000       0.003
   0.20000000  0.04000000  0.00000000       0.003
   0.24000000  0.04000000  0.00000000       0.003
   0.28000000  0.04000000  0.00000000       0.003
   0.32000000  0.04000000  0.00000000       0.003
   0.36000000  0.04000000  0.00000000       0.003
   0.40000000  0.04000000  0.00000000       0.003
   0.44000000  0.04000000  0.00000000       0.003
   0.48000000  0.04000000  0.00000000       0.002
   0.08000000  0.08000000  0.00000000       0.002
   0.12000000  0.08000000  0.00000000       0.003
   0.16000000  0.08000000  0.00000000       0.003
   0.20000000  0.08000000  0.00000000       0.003
   0.24000000  0.08000000  0.00000000       0.003
   0.28000000  0.08000000  0.00000000       0.003
   0.32000000  0.08000000  0.00000000       0.003
   0.36000000  0.08000000  0.00000000       0.003
   0.40000000  0.08000000  0.00000000       0.003
   0.44000000  0.08000000  0.00000000       0.003
   0.12000000  0.12000000  0.00000000       0.002
   0.16000000  0.12000000  0.00000000       0.003
   0.20000000  0.12000000  0.00000000       0.003
   0.24000000  0.12000000  0.00000000       0.003
   0.28000000  0.12000000  0.00000000       0.003
   0.32000000  0.12000000  0.00000000       0.003
   0.36000000  0.12000000  0.00000000       0.003
   0.40000000  0.12000000  0.00000000       0.003
   0.44000000  0.12000000  0.00000000       0.002
   0.16000000  0.16000000  0.00000000       0.002
   0.20000000  0.16000000  0.00000000       0.003
   0.24000000  0.16000000  0.00000000       0.003
   0.28000000  0.16000000  0.00000000       0.003
   0.32000000  0.16000000  0.00000000       0.003
   0.36000000  0.16000000  0.00000000       0.003
   0.40000000  0.16000000  0.00000000       0.003
   0.20000000  0.20000000  0.00000000       0.002
   0.24000000  0.20000000  0.00000000       0.003
   0.28000000  0.20000000  0.00000000       0.003
   0.32000000  0.20000000  0.00000000       0.003
   0.36000000  0.20000000  0.00000000       0.003
   0.40000000  0.20000000  0.00000000       0.002
   0.24000000  0.24000000  0.00000000       0.002
   0.28000000  0.24000000  0.00000000       0.003
   0.32000000  0.24000000  0.00000000       0.003
   0.36000000  0.24000000  0.00000000       0.003
   0.28000000  0.28000000  0.00000000       0.002
   0.32000000  0.28000000  0.00000000       0.003
   0.36000000  0.28000000  0.00000000       0.002
   0.32000000  0.32000000  0.00000000       0.002
   0.04000000  0.04000000  0.04000000       0.001
   0.08000000  0.04000000  0.04000000       0.002
   0.12000000  0.04000000  0.04000000       0.002
   0.16000000  0.04000000  0.04000000       0.002
   0.20000000  0.04000000  0.04000000       0.002
   0.24000000  0.04000000  0.04000000       0.002
   0.28000000  0.04000000  0.04000000       0.002
   0.32000000  0.04000000  0.04000000       0.002
   0.36000000  0.04000000  0.04000000       0.002
   0.40000000  0.04000000  0.04000000       0.002
   0.44000000  0.04000000  0.04000000       0.002
  -0.04000000  0.04000000  0.04000000       0.000
   0.08000000  0.08000000  0.04000000       0.002
   0.12000000  0.08000000  0.04000000       0.003
   0.16000000  0.08000000  0.04000000       0.003
   0.20000000  0.08000000  0.04000000       0.003
   0.24000000  0.08000000  0.04000000       0.003
   0.28000000  0.08000000  0.04000000       0.003
   0.32000000  0.08000000  0.04000000       0.003
   0.36000000  0.08000000  0.04000000       0.003
   0.40000000  0.08000000  0.04000000       0.003
   0.44000000  0.08000000  0.04000000       0.002
  -0.08000000  0.08000000  0.04000000       0.002
   0.12000000  0.12000000  0.04000000       0.002
   0.16000000  0.12000000  0.04000000       0.003
   0.20000000  0.12000000  0.04000000       0.003
   0.24000000  0.12000000  0.04000000       0.003
   0.28000000  0.12000000  0.04000000       0.003
   0.32000000  0.12000000  0.04000000       0.003
   0.36000000  0.12000000  0.04000000       0.003
   0.40000000  0.12000000  0.04000000       0.003
  -0.12000000  0.12000000  0.04000000       0.002
  -0.08000000  0.12000000  0.04000000       0.002
   0.16000000  0.16000000  0.04000000       0.002
   0.20000000  0.16000000  0.04000000       0.003
   0.24000000  0.16000000  0.04000000       0.003
   0.28000000  0.16000000  0.04000000       0.003
   0.32000000  0.16000000  0.04000000       0.003
   0.36000000  0.16000000  0.04000000       0.003
   0.40000000  0.16000000  0.04000000       0.002
  -0.16000000  0.16000000  0.04000000       0.002
  -0.12000000  0.16000000  0.04000000       0.003
   0.20000000  0.20000000  0.04000000       0.002
   0.24000000  0.20000000  0.04000000       0.003
   0.28000000  0.20000000  0.04000000       0.003
   0.32000000  0.20000000  0.04000000       0.003
   0.36000000  0.20000000  0.04000000       0.003
  -0.20000000  0.20000000  0.04000000       0.002
  -0.16000000  0.20000000  0.04000000       0.003
  -0.12000000  0.20000000  0.04000000       0.002
   0.24000000  0.24000000  0.04000000       0.002
   0.28000000  0.24000000  0.04000000       0.003
   0.32000000  0.24000000  0.04000000       0.003
   0.36000000  0.24000000  0.04000000       0.002
  -0.24000000  0.24000000  0.04000000       0.002
  -0.20000000  0.24000000  0.04000000       0.003
  -0.16000000  0.24000000  0.04000000       0.003
   0.28000000  0.28000000  0.04000000       0.002
   0.32000000  0.28000000  0.04000000       0.003
  -0.28000000  0.28000000  0.04000000       0.002
  -0.24000000  0.28000000  0.04000000       0.003
  -0.20000000  0.28000000  0.04000000       0.003
  -0.16000000  0.28000000  0.04000000       0.002
   0.32000000  0.32000000  0.04000000       0.001
  -0.32000000  0.32000000  0.04000000       0.002
  -0.28000000  0.32000000  0.04000000       0.003
  -0.24000000  0.32000000  0.04000000       0.003
  -0.20000000  0.32000000  0.04000000       0.003
  -0.36000000  0.36000000  0.04000000       0.002
  -0.32000000  0.36000000  0.04000000       0.003
  -0.28000000  0.36000000  0.04000000       0.003
  -0.24000000  0.36000000  0.04000000       0.003
  -0.20000000  0.36000000  0.04000000       0.002
  -0.40000000  0.40000000  0.04000000       0.002
  -0.36000000  0.40000000  0.04000000       0.003
  -0.32000000  0.40000000  0.04000000       0.003
  -0.28000000  0.40000000  0.04000000       0.003
  -0.24000000  0.40000000  0.04000000       0.003
  -0.44000000  0.44000000  0.04000000       0.002
  -0.40000000  0.44000000  0.04000000       0.003
  -0.36000000  0.44000000  0.04000000       0.003
  -0.32000000  0.44000000  0.04000000       0.003
  -0.28000000  0.44000000  0.04000000       0.003
  -0.24000000  0.44000000  0.04000000       0.002
  -0.48000000  0.48000000  0.04000000       0.002
  -0.44000000  0.48000000  0.04000000       0.003
  -0.40000000  0.48000000  0.04000000       0.003
  -0.36000000  0.48000000  0.04000000       0.003
  -0.32000000  0.48000000  0.04000000       0.003
  -0.28000000  0.48000000  0.04000000       0.003
  -0.48000000 -0.48000000  0.04000000       0.002
  -0.44000000 -0.48000000  0.04000000       0.003
  -0.40000000 -0.48000000  0.04000000       0.003
  -0.36000000 -0.48000000  0.04000000       0.003
  -0.32000000 -0.48000000  0.04000000       0.003
  -0.28000000 -0.48000000  0.04000000       0.002
  -0.44000000 -0.44000000  0.04000000       0.002
  -0.40000000 -0.44000000  0.04000000       0.003
  -0.36000000 -0.44000000  0.04000000       0.003
  -0.32000000 -0.44000000  0.04000000       0.003
  -0.40000000 -0.40000000  0.04000000       0.002
  -0.36000000 -0.40000000  0.04000000       0.003
  -0.32000000 -0.40000000  0.04000000       0.002
  -0.36000000 -0.36000000  0.04000000       0.002
   0.08000000  0.08000000  0.08000000       0.001
   0.12000000  0.08000000  0.08000000       0.002
   0.16000000  0.08000000  0.08000000       0.002
   0.20000000  0.08000000  0.08000000       0.002
   0.24000000  0.08000000  0.08000000       0.002
   0.28000000  0.08000000  0.08000000       0.002
   0.32000000  0.08000000  0.08000000       0.002
   0.36000000  0.08000000  0.08000000       0.002
   0.40000000  0.08000000  0.08000000       0.002
  -0.08000000  0.08000000  0.08000000       0.000
   0.12000000  0.12000000  0.08000000       0.002
   0.16000000  0.12000000  0.08000000       0.003
   0.20000000  0.12000000  0.08000000       0.003
   0.24000000  0.12000000  0.08000000       0.003
   0.28000000  0.12000000  0.08000000       0.003
   0.32000000  0.12000000  0.08000000       0.003
   0.36000000  0.12000000  0.08000000       0.003
   0.40000000  0.12000000  0.08000000       0.002
  -0.12000000  0.12000000  0.08000000       0.002
   0.16000000  0.16000000  0.08000000       0.002
   0.20000000  0.16000000  0.08000000       0.003
   0.24000000  0.16000000  0.08000000       0.003
   0.28000000  0.16000000  0.08000000       0.003
   0.32000000  0.16000000  0.08000000       0.003
   0.36000000  0.16000000  0.08000000       0.003
  -0.16000000  0.16000000  0.08000000       0.002
  -0.12000000  0.16000000  0.08000000       0.002
   0.20000000  0.20000000  0.08000000       0.002
   0.24000000  0.20000000  0.08000000       0.003
   0.28000000  0.20000000  0.08000000       0.003
   0.32000000  0.20000000  0.08000000       0.003
   0.36000000  0.20000000  0.08000000       0.002
  -0.20000000  0.20000000  0.08000000       0.002
  -0.16000000  0.20000000  0.08000000       0.003
   0.24000000  0.24000000  0.08000000       0.002
   0.28000000  0.24000000  0.08000000       0.003
   0.32000000  0.24000000  0.08000000       0.003
  -0.24000000  0.24000000  0.08000000       0.002
  -0.20000000  0.24000000  0.08000000       0.003
  -0.16000000  0.24000000  0.08000000       0.002
   0.28000000  0.28000000  0.08000000       0.002
   0.32000000  0.28000000  0.08000000       0.002
  -0.28000000  0.28000000  0.08000000       0.002
  -0.24000000  0.28000000  0.08000000       0.003
  -0.20000000  0.28000000  0.08000000       0.003
  -0.32000000  0.32000000  0.08000000       0.002
  -0.28000000  0.32000000  0.08000000       0.003
  -0.24000000  0.32000000  0.08000000       0.003
  -0.20000000  0.32000000  0.08000000       0.002
  -0.36000000  0.36000000  0.08000000       0.002
  -0.32000000  0.36000000  0.08000000       0.003
  -0.28000000  0.36000000  0.08000000       0.003
  -0.24000000  0.36000000  0.08000000       0.003
  -0.40000000  0.40000000  0.08000000       0.002
  -0.36000000  0.40000000  0.08000000       0.003
  -0.32000000  0.40000000  0.08000000       0.003
  -0.28000000  0.40000000  0.08000000       0.003
  -0.24000000  0.40000000  0.08000000       0.002
  -0.44000000  0.44000000  0.08000000       0.002
  -0.40000000  0.44000000  0.08000000       0.003
  -0.36000000  0.44000000  0.08000000       0.003
  -0.32000000  0.44000000  0.08000000       0.003
  -0.28000000  0.44000000  0.08000000       0.003
  -0.48000000  0.48000000  0.08000000       0.002
  -0.44000000  0.48000000  0.08000000       0.003
  -0.40000000  0.48000000  0.08000000       0.003
  -0.36000000  0.48000000  0.08000000       0.003
  -0.32000000  0.48000000  0.08000000       0.003
  -0.28000000  0.48000000  0.08000000       0.002
  -0.48000000 -0.48000000  0.08000000       0.002
  -0.44000000 -0.48000000  0.08000000       0.003
  -0.40000000 -0.48000000  0.08000000       0.003
  -0.36000000 -0.48000000  0.08000000       0.003
  -0.32000000 -0.48000000  0.08000000       0.003
  -0.44000000 -0.44000000  0.08000000       0.002
  -0.40000000 -0.44000000  0.08000000       0.003
  -0.36000000 -0.44000000  0.08000000       0.003
  -0.32000000 -0.44000000  0.08000000       0.002
  -0.40000000 -0.40000000  0.08000000       0.002
  -0.36000000 -0.40000000  0.08000000       0.003
  -0.36000000 -0.36000000  0.08000000       0.001
   0.12000000  0.12000000  0.12000000       0.001
   0.16000000  0.12000000  0.12000000       0.002
   0.20000000  0.12000000  0.12000000       0.002
   0.24000000  0.12000000  0.12000000       0.002
   0.28000000  0.12000000  0.12000000       0.002
   0.32000000  0.12000000  0.12000000       0.002
   0.36000000  0.12000000  0.12000000       0.002
  -0.12000000  0.12000000  0.12000000       0.000
   0.16000000  0.16000000  0.12000000       0.002
   0.20000000  0.16000000  0.12000000       0.003
   0.24000000  0.16000000  0.12000000       0.003
   0.28000000  0.16000000  0.12000000       0.003
   0.32000000  0.16000000  0.12000000       0.003
   0.36000000  0.16000000  0.12000000       0.002
  -0.16000000  0.16000000  0.12000000       0.002
   0.20000000  0.20000000  0.12000000       0.002
   0.24000000  0.20000000  0.12000000       0.003
   0.28000000  0.20000000  0.12000000       0.003
   0.32000000  0.20000000  0.12000000       0.003
  -0.20000000  0.20000000  0.12000000       0.002
  -0.16000000  0.20000000  0.12000000       0.002
   0.24000000  0.24000000  0.12000000       0.002
   0.28000000  0.24000000  0.12000000       0.003
   0.32000000  0.24000000  0.12000000       0.002
  -0.24000000  0.24000000  0.12000000       0.002
  -0.20000000  0.24000000  0.12000000       0.003
   0.28000000  0.28000000  0.12000000       0.002
  -0.28000000  0.28000000  0.12000000       0.002
  -0.24000000  0.28000000  0.12000000       0.003
  -0.20000000  0.28000000  0.12000000       0.002
  -0.32000000  0.32000000  0.12000000       0.002
  -0.28000000  0.32000000  0.12000000       0.003
  -0.24000000  0.32000000  0.12000000       0.003
  -0.36000000  0.36000000  0.12000000       0.002
  -0.32000000  0.36000000  0.12000000       0.003
  -0.28000000  0.36000000  0.12000000       0.003
  -0.24000000  0.36000000  0.12000000       0.002
  -0.40000000  0.40000000  0.12000000       0.002
  -0.36000000  0.40000000  0.12000000       0.003
  -0.32000000  0.40000000  0.12000000       0.003
  -0.28000000  0.40000000  0.12000000       0.003
  -0.44000000  0.44000000  0.12000000       0.002
  -0.40000000  0.44000000  0.12000000       0.003
  -0.36000000  0.44000000  0.12000000       0.003
  -0.32000000  0.44000000  0.12000000       0.003
  -0.28000000  0.44000000  0.12000000       0.002
  -0.48000000  0.48000000  0.12000000       0.002
  -0.44000000  0.48000000  0.12000000       0.003
  -0.40000000  0.48000000  0.12000000       0.003
  -0.36000000  0.48000000  0.12000000       0.003
  -0.32000000  0.48000000  0.12000000       0.003
  -0.48000000 -0.48000000  0.12000000       0.002
  -0.44000000 -0.48000000  0.12000000       0.003
  -0.40000000 -0.48000000  0.12000000       0.003
  -0.36000000 -0.48000000  0.12000000       0.003
  -0.32000000 -0.48000000  0.12000000       0.002
  -0.44000000 -0.44000000  0.12000000       0.002
  -0.40000000 -0.44000000  0.12000000       0.003
  -0.36000000 -0.44000000  0.12000000       0.003
  -0.40000000 -0.40000000  0.12000000       0.002
  -0.36000000 -0.40000000  0.12000000       0.002
   0.16000000  0.16000000  0.16000000       0.001
   0.20000000  0.16000000  0.16000000       0.002
   0.24000000  0.16000000  0.16000000       0.002
   0.28000000  0.16000000  0.16000000       0.002
   0.32000000  0.16000000  0.16000000       0.002
  -0.16000000  0.16000000  0.16000000       0.000
   0.20000000  0.20000000  0.16000000       0.002
   0.24000000  0.20000000  0.16000000       0.003
   0.28000000  0.20000000  0.16000000       0.003
   0.32000000  0.20000000  0.16000000       0.002
  -0.20000000  0.20000000  0.16000000       0.002
   0.24000000  0.24000000  0.16000000       0.002
   0.28000000  0.24000000  0.16000000       0.003
  -0.24000000  0.24000000  0.16000000       0.002
  -0.20000000  0.24000000  0.16000000       0.002
   0.28000000  0.28000000  0.16000000       0.001
  -0.28000000  0.28000000  0.16000000       0.002
  -0.24000000  0.28000000  0.16000000       0.003
  -0.32000000  0.32000000  0.16000000       0.002
  -0.28000000  0.32000000  0.16000000       0.003
  -0.24000000  0.32000000  0.16000000       0.002
  -0.36000000  0.36000000  0.16000000       0.002
  -0.32000000  0.36000000  0.16000000       0.003
  -0.28000000  0.36000000  0.16000000       0.003
  -0.40000000  0.40000000  0.16000000       0.002
  -0.36000000  0.40000000  0.16000000       0.003
  -0.32000000  0.40000000  0.16000000       0.003
  -0.28000000  0.40000000  0.16000000       0.002
  -0.44000000  0.44000000  0.16000000       0.002
  -0.40000000  0.44000000  0.16000000       0.003
  -0.36000000  0.44000000  0.16000000       0.003
  -0.32000000  0.44000000  0.16000000       0.003
  -0.48000000  0.48000000  0.16000000       0.002
  -0.44000000  0.48000000  0.16000000       0.003
  -0.40000000  0.48000000  0.16000000       0.003
  -0.36000000  0.48000000  0.16000000       0.003
  -0.32000000  0.48000000  0.16000000       0.002
  -0.48000000 -0.48000000  0.16000000       0.002
  -0.44000000 -0.48000000  0.16000000       0.003
  -0.40000000 -0.48000000  0.16000000       0.003
  -0.36000000 -0.48000000  0.16000000       0.003
  -0.44000000 -0.44000000  0.16000000       0.002
  -0.40000000 -0.44000000  0.16000000       0.003
  -0.36000000 -0.44000000  0.16000000       0.002
  -0.40000000 -0.40000000  0.16000000       0.002
   0.20000000  0.20000000  0.20000000       0.001
   0.24000000  0.20000000  0.20000000       0.002
   0.28000000  0.20000000  0.20000000       0.002
  -0.20000000  0.20000000  0.20000000       0.000
   0.24000000  0.24000000  0.20000000       0.002
   0.28000000  0.24000000  0.20000000       0.002
  -0.24000000  0.24000000  0.20000000       0.002
  -0.28000000  0.28000000  0.20000000       0.002
  -0.24000000  0.28000000  0.20000000       0.002
  -0.32000000  0.32000000  0.20000000       0.002
  -0.28000000  0.32000000  0.20000000       0.003
  -0.36000000  0.36000000  0.20000000       0.002
  -0.32000000  0.36000000  0.20000000       0.003
  -0.28000000  0.36000000  0.20000000       0.002
  -0.40000000  0.40000000  0.20000000       0.002
  -0.36000000  0.40000000  0.20000000       0.003
  -0.32000000  0.40000000  0.20000000       0.003
  -0.44000000  0.44000000  0.20000000       0.002
  -0.40000000  0.44000000  0.20000000       0.003
  -0.36000000  0.44000000  0.20000000       0.003
  -0.32000000  0.44000000  0.20000000       0.002
  -0.48000000  0.48000000  0.20000000       0.002
  -0.44000000  0.48000000  0.20000000       0.003
  -0.40000000  0.48000000  0.20000000       0.003
  -0.36000000  0.48000000  0.20000000       0.003
  -0.48000000 -0.48000000  0.20000000       0.002
  -0.44000000 -0.48000000  0.20000000       0.003
  -0.40000000 -0.48000000  0.20000000       0.003
  -0.36000000 -0.48000000  0.20000000       0.002
  -0.44000000 -0.44000000  0.20000000       0.002
  -0.40000000 -0.44000000  0.20000000       0.003
  -0.40000000 -0.40000000  0.20000000       0.001
   0.24000000  0.24000000  0.24000000       0.001
  -0.24000000  0.24000000  0.24000000       0.000
  -0.28000000  0.28000000  0.24000000       0.002
  -0.32000000  0.32000000  0.24000000       0.002
  -0.28000000  0.32000000  0.24000000       0.002
  -0.36000000  0.36000000  0.24000000       0.002
  -0.32000000  0.36000000  0.24000000       0.003
  -0.40000000  0.40000000  0.24000000       0.002
  -0.36000000  0.40000000  0.24000000       0.003
  -0.32000000  0.40000000  0.24000000       0.002
  -0.44000000  0.44000000  0.24000000       0.002
  -0.40000000  0.44000000  0.24000000       0.003
  -0.36000000  0.44000000  0.24000000       0.003
  -0.48000000  0.48000000  0.24000000       0.002
  -0.44000000  0.48000000  0.24000000       0.003
  -0.40000000  0.48000000  0.24000000       0.003
  -0.36000000  0.48000000  0.24000000       0.002
  -0.48000000 -0.48000000  0.24000000       0.002
  -0.44000000 -0.48000000  0.24000000       0.003
  -0.40000000 -0.48000000  0.24000000       0.003
  -0.44000000 -0.44000000  0.24000000       0.002
  -0.40000000 -0.44000000  0.24000000       0.002
  -0.28000000  0.28000000  0.28000000       0.000
  -0.32000000  0.32000000  0.28000000       0.002
  -0.36000000  0.36000000  0.28000000       0.002
  -0.32000000  0.36000000  0.28000000       0.002
  -0.40000000  0.40000000  0.28000000       0.002
  -0.36000000  0.40000000  0.28000000       0.003
  -0.44000000  0.44000000  0.28000000       0.002
  -0.40000000  0.44000000  0.28000000       0.003
  -0.36000000  0.44000000  0.28000000       0.002
  -0.48000000  0.48000000  0.28000000       0.002
  -0.44000000  0.48000000  0.28000000       0.003
  -0.40000000  0.48000000  0.28000000       0.003
  -0.48000000 -0.48000000  0.28000000       0.002
  -0.44000000 -0.48000000  0.28000000       0.003
  -0.40000000 -0.48000000  0.28000000       0.002
  -0.44000000 -0.44000000  0.28000000       0.002
  -0.32000000  0.32000000  0.32000000       0.000
  -0.36000000  0.36000000  0.32000000       0.002
  -0.40000000  0.40000000  0.32000000       0.002
  -0.36000000  0.40000000  0.32000000       0.002
  -0.44000000  0.44000000  0.32000000       0.002
  -0.40000000  0.44000000  0.32000000       0.003
  -0.48000000  0.48000000  0.32000000       0.002
  -0.44000000  0.48000000  0.32000000       0.003
  -0.40000000  0.48000000  0.32000000       0.002
  -0.48000000 -0.48000000  0.32000000       0.002
  -0.44000000 -0.48000000  0.32000000       0.003
  -0.44000000 -0.44000000  0.32000000       0.001
  -0.36000000  0.36000000  0.36000000       0.000
  -0.40000000  0.40000000  0.36000000       0.002
  -0.44000000  0.44000000  0.36000000       0.002
  -0.40000000  0.44000000  0.36000000       0.002
  -0.48000000  0.48000000  0.36000000       0.002
  -0.44000000  0.48000000  0.36000000       0.003
  -0.48000000 -0.48000000  0.36000000       0.002
  -0.44000000 -0.48000000  0.36000000       0.002
  -0.40000000  0.40000000  0.40000000       0.000
  -0.44000000  0.44000000  0.40000000       0.002
  -0.48000000  0.48000000  0.40000000       0.002
  -0.44000000  0.48000000  0.40000000       0.002
  -0.48000000 -0.48000000  0.40000000       0.002
  -0.44000000  0.44000000  0.44000000       0.000
  -0.48000000  0.48000000  0.44000000       0.002
  -0.48000000 -0.48000000  0.44000000       0.001
  -0.48000000  0.48000000  0.48000000       0.000
 
 position of ions in fractional coordinates (direct lattice) 
   0.00000000  0.00000000  0.00000000
 
 position of ions in cartesian coordinates  (Angst):
   0.00000000  0.00000000  0.00000000
 


--------------------------------------------------------------------------------------------------------


 k-point   1 :   0.0000 0.0000 0.0000  plane waves:     225
 k-point   2 :   0.0400 0.0000 0.0000  plane waves:     229
 k-point   3 :   0.0800 0.0000 0.0000  plane waves:     231
 k-point   4 :   0.1200 0.0000 0.0000  plane waves:     235
 k-point   5 :   0.1600 0.0000 0.0000  plane waves:     233
 k-point   6 :   0.2000 0.0000 0.0000  plane waves:     233
 k-point   7 :   0.2400 0.0000 0.0000  plane waves:     235
 k-point   8 :   0.2800 0.0000 0.0000  plane waves:     243
 k-point   9 :   0.3200 0.0000 0.0000  plane waves:     247
 k-point  10 :   0.3600 0.0000 0.0000  plane waves:     247
 k-point  11 :   0.4000 0.0000 0.0000  plane waves:     247
 k-point  12 :   0.4400 0.0000 0.0000  plane waves:     242
 k-point  13 :   0.4800 0.0000 0.0000  plane waves:     246
 k-point  14 :   0.0400 0.0400 0.0000  plane waves:     232
 k-point  15 :   0.0800 0.0400 0.0000  plane waves:     234
 k-point  16 :   0.1200 0.0400 0.0000  plane waves:     233
 k-point  17 :   0.1600 0.0400 0.0000  plane waves:     233
 k-point  18 :   0.2000 0.0400 0.0000  plane waves:     238
 k-point  19 :   0.2400 0.0400 0.0000  plane waves:     239
 k-point  20 :   0.2800 0.0400 0.0000  plane waves:     244
 k-point  21 :   0.3200 0.0400 0.0000  plane waves:     244
 k-point  22 :   0.3600 0.0400 0.0000  plane waves:     248
 k-point  23 :   0.4000 0.0400 0.0000  plane waves:     245
 k-point  24 :   0.4400 0.0400 0.0000  plane waves:     243
 k-point  25 :   0.4800 0.0400 0.0000  plane waves:     246
 k-point  26 :   0.0800 0.0800 0.0000  plane waves:     231
 k-point  27 :   0.1200 0.0800 0.0000  plane waves:     232
 k-point  28 :   0.1600 0.0800 0.0000  plane waves:     237
 k-point  29 :   0.2000 0.0800 0.0000  plane waves:     240
 k-point  30 :   0.2400 0.0800 0.0000  plane waves:     244
 k-point  31 :   0.2800 0.0800 0.0000  plane waves:     243
 k-point  32 :   0.3200 0.0800 0.0000  plane waves:     244
 k-point  33 :   0.3600 0.0800 0.0000  plane waves:     246
 k-point  34 :   0.4000 0.0800 0.0000  plane waves:     243
 k-point  35 :   0.4400 0.0800 0.0000  plane waves:     245
 k-point  36 :   0.1200 0.1200 0.0000  plane waves:     238
 k-point  37 :   0.1600 0.1200 0.0000  plane waves:     243
 k-point  38 :   0.2000 0.1200 0.0000  plane waves:     242
 k-point  39 :   0.2400 0.1200 0.0000  plane waves:     244
 k-point  40 :   0.2800 0.1200 0.0000  plane waves:     242
 k-point  41 :   0.3200 0.1200 0.0000  plane waves:     244
 k-point  42 :   0.3600 0.1200 0.0000  plane waves:     242
 k-point  43 :   0.4000 0.1200 0.0000  plane waves:     245
 k-point  44 :   0.4400 0.1200 0.0000  plane waves:     246
 k-point  45 :   0.1600 0.1600 0.0000  plane waves:     244
 k-point  46 :   0.2000 0.1600 0.0000  plane waves:     241
 k-point  47 :   0.2400 0.1600 0.0000  plane waves:     242
 k-point  48 :   0.2800 0.1600 0.0000  plane waves:     241
 k-point  49 :   0.3200 0.1600 0.0000  plane waves:     242
 k-point  50 :   0.3600 0.1600 0.0000  plane waves:     241
 k-point  51 :   0.4000 0.1600 0.0000  plane waves:     244
 k-point  52 :   0.2000 0.2000 0.0000  plane waves:     242
 k-point  53 :   0.2400 0.2000 0.0000  plane waves:     243
 k-point  54 :   0.2800 0.2000 0.0000  plane waves:     241
 k-point  55 :   0.3200 0.2000 0.0000  plane waves:     241
 k-point  56 :   0.3600 0.2000 0.0000  plane waves:     240
 k-point  57 :   0.4000 0.2000 0.0000  plane waves:     238
 k-point  58 :   0.2400 0.2400 0.0000  plane waves:     244
 k-point  59 :   0.2800 0.2400 0.0000  plane waves:     245
 k-point  60 :   0.3200 0.2400 0.0000  plane waves:     240
 k-point  61 :   0.3600 0.2400 0.0000  plane waves:     241
 k-point  62 :   0.2800 0.2800 0.0000  plane waves:     241
 k-point  63 :   0.3200 0.2800 0.0000  plane waves:     240
 k-point  64 :   0.3600 0.2800 0.0000  plane waves:     240
 k-point  65 :   0.3200 0.3200 0.0000  plane waves:     240
 k-point  66 :   0.0400 0.0400 0.0400  plane waves:     234
 k-point  67 :   0.0800 0.0400 0.0400  plane waves:     231
 k-point  68 :   0.1200 0.0400 0.0400  plane waves:     231
 k-point  69 :   0.1600 0.0400 0.0400  plane waves:     239
 k-point  70 :   0.2000 0.0400 0.0400  plane waves:     243
 k-point  71 :   0.2400 0.0400 0.0400  plane waves:     245
 k-point  72 :   0.2800 0.0400 0.0400  plane waves:     247
 k-point  73 :   0.3200 0.0400 0.0400  plane waves:     249
 k-point  74 :   0.3600 0.0400 0.0400  plane waves:     245
 k-point  75 :   0.4000 0.0400 0.0400  plane waves:     244
 k-point  76 :   0.4400 0.0400 0.0400  plane waves:     244
 k-point  77 :  -0.0400 0.0400 0.0400  plane waves:     229
 k-point  78 :   0.0800 0.0800 0.0400  plane waves:     231
 k-point  79 :   0.1200 0.0800 0.0400  plane waves:     236
 k-point  80 :   0.1600 0.0800 0.0400  plane waves:     243
 k-point  81 :   0.2000 0.0800 0.0400  plane waves:     243
 k-point  82 :   0.2400 0.0800 0.0400  plane waves:     243
 k-point  83 :   0.2800 0.0800 0.0400  plane waves:     245
 k-point  84 :   0.3200 0.0800 0.0400  plane waves:     246
 k-point  85 :   0.3600 0.0800 0.0400  plane waves:     246
 k-point  86 :   0.4000 0.0800 0.0400  plane waves:     246
 k-point  87 :   0.4400 0.0800 0.0400  plane waves:     246
 k-point  88 :  -0.0800 0.0800 0.0400  plane waves:     233
 k-point  89 :   0.1200 0.1200 0.0400  plane waves:     240
 k-point  90 :   0.1600 0.1200 0.0400  plane waves:     243
 k-point  91 :   0.2000 0.1200 0.0400  plane waves:     244
 k-point  92 :   0.2400 0.1200 0.0400  plane waves:     242
 k-point  93 :   0.2800 0.1200 0.0400  plane waves:     245
 k-point  94 :   0.3200 0.1200 0.0400  plane waves:     245
 k-point  95 :   0.3600 0.1200 0.0400  plane waves:     244
 k-point  96 :   0.4000 0.1200 0.0400  plane waves:     243
 k-point  97 :  -0.1200 0.1200 0.0400  plane waves:     233
 k-point  98 :  -0.0800 0.1200 0.0400  plane waves:     235
 k-point  99 :   0.1600 0.1600 0.0400  plane waves:     244
 k-point 100 :   0.2000 0.1600 0.0400  plane waves:     243
 k-point 101 :   0.2400 0.1600 0.0400  plane waves:     243
 k-point 102 :   0.2800 0.1600 0.0400  plane waves:     242
 k-point 103 :   0.3200 0.1600 0.0400  plane waves:     243
 k-point 104 :   0.3600 0.1600 0.0400  plane waves:     242
 k-point 105 :   0.4000 0.1600 0.0400  plane waves:     245
 k-point 106 :  -0.1600 0.1600 0.0400  plane waves:     229
 k-point 107 :  -0.1200 0.1600 0.0400  plane waves:     232
 k-point 108 :   0.2000 0.2000 0.0400  plane waves:     242
 k-point 109 :   0.2400 0.2000 0.0400  plane waves:     242
 k-point 110 :   0.2800 0.2000 0.0400  plane waves:     242
 k-point 111 :   0.3200 0.2000 0.0400  plane waves:     241
 k-point 112 :   0.3600 0.2000 0.0400  plane waves:     243
 k-point 113 :  -0.2000 0.2000 0.0400  plane waves:     232
 k-point 114 :  -0.1600 0.2000 0.0400  plane waves:     234
 k-point 115 :  -0.1200 0.2000 0.0400  plane waves:     234
 k-point 116 :   0.2400 0.2400 0.0400  plane waves:     241
 k-point 117 :   0.2800 0.2400 0.0400  plane waves:     243
 k-point 118 :   0.3200 0.2400 0.0400  plane waves:     242
 k-point 119 :   0.3600 0.2400 0.0400  plane waves:     242
 k-point 120 :  -0.2400 0.2400 0.0400  plane waves:     239
 k-point 121 :  -0.2000 0.2400 0.0400  plane waves:     237
 k-point 122 :  -0.1600 0.2400 0.0400  plane waves:     240
 k-point 123 :   0.2800 0.2800 0.0400  plane waves:     240
 k-point 124 :   0.3200 0.2800 0.0400  plane waves:     240
 k-point 125 :  -0.2800 0.2800 0.0400  plane waves:     241
 k-point 126 :  -0.2400 0.2800 0.0400  plane waves:     240
 k-point 127 :  -0.2000 0.2800 0.0400  plane waves:     238
 k-point 128 :  -0.1600 0.2800 0.0400  plane waves:     240
 k-point 129 :   0.3200 0.3200 0.0400  plane waves:     240
 k-point 130 :  -0.3200 0.3200 0.0400  plane waves:     244
 k-point 131 :  -0.2800 0.3200 0.0400  plane waves:     242
 k-point 132 :  -0.2400 0.3200 0.0400  plane waves:     241
 k-point 133 :  -0.2000 0.3200 0.0400  plane waves:     240
 k-point 134 :  -0.3600 0.3600 0.0400  plane waves:     246
 k-point 135 :  -0.3200 0.3600 0.0400  plane waves:     245
 k-point 136 :  -0.2800 0.3600 0.0400  plane waves:     240
 k-point 137 :  -0.2400 0.3600 0.0400  plane waves:     240
 k-point 138 :  -0.2000 0.3600 0.0400  plane waves:     240
 k-point 139 :  -0.4000 0.4000 0.0400  plane waves:     247
 k-point 140 :  -0.3600 0.4000 0.0400  plane waves:     243
 k-point 141 :  -0.3200 0.4000 0.0400  plane waves:     244
 k-point 142 :  -0.2800 0.4000 0.0400  plane waves:     241
 k-point 143 :  -0.2400 0.4000 0.0400  plane waves:     241
 k-point 144 :  -0.4400 0.4400 0.0400  plane waves:     244
 k-point 145 :  -0.4000 0.4400 0.0400  plane waves:     246
 k-point 146 :  -0.3600 0.4400 0.0400  plane waves:     245
 k-point 147 :  -0.3200 0.4400 0.0400  plane waves:     240
 k-point 148 :  -0.2800 0.4400 0.0400  plane waves:     240
 k-point 149 :  -0.2400 0.4400 0.0400  plane waves:     240
 k-point 150 :  -0.4800 0.4800 0.0400  plane waves:     244
 k-point 151 :  -0.4400 0.4800 0.0400  plane waves:     245
 k-point 152 :  -0.4000 0.4800 0.0400  plane waves:     244
 k-point 153 :  -0.3600 0.4800 0.0400  plane waves:     244
 k-point 154 :  -0.3200 0.4800 0.0400  plane waves:     239
 k-point 155 :  -0.2800 0.4800 0.0400  plane waves:     240
 k-point 156 :  -0.4800-0.4800 0.0400  plane waves:     242
 k-point 157 :  -0.4400-0.4800 0.0400  plane waves:     244
 k-point 158 :  -0.4000-0.4800 0.0400  plane waves:     240
 k-point 159 :  -0.3600-0.4800 0.0400  plane waves:     241
 k-point 160 :  -0.3200-0.4800 0.0400  plane waves:     241
 k-point 161 :  -0.2800-0.4800 0.0400  plane waves:     241
 k-point 162 :  -0.4400-0.4400 0.0400  plane waves:     240
 k-point 163 :  -0.4000-0.4400 0.0400  plane waves:     240
 k-point 164 :  -0.3600-0.4400 0.0400  plane waves:     240
 k-point 165 :  -0.3200-0.4400 0.0400  plane waves:     239
 k-point 166 :  -0.4000-0.4000 0.0400  plane waves:     241
 k-point 167 :  -0.3600-0.4000 0.0400  plane waves:     238
 k-point 168 :  -0.3200-0.4000 0.0400  plane waves:     237
 k-point 169 :  -0.3600-0.3600 0.0400  plane waves:     236
 k-point 170 :   0.0800 0.0800 0.0800  plane waves:     237
 k-point 171 :   0.1200 0.0800 0.0800  plane waves:     238
 k-point 172 :   0.1600 0.0800 0.0800  plane waves:     243
 k-point 173 :   0.2000 0.0800 0.0800  plane waves:     241
 k-point 174 :   0.2400 0.0800 0.0800  plane waves:     243
 k-point 175 :   0.2800 0.0800 0.0800  plane waves:     247
 k-point 176 :   0.3200 0.0800 0.0800  plane waves:     247
 k-point 177 :   0.3600 0.0800 0.0800  plane waves:     246
 k-point 178 :   0.4000 0.0800 0.0800  plane waves:     244
 k-point 179 :  -0.0800 0.0800 0.0800  plane waves:     237
 k-point 180 :   0.1200 0.1200 0.0800  plane waves:     241
 k-point 181 :   0.1600 0.1200 0.0800  plane waves:     244
 k-point 182 :   0.2000 0.1200 0.0800  plane waves:     245
 k-point 183 :   0.2400 0.1200 0.0800  plane waves:     246
 k-point 184 :   0.2800 0.1200 0.0800  plane waves:     247
 k-point 185 :   0.3200 0.1200 0.0800  plane waves:     247
 k-point 186 :   0.3600 0.1200 0.0800  plane waves:     246
 k-point 187 :   0.4000 0.1200 0.0800  plane waves:     246
 k-point 188 :  -0.1200 0.1200 0.0800  plane waves:     237
 k-point 189 :   0.1600 0.1600 0.0800  plane waves:     245
 k-point 190 :   0.2000 0.1600 0.0800  plane waves:     244
 k-point 191 :   0.2400 0.1600 0.0800  plane waves:     243
 k-point 192 :   0.2800 0.1600 0.0800  plane waves:     243
 k-point 193 :   0.3200 0.1600 0.0800  plane waves:     244
 k-point 194 :   0.3600 0.1600 0.0800  plane waves:     245
 k-point 195 :  -0.1600 0.1600 0.0800  plane waves:     232
 k-point 196 :  -0.1200 0.1600 0.0800  plane waves:     237
 k-point 197 :   0.2000 0.2000 0.0800  plane waves:     239
 k-point 198 :   0.2400 0.2000 0.0800  plane waves:     240
 k-point 199 :   0.2800 0.2000 0.0800  plane waves:     243
 k-point 200 :   0.3200 0.2000 0.0800  plane waves:     243
 k-point 201 :   0.3600 0.2000 0.0800  plane waves:     243
 k-point 202 :  -0.2000 0.2000 0.0800  plane waves:     239
 k-point 203 :  -0.1600 0.2000 0.0800  plane waves:     237
 k-point 204 :   0.2400 0.2400 0.0800  plane waves:     239
 k-point 205 :   0.2800 0.2400 0.0800  plane waves:     242
 k-point 206 :   0.3200 0.2400 0.0800  plane waves:     240
 k-point 207 :  -0.2400 0.2400 0.0800  plane waves:     239
 k-point 208 :  -0.2000 0.2400 0.0800  plane waves:     241
 k-point 209 :  -0.1600 0.2400 0.0800  plane waves:     238
 k-point 210 :   0.2800 0.2800 0.0800  plane waves:     240
 k-point 211 :   0.3200 0.2800 0.0800  plane waves:     240
 k-point 212 :  -0.2800 0.2800 0.0800  plane waves:     241
 k-point 213 :  -0.2400 0.2800 0.0800  plane waves:     238
 k-point 214 :  -0.2000 0.2800 0.0800  plane waves:     240
 k-point 215 :  -0.3200 0.3200 0.0800  plane waves:     242
 k-point 216 :  -0.2800 0.3200 0.0800  plane waves:     241
 k-point 217 :  -0.2400 0.3200 0.0800  plane waves:     239
 k-point 218 :  -0.2000 0.3200 0.0800  plane waves:     238
 k-point 219 :  -0.3600 0.3600 0.0800  plane waves:     242
 k-point 220 :  -0.3200 0.3600 0.0800  plane waves:     240
 k-point 221 :  -0.2800 0.3600 0.0800  plane waves:     241
 k-point 222 :  -0.2400 0.3600 0.0800  plane waves:     240
 k-point 223 :  -0.4000 0.4000 0.0800  plane waves:     242
 k-point 224 :  -0.3600 0.4000 0.0800  plane waves:     241
 k-point 225 :  -0.3200 0.4000 0.0800  plane waves:     239
 k-point 226 :  -0.2800 0.4000 0.0800  plane waves:     241
 k-point 227 :  -0.2400 0.4000 0.0800  plane waves:     240
 k-point 228 :  -0.4400 0.4400 0.0800  plane waves:     243
 k-point 229 :  -0.4000 0.4400 0.0800  plane waves:     242
 k-point 230 :  -0.3600 0.4400 0.0800  plane waves:     241
 k-point 231 :  -0.3200 0.4400 0.0800  plane waves:     238
 k-point 232 :  -0.2800 0.4400 0.0800  plane waves:     237
 k-point 233 :  -0.4800 0.4800 0.0800  plane waves:     242
 k-point 234 :  -0.4400 0.4800 0.0800  plane waves:     244
 k-point 235 :  -0.4000 0.4800 0.0800  plane waves:     241
 k-point 236 :  -0.3600 0.4800 0.0800  plane waves:     239
 k-point 237 :  -0.3200 0.4800 0.0800  plane waves:     236
 k-point 238 :  -0.2800 0.4800 0.0800  plane waves:     239
 k-point 239 :  -0.4800-0.4800 0.0800  plane waves:     242
 k-point 240 :  -0.4400-0.4800 0.0800  plane waves:     240
 k-point 241 :  -0.4000-0.4800 0.0800  plane waves:     239
 k-point 242 :  -0.3600-0.4800 0.0800  plane waves:     237
 k-point 243 :  -0.3200-0.4800 0.0800  plane waves:     239
 k-point 244 :  -0.4400-0.4400 0.0800  plane waves:     238
 k-point 245 :  -0.4000-0.4400 0.0800  plane waves:     236
 k-point 246 :  -0.3600-0.4400 0.0800  plane waves:     239
 k-point 247 :  -0.3200-0.4400 0.0800  plane waves:     241
 k-point 248 :  -0.4000-0.4000 0.0800  plane waves:     238
 k-point 249 :  -0.3600-0.4000 0.0800  plane waves:     238
 k-point 250 :  -0.3600-0.3600 0.0800  plane waves:     237
 k-point 251 :   0.1200 0.1200 0.1200  plane waves:     246
 k-point 252 :   0.1600 0.1200 0.1200  plane waves:     246
 k-point 253 :   0.2000 0.1200 0.1200  plane waves:     243
 k-point 254 :   0.2400 0.1200 0.1200  plane waves:     243
 k-point 255 :   0.2800 0.1200 0.1200  plane waves:     243
 k-point 256 :   0.3200 0.1200 0.1200  plane waves:     246
 k-point 257 :   0.3600 0.1200 0.1200  plane waves:     246
 k-point 258 :  -0.1200 0.1200 0.1200  plane waves:     237
 k-point 259 :   0.1600 0.1600 0.1200  plane waves:     244
 k-point 260 :   0.2000 0.1600 0.1200  plane waves:     239
 k-point 261 :   0.2400 0.1600 0.1200  plane waves:     242
 k-point 262 :   0.2800 0.1600 0.1200  plane waves:     243
 k-point 263 :   0.3200 0.1600 0.1200  plane waves:     244
 k-point 264 :   0.3600 0.1600 0.1200  plane waves:     246
 k-point 265 :  -0.1600 0.1600 0.1200  plane waves:     239
 k-point 266 :   0.2000 0.2000 0.1200  plane waves:     238
 k-point 267 :   0.2400 0.2000 0.1200  plane waves:     240
 k-point 268 :   0.2800 0.2000 0.1200  plane waves:     242
 k-point 269 :   0.3200 0.2000 0.1200  plane waves:     243
 k-point 270 :  -0.2000 0.2000 0.1200  plane waves:     239
 k-point 271 :  -0.1600 0.2000 0.1200  plane waves:     238
 k-point 272 :   0.2400 0.2400 0.1200  plane waves:     242
 k-point 273 :   0.2800 0.2400 0.1200  plane waves:     240
 k-point 274 :   0.3200 0.2400 0.1200  plane waves:     241
 k-point 275 :  -0.2400 0.2400 0.1200  plane waves:     239
 k-point 276 :  -0.2000 0.2400 0.1200  plane waves:     239
 k-point 277 :   0.2800 0.2800 0.1200  plane waves:     240
 k-point 278 :  -0.2800 0.2800 0.1200  plane waves:     240
 k-point 279 :  -0.2400 0.2800 0.1200  plane waves:     239
 k-point 280 :  -0.2000 0.2800 0.1200  plane waves:     240
 k-point 281 :  -0.3200 0.3200 0.1200  plane waves:     237
 k-point 282 :  -0.2800 0.3200 0.1200  plane waves:     240
 k-point 283 :  -0.2400 0.3200 0.1200  plane waves:     239
 k-point 284 :  -0.3600 0.3600 0.1200  plane waves:     238
 k-point 285 :  -0.3200 0.3600 0.1200  plane waves:     239
 k-point 286 :  -0.2800 0.3600 0.1200  plane waves:     239
 k-point 287 :  -0.2400 0.3600 0.1200  plane waves:     240
 k-point 288 :  -0.4000 0.4000 0.1200  plane waves:     242
 k-point 289 :  -0.3600 0.4000 0.1200  plane waves:     241
 k-point 290 :  -0.3200 0.4000 0.1200  plane waves:     239
 k-point 291 :  -0.2800 0.4000 0.1200  plane waves:     237
 k-point 292 :  -0.4400 0.4400 0.1200  plane waves:     243
 k-point 293 :  -0.4000 0.4400 0.1200  plane waves:     242
 k-point 294 :  -0.3600 0.4400 0.1200  plane waves:     238
 k-point 295 :  -0.3200 0.4400 0.1200  plane waves:     239
 k-point 296 :  -0.2800 0.4400 0.1200  plane waves:     238
 k-point 297 :  -0.4800 0.4800 0.1200  plane waves:     242
 k-point 298 :  -0.4400 0.4800 0.1200  plane waves:     240
 k-point 299 :  -0.4000 0.4800 0.1200  plane waves:     242
 k-point 300 :  -0.3600 0.4800 0.1200  plane waves:     239
 k-point 301 :  -0.3200 0.4800 0.1200  plane waves:     239
 k-point 302 :  -0.4800-0.4800 0.1200  plane waves:     243
 k-point 303 :  -0.4400-0.4800 0.1200  plane waves:     241
 k-point 304 :  -0.4000-0.4800 0.1200  plane waves:     238
 k-point 305 :  -0.3600-0.4800 0.1200  plane waves:     239
 k-point 306 :  -0.3200-0.4800 0.1200  plane waves:     239
 k-point 307 :  -0.4400-0.4400 0.1200  plane waves:     241
 k-point 308 :  -0.4000-0.4400 0.1200  plane waves:     239
 k-point 309 :  -0.3600-0.4400 0.1200  plane waves:     238
 k-point 310 :  -0.4000-0.4000 0.1200  plane waves:     238
 k-point 311 :  -0.3600-0.4000 0.1200  plane waves:     237
 k-point 312 :   0.1600 0.1600 0.1600  plane waves:     240
 k-point 313 :   0.2000 0.1600 0.1600  plane waves:     242
 k-point 314 :   0.2400 0.1600 0.1600  plane waves:     240
 k-point 315 :   0.2800 0.1600 0.1600  plane waves:     240
 k-point 316 :   0.3200 0.1600 0.1600  plane waves:     242
 k-point 317 :  -0.1600 0.1600 0.1600  plane waves:     241
 k-point 318 :   0.2000 0.2000 0.1600  plane waves:     242
 k-point 319 :   0.2400 0.2000 0.1600  plane waves:     239
 k-point 320 :   0.2800 0.2000 0.1600  plane waves:     239
 k-point 321 :   0.3200 0.2000 0.1600  plane waves:     239
 k-point 322 :  -0.2000 0.2000 0.1600  plane waves:     241
 k-point 323 :   0.2400 0.2400 0.1600  plane waves:     239
 k-point 324 :   0.2800 0.2400 0.1600  plane waves:     237
 k-point 325 :  -0.2400 0.2400 0.1600  plane waves:     242
 k-point 326 :  -0.2000 0.2400 0.1600  plane waves:     242
 k-point 327 :   0.2800 0.2800 0.1600  plane waves:     240
 k-point 328 :  -0.2800 0.2800 0.1600  plane waves:     240
 k-point 329 :  -0.2400 0.2800 0.1600  plane waves:     240
 k-point 330 :  -0.3200 0.3200 0.1600  plane waves:     240
 k-point 331 :  -0.2800 0.3200 0.1600  plane waves:     240
 k-point 332 :  -0.2400 0.3200 0.1600  plane waves:     238
 k-point 333 :  -0.3600 0.3600 0.1600  plane waves:     239
 k-point 334 :  -0.3200 0.3600 0.1600  plane waves:     237
 k-point 335 :  -0.2800 0.3600 0.1600  plane waves:     239
 k-point 336 :  -0.4000 0.4000 0.1600  plane waves:     241
 k-point 337 :  -0.3600 0.4000 0.1600  plane waves:     240
 k-point 338 :  -0.3200 0.4000 0.1600  plane waves:     240
 k-point 339 :  -0.2800 0.4000 0.1600  plane waves:     240
 k-point 340 :  -0.4400 0.4400 0.1600  plane waves:     244
 k-point 341 :  -0.4000 0.4400 0.1600  plane waves:     243
 k-point 342 :  -0.3600 0.4400 0.1600  plane waves:     240
 k-point 343 :  -0.3200 0.4400 0.1600  plane waves:     240
 k-point 344 :  -0.4800 0.4800 0.1600  plane waves:     246
 k-point 345 :  -0.4400 0.4800 0.1600  plane waves:     243
 k-point 346 :  -0.4000 0.4800 0.1600  plane waves:     239
 k-point 347 :  -0.3600 0.4800 0.1600  plane waves:     239
 k-point 348 :  -0.3200 0.4800 0.1600  plane waves:     241
 k-point 349 :  -0.4800-0.4800 0.1600  plane waves:     246
 k-point 350 :  -0.4400-0.4800 0.1600  plane waves:     241
 k-point 351 :  -0.4000-0.4800 0.1600  plane waves:     237
 k-point 352 :  -0.3600-0.4800 0.1600  plane waves:     239
 k-point 353 :  -0.4400-0.4400 0.1600  plane waves:     241
 k-point 354 :  -0.4000-0.4400 0.1600  plane waves:     239
 k-point 355 :  -0.3600-0.4400 0.1600  plane waves:     239
 k-point 356 :  -0.4000-0.4000 0.1600  plane waves:     240
 k-point 357 :   0.2000 0.2000 0.2000  plane waves:     240
 k-point 358 :   0.2400 0.2000 0.2000  plane waves:     239
 k-point 359 :   0.2800 0.2000 0.2000  plane waves:     238
 k-point 360 :  -0.2000 0.2000 0.2000  plane waves:     237
 k-point 361 :   0.2400 0.2400 0.2000  plane waves:     240
 k-point 362 :   0.2800 0.2400 0.2000  plane waves:     240
 k-point 363 :  -0.2400 0.2400 0.2000  plane waves:     240
 k-point 364 :  -0.2800 0.2800 0.2000  plane waves:     239
 k-point 365 :  -0.2400 0.2800 0.2000  plane waves:     239
 k-point 366 :  -0.3200 0.3200 0.2000  plane waves:     241
 k-point 367 :  -0.2800 0.3200 0.2000  plane waves:     240
 k-point 368 :  -0.3600 0.3600 0.2000  plane waves:     241
 k-point 369 :  -0.3200 0.3600 0.2000  plane waves:     240
 k-point 370 :  -0.2800 0.3600 0.2000  plane waves:     240
 k-point 371 :  -0.4000 0.4000 0.2000  plane waves:     245
 k-point 372 :  -0.3600 0.4000 0.2000  plane waves:     240
 k-point 373 :  -0.3200 0.4000 0.2000  plane waves:     239
 k-point 374 :  -0.4400 0.4400 0.2000  plane waves:     242
 k-point 375 :  -0.4000 0.4400 0.2000  plane waves:     243
 k-point 376 :  -0.3600 0.4400 0.2000  plane waves:     243
 k-point 377 :  -0.3200 0.4400 0.2000  plane waves:     241
 k-point 378 :  -0.4800 0.4800 0.2000  plane waves:     244
 k-point 379 :  -0.4400 0.4800 0.2000  plane waves:     243
 k-point 380 :  -0.4000 0.4800 0.2000  plane waves:     240
 k-point 381 :  -0.3600 0.4800 0.2000  plane waves:     242
 k-point 382 :  -0.4800-0.4800 0.2000  plane waves:     239
 k-point 383 :  -0.4400-0.4800 0.2000  plane waves:     240
 k-point 384 :  -0.4000-0.4800 0.2000  plane waves:     241
 k-point 385 :  -0.3600-0.4800 0.2000  plane waves:     240
 k-point 386 :  -0.4400-0.4400 0.2000  plane waves:     239
 k-point 387 :  -0.4000-0.4400 0.2000  plane waves:     240
 k-point 388 :  -0.4000-0.4000 0.2000  plane waves:     240
 k-point 389 :   0.2400 0.2400 0.2400  plane waves:     240
 k-point 390 :  -0.2400 0.2400 0.2400  plane waves:     241
 k-point 391 :  -0.2800 0.2800 0.2400  plane waves:     241
 k-point 392 :  -0.3200 0.3200 0.2400  plane waves:     241
 k-point 393 :  -0.2800 0.3200 0.2400  plane waves:     241
 k-point 394 :  -0.3600 0.3600 0.2400  plane waves:     238
 k-point 395 :  -0.3200 0.3600 0.2400  plane waves:     241
 k-point 396 :  -0.4000 0.4000 0.2400  plane waves:     239
 k-point 397 :  -0.3600 0.4000 0.2400  plane waves:     241
 k-point 398 :  -0.3200 0.4000 0.2400  plane waves:     242
 k-point 399 :  -0.4400 0.4400 0.2400  plane waves:     242
 k-point 400 :  -0.4000 0.4400 0.2400  plane waves:     242
 k-point 401 :  -0.3600 0.4400 0.2400  plane waves:     240
 k-point 402 :  -0.4800 0.4800 0.2400  plane waves:     240
 k-point 403 :  -0.4400 0.4800 0.2400  plane waves:     240
 k-point 404 :  -0.4000 0.4800 0.2400  plane waves:     241
 k-point 405 :  -0.3600 0.4800 0.2400  plane waves:     243
 k-point 406 :  -0.4800-0.4800 0.2400  plane waves:     240
 k-point 407 :  -0.4400-0.4800 0.2400  plane waves:     240
 k-point 408 :  -0.4000-0.4800 0.2400  plane waves:     242
 k-point 409 :  -0.4400-0.4400 0.2400  plane waves:     242
 k-point 410 :  -0.4000-0.4400 0.2400  plane waves:     245
 k-point 411 :  -0.2800 0.2800 0.2800  plane waves:     241
 k-point 412 :  -0.3200 0.3200 0.2800  plane waves:     241
 k-point 413 :  -0.3600 0.3600 0.2800  plane waves:     239
 k-point 414 :  -0.3200 0.3600 0.2800  plane waves:     240
 k-point 415 :  -0.4000 0.4000 0.2800  plane waves:     240
 k-point 416 :  -0.3600 0.4000 0.2800  plane waves:     239
 k-point 417 :  -0.4400 0.4400 0.2800  plane waves:     240
 k-point 418 :  -0.4000 0.4400 0.2800  plane waves:     240
 k-point 419 :  -0.3600 0.4400 0.2800  plane waves:     241
 k-point 420 :  -0.4800 0.4800 0.2800  plane waves:     240
 k-point 421 :  -0.4400 0.4800 0.2800  plane waves:     243
 k-point 422 :  -0.4000 0.4800 0.2800  plane waves:     243
 k-point 423 :  -0.4800-0.4800 0.2800  plane waves:     244
 k-point 424 :  -0.4400-0.4800 0.2800  plane waves:     244
 k-point 425 :  -0.4000-0.4800 0.2800  plane waves:     243
 k-point 426 :  -0.4400-0.4400 0.2800  plane waves:     244
 k-point 427 :  -0.3200 0.3200 0.3200  plane waves:     241
 k-point 428 :  -0.3600 0.3600 0.3200  plane waves:     241
 k-point 429 :  -0.4000 0.4000 0.3200  plane waves:     244
 k-point 430 :  -0.3600 0.4000 0.3200  plane waves:     243
 k-point 431 :  -0.4400 0.4400 0.3200  plane waves:     243
 k-point 432 :  -0.4000 0.4400 0.3200  plane waves:     243
 k-point 433 :  -0.4800 0.4800 0.3200  plane waves:     242
 k-point 434 :  -0.4400 0.4800 0.3200  plane waves:     241
 k-point 435 :  -0.4000 0.4800 0.3200  plane waves:     241
 k-point 436 :  -0.4800-0.4800 0.3200  plane waves:     242
 k-point 437 :  -0.4400-0.4800 0.3200  plane waves:     242
 k-point 438 :  -0.4400-0.4400 0.3200  plane waves:     242
 k-point 439 :  -0.3600 0.3600 0.3600  plane waves:     245
 k-point 440 :  -0.4000 0.4000 0.3600  plane waves:     244
 k-point 441 :  -0.4400 0.4400 0.3600  plane waves:     241
 k-point 442 :  -0.4000 0.4400 0.3600  plane waves:     241
 k-point 443 :  -0.4800 0.4800 0.3600  plane waves:     239
 k-point 444 :  -0.4400 0.4800 0.3600  plane waves:     240
 k-point 445 :  -0.4800-0.4800 0.3600  plane waves:     238
 k-point 446 :  -0.4400-0.4800 0.3600  plane waves:     238
 k-point 447 :  -0.4000 0.4000 0.4000  plane waves:     241
 k-point 448 :  -0.4400 0.4400 0.4000  plane waves:     238
 k-point 449 :  -0.4800 0.4800 0.4000  plane waves:     237
 k-point 450 :  -0.4400 0.4800 0.4000  plane waves:     236
 k-point 451 :  -0.4800-0.4800 0.4000  plane waves:     236
 k-point 452 :  -0.4400 0.4400 0.4400  plane waves:     236
 k-point 453 :  -0.4800 0.4800 0.4400  plane waves:     236
 k-point 454 :  -0.4800-0.4800 0.4400  plane waves:     236
 k-point 455 :  -0.4800 0.4800 0.4800  plane waves:     236

 maximum and minimum number of plane-waves per node :       249      225

 maximum number of plane-waves:       249
 maximum index in each direction: 
   IXMAX=    4   IYMAX=    4   IZMAX=    4
   IXMIN=   -4   IYMIN=   -4   IZMIN=   -4


 serial   3D FFT for wavefunctions
 parallel 3D FFT for charge:
    minimum data exchange during FFTs selected (reduces bandwidth)


 total amount of memory used by VASP MPI-rank0    62231. kBytes
=======================================================================

   base      :      30000. kBytes
   nonl-proj :      16318. kBytes
   fftplans  :       1676. kBytes
   grid      :       2560. kBytes
   one-center:         15. kBytes
   wavefun   :      11662. kBytes
 
     INWAV:  cpu time      0.0000: real time      0.0000
 Broyden mixing: mesh for mixing (old mesh)
   NGX =  9   NGY =  9   NGZ =  9
  (NGX  = 36   NGY  = 36   NGZ  = 36)
  gives a total of    729 points

 initial charge density was supplied:
 charge density of overlapping atoms calculated
 number of electron       5.0000000 magnetization 
 keeping initial charge density in first step


--------------------------------------------------------------------------------------------------------


 Maximum index for augmentation-charges         25893 (set IRDMAX)


--------------------------------------------------------------------------------------------------------


 First call to EWALD:  gamma=   0.749
 Maximum number of real-space cells 3x 3x 3
 Maximum number of reciprocal cells 3x 3x 3

    FEWALD:  cpu time      0.0009: real time      0.0006


--------------------------------------- Ionic step        1  -------------------------------------------




--------------------------------------- Iteration      1(   1)  ---------------------------------------


    POTLOK:  cpu time      0.0174: real time      0.0174
    SETDIJ:  cpu time      0.0093: real time      0.0046
     EDDAV:  cpu time      3.5813: real time      3.5816
       DOS:  cpu time      0.0029: real time      0.0029
    --------------------------------------------
      LOOP:  cpu time      3.6109: real time      3.6065

 eigenvalue-minimisations  :  5496
 total energy-change (2. order) : 0.4924768E+01  (-0.1779820E+03)
 number of electron       5.0000000 magnetization 
 augmentation part        5.0000000 magnetization 

 Free energy of the ion-electron system (eV)
  ---------------------------------------------------
  alpha Z        PSCENC =        23.36963719
  Ewald energy   TEWEN  =      -219.63939133
  -Hartree energ DENC   =       -16.80671932
  -exchange      EXHF   =         0.00000000
  -V(xc)+E(xc)   XCENC  =       -46.04144165
  PAW double counting   =       206.26570475     -156.96727414
  entropy T*S    EENTRO =        -0.00005554
  eigenvalues    EBANDS =        43.87742850
  atomic energy  EATOM  =       170.86687955
  Solvation  Ediel_sol  =         0.00000000
  ---------------------------------------------------
  free energy    TOTEN  =         4.92476801 eV

  energy without entropy =        4.92482355  energy(sigma->0) =        4.92478653


--------------------------------------------------------------------------------------------------------




--------------------------------------- Iteration      1(   2)  ---------------------------------------


     EDDAV:  cpu time      3.4745: real time      3.4756
       DOS:  cpu time      0.0033: real time      0.0033
    --------------------------------------------
      LOOP:  cpu time      3.4778: real time      3.4789

 eigenvalue-minimisations  :  5520
 total energy-change (2. order) :-0.1507758E+02  (-0.1447188E+02)
 number of electron       5.0000000 magnetization 
 augmentation part        5.0000000 magnetization 

 Free energy of the ion-electron system (eV)
  ---------------------------------------------------
  alpha Z        PSCENC =        23.36963719
  Ewald energy   TEWEN  =      -219.63939133
  -Hartree energ DENC   =       -16.80671932
  -exchange      EXHF   =         0.00000000
  -V(xc)+E(xc)   XCENC  =       -46.04144165
  PAW double counting   =       206.26570475     -156.96727414
  entropy T*S    EENTRO =         0.00020635
  eigenvalues    EBANDS =        28.79958820
  atomic energy  EATOM  =       170.86687955
  Solvation  Ediel_sol  =         0.00000000
  ---------------------------------------------------
  free energy    TOTEN  =       -10.15281040 eV

  energy without entropy =      -10.15301675  energy(sigma->0) =      -10.15287918


--------------------------------------------------------------------------------------------------------




--------------------------------------- Iteration      1(   3)  ---------------------------------------


     EDDAV:  cpu time      3.5872: real time      3.5883
       DOS:  cpu time      0.0033: real time      0.0033
    --------------------------------------------
      LOOP:  cpu time      3.5905: real time      3.5916

 eigenvalue-minimisations  :  5736
 total energy-change (2. order) :-0.1563883E+00  (-0.1561458E+00)
 number of electron       5.0000000 magnetization 
 augmentation part        5.0000000 magnetization 

 Free energy of the ion-electron system (eV)
  ---------------------------------------------------
  alpha Z        PSCENC =        23.36963719
  Ewald energy   TEWEN  =      -219.63939133
  -Hartree energ DENC   =       -16.80671932
  -exchange      EXHF   =         0.00000000
  -V(xc)+E(xc)   XCENC  =       -46.04144165
  PAW double counting   =       206.26570475     -156.96727414
  entropy T*S    EENTRO =         0.00003408
  eigenvalues    EBANDS =        28.64337219
  atomic energy  EATOM  =       170.86687955
  Solvation  Ediel_sol  =         0.00000000
  ---------------------------------------------------
  free energy    TOTEN  =       -10.30919868 eV

  energy without entropy =      -10.30923276  energy(sigma->0) =      -10.30921004


--------------------------------------------------------------------------------------------------------




--------------------------------------- Iteration      1(   4)  ---------------------------------------


     EDDAV:  cpu time      3.8422: real time      3.8434
       DOS:  cpu time      0.0033: real time      0.0033
    --------------------------------------------
      LOOP:  cpu time      3.8456: real time      3.8467

 eigenvalue-minimisations  :  6216
 total energy-change (2. order) :-0.1666545E-02  (-0.1666503E-02)
 number of electron       5.0000000 magnetization 
 augmentation part        5.0000000 magnetization 

 Free energy of the ion-electron system (eV)
  ---------------------------------------------------
  alpha Z        PSCENC =        23.36963719
  Ewald energy   TEWEN  =      -219.63939133
  -Hartree energ DENC   =       -16.80671932
  -exchange      EXHF   =         0.00000000
  -V(xc)+E(xc)   XCENC  =       -46.04144165
  PAW double counting   =       206.26570475     -156.96727414
  entropy T*S    EENTRO =         0.00003292
  eigenvalues    EBANDS =        28.64170681
  atomic energy  EATOM  =       170.86687955
  Solvation  Ediel_sol  =         0.00000000
  ---------------------------------------------------
  free energy    TOTEN  =       -10.31086522 eV

  energy without entropy =      -10.31089814  energy(sigma->0) =      -10.31087619


--------------------------------------------------------------------------------------------------------




--------------------------------------- Iteration      1(   5)  ---------------------------------------


     EDDAV:  cpu time      3.6177: real time      3.6188
       DOS:  cpu time      0.0032: real time      0.0032
    CHARGE:  cpu time      0.3281: real time      0.3265
    MIXING:  cpu time      0.0010: real time      0.0005
    --------------------------------------------
      LOOP:  cpu time      3.9500: real time      3.9490

 eigenvalue-minimisations  :  5808
 total energy-change (2. order) :-0.2349107E-04  (-0.2349129E-04)
 number of electron       4.9999999 magnetization 
 augmentation part        1.3618302 magnetization 

 Broyden mixing:
  rms(total) = 0.12002E+01    rms(broyden)= 0.12002E+01
  rms(prec ) = 0.30877E+01
  weight for this iteration     100.00

 Free energy of the ion-electron system (eV)
  ---------------------------------------------------
  alpha Z        PSCENC =        23.36963719
  Ewald energy   TEWEN  =      -219.63939133
  -Hartree energ DENC   =       -16.80671932
  -exchange      EXHF   =         0.00000000
  -V(xc)+E(xc)   XCENC  =       -46.04144165
  PAW double counting   =       206.26570475     -156.96727414
  entropy T*S    EENTRO =         0.00003290
  eigenvalues    EBANDS =        28.64168334
  atomic energy  EATOM  =       170.86687955
  Solvation  Ediel_sol  =         0.00000000
  ---------------------------------------------------
  free energy    TOTEN  =       -10.31088871 eV

  energy without entropy =      -10.31092161  energy(sigma->0) =      -10.31089968


--------------------------------------------------------------------------------------------------------




--------------------------------------- Iteration      1(   6)  ---------------------------------------


    POTLOK:  cpu time      0.0044: real time      0.0032
    SETDIJ:  cpu time      0.0073: real time      0.0037
     EDDAV:  cpu time      3.4747: real time      3.4749
       DOS:  cpu time      0.0034: real time      0.0034
    CHARGE:  cpu time      0.3254: real time      0.3239
    MIXING:  cpu time      0.0012: real time      0.0006
    --------------------------------------------
      LOOP:  cpu time      3.8165: real time      3.8098

 eigenvalue-minimisations  :  5508
 total energy-change (2. order) : 0.1291853E+01  (-0.4179012E+00)
 number of electron       4.9999999 magnetization 
 augmentation part        1.7321386 magnetization 

 Broyden mixing:
  rms(total) = 0.18381E+00    rms(broyden)= 0.18381E+00
  rms(prec ) = 0.62013E+00
  weight for this iteration     100.00

 eigenvalues of (default mixing * dielectric matrix)
  average eigenvalue GAMMA=   1.0224
  1.0224

 Free energy of the ion-electron system (eV)
  ---------------------------------------------------
  alpha Z        PSCENC =        23.36963719
  Ewald energy   TEWEN  =      -219.63939133
  -Hartree energ DENC   =       -11.22811387
  -exchange      EXHF   =         0.00000000
  -V(xc)+E(xc)   XCENC  =       -45.90496454
  PAW double counting   =       266.96837047     -217.40279440
  entropy T*S    EENTRO =         0.00006065
  eigenvalues    EBANDS =        23.95128025
  atomic energy  EATOM  =       170.86687955
  Solvation  Ediel_sol  =         0.00000000
  ---------------------------------------------------
  free energy    TOTEN  =        -9.01903602 eV

  energy without entropy =       -9.01909667  energy(sigma->0) =       -9.01905624


--------------------------------------------------------------------------------------------------------




--------------------------------------- Iteration      1(   7)  ---------------------------------------


    POTLOK:  cpu time      0.0044: real time      0.0031
    SETDIJ:  cpu time      0.0059: real time      0.0029
     EDDAV:  cpu time      3.4648: real time      3.4648
       DOS:  cpu time      0.0033: real time      0.0033
    CHARGE:  cpu time      0.3276: real time      0.3261
    MIXING:  cpu time      0.0015: real time      0.0008
    --------------------------------------------
      LOOP:  cpu time      3.8076: real time      3.8011

 eigenvalue-minimisations  :  5490
 total energy-change (2. order) : 0.6527455E-01  (-0.1858240E-01)
 number of electron       4.9999999 magnetization 
 augmentation part        1.8140303 magnetization 

 Broyden mixing:
  rms(total) = 0.11945E+00    rms(broyden)= 0.11945E+00
  rms(prec ) = 0.14622E+00
  weight for this iteration     100.00

 eigenvalues of (default mixing * dielectric matrix)
  average eigenvalue GAMMA=   1.5419
  1.1742  1.9096

 Free energy of the ion-electron system (eV)
  ---------------------------------------------------
  alpha Z        PSCENC =        23.36963719
  Ewald energy   TEWEN  =      -219.63939133
  -Hartree energ DENC   =       -10.02140358
  -exchange      EXHF   =         0.00000000
  -V(xc)+E(xc)   XCENC  =       -45.84508601
  PAW double counting   =       296.01860730     -246.77039872
  entropy T*S    EENTRO =        -0.00022029
  eigenvalues    EBANDS =        23.06761442
  atomic energy  EATOM  =       170.86687955
  Solvation  Ediel_sol  =         0.00000000
  ---------------------------------------------------
  free energy    TOTEN  =        -8.95376147 eV

  energy without entropy =       -8.95354118  energy(sigma->0) =       -8.95368804


--------------------------------------------------------------------------------------------------------




--------------------------------------- Iteration      1(   8)  ---------------------------------------


    POTLOK:  cpu time      0.0044: real time      0.0033
    SETDIJ:  cpu time      0.0067: real time      0.0034
     EDDAV:  cpu time      3.4401: real time      3.4402
       DOS:  cpu time      0.0035: real time      0.0035
    CHARGE:  cpu time      0.3270: real time      0.3256
    MIXING:  cpu time      0.0012: real time      0.0006
    --------------------------------------------
      LOOP:  cpu time      3.7828: real time      3.7765

 eigenvalue-minimisations  :  5460
 total energy-change (2. order) : 0.1164341E-01  (-0.5905767E-03)
 number of electron       4.9999999 magnetization 
 augmentation part        1.8087825 magnetization 

 Broyden mixing:
  rms(total) = 0.22908E-01    rms(broyden)= 0.22908E-01
  rms(prec ) = 0.47027E-01
  weight for this iteration     100.00

 eigenvalues of (default mixing * dielectric matrix)
  average eigenvalue GAMMA=   1.6890
  1.1456  1.1456  2.7756

 Free energy of the ion-electron system (eV)
  ---------------------------------------------------
  alpha Z        PSCENC =        23.36963719
  Ewald energy   TEWEN  =      -219.63939133
  -Hartree energ DENC   =        -9.83241272
  -exchange      EXHF   =         0.00000000
  -V(xc)+E(xc)   XCENC  =       -45.82666192
  PAW double counting   =       315.42325849     -266.60540099
  entropy T*S    EENTRO =        -0.00016614
  eigenvalues    EBANDS =        23.30213980
  atomic energy  EATOM  =       170.86687955
  Solvation  Ediel_sol  =         0.00000000
  ---------------------------------------------------
  free energy    TOTEN  =        -8.94211806 eV

  energy without entropy =       -8.94195192  energy(sigma->0) =       -8.94206268


--------------------------------------------------------------------------------------------------------




--------------------------------------- Iteration      1(   9)  ---------------------------------------


    POTLOK:  cpu time      0.0044: real time      0.0031
    SETDIJ:  cpu time      0.0059: real time      0.0029
     EDDAV:  cpu time      4.3970: real time      4.3972
       DOS:  cpu time      0.0034: real time      0.0034
    CHARGE:  cpu time      0.3291: real time      0.3272
    MIXING:  cpu time      0.0013: real time      0.0007
    --------------------------------------------
      LOOP:  cpu time      4.7411: real time      4.7345

 eigenvalue-minimisations  :  7266
 total energy-change (2. order) : 0.5367976E-03  (-0.1078360E-03)
 number of electron       4.9999999 magnetization 
 augmentation part        1.8143286 magnetization 

 Broyden mixing:
  rms(total) = 0.70648E-02    rms(broyden)= 0.70648E-02
  rms(prec ) = 0.14867E-01
  weight for this iteration     100.00

 eigenvalues of (default mixing * dielectric matrix)
  average eigenvalue GAMMA=   1.7555
  2.7655  2.1593  0.9672  1.1300

 Free energy of the ion-electron system (eV)
  ---------------------------------------------------
  alpha Z        PSCENC =        23.36963719
  Ewald energy   TEWEN  =      -219.63939133
  -Hartree energ DENC   =        -9.68966872
  -exchange      EXHF   =         0.00000000
  -V(xc)+E(xc)   XCENC  =       -45.81502043
  PAW double counting   =       324.43260066     -275.75635710
  entropy T*S    EENTRO =        -0.00010509
  eigenvalues    EBANDS =        23.28984401
  atomic energy  EATOM  =       170.86687955
  Solvation  Ediel_sol  =         0.00000000
  ---------------------------------------------------
  free energy    TOTEN  =        -8.94158127 eV

  energy without entropy =       -8.94147618  energy(sigma->0) =       -8.94154624


--------------------------------------------------------------------------------------------------------




--------------------------------------- Iteration      1(  10)  ---------------------------------------


    POTLOK:  cpu time      0.0044: real time      0.0032
    SETDIJ:  cpu time      0.0067: real time      0.0034
     EDDAV:  cpu time      4.3527: real time      4.3532
       DOS:  cpu time      0.0033: real time      0.0033
    CHARGE:  cpu time      0.3272: real time      0.3254
    MIXING:  cpu time      0.0012: real time      0.0006
    --------------------------------------------
      LOOP:  cpu time      4.6957: real time      4.6892

 eigenvalue-minimisations  :  7194
 total energy-change (2. order) : 0.6247469E-04  (-0.2273651E-05)
 number of electron       4.9999999 magnetization 
 augmentation part        1.8135191 magnetization 

 Broyden mixing:
  rms(total) = 0.79681E-03    rms(broyden)= 0.79680E-03
  rms(prec ) = 0.23137E-02
  weight for this iteration     100.00

 eigenvalues of (default mixing * dielectric matrix)
  average eigenvalue GAMMA=   1.6615
  2.5774  2.5774  1.0856  1.0856  0.9816

 Free energy of the ion-electron system (eV)
  ---------------------------------------------------
  alpha Z        PSCENC =        23.36963719
  Ewald energy   TEWEN  =      -219.63939133
  -Hartree energ DENC   =        -9.72674723
  -exchange      EXHF   =         0.00000000
  -V(xc)+E(xc)   XCENC  =       -45.81657882
  PAW double counting   =       323.51874082     -274.80361740
  entropy T*S    EENTRO =        -0.00010971
  eigenvalues    EBANDS =        23.28966813
  atomic energy  EATOM  =       170.86687955
  Solvation  Ediel_sol  =         0.00000000
  ---------------------------------------------------
  free energy    TOTEN  =        -8.94151879 eV

  energy without entropy =       -8.94140908  energy(sigma->0) =       -8.94148222


--------------------------------------------------------------------------------------------------------




--------------------------------------- Iteration      1(  11)  ---------------------------------------


    POTLOK:  cpu time      0.0042: real time      0.0031
    SETDIJ:  cpu time      0.0097: real time      0.0049
     EDDAV:  cpu time      2.2846: real time      2.2845
       DOS:  cpu time      0.0033: real time      0.0033
    CHARGE:  cpu time      0.3276: real time      0.3262
    MIXING:  cpu time      0.0012: real time      0.0006
    --------------------------------------------
      LOOP:  cpu time      2.6306: real time      2.6226

 eigenvalue-minimisations  :  3114
 total energy-change (2. order) : 0.3750545E-05  (-0.2297182E-06)
 number of electron       4.9999999 magnetization 
 augmentation part        1.8132353 magnetization 

 Broyden mixing:
  rms(total) = 0.10798E-03    rms(broyden)= 0.10798E-03
  rms(prec ) = 0.26529E-03
  weight for this iteration     100.00

 eigenvalues of (default mixing * dielectric matrix)
  average eigenvalue GAMMA=   1.8764
  3.1804  2.6401  2.3187  1.1078  1.0056  1.0056

 Free energy of the ion-electron system (eV)
  ---------------------------------------------------
  alpha Z        PSCENC =        23.36963719
  Ewald energy   TEWEN  =      -219.63939133
  -Hartree energ DENC   =        -9.73334411
  -exchange      EXHF   =         0.00000000
  -V(xc)+E(xc)   XCENC  =       -45.81699185
  PAW double counting   =       323.26500515     -274.54475845
  entropy T*S    EENTRO =        -0.00011149
  eigenvalues    EBANDS =        23.29156030
  atomic energy  EATOM  =       170.86687955
  Solvation  Ediel_sol  =         0.00000000
  ---------------------------------------------------
  free energy    TOTEN  =        -8.94151504 eV

  energy without entropy =       -8.94140355  energy(sigma->0) =       -8.94147788


--------------------------------------------------------------------------------------------------------




--------------------------------------- Iteration      1(  12)  ---------------------------------------


    POTLOK:  cpu time      0.0044: real time      0.0033
    SETDIJ:  cpu time      0.0083: real time      0.0041
     EDDAV:  cpu time      2.0916: real time      2.0914
       DOS:  cpu time      0.0034: real time      0.0034
    --------------------------------------------
      LOOP:  cpu time      2.1077: real time      2.1023

 eigenvalue-minimisations  :  2730
 total energy-change (2. order) :-0.2953353E-06  (-0.2535646E-07)
 number of electron       4.9999999 magnetization 
 augmentation part        1.8132353 magnetization 

 Free energy of the ion-electron system (eV)
  ---------------------------------------------------
  alpha Z        PSCENC =        23.36963719
  Ewald energy   TEWEN  =      -219.63939133
  -Hartree energ DENC   =        -9.73319520
  -exchange      EXHF   =         0.00000000
  -V(xc)+E(xc)   XCENC  =       -45.81698652
  PAW double counting   =       323.28276082     -274.56273237
  entropy T*S    EENTRO =        -0.00011156
  eigenvalues    EBANDS =        23.29162408
  atomic energy  EATOM  =       170.86687955
  Solvation  Ediel_sol  =         0.00000000
  ---------------------------------------------------
  free energy    TOTEN  =        -8.94151534 eV

  energy without entropy =       -8.94140378  energy(sigma->0) =       -8.94147815


--------------------------------------------------------------------------------------------------------




 average (electrostatic) potential at core
  the test charge radii are     1.2064
  (the norm of the test charge is              1.0000)
       1 -39.0519
 
 
 
 E-fermi :   6.2750     XC(G=0): -12.5573     alpha+bet :-15.4579

 Fermi energy:         6.2750336578

 k-point     1 :       0.0000    0.0000    0.0000
  band No.  band energies     occupation 
      1      -0.2760      2.00000
      2       6.6700     -0.00000
      3       6.6700     -0.00000
      4       6.6700     -0.00000
      5       8.6822      0.00000
      6       8.6822      0.00000

 k-point     2 :       0.0400    0.0000    0.0000
  band No.  band energies     occupation 
      1      -0.2104      2.00000
      2       6.6420     -0.00000
      3       6.6650     -0.00000
      4       6.7170     -0.00000
      5       8.6491      0.00000
      6       8.6841      0.00000

 k-point     3 :       0.0800    0.0000    0.0000
  band No.  band energies     occupation 
      1      -0.0163      2.00000
      2       6.5606     -0.00000
      3       6.6451     -0.00000
      4       6.8567     -0.00000
      5       8.5619      0.00000
      6       8.6903      0.00000

 k-point     4 :       0.1200    0.0000    0.0000
  band No.  band energies     occupation 
      1       0.2978      2.00000
      2       6.4330     -0.00007
      3       6.5977     -0.00000
      4       7.0844     -0.00000
      5       8.4528      0.00000
      6       8.7023      0.00000

 k-point     5 :       0.1600    0.0000    0.0000
  band No.  band energies     occupation 
      1       0.7161      2.00000
      2       6.2701      1.16643
      3       6.5104     -0.00000
      4       7.3921     -0.00000
      5       8.3639      0.00000
      6       8.7217      0.00000

 k-point     6 :       0.2000    0.0000    0.0000
  band No.  band energies     occupation 
      1       1.2132      2.00000
      2       6.0846      2.00000
      3       6.3896     -0.00559
      4       7.7683      0.00000
      5       8.3267      0.00000
      6       8.7501      0.00000

 k-point     7 :       0.2400    0.0000    0.0000
  band No.  band energies     occupation 
      1       1.7487      2.00000
      2       5.8898      2.00000
      3       6.2752      0.99586
      4       8.1974      0.00000
      5       8.3476      0.00000
      6       8.7880      0.00000

 k-point     8 :       0.2800    0.0000    0.0000
  band No.  band energies     occupation 
      1       2.2614      2.00000
      2       5.6983      2.00000
      3       6.2388      1.93601
      4       8.4125      0.00000
      5       8.6590      0.00000
      6       8.8344      0.00000

 k-point     9 :       0.3200    0.0000    0.0000
  band No.  band energies     occupation 
      1       2.6737      2.00000
      2       5.5215      2.00000
      3       6.3629     -0.03222
      4       8.5002      0.00000
      5       8.8864      0.00000
      6       9.1274      0.00000

 k-point    10 :       0.3600    0.0000    0.0000
  band No.  band energies     occupation 
      1       2.9304      2.00000
      2       5.3688      2.00000
      3       6.6896     -0.00000
      4       8.5896      0.00000
      5       8.9393      0.00000
      6       9.5712      0.00000

 k-point    11 :       0.4000    0.0000    0.0000
  band No.  band energies     occupation 
      1       3.0449      2.00000
      2       5.2478      2.00000
      3       7.1658     -0.00000
      4       8.6614      0.00000
      5       8.9872      0.00000
      6       9.9540      0.00000

 k-point    12 :       0.4400    0.0000    0.0000
  band No.  band energies     occupation 
      1       3.0770      2.00000
      2       5.1641      2.00000
      3       7.6561      0.00000
      4       8.6978      0.00000
      5       9.0237      0.00000
      6      10.2380      0.00000

 k-point    13 :       0.4800    0.0000    0.0000
  band No.  band energies     occupation 
      1       3.0798      2.00000
      2       5.1213      2.00000
      3       7.9872      0.00000
      4       8.6951      0.00000
      5       9.0435      0.00000
      6      10.3898      0.00000

 k-point    14 :       0.0400    0.0400    0.0000
  band No.  band energies     occupation 
      1      -0.0805      2.00000
      2       6.6038     -0.00000
      3       6.6304     -0.00000
      4       6.8162     -0.00000
      5       8.5867      0.00000
      6       8.6904      0.00000

 k-point    15 :       0.0800    0.0400    0.0000
  band No.  band energies     occupation 
      1       0.1738      2.00000
      2       6.5032     -0.00000
      3       6.5885     -0.00000
      4       7.0049     -0.00000
      5       8.4824      0.00000
      6       8.7049      0.00000

 k-point    16 :       0.1200    0.0400    0.0000
  band No.  band energies     occupation 
      1       0.5409      2.00000
      2       6.3559     -0.04458
      3       6.5205     -0.00000
      4       7.2762     -0.00000
      5       8.3759      0.00000
      6       8.7271      0.00000

 k-point    17 :       0.1600    0.0400    0.0000
  band No.  band energies     occupation 
      1       1.0008      2.00000
      2       6.1793      2.02082
      3       6.4138     -0.00062
      4       7.6218      0.00000
      5       8.3074      0.00000
      6       8.7574      0.00000

 k-point    18 :       0.2000    0.0400    0.0000
  band No.  band energies     occupation 
      1       1.5220      2.00000
      2       5.9874      2.00000
      3       6.2880      0.57828
      4       8.0277      0.00000
      5       8.2988      0.00000
      6       8.7956      0.00000

 k-point    19 :       0.2400    0.0400    0.0000
  band No.  band energies     occupation 
      1       2.0546      2.00000
      2       5.7933      2.00000
      3       6.1980      2.05165
      4       8.3362      0.00000
      5       8.4867      0.00000
      6       8.8412      0.00000

 k-point    20 :       0.2800    0.0400    0.0000
  band No.  band energies     occupation 
      1       2.5272      2.00000
      2       5.6091      2.00000
      3       6.2233      2.05659
      4       8.4216      0.00000
      5       8.8891      0.00000
      6       8.9594      0.00000

 k-point    21 :       0.3200    0.0400    0.0000
  band No.  band energies     occupation 
      1       2.8653      2.00000
      2       5.4448      2.00000
      3       6.4336     -0.00007
      4       8.5193      0.00000
      5       8.9456      0.00000
      6       9.4242      0.00000

 k-point    22 :       0.3600    0.0400    0.0000
  band No.  band energies     occupation 
      1       3.0444      2.00000
      2       5.3087      2.00000
      3       6.8255     -0.00000
      4       8.6090      0.00000
      5       9.0037      0.00000
      6       9.8522      0.00000

 k-point    23 :       0.4000    0.0400    0.0000
  band No.  band energies     occupation 
      1       3.1085      2.00000
      2       5.2070      2.00000
      3       7.2956     -0.00000
      4       8.6682      0.00000
      5       9.0667      0.00000
      6      10.2041      0.00000

 k-point    24 :       0.4400    0.0400    0.0000
  band No.  band energies     occupation 
      1       3.1199      2.00000
      2       5.1443      2.00000
      3       7.6866      0.00000
      4       8.6851      0.00000
      5       9.1266      0.00000
      6      10.4402      0.00000

 k-point    25 :       0.4800    0.0400    0.0000
  band No.  band energies     occupation 
      1       3.1193      2.00000
      2       5.1231      2.00000
      3       7.8426      0.00000
      4       8.6814      0.00000
      5       9.1538      0.00000
      6      10.5245      0.00000

 k-point    26 :       0.0800    0.0800    0.0000
  band No.  band energies     occupation 
      1       0.4818      2.00000
      2       6.4133     -0.00065
      3       6.4873     -0.00000
      4       7.2467     -0.00000
      5       8.3726      0.00000
      6       8.7367      0.00000

 k-point    27 :       0.1200    0.0800    0.0000
  band No.  band energies     occupation 
      1       0.8928      2.00000
      2       6.2640      1.36214
      3       6.3771     -0.01393
      4       7.5670     -0.00000
      5       8.2764      0.00000
      6       8.7791      0.00000

 k-point    28 :       0.1600    0.0800    0.0000
  band No.  band energies     occupation 
      1       1.3828      2.00000
      2       6.0809      2.00000
      3       6.2493      1.75574
      4       7.9535      0.00000
      5       8.2306      0.00000
      6       8.8280      0.00000

 k-point    29 :       0.2000    0.0800    0.0000
  band No.  band energies     occupation 
      1       1.9137      2.00000
      2       5.8866      2.00000
      3       6.1266      2.00022
      4       8.2334      0.00000
      5       8.4054      0.00000
      6       8.8815      0.00000

 k-point    30 :       0.2400    0.0800    0.0000
  band No.  band energies     occupation 
      1       2.4260      2.00000
      2       5.6971      2.00000
      3       6.0687      2.00000
      4       8.3029      0.00000
      5       8.8583      0.00000
      6       8.9577      0.00000

 k-point    31 :       0.2800    0.0800    0.0000
  band No.  band energies     occupation 
      1       2.8411      2.00000
      2       5.5254      2.00000
      3       6.1504      2.00240
      4       8.4021      0.00000
      5       8.9798      0.00000
      6       9.3838      0.00000

 k-point    32 :       0.3200    0.0800    0.0000
  band No.  band energies     occupation 
      1       3.0984      2.00000
      2       5.3798      2.00000
      3       6.4134     -0.00064
      4       8.5104      0.00000
      5       9.0420      0.00000
      6       9.8615      0.00000

 k-point    33 :       0.3600    0.0800    0.0000
  band No.  band energies     occupation 
      1       3.2094      2.00000
      2       5.2656      2.00000
      3       6.8026     -0.00000
      4       8.5992      0.00000
      5       9.1179      0.00000
      6      10.2950      0.00000

 k-point    34 :       0.4000    0.0800    0.0000
  band No.  band energies     occupation 
      1       3.2368      2.00000
      2       5.1870      2.00000
      3       7.1837     -0.00000
      4       8.6454      0.00000
      5       9.2095      0.00000
      6      10.6414      0.00000

 k-point    35 :       0.4400    0.0800    0.0000
  band No.  band energies     occupation 
      1       3.2368      2.00000
      2       5.1469      2.00000
      3       7.4181     -0.00000
      4       8.6554      0.00000
      5       9.2807      0.00000
      6      10.8434      0.00000

 k-point    36 :       0.1200    0.1200    0.0000
  band No.  band energies     occupation 
      1       1.3360      2.00000
      2       6.1464      2.00167
      3       6.1996      2.05448
      4       7.9368      0.00000
      5       8.1986      0.00000
      6       8.8435      0.00000

 k-point    37 :       0.1600    0.1200    0.0000
  band No.  band energies     occupation 
      1       1.8425      2.00000
      2       5.9713      2.00000
      3       6.0492      2.00000
      4       8.1707      0.00000
      5       8.3701      0.00000
      6       8.9124      0.00000

 k-point    38 :       0.2000    0.1200    0.0000
  band No.  band energies     occupation 
      1       2.3674      2.00000
      2       5.7685      2.00000
      3       5.9494      2.00000
      4       8.2018      0.00000
      5       8.8258      0.00000
      6       9.0050      0.00000

 k-point    39 :       0.2400    0.1200    0.0000
  band No.  band energies     occupation 
      1       2.8423      2.00000
      2       5.5859      2.00000
      3       5.9287      2.00000
      4       8.2811      0.00000
      5       9.0037      0.00000
      6       9.4032      0.00000

 k-point    40 :       0.2800    0.1200    0.0000
  band No.  band energies     occupation 
      1       3.1870      2.00000
      2       5.4365      2.00000
      3       6.0498      2.00000
      4       8.3899      0.00000
      5       9.0666      0.00000
      6       9.9262      0.00000

 k-point    41 :       0.3200    0.1200    0.0000
  band No.  band energies     occupation 
      1       3.3654      2.00000
      2       5.3197      2.00000
      3       6.3230     -0.04056
      4       8.5012      0.00000
      5       9.1326      0.00000
      6      10.4411      0.00000

 k-point    42 :       0.3600    0.1200    0.0000
  band No.  band energies     occupation 
      1       3.4220      2.00000
      2       5.2346      2.00000
      3       6.6565     -0.00000
      4       8.5827      0.00000
      5       9.2172      0.00000
      6      10.9075      0.00000

 k-point    43 :       0.4000    0.1200    0.0000
  band No.  band energies     occupation 
      1       3.4263      2.00000
      2       5.1825      2.00000
      3       6.9207     -0.00000
      4       8.6200      0.00000
      5       9.3043      0.00000
      6      11.2613      0.00000

 k-point    44 :       0.4400    0.1200    0.0000
  band No.  band energies     occupation 
      1       3.4231      2.00000
      2       5.1649      2.00000
      3       7.0200     -0.00000
      4       8.6282      0.00000
      5       9.3432      0.00000
      6      11.4004      0.00000

 k-point    45 :       0.1600    0.1600    0.0000
  band No.  band energies     occupation 
      1       2.3483      2.00000
      2       5.8009      2.00000
      3       5.9004      2.00000
      4       8.1628      0.00000
      5       8.8166      0.00000
      6       9.0244      0.00000

 k-point    46 :       0.2000    0.1600    0.0000
  band No.  band energies     occupation 
      1       2.8501      2.00000
      2       5.5986      2.00000
      3       5.8292      2.00000
      4       8.2054      0.00000
      5       9.0133      0.00000
      6       9.4283      0.00000

 k-point    47 :       0.2400    0.1600    0.0000
  band No.  band energies     occupation 
      1       3.2737      2.00000
      2       5.4372      2.00000
      3       5.8338      2.00000
      4       8.2915      0.00000
      5       9.0783      0.00000
      6       9.9881      0.00000

 k-point    48 :       0.2800    0.1600    0.0000
  band No.  band energies     occupation 
      1       3.5442      2.00000
      2       5.3280      2.00000
      3       5.9600      2.00000
      4       8.4028      0.00000
      5       9.1315      0.00000
      6      10.5719      0.00000

 k-point    49 :       0.3200    0.1600    0.0000
  band No.  band energies     occupation 
      1       3.6555      2.00000
      2       5.2558      2.00000
      3       6.1945      2.04518
      4       8.5101      0.00000
      5       9.1922      0.00000
      6      11.1468      0.00000

 k-point    50 :       0.3600    0.1600    0.0000
  band No.  band energies     occupation 
      1       3.6752      2.00000
      2       5.2087      2.00000
      3       6.4375     -0.00004
      4       8.5830      0.00000
      5       9.2650      0.00000
      6      11.6598      0.00000

 k-point    51 :       0.4000    0.1600    0.0000
  band No.  band energies     occupation 
      1       3.6692      2.00000
      2       5.1849      2.00000
      3       6.5861     -0.00000
      4       8.6141      0.00000
      5       9.3212      0.00000
      6      11.9946      0.00000

 k-point    52 :       0.2000    0.2000    0.0000
  band No.  band energies     occupation 
      1       3.3111      2.00000
      2       5.4111      2.00000
      3       5.7811      2.00000
      4       8.2536      0.00000
      5       9.0817      0.00000
      6      10.0123      0.00000

 k-point    53 :       0.2400    0.2000    0.0000
  band No.  band energies     occupation 
      1       3.6781      2.00000
      2       5.2712      2.00000
      3       5.7990      2.00000
      4       8.3410      0.00000
      5       9.1288      0.00000
      6      10.6458      0.00000

 k-point    54 :       0.2800    0.2000    0.0000
  band No.  band energies     occupation 
      1       3.8876      2.00000
      2       5.2051      2.00000
      3       5.8943      2.00000
      4       8.4506      0.00000
      5       9.1681      0.00000
      6      11.3058      0.00000

 k-point    55 :       0.3200    0.2000    0.0000
  band No.  band energies     occupation 
      1       3.9549      2.00000
      2       5.1880      2.00000
      3       6.0439      2.00000
      4       8.5528      0.00000
      5       9.2114      0.00000
      6      11.9575      0.00000

 k-point    56 :       0.3600    0.2000    0.0000
  band No.  band energies     occupation 
      1       3.9571      2.00000
      2       5.1851      2.00000
      3       6.1763      2.01732
      4       8.6190      0.00000
      5       9.2560      0.00000
      6      12.5107      0.00000

 k-point    57 :       0.4000    0.2000    0.0000
  band No.  band energies     occupation 
      1       3.9519      2.00000
      2       5.1845      2.00000
      3       6.2278      2.03672
      4       8.6404      0.00000
      5       9.2766      0.00000
      6      12.7523      0.00000

 k-point    58 :       0.2400    0.2400    0.0000
  band No.  band energies     occupation 
      1       3.9997      2.00000
      2       5.1440      2.00000
      3       5.8051      2.00000
      4       8.4274      0.00000
      5       9.1590      0.00000
      6      11.3609      0.00000

 k-point    59 :       0.2800    0.2400    0.0000
  band No.  band energies     occupation 
      1       4.1854      2.00000
      2       5.1023      2.00000
      3       5.8341      2.00000
      4       8.5358      0.00000
      5       9.1763      0.00000
      6      12.1135      0.00000

 k-point    60 :       0.3200    0.2400    0.0000
  band No.  band energies     occupation 
      1       4.2438      2.00000
      2       5.1333      2.00000
      3       5.8690      2.00000
      4       8.6367      0.00000
      5       9.1884      0.00000
      6      12.8546      0.00000

 k-point    61 :       0.3600    0.2400    0.0000
  band No.  band energies     occupation 
      1       4.2479      2.00000
      2       5.1697      2.00000
      3       5.8924      2.00000
      4       8.6967      0.00000
      5       9.1972      0.00000
      6      13.4162      0.00000

 k-point    62 :       0.2800    0.2800    0.0000
  band No.  band energies     occupation 
      1       4.3939      2.00000
      2       5.0706      2.00000
      3       5.7576      2.00000
      4       8.6474      0.00000
      5       9.1589      0.00000
      6      12.9737      0.00000

 k-point    63 :       0.3200    0.2800    0.0000
  band No.  band energies     occupation 
      1       4.4849      2.00000
      2       5.1300      2.00000
      3       5.6668      2.00000
      4       8.7546      0.00000
      5       9.1250      0.00000
      6      13.8184      0.00000

 k-point    64 :       0.3600    0.2800    0.0000
  band No.  band energies     occupation 
      1       4.5029      2.00000
      2       5.1827      2.00000
      3       5.6155      2.00000
      4       8.8042      0.00000
      5       9.1035      0.00000
      6      14.2943      0.00000

 k-point    65 :       0.3200    0.3200    0.0000
  band No.  band energies     occupation 
      1       4.6172      2.00000
      2       5.2252      2.00000
      3       5.4550      2.00000
      4       8.8826      0.00000
      5       9.0304      0.00000
      6      14.7962      0.00000

 k-point    66 :       0.0400    0.0400    0.0400
  band No.  band energies     occupation 
      1       0.1109      2.00000
      2       6.5407     -0.00000
      3       6.5407     -0.00000
      4       6.9980     -0.00000
      5       8.6083      0.00000
      6       8.6083      0.00000

 k-point    67 :       0.0800    0.0400    0.0400
  band No.  band energies     occupation 
      1       0.4209      2.00000
      2       6.4034     -0.00170
      3       6.4680     -0.00000
      4       7.2514     -0.00000
      5       8.5042      0.00000
      6       8.6406      0.00000

 k-point    68 :       0.1200    0.0400    0.0400
  band No.  band energies     occupation 
      1       0.8347      2.00000
      2       6.2325      2.00420
      3       6.3683     -0.02407
      4       7.5761     -0.00000
      5       8.4160      0.00000
      6       8.6807      0.00000

 k-point    69 :       0.1600    0.0400    0.0400
  band No.  band energies     occupation 
      1       1.3283      2.00000
      2       6.0423      2.00000
      3       6.2431      1.87276
      4       7.9646      0.00000
      5       8.3741      0.00000
      6       8.7268      0.00000

 k-point    70 :       0.2000    0.0400    0.0400
  band No.  band energies     occupation 
      1       1.8627      2.00000
      2       5.8466      2.00000
      3       6.1255      2.00020
      4       8.3573      0.00000
      5       8.4340      0.00000
      6       8.7780      0.00000

 k-point    71 :       0.2400    0.0400    0.0400
  band No.  band energies     occupation 
      1       2.3777      2.00000
      2       5.6572      2.00000
      3       6.0805      2.00000
      4       8.4323      0.00000
      5       8.8329      0.00000
      6       8.8896      0.00000

 k-point    72 :       0.2800    0.0400    0.0400
  band No.  band energies     occupation 
      1       2.7936      2.00000
      2       5.4844      2.00000
      3       6.1885      2.03438
      4       8.5118      0.00000
      5       8.8896      0.00000
      6       9.3765      0.00000

 k-point    73 :       0.3200    0.0400    0.0400
  band No.  band energies     occupation 
      1       3.0505      2.00000
      2       5.3364      2.00000
      3       6.4933     -0.00000
      4       8.5948      0.00000
      5       8.9443      0.00000
      6       9.8478      0.00000

 k-point    74 :       0.3600    0.0400    0.0400
  band No.  band energies     occupation 
      1       3.1615      2.00000
      2       5.2197      2.00000
      3       6.9407     -0.00000
      4       8.6636      0.00000
      5       8.9923      0.00000
      6      10.2693      0.00000

 k-point    75 :       0.4000    0.0400    0.0400
  band No.  band energies     occupation 
      1       3.1897      2.00000
      2       5.1393      2.00000
      3       7.3918     -0.00000
      4       8.7041      0.00000
      5       9.0282      0.00000
      6      10.6001      0.00000

 k-point    76 :       0.4400    0.0400    0.0400
  band No.  band energies     occupation 
      1       3.1902      2.00000
      2       5.0983      2.00000
      3       7.6829      0.00000
      4       8.7148      0.00000
      5       9.0475      0.00000
      6      10.7891      0.00000

 k-point    77 :      -0.0400    0.0400    0.0400
  band No.  band energies     occupation 
      1      -0.1451      2.00000
      2       6.6616     -0.00000
      3       6.6616     -0.00000
      4       6.7170     -0.00000
      5       8.5790      0.00000
      6       8.7213      0.00000

 k-point    78 :       0.0800    0.0800    0.0400
  band No.  band energies     occupation 
      1       0.7787      2.00000
      2       6.2757      0.97663
      3       6.3213     -0.03127
      4       7.5678     -0.00000
      5       8.4634      0.00000
      6       8.6452      0.00000

 k-point    79 :       0.1200    0.0800    0.0400
  band No.  band energies     occupation 
      1       1.2296      2.00000
      2       6.0982      2.00001
      3       6.1804      2.02224
      4       7.9489      0.00000
      5       8.4049      0.00000
      6       8.6994      0.00000

 k-point    80 :       0.1600    0.0800    0.0400
  band No.  band energies     occupation 
      1       1.7449      2.00000
      2       5.9028      2.00000
      3       6.0408      2.00000
      4       8.3609      0.00000
      5       8.4104      0.00000
      6       8.7630      0.00000

 k-point    81 :       0.2000    0.0800    0.0400
  band No.  band energies     occupation 
      1       2.2781      2.00000
      2       5.7095      2.00000
      3       5.9375      2.00000
      4       8.4072      0.00000
      5       8.8225      0.00000
      6       8.8766      0.00000

 k-point    82 :       0.2400    0.0800    0.0400
  band No.  band energies     occupation 
      1       2.7576      2.00000
      2       5.5307      2.00000
      3       5.9384      2.00000
      4       8.4695      0.00000
      5       8.8879      0.00000
      6       9.3805      0.00000

 k-point    83 :       0.2800    0.0800    0.0400
  band No.  band energies     occupation 
      1       3.1012      2.00000
      2       5.3752      2.00000
      3       6.1148      2.00006
      4       8.5499      0.00000
      5       8.9460      0.00000
      6       9.8919      0.00000

 k-point    84 :       0.3200    0.0800    0.0400
  band No.  band energies     occupation 
      1       3.2768      2.00000
      2       5.2486      2.00000
      3       6.4687     -0.00000
      4       8.6294      0.00000
      5       8.9988      0.00000
      6      10.3801      0.00000

 k-point    85 :       0.3600    0.0800    0.0400
  band No.  band energies     occupation 
      1       3.3326      2.00000
      2       5.1551      2.00000
      3       6.8951     -0.00000
      4       8.6902      0.00000
      5       9.0457      0.00000
      6      10.8090      0.00000

 k-point    86 :       0.4000    0.0800    0.0400
  band No.  band energies     occupation 
      1       3.3374      2.00000
      2       5.0978      2.00000
      3       7.2408     -0.00000
      4       8.7218      0.00000
      5       9.0824      0.00000
      6      11.1230      0.00000

 k-point    87 :       0.4400    0.0800    0.0400
  band No.  band energies     occupation 
      1       3.3345      2.00000
      2       5.0784      2.00000
      3       7.3743     -0.00000
      4       8.7297      0.00000
      5       9.0972      0.00000
      6      11.2431      0.00000

 k-point    88 :      -0.0800    0.0800    0.0400
  band No.  band energies     occupation 
      1       0.0479      2.00000
      2       6.5960     -0.00000
      3       6.6464     -0.00000
      4       6.8420     -0.00000
      5       8.4594      0.00000
      6       8.7546      0.00000

 k-point    89 :       0.1200    0.1200    0.0400
  band No.  band energies     occupation 
      1       1.7052      2.00000
      2       5.9524      2.00000
      3       5.9791      2.00000
      4       8.3767      0.00000
      5       8.3840      0.00000
      6       8.7654      0.00000

 k-point    90 :       0.1600    0.1200    0.0400
  band No.  band energies     occupation 
      1       2.2285      2.00000
      2       5.7619      2.00000
      3       5.8330      2.00000
      4       8.3771      0.00000
      5       8.8261      0.00000
      6       8.8857      0.00000

 k-point    91 :       0.2000    0.1200    0.0400
  band No.  band energies     occupation 
      1       2.7448      2.00000
      2       5.5709      2.00000
      3       5.7563      2.00000
      4       8.4160      0.00000
      5       8.9073      0.00000
      6       9.4008      0.00000

 k-point    92 :       0.2400    0.1200    0.0400
  band No.  band energies     occupation 
      1       3.1720      2.00000
      2       5.4085      2.00000
      3       5.8004      2.00000
      4       8.4854      0.00000
      5       8.9692      0.00000
      6       9.9481      0.00000

 k-point    93 :       0.2800    0.1200    0.0400
  band No.  band energies     occupation 
      1       3.4339      2.00000
      2       5.2782      2.00000
      3       6.0206      2.00000
      4       8.5700      0.00000
      5       9.0223      0.00000
      6      10.4968      0.00000

 k-point    94 :       0.3200    0.1200    0.0400
  band No.  band energies     occupation 
      1       3.5361      2.00000
      2       5.1793      2.00000
      3       6.3728     -0.01845
      4       8.6502      0.00000
      5       9.0700      0.00000
      6      11.0192      0.00000

 k-point    95 :       0.3600    0.1200    0.0400
  band No.  band energies     occupation 
      1       3.5525      2.00000
      2       5.1124      2.00000
      3       6.7218     -0.00000
      4       8.7069      0.00000
      5       9.1146      0.00000
      6      11.4677      0.00000

 k-point    96 :       0.4000    0.1200    0.0400
  band No.  band energies     occupation 
      1       3.5461      2.00000
      2       5.0786      2.00000
      3       6.9348     -0.00000
      4       8.7327      0.00000
      5       9.1459      0.00000
      6      11.7491      0.00000

 k-point    97 :      -0.1200    0.1200    0.0400
  band No.  band energies     occupation 
      1       0.3602      2.00000
      2       6.4716     -0.00000
      3       6.6055     -0.00000
      4       7.0685     -0.00000
      5       8.3259      0.00000
      6       8.7836      0.00000

 k-point    98 :      -0.0800    0.1200    0.0400
  band No.  band energies     occupation 
      1       0.2992      2.00000
      2       6.5497     -0.00000
      3       6.6033     -0.00000
      4       6.9924     -0.00000
      5       8.3049      0.00000
      6       8.8066      0.00000

 k-point    99 :       0.1600    0.1600    0.0400
  band No.  band energies     occupation 
      1       2.7424      2.00000
      2       5.5902      2.00000
      3       5.6868      2.00000
      4       8.3927      0.00000
      5       8.9167      0.00000
      6       9.4109      0.00000

 k-point   100 :       0.2000    0.1600    0.0400
  band No.  band energies     occupation 
      1       3.2249      2.00000
      2       5.4154      2.00000
      3       5.6332      2.00000
      4       8.4402      0.00000
      5       8.9864      0.00000
      6       9.9847      0.00000

 k-point   101 :       0.2400    0.1600    0.0400
  band No.  band energies     occupation 
      1       3.5870      2.00000
      2       5.2826      2.00000
      3       5.7028      2.00000
      4       8.5142      0.00000
      5       9.0414      0.00000
      6      10.5824      0.00000

 k-point   102 :       0.2800    0.1600    0.0400
  band No.  band energies     occupation 
      1       3.7694      2.00000
      2       5.1897      2.00000
      3       5.9273      2.00000
      4       8.6006      0.00000
      5       9.0847      0.00000
      6      11.1848      0.00000

 k-point   103 :       0.3200    0.1600    0.0400
  band No.  band energies     occupation 
      1       3.8161      2.00000
      2       5.1265      2.00000
      3       6.2275      2.03836
      4       8.6792      0.00000
      5       9.1224      0.00000
      6      11.7590      0.00000

 k-point   104 :       0.3600    0.1600    0.0400
  band No.  band energies     occupation 
      1       3.8107      2.00000
      2       5.0888      2.00000
      3       6.4701     -0.00000
      4       8.7304      0.00000
      5       9.1550      0.00000
      6      12.2256      0.00000

 k-point   105 :       0.4000    0.1600    0.0400
  band No.  band energies     occupation 
      1       3.8039      2.00000
      2       5.0762      2.00000
      3       6.5615     -0.00000
      4       8.7471      0.00000
      5       9.1693      0.00000
      6      12.4209      0.00000

 k-point   106 :      -0.1600    0.1600    0.0400
  band No.  band energies     occupation 
      1       0.7760      2.00000
      2       6.3111      0.06598
      3       6.5229     -0.00000
      4       7.3764     -0.00000
      5       8.2193      0.00000
      6       8.8148      0.00000

 k-point   107 :      -0.1200    0.1600    0.0400
  band No.  band energies     occupation 
      1       0.6618      2.00000
      2       6.4258     -0.00017
      3       6.5390     -0.00000
      4       7.2533     -0.00000
      5       8.1586      0.00000
      6       8.8542      0.00000

 k-point   108 :       0.2000    0.2000    0.0400
  band No.  band energies     occupation 
      1       3.6558      2.00000
      2       5.2657      2.00000
      3       5.5975      2.00000
      4       8.4917      0.00000
      5       9.0484      0.00000
      6      10.6136      0.00000

 k-point   109 :       0.2400    0.2000    0.0400
  band No.  band energies     occupation 
      1       3.9532      2.00000
      2       5.1653      2.00000
      3       5.6677      2.00000
      4       8.5669      0.00000
      5       9.0914      0.00000
      6      11.2748      0.00000

 k-point   110 :       0.2800    0.2000    0.0400
  band No.  band energies     occupation 
      1       4.0788      2.00000
      2       5.1171      2.00000
      3       5.8446      2.00000
      4       8.6527      0.00000
      5       9.1198      0.00000
      6      11.9495      0.00000

 k-point   111 :       0.3200    0.2000    0.0400
  band No.  band energies     occupation 
      1       4.0973      2.00000
      2       5.0953      2.00000
      3       6.0479      2.00000
      4       8.7279      0.00000
      5       9.1399      0.00000
      6      12.5892      0.00000

 k-point   112 :       0.3600    0.2000    0.0400
  band No.  band energies     occupation 
      1       4.0882      2.00000
      2       5.0858      2.00000
      3       6.1767      2.01775
      4       8.7710      0.00000
      5       9.1529      0.00000
      6      13.0456      0.00000

 k-point   113 :      -0.2000    0.2000    0.0400
  band No.  band energies     occupation 
      1       1.2701      2.00000
      2       6.1279      2.00026
      3       6.4000     -0.00232
      4       7.7532      0.00000
      5       8.1742      0.00000
      6       8.8515      0.00000

 k-point   114 :      -0.1600    0.2000    0.0400
  band No.  band energies     occupation 
      1       1.1160      2.00000
      2       6.2589      1.51631
      3       6.4357     -0.00005
      4       7.5960     -0.00000
      5       8.0648      0.00000
      6       8.9021      0.00000

 k-point   115 :      -0.1200    0.2000    0.0400
  band No.  band energies     occupation 
      1       1.0641      2.00000
      2       6.3406     -0.06886
      3       6.4106     -0.00086
      4       7.5493     -0.00000
      5       8.0197      0.00000
      6       8.9218      0.00000

 k-point   116 :       0.2400    0.2400    0.0400
  band No.  band energies     occupation 
      1       4.2090      2.00000
      2       5.0936      2.00000
      3       5.6950      2.00000
      4       8.6418      0.00000
      5       9.1179      0.00000
      6      12.0153      0.00000

 k-point   117 :       0.2800    0.2400    0.0400
  band No.  band energies     occupation 
      1       4.3235      2.00000
      2       5.0861      2.00000
      3       5.7666      2.00000
      4       8.7271      0.00000
      5       9.1245      0.00000
      6      12.7822      0.00000

 k-point   118 :       0.3200    0.2400    0.0400
  band No.  band energies     occupation 
      1       4.3473      2.00000
      2       5.1067      2.00000
      3       5.8409      2.00000
      4       8.7998      0.00000
      5       9.1191      0.00000
      6      13.4964      0.00000

 k-point   119 :       0.3600    0.2400    0.0400
  band No.  band energies     occupation 
      1       4.3474      2.00000
      2       5.1170      2.00000
      3       5.8719      2.00000
      4       8.8296      0.00000
      5       9.1143      0.00000
      6      13.8549      0.00000

 k-point   120 :      -0.2400    0.2400    0.0400
  band No.  band energies     occupation 
      1       1.8026      2.00000
      2       5.9353      2.00000
      3       6.2743      1.02632
      4       8.1832      0.00000
      5       8.1991      0.00000
      6       8.8942      0.00000

 k-point   121 :      -0.2000    0.2400    0.0400
  band No.  band energies     occupation 
      1       1.6305      2.00000
      2       6.0723      2.00000
      3       6.2997      0.26661
      4       7.9949      0.00000
      5       8.0583      0.00000
      6       8.9524      0.00000

 k-point   122 :      -0.1600    0.2400    0.0400
  band No.  band energies     occupation 
      1       1.5433      2.00000
      2       6.1886      2.03471
      3       6.2707      1.14519
      4       7.9212      0.00000
      5       7.9558      0.00000
      6       8.9882      0.00000

 k-point   123 :       0.2800    0.2800    0.0400
  band No.  band energies     occupation 
      1       4.4654      2.00000
      2       5.1261      2.00000
      3       5.6847      2.00000
      4       8.8144      0.00000
      5       9.1011      0.00000
      6      13.6598      0.00000

 k-point   124 :       0.3200    0.2800    0.0400
  band No.  band energies     occupation 
      1       4.5148      2.00000
      2       5.2002      2.00000
      3       5.6137      2.00000
      4       8.8890      0.00000
      5       9.0635      0.00000
      6      14.4590      0.00000

 k-point   125 :      -0.2800    0.2800    0.0400
  band No.  band energies     occupation 
      1       2.3130      2.00000
      2       5.7459      2.00000
      3       6.2165      2.06993
      4       8.2798      0.00000
      5       8.6461      0.00000
      6       8.9429      0.00000

 k-point   126 :      -0.2400    0.2800    0.0400
  band No.  band energies     occupation 
      1       2.1571      2.00000
      2       5.8814      2.00000
      3       6.1826      2.02523
      4       8.1076      0.00000
      5       8.4579      0.00000
      6       9.0070      0.00000

 k-point   127 :      -0.2000    0.2800    0.0400
  band No.  band energies     occupation 
      1       2.0628      2.00000
      2       5.9911      2.00000
      3       6.1435      2.00126
      4       7.9616      0.00000
      5       8.3658      0.00000
      6       9.0571      0.00000

 k-point   128 :      -0.1600    0.2800    0.0400
  band No.  band energies     occupation 
      1       2.0313      2.00000
      2       6.0396      2.00000
      3       6.1215      2.00013
      4       7.9046      0.00000
      5       8.3382      0.00000
      6       9.0757      0.00000

 k-point   129 :       0.3200    0.3200    0.0400
  band No.  band energies     occupation 
      1       4.5688      2.00000
      2       5.3856      2.00000
      3       5.3856      2.00000
      4       8.9822      0.00000
      5       8.9822      0.00000
      6      15.4259      0.00000

 k-point   130 :      -0.3200    0.3200    0.0400
  band No.  band energies     occupation 
      1       2.7243      2.00000
      2       5.5709      2.00000
      3       6.3067      0.13074
      4       8.3931      0.00000
      5       8.9993      0.00000
      6       9.1159      0.00000

 k-point   131 :      -0.2800    0.3200    0.0400
  band No.  band energies     occupation 
      1       2.6262      2.00000
      2       5.7002      2.00000
      3       6.1598      2.00529
      4       8.2224      0.00000
      5       8.9168      0.00000
      6       9.0835      0.00000

 k-point   132 :      -0.2400    0.3200    0.0400
  band No.  band energies     occupation 
      1       2.5662      2.00000
      2       5.7957      2.00000
      3       6.0556      2.00000
      4       8.0487      0.00000
      5       8.8167      0.00000
      6       9.1539      0.00000

 k-point   133 :      -0.2000    0.3200    0.0400
  band No.  band energies     occupation 
      1       2.5383      2.00000
      2       5.8168      2.00000
      3       6.0366      2.00000
      4       7.9376      0.00000
      5       8.7749      0.00000
      6       9.1951      0.00000

 k-point   134 :      -0.3600    0.3600    0.0400
  band No.  band energies     occupation 
      1       2.9808      2.00000
      2       5.4197      2.00000
      3       6.5826     -0.00000
      4       8.5107      0.00000
      5       9.0726      0.00000
      6       9.5612      0.00000

 k-point   135 :      -0.3200    0.3600    0.0400
  band No.  band energies     occupation 
      1       2.9636      2.00000
      2       5.5397      2.00000
      3       6.2962      0.34910
      4       8.3607      0.00000
      5       9.1210      0.00000
      6       9.4292      0.00000

 k-point   136 :      -0.2800    0.3600    0.0400
  band No.  band energies     occupation 
      1       2.9782      2.00000
      2       5.6300      2.00000
      3       6.0646      2.00000
      4       8.1835      0.00000
      5       9.0920      0.00000
      6       9.4548      0.00000

 k-point   137 :      -0.2400    0.3600    0.0400
  band No.  band energies     occupation 
      1       3.0026      2.00000
      2       5.6248      2.00000
      3       5.9827      2.00000
      4       8.0367      0.00000
      5       9.0562      0.00000
      6       9.5117      0.00000

 k-point   138 :      -0.2000    0.3600    0.0400
  band No.  band energies     occupation 
      1       3.0141      2.00000
      2       5.5944      2.00000
      3       5.9850      2.00000
      4       7.9791      0.00000
      5       9.0436      0.00000
      6       9.5350      0.00000

 k-point   139 :      -0.4000    0.4000    0.0400
  band No.  band energies     occupation 
      1       3.0946      2.00000
      2       5.2998      2.00000
      3       6.9850     -0.00000
      4       8.5980      0.00000
      5       9.1809      0.00000
      6       9.9455      0.00000

 k-point   140 :      -0.3600    0.4000    0.0400
  band No.  band energies     occupation 
      1       3.1422      2.00000
      2       5.4072      2.00000
      3       6.5867     -0.00000
      4       8.4820      0.00000
      5       9.2449      0.00000
      6       9.8624      0.00000

 k-point   141 :      -0.3200    0.4000    0.0400
  band No.  band energies     occupation 
      1       3.2367      2.00000
      2       5.4977      2.00000
      3       6.2170      2.06956
      4       8.3288      0.00000
      5       9.2155      0.00000
      6       9.9312      0.00000

 k-point   142 :      -0.2800    0.4000    0.0400
  band No.  band energies     occupation 
      1       3.3487      2.00000
      2       5.4955      2.00000
      3       5.9997      2.00000
      4       8.1764      0.00000
      5       9.1694      0.00000
      6      10.0303      0.00000

 k-point   143 :      -0.2400    0.4000    0.0400
  band No.  band energies     occupation 
      1       3.4293      2.00000
      2       5.4100      2.00000
      3       5.9609      2.00000
      4       8.0795      0.00000
      5       9.1437      0.00000
      6      10.0906      0.00000

 k-point   144 :      -0.4400    0.4400    0.0400
  band No.  band energies     occupation 
      1       3.1256      2.00000
      2       5.2168      2.00000
      3       7.3787     -0.00000
      4       8.6316      0.00000
      5       9.3238      0.00000
      6      10.2307      0.00000

 k-point   145 :      -0.4000    0.4400    0.0400
  band No.  band energies     occupation 
      1       3.2045      2.00000
      2       5.3084      2.00000
      3       6.9330     -0.00000
      4       8.5483      0.00000
      5       9.4212      0.00000
      6      10.2291      0.00000

 k-point   146 :      -0.3600    0.4400    0.0400
  band No.  band energies     occupation 
      1       3.3475      2.00000
      2       5.3958      2.00000
      3       6.4771     -0.00000
      4       8.4376      0.00000
      5       9.3642      0.00000
      6      10.4010      0.00000

 k-point   147 :      -0.3200    0.4400    0.0400
  band No.  band energies     occupation 
      1       3.5335      2.00000
      2       5.4192      2.00000
      3       6.1204      2.00011
      4       8.3155      0.00000
      5       9.2751      0.00000
      6      10.5900      0.00000

 k-point   148 :      -0.2800    0.4400    0.0400
  band No.  band energies     occupation 
      1       3.7147      2.00000
      2       5.3121      2.00000
      3       5.9712      2.00000
      4       8.2157      0.00000
      5       9.2133      0.00000
      6      10.7195      0.00000

 k-point   149 :      -0.2400    0.4400    0.0400
  band No.  band energies     occupation 
      1       3.7980      2.00000
      2       5.2274      2.00000
      3       5.9511      2.00000
      4       8.1766      0.00000
      5       9.1921      0.00000
      6      10.7645      0.00000

 k-point   150 :      -0.4800    0.4800    0.0400
  band No.  band energies     occupation 
      1       3.1276      2.00000
      2       5.1744      2.00000
      3       7.6224      0.00000
      4       8.6285      0.00000
      5       9.4385      0.00000
      6      10.3834      0.00000

 k-point   151 :      -0.4400    0.4800    0.0400
  band No.  band energies     occupation 
      1       3.2140      2.00000
      2       5.2473      2.00000
      3       7.2066     -0.00000
      4       8.5614      0.00000
      5       9.6010      0.00000
      6      10.4842      0.00000

 k-point   152 :      -0.4000    0.4800    0.0400
  band No.  band energies     occupation 
      1       3.3729      2.00000
      2       5.3255      2.00000
      3       6.7375     -0.00000
      4       8.4856      0.00000
      5       9.5391      0.00000
      6      10.8018      0.00000

 k-point   153 :      -0.3600    0.4800    0.0400
  band No.  band energies     occupation 
      1       3.5919      2.00000
      2       5.3694      2.00000
      3       6.3062      0.14039
      4       8.4100      0.00000
      5       9.4104      0.00000
      6      11.1286      0.00000

 k-point   154 :      -0.3200    0.4800    0.0400
  band No.  band energies     occupation 
      1       3.8433      2.00000
      2       5.2998      2.00000
      3       6.0233      2.00000
      4       8.3467      0.00000
      5       9.2966      0.00000
      6      11.3701      0.00000

 k-point   155 :      -0.2800    0.4800    0.0400
  band No.  band energies     occupation 
      1       4.0499      2.00000
      2       5.1385      2.00000
      3       5.9332      2.00000
      4       8.3096      0.00000
      5       9.2320      0.00000
      6      11.4953      0.00000

 k-point   156 :      -0.4800   -0.4800    0.0400
  band No.  band energies     occupation 
      1       3.2126      2.00000
      2       5.2267      2.00000
      3       7.3102     -0.00000
      4       8.5581      0.00000
      5       9.6794      0.00000
      6      10.5785      0.00000

 k-point   157 :      -0.4400   -0.4800    0.0400
  band No.  band energies     occupation 
      1       3.3710      2.00000
      2       5.2894      2.00000
      3       6.8962     -0.00000
      4       8.4941      0.00000
      5       9.6630      0.00000
      6      11.0507      0.00000

 k-point   158 :      -0.4000   -0.4800    0.0400
  band No.  band energies     occupation 
      1       3.5948      2.00000
      2       5.3379      2.00000
      3       6.4655     -0.00000
      4       8.4502      0.00000
      5       9.5400      0.00000
      6      11.5622      0.00000

 k-point   159 :      -0.3600   -0.4800    0.0400
  band No.  band energies     occupation 
      1       3.8687      2.00000
      2       5.3198      2.00000
      3       6.0993      2.00001
      4       8.4338      0.00000
      5       9.3959      0.00000
      6      11.9802      0.00000

 k-point   160 :      -0.3200   -0.4800    0.0400
  band No.  band energies     occupation 
      1       4.1549      2.00000
      2       5.1697      2.00000
      3       5.8998      2.00000
      4       8.4391      0.00000
      5       9.2787      0.00000
      6      12.2451      0.00000

 k-point   161 :      -0.2800   -0.4800    0.0400
  band No.  band energies     occupation 
      1       4.3146      2.00000
      2       5.0362      2.00000
      3       5.8532      2.00000
      4       8.4456      0.00000
      5       9.2323      0.00000
      6      12.3348      0.00000

 k-point   162 :      -0.4400   -0.4400    0.0400
  band No.  band energies     occupation 
      1       3.5906      2.00000
      2       5.3268      2.00000
      3       6.5269     -0.00000
      4       8.4589      0.00000
      5       9.5944      0.00000
      6      11.7403      0.00000

 k-point   163 :      -0.4000   -0.4400    0.0400
  band No.  band energies     occupation 
      1       3.8627      2.00000
      2       5.3335      2.00000
      3       6.1546      2.00344
      4       8.4711      0.00000
      5       9.4690      0.00000
      6      12.4003      0.00000

 k-point   164 :      -0.3600   -0.4400    0.0400
  band No.  band energies     occupation 
      1       4.1687      2.00000
      2       5.2563      2.00000
      3       5.8588      2.00000
      4       8.5256      0.00000
      5       9.3273      0.00000
      6      12.9152      0.00000

 k-point   165 :      -0.3200   -0.4400    0.0400
  band No.  band energies     occupation 
      1       4.4498      2.00000
      2       5.0716      2.00000
      3       5.7271      2.00000
      4       8.5850      0.00000
      5       9.2216      0.00000
      6      13.1927      0.00000

 k-point   166 :      -0.4000   -0.4000    0.0400
  band No.  band energies     occupation 
      1       4.1648      2.00000
      2       5.3003      2.00000
      3       5.8378      2.00000
      4       8.5544      0.00000
      5       9.3495      0.00000
      6      13.2269      0.00000

 k-point   167 :      -0.3600   -0.4000    0.0400
  band No.  band energies     occupation 
      1       4.4762      2.00000
      2       5.1995      2.00000
      3       5.5905      2.00000
      4       8.6754      0.00000
      5       9.2104      0.00000
      6      13.8977      0.00000

 k-point   168 :      -0.3200   -0.4000    0.0400
  band No.  band energies     occupation 
      1       4.6725      2.00000
      2       5.0685      2.00000
      3       5.5114      2.00000
      4       8.7499      0.00000
      5       9.1310      0.00000
      6      14.1710      0.00000

 k-point   169 :      -0.3600   -0.3600    0.0400
  band No.  band energies     occupation 
      1       4.7398      2.00000
      2       5.1726      2.00000
      3       5.3391      2.00000
      4       8.8501      0.00000
      5       9.0598      0.00000
      6      14.8446      0.00000

 k-point   170 :       0.0800    0.0800    0.0800
  band No.  band energies     occupation 
      1       1.1777      2.00000
      2       6.1286      2.00028
      3       6.1286      2.00028
      4       7.9510      0.00000
      5       8.5609      0.00000
      6       8.5609      0.00000

 k-point   171 :       0.1200    0.0800    0.0800
  band No.  band energies     occupation 
      1       1.6586      2.00000
      2       5.9273      2.00000
      3       5.9718      2.00000
      4       8.3902      0.00000
      5       8.5092      0.00000
      6       8.6558      0.00000

 k-point   172 :       0.1600    0.0800    0.0800
  band No.  band energies     occupation 
      1       2.1877      2.00000
      2       5.7305      2.00000
      3       5.8270      2.00000
      4       8.4986      0.00000
      5       8.7438      0.00000
      6       8.8789      0.00000

 k-point   173 :       0.2000    0.0800    0.0800
  band No.  band energies     occupation 
      1       2.7086      2.00000
      2       5.5478      2.00000
      3       5.7449      2.00000
      4       8.5289      0.00000
      5       8.8236      0.00000
      6       9.4007      0.00000

 k-point   174 :       0.2400    0.0800    0.0800
  band No.  band energies     occupation 
      1       3.1368      2.00000
      2       5.3865      2.00000
      3       5.8020      2.00000
      4       8.5856      0.00000
      5       8.8945      0.00000
      6       9.9400      0.00000

 k-point   175 :       0.2800    0.0800    0.0800
  band No.  band energies     occupation 
      1       3.3959      2.00000
      2       5.2517      2.00000
      3       6.0532      2.00000
      4       8.6525      0.00000
      5       8.9557      0.00000
      6      10.4754      0.00000

 k-point   176 :       0.3200    0.0800    0.0800
  band No.  band energies     occupation 
      1       3.4955      2.00000
      2       5.1474      2.00000
      3       6.4460     -0.00001
      4       8.7137      0.00000
      5       9.0051      0.00000
      6      10.9792      0.00000

 k-point   177 :       0.3600    0.0800    0.0800
  band No.  band energies     occupation 
      1       3.5107      2.00000
      2       5.0764      2.00000
      3       6.8366     -0.00000
      4       8.7572      0.00000
      5       9.0402      0.00000
      6      11.4051      0.00000

 k-point   178 :       0.4000    0.0800    0.0800
  band No.  band energies     occupation 
      1       3.5041      2.00000
      2       5.0404      2.00000
      3       7.0785     -0.00000
      4       8.7782      0.00000
      5       9.0585      0.00000
      6      11.6684      0.00000

 k-point   179 :      -0.0800    0.0800    0.0800
  band No.  band energies     occupation 
      1       0.2377      2.00000
      2       6.6455     -0.00000
      3       6.6455     -0.00000
      4       6.8558     -0.00000
      5       8.2792      0.00000
      6       8.8327      0.00000

 k-point   180 :       0.1200    0.1200    0.0800
  band No.  band energies     occupation 
      1       2.1573      2.00000
      2       5.7579      2.00000
      3       5.7672      2.00000
      4       8.5391      0.00000
      5       8.7066      0.00000
      6       8.8838      0.00000

 k-point   181 :       0.1600    0.1200    0.0800
  band No.  band energies     occupation 
      1       2.6869      2.00000
      2       5.5704      2.00000
      3       5.6241      2.00000
      4       8.5537      0.00000
      5       8.7964      0.00000
      6       9.4185      0.00000

 k-point   182 :       0.2000    0.1200    0.0800
  band No.  band energies     occupation 
      1       3.1800      2.00000
      2       5.4020      2.00000
      3       5.5694      2.00000
      4       8.5924      0.00000
      5       8.8794      0.00000
      6       9.9820      0.00000

 k-point   183 :       0.2400    0.1200    0.0800
  band No.  band energies     occupation 
      1       3.5392      2.00000
      2       5.2629      2.00000
      3       5.6775      2.00000
      4       8.6500      0.00000
      5       8.9489      0.00000
      6      10.5586      0.00000

 k-point   184 :       0.2800    0.1200    0.0800
  band No.  band energies     occupation 
      1       3.7088      2.00000
      2       5.1537      2.00000
      3       5.9740      2.00000
      4       8.7135      0.00000
      5       9.0041      0.00000
      6      11.1287      0.00000

 k-point   185 :       0.3200    0.1200    0.0800
  band No.  band energies     occupation 
      1       3.7461      2.00000
      2       5.0749      2.00000
      3       6.3501     -0.05526
      4       8.7684      0.00000
      5       9.0453      0.00000
      6      11.6599      0.00000

 k-point   186 :       0.3600    0.1200    0.0800
  band No.  band energies     occupation 
      1       3.7369      2.00000
      2       5.0273      2.00000
      3       6.6514     -0.00000
      4       8.8042      0.00000
      5       9.0720      0.00000
      6      12.0803      0.00000

 k-point   187 :       0.4000    0.1200    0.0800
  band No.  band energies     occupation 
      1       3.7293      2.00000
      2       5.0114      2.00000
      3       6.7655     -0.00000
      4       8.8162      0.00000
      5       9.0815      0.00000
      6      12.2522      0.00000

 k-point   188 :      -0.1200    0.1200    0.0800
  band No.  band energies     occupation 
      1       0.5445      2.00000
      2       6.5712     -0.00000
      3       6.6260     -0.00000
      4       7.0379     -0.00000
      5       8.0845      0.00000
      6       8.8988      0.00000

 k-point   189 :       0.1600    0.1600    0.0800
  band No.  band energies     occupation 
      1       3.1996      2.00000
      2       5.4110      2.00000
      3       5.4812      2.00000
      4       8.5886      0.00000
      5       8.8795      0.00000
      6       9.9984      0.00000

 k-point   190 :       0.2000    0.1600    0.0800
  band No.  band energies     occupation 
      1       3.6478      2.00000
      2       5.2670      2.00000
      3       5.4495      2.00000
      4       8.6363      0.00000
      5       8.9553      0.00000
      6      10.6069      0.00000

 k-point   191 :       0.2400    0.1600    0.0800
  band No.  band energies     occupation 
      1       3.9262      2.00000
      2       5.1595      2.00000
      3       5.5898      2.00000
      4       8.6974      0.00000
      5       9.0143      0.00000
      6      11.2311      0.00000

 k-point   192 :       0.2800    0.1600    0.0800
  band No.  band energies     occupation 
      1       4.0163      2.00000
      2       5.0827      2.00000
      3       5.8872      2.00000
      4       8.7613      0.00000
      5       9.0564      0.00000
      6      11.8516      0.00000

 k-point   193 :       0.3200    0.1600    0.0800
  band No.  band energies     occupation 
      1       4.0138      2.00000
      2       5.0324      2.00000
      3       6.1962      2.04824
      4       8.8140      0.00000
      5       9.0843      0.00000
      6      12.4222      0.00000

 k-point   194 :       0.3600    0.1600    0.0800
  band No.  band energies     occupation 
      1       3.9970      2.00000
      2       5.0074      2.00000
      3       6.3842     -0.00844
      4       8.8434      0.00000
      5       9.0990      0.00000
      6      12.8137      0.00000

 k-point   195 :      -0.1600    0.1600    0.0800
  band No.  band energies     occupation 
      1       0.9528      2.00000
      2       6.4268     -0.00015
      3       6.5611     -0.00000
      4       7.3370     -0.00000
      5       7.9283      0.00000
      6       8.9584      0.00000

 k-point   196 :      -0.1200    0.1600    0.0800
  band No.  band energies     occupation 
      1       0.8979      2.00000
      2       6.5317     -0.00000
      3       6.5779     -0.00000
      4       7.2362     -0.00000
      5       7.8723      0.00000
      6       8.9793      0.00000

 k-point   197 :       0.2000    0.2000    0.0800
  band No.  band energies     occupation 
      1       4.0326      2.00000
      2       5.1564      2.00000
      3       5.4321      2.00000
      4       8.6885      0.00000
      5       9.0196      0.00000
      6      11.2673      0.00000

 k-point   198 :       0.2400    0.2000    0.0800
  band No.  band energies     occupation 
      1       4.2393      2.00000
      2       5.0891      2.00000
      3       5.5627      2.00000
      4       8.7511      0.00000
      5       9.0636      0.00000
      6      11.9538      0.00000

 k-point   199 :       0.2800    0.2000    0.0800
  band No.  band energies     occupation 
      1       4.2844      2.00000
      2       5.0517      2.00000
      3       5.7967      2.00000
      4       8.8148      0.00000
      5       9.0885      0.00000
      6      12.6441      0.00000

 k-point   200 :       0.3200    0.2000    0.0800
  band No.  band energies     occupation 
      1       4.2715      2.00000
      2       5.0312      2.00000
      3       5.9989      2.00000
      4       8.8642      0.00000
      5       9.0993      0.00000
      6      13.2597      0.00000

 k-point   201 :       0.3600    0.2000    0.0800
  band No.  band energies     occupation 
      1       4.2619      2.00000
      2       5.0245      2.00000
      3       6.0760      2.00000
      4       8.8833      0.00000
      5       9.1020      0.00000
      6      13.5487      0.00000

 k-point   202 :      -0.2000    0.2000    0.0800
  band No.  band energies     occupation 
      1       1.4375      2.00000
      2       6.2536      1.65707
      3       6.4338     -0.00007
      4       7.7124      0.00000
      5       7.8622      0.00000
      6       9.0158      0.00000

 k-point   203 :      -0.1600    0.2000    0.0800
  band No.  band energies     occupation 
      1       1.3399      2.00000
      2       6.4037     -0.00166
      3       6.4823     -0.00000
      4       7.5578     -0.00000
      5       7.7327      0.00000
      6       9.0528      0.00000

 k-point   204 :       0.2400    0.2400    0.0800
  band No.  band energies     occupation 
      1       4.4161      2.00000
      2       5.0717      2.00000
      3       5.6080      2.00000
      4       8.8138      0.00000
      5       9.0892      0.00000
      6      12.7203      0.00000

 k-point   205 :       0.2800    0.2400    0.0800
  band No.  band energies     occupation 
      1       4.4679      2.00000
      2       5.0888      2.00000
      3       5.6999      2.00000
      4       8.8771      0.00000
      5       9.0930      0.00000
      6      13.5022      0.00000

 k-point   206 :       0.3200    0.2400    0.0800
  band No.  band energies     occupation 
      1       4.4711      2.00000
      2       5.1029      2.00000
      3       5.7711      2.00000
      4       8.9220      0.00000
      5       9.0850      0.00000
      6      14.1524      0.00000

 k-point   207 :      -0.2400    0.2400    0.0800
  band No.  band energies     occupation 
      1       1.9601      2.00000
      2       6.0690      2.00000
      3       6.2738      1.04059
      4       7.8993      0.00000
      5       8.1436      0.00000
      6       9.0744      0.00000

 k-point   208 :      -0.2000    0.2400    0.0800
  band No.  band energies     occupation 
      1       1.8403      2.00000
      2       6.2275      2.03871
      3       6.3333     -0.06971
      4       7.7107      0.00000
      5       7.9594      0.00000
      6       9.1239      0.00000

 k-point   209 :      -0.1600    0.2400    0.0800
  band No.  band energies     occupation 
      1       1.8001      2.00000
      2       6.2977      0.31428
      3       6.3505     -0.05443
      4       7.6297      0.00000
      5       7.8998      0.00000
      6       9.1419      0.00000

 k-point   210 :       0.2800    0.2800    0.0800
  band No.  band energies     occupation 
      1       4.5485      2.00000
      2       5.1938      2.00000
      3       5.5968      2.00000
      4       8.9416      0.00000
      5       9.0719      0.00000
      6      14.3978      0.00000

 k-point   211 :       0.3200    0.2800    0.0800
  band No.  band energies     occupation 
      1       4.5667      2.00000
      2       5.2681      2.00000
      3       5.5333      2.00000
      4       8.9813      0.00000
      5       9.0473      0.00000
      6      15.0240      0.00000

 k-point   212 :      -0.2800    0.2800    0.0800
  band No.  band energies     occupation 
      1       2.4627      2.00000
      2       5.8864      2.00000
      3       6.1547      2.00348
      4       8.0157      0.00000
      5       8.6091      0.00000
      6       9.1402      0.00000

 k-point   213 :      -0.2400    0.2800    0.0800
  band No.  band energies     occupation 
      1       2.3532      2.00000
      2       6.0330      2.00000
      3       6.1755      2.01643
      4       7.7992      0.00000
      5       8.4087      0.00000
      6       9.2011      0.00000

 k-point   214 :      -0.2000    0.2800    0.0800
  band No.  band energies     occupation 
      1       2.2985      2.00000
      2       6.0669      2.00000
      3       6.2556      1.60507
      4       7.6456      0.00000
      5       8.3176      0.00000
      6       9.2361      0.00000

 k-point   215 :      -0.3200    0.3200    0.0800
  band No.  band energies     occupation 
      1       2.8705      2.00000
      2       5.7172      2.00000
      3       6.1557      2.00377
      4       8.1747      0.00000
      5       9.0825      0.00000
      6       9.2297      0.00000

 k-point   216 :      -0.2800    0.3200    0.0800
  band No.  band energies     occupation 
      1       2.8133      2.00000
      2       5.8560      2.00000
      3       6.0705      2.00000
      4       7.9571      0.00000
      5       8.8694      0.00000
      6       9.3114      0.00000

 k-point   217 :      -0.2400    0.3200    0.0800
  band No.  band energies     occupation 
      1       2.7840      2.00000
      2       5.8409      2.00000
      3       6.1515      2.00263
      4       7.7603      0.00000
      5       8.7545      0.00000
      6       9.3709      0.00000

 k-point   218 :      -0.2000    0.3200    0.0800
  band No.  band energies     occupation 
      1       2.7752      2.00000
      2       5.8150      2.00000
      3       6.2114      2.07024
      4       7.6766      0.00000
      5       8.7193      0.00000
      6       9.3922      0.00000

 k-point   219 :      -0.3600    0.3600    0.0800
  band No.  band energies     occupation 
      1       3.1260      2.00000
      2       5.5707      2.00000
      3       6.3144      0.02630
      4       8.3285      0.00000
      5       9.3779      0.00000
      6       9.5321      0.00000

 k-point   220 :      -0.3200    0.3600    0.0800
  band No.  band energies     occupation 
      1       3.1482      2.00000
      2       5.7120      2.00000
      3       6.0816      2.00000
      4       8.1351      0.00000
      5       9.2471      0.00000
      6       9.5527      0.00000

 k-point   221 :      -0.2800    0.3600    0.0800
  band No.  band energies     occupation 
      1       3.1881      2.00000
      2       5.6788      2.00000
      3       6.0680      2.00000
      4       7.9324      0.00000
      5       9.0993      0.00000
      6       9.6532      0.00000

 k-point   222 :      -0.2400    0.3600    0.0800
  band No.  band energies     occupation 
      1       3.2187      2.00000
      2       5.5816      2.00000
      3       6.1569      2.00419
      4       7.7930      0.00000
      5       9.0304      0.00000
      6       9.7082      0.00000

 k-point   223 :      -0.4000    0.4000    0.0800
  band No.  band energies     occupation 
      1       3.2374      2.00000
      2       5.4544      2.00000
      3       6.5817     -0.00000
      4       8.4254      0.00000
      5       9.6190      0.00000
      6       9.9207      0.00000

 k-point   224 :      -0.3600    0.4000    0.0800
  band No.  band energies     occupation 
      1       3.3255      2.00000
      2       5.5946      2.00000
      3       6.2299      2.02341
      4       8.2740      0.00000
      5       9.5151      0.00000
      6       9.9618      0.00000

 k-point   225 :      -0.3200    0.4000    0.0800
  band No.  band energies     occupation 
      1       3.4478      2.00000
      2       5.6005      2.00000
      3       6.0470      2.00000
      4       8.1055      0.00000
      5       9.3254      0.00000
      6      10.1199      0.00000

 k-point   226 :      -0.2800    0.4000    0.0800
  band No.  band energies     occupation 
      1       3.5641      2.00000
      2       5.4307      2.00000
      3       6.0981      2.00001
      4       7.9602      0.00000
      5       9.2076      0.00000
      6      10.2266      0.00000

 k-point   227 :      -0.2400    0.4000    0.0800
  band No.  band energies     occupation 
      1       3.6146      2.00000
      2       5.3449      2.00000
      3       6.1411      2.00101
      4       7.9004      0.00000
      5       9.1688      0.00000
      6      10.2633      0.00000

 k-point   228 :      -0.4400    0.4400    0.0800
  band No.  band energies     occupation 
      1       3.2650      2.00000
      2       5.3739      2.00000
      3       6.8479     -0.00000
      4       8.4539      0.00000
      5       9.9161      0.00000
      6      10.2096      0.00000

 k-point   229 :      -0.4000    0.4400    0.0800
  band No.  band energies     occupation 
      1       3.3840      2.00000
      2       5.5053      2.00000
      3       6.4455     -0.00002
      4       8.3384      0.00000
      5       9.7919      0.00000
      6      10.3805      0.00000

 k-point   230 :      -0.3600    0.4400    0.0800
  band No.  band energies     occupation 
      1       3.5583      2.00000
      2       5.5638      2.00000
      3       6.1201      2.00011
      4       8.2230      0.00000
      5       9.5482      0.00000
      6      10.6498      0.00000

 k-point   231 :      -0.3200    0.4400    0.0800
  band No.  band energies     occupation 
      1       3.7592      2.00000
      2       5.3991      2.00000
      3       6.0473      2.00000
      4       8.1220      0.00000
      5       9.3612      0.00000
      6      10.8423      0.00000

 k-point   232 :      -0.2800    0.4400    0.0800
  band No.  band energies     occupation 
      1       3.9173      2.00000
      2       5.1948      2.00000
      3       6.0881      2.00000
      4       8.0597      0.00000
      5       9.2608      0.00000
      6      10.9407      0.00000

 k-point   233 :      -0.4800    0.4800    0.0800
  band No.  band energies     occupation 
      1       3.2647      2.00000
      2       5.3327      2.00000
      3       7.0112     -0.00000
      4       8.4490      0.00000
      5      10.1353      0.00000
      6      10.3643      0.00000

 k-point   234 :      -0.4400    0.4800    0.0800
  band No.  band energies     occupation 
      1       3.3894      2.00000
      2       5.4494      2.00000
      3       6.6261     -0.00000
      4       8.3477      0.00000
      5      10.0216      0.00000
      6      10.7181      0.00000

 k-point   235 :      -0.4000    0.4800    0.0800
  band No.  band energies     occupation 
      1       3.5794      2.00000
      2       5.5335      2.00000
      3       6.2437      1.86344
      4       8.2708      0.00000
      5       9.7682      0.00000
      6      11.1487      0.00000

 k-point   236 :      -0.3600    0.4800    0.0800
  band No.  band energies     occupation 
      1       3.8204      2.00000
      2       5.4547      2.00000
      3       6.0160      2.00000
      4       8.2287      0.00000
      5       9.5344      0.00000
      6      11.4767      0.00000

 k-point   237 :      -0.3200    0.4800    0.0800
  band No.  band energies     occupation 
      1       4.0752      2.00000
      2       5.1882      2.00000
      3       5.9962      2.00000
      4       8.2183      0.00000
      5       9.3611      0.00000
      6      11.6774      0.00000

 k-point   238 :      -0.2800    0.4800    0.0800
  band No.  band energies     occupation 
      1       4.2148      2.00000
      2       5.0280      2.00000
      3       6.0079      2.00000
      4       8.2197      0.00000
      5       9.2952      0.00000
      6      11.7445      0.00000

 k-point   239 :      -0.4800   -0.4800    0.0800
  band No.  band energies     occupation 
      1       3.3864      2.00000
      2       5.4304      2.00000
      3       6.6957     -0.00000
      4       8.3439      0.00000
      5      10.1098      0.00000
      6      10.8569      0.00000

 k-point   240 :      -0.4400   -0.4800    0.0800
  band No.  band energies     occupation 
      1       3.5740      2.00000
      2       5.5143      2.00000
      3       6.3320     -0.06844
      4       8.2794      0.00000
      5       9.9081      0.00000
      6      11.4831      0.00000

 k-point   241 :      -0.4000   -0.4800    0.0800
  band No.  band energies     occupation 
      1       3.8194      2.00000
      2       5.5188      2.00000
      3       6.0067      2.00000
      4       8.2755      0.00000
      5       9.6850      0.00000
      6      12.0205      0.00000

 k-point   242 :      -0.3600   -0.4800    0.0800
  band No.  band energies     occupation 
      1       4.1078      2.00000
      2       5.3104      2.00000
      3       5.8716      2.00000
      4       8.3276      0.00000
      5       9.4722      0.00000
      6      12.4029      0.00000

 k-point   243 :      -0.3200   -0.4800    0.0800
  band No.  band energies     occupation 
      1       4.3879      2.00000
      2       5.0139      2.00000
      3       5.8579      2.00000
      4       8.3903      0.00000
      5       9.3273      0.00000
      6      12.5970      0.00000

 k-point   244 :      -0.4400   -0.4400    0.0800
  band No.  band energies     occupation 
      1       3.8131      2.00000
      2       5.5432      2.00000
      3       6.0071      2.00000
      4       8.2868      0.00000
      5       9.7452      0.00000
      6      12.2557      0.00000

 k-point   245 :      -0.4000   -0.4400    0.0800
  band No.  band energies     occupation 
      1       4.0986      2.00000
      2       5.4678      2.00000
      3       5.7354      2.00000
      4       8.3772      0.00000
      5       9.5503      0.00000
      6      12.9355      0.00000

 k-point   246 :      -0.3600   -0.4400    0.0800
  band No.  band energies     occupation 
      1       4.4161      2.00000
      2       5.1812      2.00000
      3       5.6550      2.00000
      4       8.5135      0.00000
      5       9.3588      0.00000
      6      13.4023      0.00000

 k-point   247 :      -0.3200   -0.4400    0.0800
  band No.  band energies     occupation 
      1       4.6629      2.00000
      2       4.9278      2.00000
      3       5.6426      2.00000
      4       8.5916      0.00000
      5       9.2640      0.00000
      6      13.5656      0.00000

 k-point   248 :      -0.4000   -0.4000    0.0800
  band No.  band energies     occupation 
      1       4.4094      2.00000
      2       5.4005      2.00000
      3       5.4377      2.00000
      4       8.5569      0.00000
      5       9.3734      0.00000
      6      13.8131      0.00000

 k-point   249 :      -0.3600   -0.4000    0.0800
  band No.  band energies     occupation 
      1       4.7385      2.00000
      2       5.0952      2.00000
      3       5.3774      2.00000
      4       8.7470      0.00000
      5       9.1943      0.00000
      6      14.4472      0.00000

 k-point   250 :      -0.3600   -0.3600    0.0800
  band No.  band energies     occupation 
      1       5.0612      2.00000
      2       5.0665      2.00000
      3       5.0665      2.00000
      4       8.9846      0.00000
      5       8.9846      0.00000
      6      15.4810      0.00000

 k-point   251 :       0.1200    0.1200    0.1200
  band No.  band energies     occupation 
      1       2.6678      2.00000
      2       5.5737      2.00000
      3       5.5737      2.00000
      4       8.6795      0.00000
      5       8.6795      0.00000
      6       9.4277      0.00000

 k-point   252 :       0.1600    0.1200    0.1200
  band No.  band energies     occupation 
      1       3.1922      2.00000
      2       5.4041      2.00000
      3       5.4322      2.00000
      4       8.6856      0.00000
      5       8.7966      0.00000
      6      10.0060      0.00000

 k-point   253 :       0.2000    0.1200    0.1200
  band No.  band energies     occupation 
      1       3.6468      2.00000
      2       5.2615      2.00000
      3       5.4022      2.00000
      4       8.7180      0.00000
      5       8.8913      0.00000
      6      10.6074      0.00000

 k-point   254 :       0.2400    0.1200    0.1200
  band No.  band energies     occupation 
      1       3.9183      2.00000
      2       5.1471      2.00000
      3       5.5717      2.00000
      4       8.7650      0.00000
      5       8.9652      0.00000
      6      11.2184      0.00000

 k-point   255 :       0.2800    0.1200    0.1200
  band No.  band energies     occupation 
      1       3.9965      2.00000
      2       5.0615      2.00000
      3       5.9100      2.00000
      4       8.8134      0.00000
      5       9.0197      0.00000
      6      11.8195      0.00000

 k-point   256 :       0.3200    0.1200    0.1200
  band No.  band energies     occupation 
      1       3.9871      2.00000
      2       5.0046      2.00000
      3       6.2534      1.66065
      4       8.8519      0.00000
      5       9.0557      0.00000
      6      12.3656      0.00000

 k-point   257 :       0.3600    0.1200    0.1200
  band No.  band energies     occupation 
      1       3.9678      2.00000
      2       4.9763      2.00000
      3       6.4617     -0.00000
      4       8.8729      0.00000
      5       9.0737      0.00000
      6      12.7350      0.00000

 k-point   258 :      -0.1200    0.1200    0.1200
  band No.  band energies     occupation 
      1       0.8420      2.00000
      2       6.6457     -0.00000
      3       6.6457     -0.00000
      4       7.0803     -0.00000
      5       7.8112      0.00000
      6       9.0003      0.00000

 k-point   259 :       0.1600    0.1600    0.1200
  band No.  band energies     occupation 
      1       3.6958      2.00000
      2       5.2641      2.00000
      3       5.2920      2.00000
      4       8.7485      0.00000
      5       8.8644      0.00000
      6      10.6258      0.00000

 k-point   260 :       0.2000    0.1600    0.1200
  band No.  band energies     occupation 
      1       4.0954      2.00000
      2       5.1499      2.00000
      3       5.2852      2.00000
      4       8.7907      0.00000
      5       8.9464      0.00000
      6      11.2691      0.00000

 k-point   261 :       0.2400    0.1600    0.1200
  band No.  band energies     occupation 
      1       4.2675      2.00000
      2       5.0647      2.00000
      3       5.4994      2.00000
      4       8.8368      0.00000
      5       9.0102      0.00000
      6      11.9256      0.00000

 k-point   262 :       0.2800    0.1600    0.1200
  band No.  band energies     occupation 
      1       4.2736      2.00000
      2       5.0057      2.00000
      3       5.8292      2.00000
      4       8.8802      0.00000
      5       9.0536      0.00000
      6      12.5730      0.00000

 k-point   263 :       0.3200    0.1600    0.1200
  band No.  band energies     occupation 
      1       4.2424      2.00000
      2       4.9711      2.00000
      3       6.0930      2.00000
      4       8.9111      0.00000
      5       9.0784      0.00000
      6      13.1357      0.00000

 k-point   264 :       0.3600    0.1600    0.1200
  band No.  band energies     occupation 
      1       4.2277      2.00000
      2       4.9596      2.00000
      3       6.1913      2.03936
      4       8.9223      0.00000
      5       9.0865      0.00000
      6      13.3917      0.00000

 k-point   265 :      -0.1600    0.1600    0.1200
  band No.  band energies     occupation 
      1       1.2370      2.00000
      2       6.5852     -0.00000
      3       6.6247     -0.00000
      4       7.3071     -0.00000
      5       7.5762     -0.00000
      6       9.0897      0.00000

 k-point   266 :       0.2000    0.2000    0.1200
  band No.  band energies     occupation 
      1       4.4192      2.00000
      2       5.0793      2.00000
      3       5.2860      2.00000
      4       8.8425      0.00000
      5       9.0087      0.00000
      6      11.9627      0.00000

 k-point   267 :       0.2400    0.2000    0.1200
  band No.  band energies     occupation 
      1       4.5176      2.00000
      2       5.0367      2.00000
      3       5.4807      2.00000
      4       8.8915      0.00000
      5       9.0541      0.00000
      6      12.6810      0.00000

 k-point   268 :       0.2800    0.2000    0.1200
  band No.  band energies     occupation 
      1       4.5000      2.00000
      2       5.0079      2.00000
      3       5.7305      2.00000
      4       8.9343      0.00000
      5       9.0798      0.00000
      6      13.3932      0.00000

 k-point   269 :       0.3200    0.2000    0.1200
  band No.  band energies     occupation 
      1       4.4751      2.00000
      2       4.9936      2.00000
      3       5.8843      2.00000
      4       8.9604      0.00000
      5       9.0899      0.00000
      6      13.9537      0.00000

 k-point   270 :      -0.2000    0.2000    0.1200
  band No.  band energies     occupation 
      1       1.7050      2.00000
      2       6.4463     -0.00001
      3       6.4973     -0.00000
      4       7.4792     -0.00000
      5       7.6616      0.00000
      6       9.1721      0.00000

 k-point   271 :      -0.1600    0.2000    0.1200
  band No.  band energies     occupation 
      1       1.6596      2.00000
      2       6.5512     -0.00000
      3       6.5730     -0.00000
      4       7.3646     -0.00000
      5       7.5456     -0.00000
      6       9.1896      0.00000

 k-point   272 :       0.2400    0.2400    0.1200
  band No.  band energies     occupation 
      1       4.6138      2.00000
      2       5.0709      2.00000
      3       5.5300      2.00000
      4       8.9421      0.00000
      5       9.0794      0.00000
      6      13.4801      0.00000

 k-point   273 :       0.2800    0.2400    0.1200
  band No.  band energies     occupation 
      1       4.6223      2.00000
      2       5.1055      2.00000
      3       5.6107      2.00000
      4       8.9848      0.00000
      5       9.0851      0.00000
      6      14.2778      0.00000

 k-point   274 :       0.3200    0.2400    0.1200
  band No.  band energies     occupation 
      1       4.6185      2.00000
      2       5.1159      2.00000
      3       5.6483      2.00000
      4       9.0039      0.00000
      5       9.0827      0.00000
      6      14.7480      0.00000

 k-point   275 :      -0.2400    0.2400    0.1200
  band No.  band energies     occupation 
      1       2.2090      2.00000
      2       6.2762      0.95968
      3       6.2816      0.77990
      4       7.5459     -0.00000
      5       8.0875      0.00000
      6       9.2552      0.00000

 k-point   276 :      -0.2000    0.2400    0.1200
  band No.  band energies     occupation 
      1       2.1362      2.00000
      2       6.3398     -0.06950
      3       6.4783     -0.00000
      4       7.3424     -0.00000
      5       7.9130      0.00000
      6       9.2866      0.00000

 k-point   277 :       0.2800    0.2800    0.1200
  band No.  band energies     occupation 
      1       4.6570      2.00000
      2       5.2619      2.00000
      3       5.4740      2.00000
      4       9.0290      0.00000
      5       9.0695      0.00000
      6      15.1873      0.00000

 k-point   278 :      -0.2800    0.2800    0.1200
  band No.  band energies     occupation 
      1       2.6952      2.00000
      2       6.0628      2.00000
      3       6.1134      2.00005
      4       7.7130      0.00000
      5       8.5537      0.00000
      6       9.3549      0.00000

 k-point   279 :      -0.2400    0.2800    0.1200
  band No.  band energies     occupation 
      1       2.6244      2.00000
      2       6.0687      2.00000
      3       6.3425     -0.06686
      4       7.4758     -0.00000
      5       8.3495      0.00000
      6       9.3970      0.00000

 k-point   280 :      -0.2000    0.2800    0.1200
  band No.  band energies     occupation 
      1       2.6009      2.00000
      2       6.0689      2.00000
      3       6.4573     -0.00000
      4       7.3576     -0.00000
      5       8.2816      0.00000
      6       9.4128      0.00000

 k-point   281 :      -0.3200    0.3200    0.1200
  band No.  band energies     occupation 
      1       3.0941      2.00000
      2       5.9458      2.00000
      3       5.9553      2.00000
      4       7.9162      0.00000
      5       9.0311      0.00000
      6       9.5054      0.00000

 k-point   282 :      -0.2800    0.3200    0.1200
  band No.  band energies     occupation 
      1       3.0658      2.00000
      2       5.8392      2.00000
      3       6.2011      2.05712
      4       7.6811      0.00000
      5       8.8066      0.00000
      6       9.5601      0.00000

 k-point   283 :      -0.2400    0.3200    0.1200
  band No.  band energies     occupation 
      1       3.0545      2.00000
      2       5.7798      2.00000
      3       6.3855     -0.00766
      4       7.4970     -0.00000
      5       8.6921      0.00000
      6       9.5953      0.00000

 k-point   284 :      -0.3600    0.3600    0.1200
  band No.  band energies     occupation 
      1       3.3465      2.00000
      2       5.8175      2.00000
      3       5.9714      2.00000
      4       8.0900      0.00000
      5       9.4864      0.00000
      6       9.7594      0.00000

 k-point   285 :      -0.3200    0.3600    0.1200
  band No.  band energies     occupation 
      1       3.3931      2.00000
      2       5.7186      2.00000
      3       6.0749      2.00000
      4       7.8882      0.00000
      5       9.2287      0.00000
      6       9.8468      0.00000

 k-point   286 :      -0.2800    0.3600    0.1200
  band No.  band energies     occupation 
      1       3.4400      2.00000
      2       5.5526      2.00000
      3       6.2845      0.68445
      4       7.7006      0.00000
      5       9.0543      0.00000
      6       9.9195      0.00000

 k-point   287 :      -0.2400    0.3600    0.1200
  band No.  band energies     occupation 
      1       3.4599      2.00000
      2       5.4917      2.00000
      3       6.3768     -0.01425
      4       7.6152      0.00000
      5       8.9956      0.00000
      6       9.9452      0.00000

 k-point   288 :      -0.4000    0.4000    0.1200
  band No.  band energies     occupation 
      1       3.4534      2.00000
      2       5.7076      2.00000
      3       6.1127      2.00004
      4       8.1854      0.00000
      5       9.8815      0.00000
      6      10.1415      0.00000

 k-point   289 :      -0.3600    0.4000    0.1200
  band No.  band energies     occupation 
      1       3.5671      2.00000
      2       5.7185      2.00000
      3       5.9868      2.00000
      4       8.0332      0.00000
      5       9.5939      0.00000
      6      10.2890      0.00000

 k-point   290 :      -0.3200    0.4000    0.1200
  band No.  band energies     occupation 
      1       3.6977      2.00000
      2       5.4469      2.00000
      3       6.1753      2.01626
      4       7.8948      0.00000
      5       9.3449      0.00000
      6      10.4224      0.00000

 k-point   291 :      -0.2800    0.4000    0.1200
  band No.  band energies     occupation 
      1       3.7935      2.00000
      2       5.2705      2.00000
      3       6.3073      0.12127
      4       7.8027      0.00000
      5       9.2086      0.00000
      6      10.4920      0.00000

 k-point   292 :      -0.4400    0.4400    0.1200
  band No.  band energies     occupation 
      1       3.4745      2.00000
      2       5.6313      2.00000
      3       6.2823      0.75700
      4       8.2084      0.00000
      5      10.1760      0.00000
      6      10.5789      0.00000

 k-point   293 :      -0.4000    0.4400    0.1200
  band No.  band energies     occupation 
      1       3.6189      2.00000
      2       5.7484      2.00000
      3       5.9850      2.00000
      4       8.0947      0.00000
      5       9.9121      0.00000
      6      10.8130      0.00000

 k-point   294 :      -0.3600    0.4400    0.1200
  band No.  band energies     occupation 
      1       3.8069      2.00000
      2       5.4794      2.00000
      3       6.0682      2.00000
      4       8.0211      0.00000
      5       9.6168      0.00000
      6      11.0347      0.00000

 k-point   295 :      -0.3200    0.4400    0.1200
  band No.  band energies     occupation 
      1       4.0005      2.00000
      2       5.1810      2.00000
      3       6.1918      2.04027
      4       7.9901      0.00000
      5       9.3948      0.00000
      6      11.1735      0.00000

 k-point   296 :      -0.2800    0.4400    0.1200
  band No.  band energies     occupation 
      1       4.0982      2.00000
      2       5.0462      2.00000
      3       6.2389      1.93539
      4       7.9846      0.00000
      5       9.3103      0.00000
      6      11.2201      0.00000

 k-point   297 :      -0.4800    0.4800    0.1200
  band No.  band energies     occupation 
      1       3.4698      2.00000
      2       5.5923      2.00000
      3       6.3928     -0.00431
      4       8.2018      0.00000
      5      10.3340      0.00000
      6      10.8934      0.00000

 k-point   298 :      -0.4400    0.4800    0.1200
  band No.  band energies     occupation 
      1       3.6169      2.00000
      2       5.7364      2.00000
      3       6.0579      2.00000
      4       8.1028      0.00000
      5      10.1386      0.00000
      6      11.2835      0.00000

 k-point   299 :      -0.4000    0.4800    0.1200
  band No.  band energies     occupation 
      1       3.8200      2.00000
      2       5.5972      2.00000
      3       5.9643      2.00000
      4       8.0747      0.00000
      5       9.8570      0.00000
      6      11.6540      0.00000

 k-point   300 :      -0.3600    0.4800    0.1200
  band No.  band energies     occupation 
      1       4.0640      2.00000
      2       5.2478      2.00000
      3       6.0471      2.00000
      4       8.1189      0.00000
      5       9.5869      0.00000
      6      11.9124      0.00000

 k-point   301 :      -0.3200    0.4800    0.1200
  band No.  band energies     occupation 
      1       4.2963      2.00000
      2       4.9546      2.00000
      3       6.0931      2.00000
      4       8.1843      0.00000
      5       9.4063      0.00000
      6      12.0416      0.00000

 k-point   302 :      -0.4800   -0.4800    0.1200
  band No.  band energies     occupation 
      1       3.6109      2.00000
      2       5.7265      2.00000
      3       6.0960      2.00001
      4       8.0994      0.00000
      5      10.2205      0.00000
      6      11.4865      0.00000

 k-point   303 :      -0.4400   -0.4800    0.1200
  band No.  band energies     occupation 
      1       3.8079      2.00000
      2       5.7328      2.00000
      3       5.8565      2.00000
      4       8.0879      0.00000
      5      10.0005      0.00000
      6      12.0953      0.00000

 k-point   304 :      -0.4000   -0.4800    0.1200
  band No.  band energies     occupation 
      1       4.0537      2.00000
      2       5.4001      2.00000
      3       5.8906      2.00000
      4       8.1818      0.00000
      5       9.7443      0.00000
      6      12.5835      0.00000

 k-point   305 :      -0.3600   -0.4800    0.1200
  band No.  band energies     occupation 
      1       4.3355      2.00000
      2       5.0551      2.00000
      3       5.9037      2.00000
      4       8.3339      0.00000
      5       9.5051      0.00000
      6      12.8855      0.00000

 k-point   306 :      -0.3200   -0.4800    0.1200
  band No.  band energies     occupation 
      1       4.5585      2.00000
      2       4.8105      2.00000
      3       5.9048      2.00000
      4       8.4192      0.00000
      5       9.3934      0.00000
      6      12.9850      0.00000

 k-point   307 :      -0.4400   -0.4400    0.1200
  band No.  band energies     occupation 
      1       4.0425      2.00000
      2       5.5035      2.00000
      3       5.7928      2.00000
      4       8.1992      0.00000
      5       9.8056      0.00000
      6      12.8933      0.00000

 k-point   308 :      -0.4000   -0.4400    0.1200
  band No.  band energies     occupation 
      1       4.3136      2.00000
      2       5.2216      2.00000
      3       5.7276      2.00000
      4       8.4073      0.00000
      5       9.5740      0.00000
      6      13.5547      0.00000

 k-point   309 :      -0.3600   -0.4400    0.1200
  band No.  band energies     occupation 
      1       4.6099      2.00000
      2       4.9199      2.00000
      3       5.6815      2.00000
      4       8.6128      0.00000
      5       9.3691      0.00000
      6      13.9266      0.00000

 k-point   310 :      -0.4000   -0.4000    0.1200
  band No.  band energies     occupation 
      1       4.5856      2.00000
      2       5.0542      2.00000
      3       5.5476      2.00000
      4       8.6894      0.00000
      5       9.3553      0.00000
      6      14.4762      0.00000

 k-point   311 :      -0.3600   -0.4000    0.1200
  band No.  band energies     occupation 
      1       4.8135      2.00000
      2       4.8781      2.00000
      3       5.4660      2.00000
      4       8.8859      0.00000
      5       9.1854      0.00000
      6      14.9785      0.00000

 k-point   312 :       0.1600    0.1600    0.1600
  band No.  band energies     occupation 
      1       4.1828      2.00000
      2       5.1484      2.00000
      3       5.1484      2.00000
      4       8.8731      0.00000
      5       8.8731      0.00000
      6      11.2838      0.00000

 k-point   313 :       0.2000    0.1600    0.1600
  band No.  band energies     occupation 
      1       4.5240      2.00000
      2       5.0615      2.00000
      3       5.1609      2.00000
      4       8.8989      0.00000
      5       8.9656      0.00000
      6      11.9670      0.00000

 k-point   314 :       0.2400    0.1600    0.1600
  band No.  band energies     occupation 
      1       4.5733      2.00000
      2       5.0004      2.00000
      3       5.4393      2.00000
      4       8.9315      0.00000
      5       9.0300      0.00000
      6      12.6678      0.00000

 k-point   315 :       0.2800    0.1600    0.1600
  band No.  band energies     occupation 
      1       4.5235      2.00000
      2       4.9617      2.00000
      3       5.7463      2.00000
      4       8.9602      0.00000
      5       9.0701      0.00000
      6      13.3548      0.00000

 k-point   316 :       0.3200    0.1600    0.1600
  band No.  band energies     occupation 
      1       4.4871      2.00000
      2       4.9431      2.00000
      3       5.9256      2.00000
      4       8.9769      0.00000
      5       9.0893      0.00000
      6      13.8856      0.00000

 k-point   317 :      -0.1600    0.1600    0.1600
  band No.  band energies     occupation 
      1       1.6125      2.00000
      2       6.6937     -0.00000
      3       6.6937     -0.00000
      4       7.2179     -0.00000
      5       7.3799     -0.00000
      6       9.2068      0.00000

 k-point   318 :       0.2000    0.2000    0.1600
  band No.  band energies     occupation 
      1       4.7827      2.00000
      2       5.0289      2.00000
      3       5.1673      2.00000
      4       8.9557      0.00000
      5       9.0154      0.00000
      6      12.7001      0.00000

 k-point   319 :       0.2400    0.2000    0.1600
  band No.  band energies     occupation 
      1       4.7668      2.00000
      2       5.0016      2.00000
      3       5.4203      2.00000
      4       8.9902      0.00000
      5       9.0618      0.00000
      6      13.4620      0.00000

 k-point   320 :       0.2800    0.2000    0.1600
  band No.  band energies     occupation 
      1       4.7195      2.00000
      2       4.9821      2.00000
      3       5.6341      2.00000
      4       9.0143      0.00000
      5       9.0885      0.00000
      6      14.2008      0.00000

 k-point   321 :       0.3200    0.2000    0.1600
  band No.  band energies     occupation 
      1       4.7012      2.00000
      2       4.9758      2.00000
      3       5.7117      2.00000
      4       9.0232      0.00000
      5       9.0969      0.00000
      6      14.6075      0.00000

 k-point   322 :      -0.2000    0.2000    0.1600
  band No.  band energies     occupation 
      1       2.0545      2.00000
      2       6.5942     -0.00000
      3       6.6652     -0.00000
      4       7.0616     -0.00000
      5       7.6414      0.00000
      6       9.3161      0.00000

 k-point   323 :       0.2400    0.2400    0.1600
  band No.  band energies     occupation 
      1       4.7971      2.00000
      2       5.0823      2.00000
      3       5.4488      2.00000
      4       9.0298      0.00000
      5       9.0853      0.00000
      6      14.3028      0.00000

 k-point   324 :       0.2800    0.2400    0.1600
  band No.  band energies     occupation 
      1       4.7875      2.00000
      2       5.1273      2.00000
      3       5.4905      2.00000
      4       9.0539      0.00000
      5       9.0935      0.00000
      6      15.1009      0.00000

 k-point   325 :      -0.2400    0.2400    0.1600
  band No.  band energies     occupation 
      1       2.5276      2.00000
      2       6.2633      1.38605
      3       6.5526     -0.00000
      4       7.2038     -0.00000
      5       8.0342      0.00000
      6       9.4302      0.00000

 k-point   326 :      -0.2000    0.2400    0.1600
  band No.  band energies     occupation 
      1       2.4951      2.00000
      2       6.3450     -0.06354
      3       6.6966     -0.00000
      4       7.0396     -0.00000
      5       7.9094      0.00000
      6       9.4431      0.00000

 k-point   327 :       0.2800    0.2800    0.1600
  band No.  band energies     occupation 
      1       4.7953      2.00000
      2       5.3172      2.00000
      3       5.3172      2.00000
      4       9.0813      0.00000
      5       9.0813      0.00000
      6      15.9945      0.00000

 k-point   328 :      -0.2800    0.2800    0.1600
  band No.  band energies     occupation 
      1       2.9835      2.00000
      2       5.9395      2.00000
      3       6.4141     -0.00060
      4       7.4316     -0.00000
      5       8.4906      0.00000
      6       9.5759      0.00000

 k-point   329 :      -0.2400    0.2800    0.1600
  band No.  band energies     occupation 
      1       2.9422      2.00000
      2       5.9865      2.00000
      3       6.6307     -0.00000
      4       7.2171     -0.00000
      5       8.3020      0.00000
      6       9.5948      0.00000

 k-point   330 :      -0.3200    0.3200    0.1600
  band No.  band energies     occupation 
      1       3.3620      2.00000
      2       5.7062      2.00000
      3       6.2759      0.97184
      4       7.6681      0.00000
      5       8.9681      0.00000
      6       9.8022      0.00000

 k-point   331 :      -0.2800    0.3200    0.1600
  band No.  band energies     occupation 
      1       3.3471      2.00000
      2       5.6688      2.00000
      3       6.5193     -0.00000
      4       7.4576     -0.00000
      5       8.7429      0.00000
      6       9.8203      0.00000

 k-point   332 :      -0.2400    0.3200    0.1600
  band No.  band energies     occupation 
      1       3.3429      2.00000
      2       5.6536      2.00000
      3       6.6478     -0.00000
      4       7.3458     -0.00000
      5       8.6589      0.00000
      6       9.8306      0.00000

 k-point   333 :      -0.3600    0.3600    0.1600
  band No.  band energies     occupation 
      1       3.6055      2.00000
      2       5.6088      2.00000
      3       6.1523      2.00283
      4       7.8499      0.00000
      5       9.4284      0.00000
      6      10.1672      0.00000

 k-point   334 :      -0.3200    0.3600    0.1600
  band No.  band energies     occupation 
      1       3.6541      2.00000
      2       5.4527      2.00000
      3       6.3999     -0.00234
      4       7.6822      0.00000
      5       9.1747      0.00000
      6      10.1868      0.00000

 k-point   335 :      -0.2800    0.3600    0.1600
  band No.  band energies     occupation 
      1       3.6882      2.00000
      2       5.3599      2.00000
      3       6.5815     -0.00000
      4       7.5611     -0.00000
      5       9.0114      0.00000
      6      10.2140      0.00000

 k-point   336 :      -0.4000    0.4000    0.1600
  band No.  band energies     occupation 
      1       3.7045      2.00000
      2       5.6424      2.00000
      3       6.0525      2.00000
      4       7.9419      0.00000
      5       9.8307      0.00000
      6      10.6812      0.00000

 k-point   337 :      -0.3600    0.4000    0.1600
  band No.  band energies     occupation 
      1       3.8196      2.00000
      2       5.3767      2.00000
      3       6.2891      0.54368
      4       7.8316      0.00000
      5       9.5693      0.00000
      6      10.7210      0.00000

 k-point   338 :      -0.3200    0.4000    0.1600
  band No.  band energies     occupation 
      1       3.9310      2.00000
      2       5.1684      2.00000
      3       6.4716     -0.00000
      4       7.7745      0.00000
      5       9.3259      0.00000
      6      10.7803      0.00000

 k-point   339 :      -0.2800    0.4000    0.1600
  band No.  band energies     occupation 
      1       3.9812      2.00000
      2       5.0853      2.00000
      3       6.5407     -0.00000
      4       7.7602      0.00000
      5       9.2274      0.00000
      6      10.8036      0.00000

 k-point   340 :      -0.4400    0.4400    0.1600
  band No.  band energies     occupation 
      1       3.7150      2.00000
      2       5.7360      2.00000
      3       5.9828      2.00000
      4       7.9630      0.00000
      5      10.1321      0.00000
      6      11.2527      0.00000

 k-point   341 :      -0.4000    0.4400    0.1600
  band No.  band energies     occupation 
      1       3.8599      2.00000
      2       5.4190      2.00000
      3       6.1960      2.04783
      4       7.8962      0.00000
      5       9.9047      0.00000
      6      11.3642      0.00000

 k-point   342 :      -0.3600    0.4400    0.1600
  band No.  band energies     occupation 
      1       4.0346      2.00000
      2       5.1232      2.00000
      3       6.3487     -0.05764
      4       7.9197      0.00000
      5       9.6196      0.00000
      6      11.4839      0.00000

 k-point   343 :      -0.3200    0.4400    0.1600
  band No.  band energies     occupation 
      1       4.1870      2.00000
      2       4.9089      2.00000
      3       6.4212     -0.00028
      4       7.9839      0.00000
      5       9.4165      0.00000
      6      11.5512      0.00000

 k-point   344 :      -0.4800    0.4800    0.1600
  band No.  band energies     occupation 
      1       3.7030      2.00000
      2       5.8069      2.00000
      3       5.9469      2.00000
      4       7.9573      0.00000
      5      10.2945      0.00000
      6      11.6697      0.00000

 k-point   345 :      -0.4400    0.4800    0.1600
  band No.  band energies     occupation 
      1       3.8460      2.00000
      2       5.4977      2.00000
      3       6.1293      2.00030
      4       7.9096      0.00000
      5      10.1353      0.00000
      6      11.9652      0.00000

 k-point   346 :      -0.4000    0.4800    0.1600
  band No.  band energies     occupation 
      1       4.0334      2.00000
      2       5.1875      2.00000
      3       6.2351      1.97892
      4       7.9908      0.00000
      5       9.8685      0.00000
      6      12.2261      0.00000

 k-point   347 :      -0.3600    0.4800    0.1600
  band No.  band energies     occupation 
      1       4.2497      2.00000
      2       4.8967      2.00000
      3       6.2718      1.11043
      4       8.1534      0.00000
      5       9.6021      0.00000
      6      12.3886      0.00000

 k-point   348 :      -0.3200    0.4800    0.1600
  band No.  band energies     occupation 
      1       4.4018      2.00000
      2       4.7197      2.00000
      3       6.2776      0.91215
      4       8.2469      0.00000
      5       9.4776      0.00000
      6      12.4423      0.00000

 k-point   349 :      -0.4800   -0.4800    0.1600
  band No.  band energies     occupation 
      1       3.8352      2.00000
      2       5.5347      2.00000
      3       6.1035      2.00001
      4       7.9089      0.00000
      5      10.2177      0.00000
      6      12.2365      0.00000

 k-point   350 :      -0.4400   -0.4800    0.1600
  band No.  band energies     occupation 
      1       4.0097      2.00000
      2       5.2584      2.00000
      3       6.1610      2.00582
      4       8.0153      0.00000
      5      10.0137      0.00000
      6      12.7894      0.00000

 k-point   351 :      -0.4000   -0.4800    0.1600
  band No.  band energies     occupation 
      1       4.2201      2.00000
      2       4.9861      2.00000
      3       6.1404      2.00094
      4       8.2459      0.00000
      5       9.7517      0.00000
      6      13.1924      0.00000

 k-point   352 :      -0.3600   -0.4800    0.1600
  band No.  band energies     occupation 
      1       4.4552      2.00000
      2       4.7227      2.00000
      3       6.1081      2.00002
      4       8.4691      0.00000
      5       9.5273      0.00000
      6      13.3903      0.00000

 k-point   353 :      -0.4400   -0.4400    0.1600
  band No.  band energies     occupation 
      1       4.2000      2.00000
      2       5.0358      2.00000
      3       6.0849      2.00000
      4       8.2737      0.00000
      5       9.8100      0.00000
      6      13.5971      0.00000

 k-point   354 :      -0.4000   -0.4400    0.1600
  band No.  band energies     occupation 
      1       4.4060      2.00000
      2       4.8275      2.00000
      3       5.9868      2.00000
      4       8.5900      0.00000
      5       9.5611      0.00000
      6      14.2130      0.00000

 k-point   355 :      -0.3600   -0.4400    0.1600
  band No.  band energies     occupation 
      1       4.5906      2.00000
      2       4.6463      2.00000
      3       5.9443      2.00000
      4       8.7749      0.00000
      5       9.4043      0.00000
      6      14.4387      0.00000

 k-point   356 :      -0.4000   -0.4000    0.1600
  band No.  band energies     occupation 
      1       4.5669      2.00000
      2       4.7032      2.00000
      3       5.8721      2.00000
      4       8.9382      0.00000
      5       9.3086      0.00000
      6      15.1850      0.00000

 k-point   357 :       0.2000    0.2000    0.2000
  band No.  band energies     occupation 
      1       4.9989      2.00000
      2       4.9989      2.00000
      3       5.1724      2.00000
      4       9.0328      0.00000
      5       9.0328      0.00000
      6      13.4827      0.00000

 k-point   358 :       0.2400    0.2000    0.2000
  band No.  band energies     occupation 
      1       4.9606      2.00000
      2       4.9832      2.00000
      3       5.3798      2.00000
      4       9.0517      0.00000
      5       9.0795      0.00000
      6      14.3028      0.00000

 k-point   359 :       0.2800    0.2000    0.2000
  band No.  band energies     occupation 
      1       4.9276      2.00000
      2       4.9768      2.00000
      3       5.5046      2.00000
      4       9.0636      0.00000
      5       9.1013      0.00000
      6      15.0570      0.00000

 k-point   360 :      -0.2000    0.2000    0.2000
  band No.  band energies     occupation 
      1       2.4596      2.00000
      2       6.5501     -0.00000
      3       6.8201     -0.00000
      4       6.8201     -0.00000
      5       7.7399      0.00000
      6       9.4550      0.00000

 k-point   361 :       0.2400    0.2400    0.2000
  band No.  band energies     occupation 
      1       4.9628      2.00000
      2       5.0964      2.00000
      3       5.3563      2.00000
      4       9.0826      0.00000
      5       9.0977      0.00000
      6      15.1938      0.00000

 k-point   362 :       0.2800    0.2400    0.2000
  band No.  band energies     occupation 
      1       4.9581      2.00000
      2       5.1418      2.00000
      3       5.3483      2.00000
      4       9.0919      0.00000
      5       9.1050      0.00000
      6      15.8702      0.00000

 k-point   363 :      -0.2400    0.2400    0.2000
  band No.  band energies     occupation 
      1       2.8853      2.00000
      2       6.1472      2.00179
      3       6.8373     -0.00000
      4       7.0038     -0.00000
      5       8.0253      0.00000
      6       9.6065      0.00000

 k-point   364 :      -0.2800    0.2800    0.2000
  band No.  band energies     occupation 
      1       3.2896      2.00000
      2       5.7604      2.00000
      3       6.7649     -0.00000
      4       7.2530     -0.00000
      5       8.4392      0.00000
      6       9.8062      0.00000

 k-point   365 :      -0.2400    0.2800    0.2000
  band No.  band energies     occupation 
      1       3.2700      2.00000
      2       5.7968      2.00000
      3       6.9144     -0.00000
      4       7.1345     -0.00000
      5       8.3088      0.00000
      6       9.8067      0.00000

 k-point   366 :      -0.3200    0.3200    0.2000
  band No.  band energies     occupation 
      1       3.6256      2.00000
      2       5.4486      2.00000
      3       6.6637     -0.00000
      4       7.4993     -0.00000
      5       8.9037      0.00000
      6      10.1118      0.00000

 k-point   367 :      -0.2800    0.3200    0.2000
  band No.  band energies     occupation 
      1       3.6113      2.00000
      2       5.4466      2.00000
      3       6.8795     -0.00000
      4       7.3644     -0.00000
      5       8.7008      0.00000
      6      10.0979      0.00000

 k-point   368 :      -0.3600    0.3600    0.2000
  band No.  band energies     occupation 
      1       3.8464      2.00000
      2       5.2544      2.00000
      3       6.5635     -0.00000
      4       7.6826      0.00000
      5       9.3641      0.00000
      6      10.5800      0.00000

 k-point   369 :      -0.3200    0.3600    0.2000
  band No.  band energies     occupation 
      1       3.8721      2.00000
      2       5.1658      2.00000
      3       6.7956     -0.00000
      4       7.5947     -0.00000
      5       9.1207      0.00000
      6      10.5448      0.00000

 k-point   370 :      -0.2800    0.3600    0.2000
  band No.  band energies     occupation 
      1       3.8828      2.00000
      2       5.1338      2.00000
      3       6.8890     -0.00000
      4       7.5700     -0.00000
      5       9.0107      0.00000
      6      10.5405      0.00000

 k-point   371 :      -0.4000    0.4000    0.2000
  band No.  band energies     occupation 
      1       3.9308      2.00000
      2       5.1973      2.00000
      3       6.4790     -0.00000
      4       7.7767      0.00000
      5       9.7723      0.00000
      6      11.2116      0.00000

 k-point   372 :      -0.3600    0.4000    0.2000
  band No.  band energies     occupation 
      1       4.0156      2.00000
      2       5.0046      2.00000
      3       6.7036     -0.00000
      4       7.7552      0.00000
      5       9.5217      0.00000
      6      11.1709      0.00000

 k-point   373 :      -0.3200    0.4000    0.2000
  band No.  band energies     occupation 
      1       4.0804      2.00000
      2       4.8847      2.00000
      3       6.8113     -0.00000
      4       7.8084      0.00000
      5       9.3140      0.00000
      6      11.1697      0.00000

 k-point   374 :      -0.4400    0.4400    0.2000
  band No.  band energies     occupation 
      1       3.9248      2.00000
      2       5.2281      2.00000
      3       6.4188     -0.00037
      4       7.8039      0.00000
      5      10.0811      0.00000
      6      11.9119      0.00000

 k-point   375 :      -0.4000    0.4400    0.2000
  band No.  band energies     occupation 
      1       4.0377      2.00000
      2       4.9734      2.00000
      3       6.6230     -0.00000
      4       7.8352      0.00000
      5       9.8650      0.00000
      6      11.9246      0.00000

 k-point   376 :      -0.3600    0.4400    0.2000
  band No.  band energies     occupation 
      1       4.1665      2.00000
      2       4.7587      2.00000
      3       6.7067     -0.00000
      4       7.9902      0.00000
      5       9.6033      0.00000
      6      11.9541      0.00000

 k-point   377 :      -0.3200    0.4400    0.2000
  band No.  band energies     occupation 
      1       4.2416      2.00000
      2       4.6549      2.00000
      3       6.7227     -0.00000
      4       8.0903      0.00000
      5       9.4738      0.00000
      6      11.9670      0.00000

 k-point   378 :      -0.4800    0.4800    0.2000
  band No.  band energies     occupation 
      1       3.9019      2.00000
      2       5.2668      2.00000
      3       6.3875     -0.00657
      4       7.8041      0.00000
      5      10.2484      0.00000
      6      12.4451      0.00000

 k-point   379 :      -0.4400    0.4800    0.2000
  band No.  band energies     occupation 
      1       4.0063      2.00000
      2       5.0040      2.00000
      3       6.5674     -0.00000
      4       7.8631      0.00000
      5      10.1006      0.00000
      6      12.6568      0.00000

 k-point   380 :      -0.4000    0.4800    0.2000
  band No.  band energies     occupation 
      1       4.1439      2.00000
      2       4.7606      2.00000
      3       6.6125     -0.00000
      4       8.0934      0.00000
      5       9.8482      0.00000
      6      12.8075      0.00000

 k-point   381 :      -0.3600    0.4800    0.2000
  band No.  band energies     occupation 
      1       4.3003      2.00000
      2       4.5521      2.00000
      3       6.6034     -0.00000
      4       8.3317      0.00000
      5       9.6191      0.00000
      6      12.8802      0.00000

 k-point   382 :      -0.4800   -0.4800    0.2000
  band No.  band energies     occupation 
      1       3.9886      2.00000
      2       5.0226      2.00000
      3       6.5473     -0.00000
      4       7.8685      0.00000
      5      10.1848      0.00000
      6      13.0105      0.00000

 k-point   383 :      -0.4400   -0.4800    0.2000
  band No.  band energies     occupation 
      1       4.1042      2.00000
      2       4.7940      2.00000
      3       6.5565     -0.00000
      4       8.1362      0.00000
      5       9.9916      0.00000
      6      13.5055      0.00000

 k-point   384 :      -0.4000   -0.4800    0.2000
  band No.  band energies     occupation 
      1       4.2446      2.00000
      2       4.5888      2.00000
      3       6.5072     -0.00000
      4       8.4776      0.00000
      5       9.7368      0.00000
      6      13.8045      0.00000

 k-point   385 :      -0.3600   -0.4800    0.2000
  band No.  band energies     occupation 
      1       4.4039      2.00000
      2       4.4088      2.00000
      3       6.4823     -0.00000
      4       8.6632      0.00000
      5       9.5862      0.00000
      6      13.8957      0.00000

 k-point   386 :      -0.4400   -0.4400    0.2000
  band No.  band energies     occupation 
      1       4.2141      2.00000
      2       4.6152      2.00000
      3       6.4704     -0.00000
      4       8.5243      0.00000
      5       9.7839      0.00000
      6      14.3274      0.00000

 k-point   387 :      -0.4000   -0.4400    0.2000
  band No.  band energies     occupation 
      1       4.3290      2.00000
      2       4.4700      2.00000
      3       6.4049     -0.00148
      4       8.8828      0.00000
      5       9.5351      0.00000
      6      14.8678      0.00000

 k-point   388 :      -0.4000   -0.4000    0.2000
  band No.  band energies     occupation 
      1       4.3950      2.00000
      2       4.3950      2.00000
      3       6.3641     -0.03027
      4       9.2462      0.00000
      5       9.2462      0.00000
      6      15.9125      0.00000

 k-point   389 :       0.2400    0.2400    0.2400
  band No.  band energies     occupation 
      1       5.1057      2.00000
      2       5.1057      2.00000
      3       5.2514      2.00000
      4       9.1070      0.00000
      5       9.1070      0.00000
      6      16.1367      0.00000

 k-point   390 :      -0.2400    0.2400    0.2400
  band No.  band energies     occupation 
      1       3.2453      2.00000
      2       5.8590      2.00000
      3       7.0490     -0.00000
      4       7.0490     -0.00000
      5       8.1411      0.00000
      6       9.8042      0.00000

 k-point   391 :      -0.2800    0.2800    0.2400
  band No.  band energies     occupation 
      1       3.5708      2.00000
      2       5.5027      2.00000
      3       7.1197     -0.00000
      4       7.2449     -0.00000
      5       8.4382      0.00000
      6      10.0634      0.00000

 k-point   392 :      -0.3200    0.3200    0.2400
  band No.  band energies     occupation 
      1       3.8320      2.00000
      2       5.1712      2.00000
      3       7.0935     -0.00000
      4       7.4766     -0.00000
      5       8.8549      0.00000
      6      10.4442      0.00000

 k-point   393 :      -0.2800    0.3200    0.2400
  band No.  band energies     occupation 
      1       3.8178      2.00000
      2       5.1747      2.00000
      3       7.2259     -0.00000
      4       7.4402     -0.00000
      5       8.7201      0.00000
      6      10.4188      0.00000

 k-point   394 :      -0.3600    0.3600    0.2400
  band No.  band energies     occupation 
      1       4.0034      2.00000
      2       4.9197      2.00000
      3       7.0337     -0.00000
      4       7.6627      0.00000
      5       9.3018      0.00000
      6      10.9992      0.00000

 k-point   395 :      -0.3200    0.3600    0.2400
  band No.  band energies     occupation 
      1       3.9971      2.00000
      2       4.8771      2.00000
      3       7.2151     -0.00000
      4       7.6776      0.00000
      5       9.0909      0.00000
      6      10.9335      0.00000

 k-point   396 :      -0.4000    0.4000    0.2400
  band No.  band energies     occupation 
      1       4.0620      2.00000
      2       4.7906      2.00000
      3       6.9731     -0.00000
      4       7.7706      0.00000
      5       9.7112      0.00000
      6      11.7268      0.00000

 k-point   397 :      -0.3600    0.4000    0.2400
  band No.  band energies     occupation 
      1       4.0936      2.00000
      2       4.6618      2.00000
      3       7.1615     -0.00000
      4       7.8649      0.00000
      5       9.4763      0.00000
      6      11.6311      0.00000

 k-point   398 :      -0.3200    0.4000    0.2400
  band No.  band energies     occupation 
      1       4.1094      2.00000
      2       4.6133      2.00000
      3       7.1991     -0.00000
      4       7.9645      0.00000
      5       9.3479      0.00000
      6      11.6048      0.00000

 k-point   399 :      -0.4400    0.4400    0.2400
  band No.  band energies     occupation 
      1       4.0341      2.00000
      2       4.7687      2.00000
      3       6.9266     -0.00000
      4       7.8154      0.00000
      5      10.0263      0.00000
      6      12.5423      0.00000

 k-point   400 :      -0.4000    0.4400    0.2400
  band No.  band energies     occupation 
      1       4.0904      2.00000
      2       4.5694      2.00000
      3       7.1042     -0.00000
      4       7.9759      0.00000
      5       9.8176      0.00000
      6      12.4715      0.00000

 k-point   401 :      -0.3600    0.4400    0.2400
  band No.  band energies     occupation 
      1       4.1572      2.00000
      2       4.4303      2.00000
      3       7.1336     -0.00000
      4       8.2144      0.00000
      5       9.6009      0.00000
      6      12.4413      0.00000

 k-point   402 :      -0.4800    0.4800    0.2400
  band No.  band energies     occupation 
      1       3.9972      2.00000
      2       4.7805      2.00000
      3       6.9018     -0.00000
      4       7.8278      0.00000
      5      10.1986      0.00000
      6      13.2041      0.00000

 k-point   403 :      -0.4400    0.4800    0.2400
  band No.  band energies     occupation 
      1       4.0383      2.00000
      2       4.5615      2.00000
      3       7.0626     -0.00000
      4       8.0274      0.00000
      5      10.0557      0.00000
      6      13.3250      0.00000

 k-point   404 :      -0.4000    0.4800    0.2400
  band No.  band energies     occupation 
      1       4.1123      2.00000
      2       4.3780      2.00000
      3       7.0693     -0.00000
      4       8.3730      0.00000
      5       9.8218      0.00000
      6      13.3762      0.00000

 k-point   405 :      -0.3600    0.4800    0.2400
  band No.  band energies     occupation 
      1       4.1965      2.00000
      2       4.2570      2.00000
      3       7.0587     -0.00000
      4       8.5624      0.00000
      5       9.6798      0.00000
      6      13.3884      0.00000

 k-point   406 :      -0.4800   -0.4800    0.2400
  band No.  band energies     occupation 
      1       4.0130      2.00000
      2       4.5665      2.00000
      3       7.0476     -0.00000
      4       8.0416      0.00000
      5      10.1414      0.00000
      6      13.7782      0.00000

 k-point   407 :      -0.4400   -0.4800    0.2400
  band No.  band energies     occupation 
      1       4.0566      2.00000
      2       4.3838      2.00000
      3       7.0313     -0.00000
      4       8.4446      0.00000
      5       9.9549      0.00000
      6      14.2085      0.00000

 k-point   408 :      -0.4000   -0.4800    0.2400
  band No.  band energies     occupation 
      1       4.1293      2.00000
      2       4.2402      2.00000
      3       6.9969     -0.00000
      4       8.8069      0.00000
      5       9.7265      0.00000
      6      14.3950      0.00000

 k-point   409 :      -0.4400   -0.4400    0.2400
  band No.  band energies     occupation 
      1       4.0918      2.00000
      2       4.2493      2.00000
      3       6.9737     -0.00000
      4       8.8937      0.00000
      5       9.7430      0.00000
      6      15.0545      0.00000

 k-point   410 :      -0.4000   -0.4400    0.2400
  band No.  band energies     occupation 
      1       4.1360      2.00000
      2       4.1716      2.00000
      3       6.9497     -0.00000
      4       9.1792      0.00000
      5       9.5432      0.00000
      6      15.4579      0.00000

 k-point   411 :      -0.2800    0.2800    0.2800
  band No.  band energies     occupation 
      1       3.7951      2.00000
      2       5.1909      2.00000
      3       7.3938     -0.00000
      4       7.3938     -0.00000
      5       8.5604      0.00000
      6      10.3861      0.00000

 k-point   412 :      -0.3200    0.3200    0.2800
  band No.  band energies     occupation 
      1       3.9517      2.00000
      2       4.8767      2.00000
      3       7.5188     -0.00000
      4       7.6154      0.00000
      5       8.8556      0.00000
      6      10.8309      0.00000

 k-point   413 :      -0.3600    0.3600    0.2800
  band No.  band energies     occupation 
      1       4.0422      2.00000
      2       4.6078      2.00000
      3       7.5367     -0.00000
      4       7.8190      0.00000
      5       9.2548      0.00000
      6      11.4470      0.00000

 k-point   414 :      -0.3200    0.3600    0.2800
  band No.  band energies     occupation 
      1       4.0236      2.00000
      2       4.5908      2.00000
      3       7.6382      0.00000
      4       7.8828      0.00000
      5       9.1202      0.00000
      6      11.3900      0.00000

 k-point   415 :      -0.4000    0.4000    0.2800
  band No.  band energies     occupation 
      1       4.0594      2.00000
      2       4.4301      2.00000
      3       7.5151     -0.00000
      4       7.9577      0.00000
      5       9.6535      0.00000
      6      12.2381      0.00000

 k-point   416 :      -0.3600    0.4000    0.2800
  band No.  band energies     occupation 
      1       4.0468      2.00000
      2       4.3558      2.00000
      3       7.6503      0.00000
      4       8.1298      0.00000
      5       9.4532      0.00000
      6      12.1249      0.00000

 k-point   417 :      -0.4400    0.4400    0.2800
  band No.  band energies     occupation 
      1       4.0077      2.00000
      2       4.3643      2.00000
      3       7.4890     -0.00000
      4       8.0324      0.00000
      5       9.9714      0.00000
      6      13.1395      0.00000

 k-point   418 :      -0.4000    0.4400    0.2800
  band No.  band energies     occupation 
      1       4.0127      2.00000
      2       4.2178      2.00000
      3       7.6305      0.00000
      4       8.2937      0.00000
      5       9.7753      0.00000
      6      13.0124      0.00000

 k-point   419 :      -0.3600    0.4400    0.2800
  band No.  band energies     occupation 
      1       4.0310      2.00000
      2       4.1516      2.00000
      3       7.6394      0.00000
      4       8.4823      0.00000
      5       9.6449      0.00000
      6      12.9687      0.00000

 k-point   420 :      -0.4800    0.4800    0.2800
  band No.  band energies     occupation 
      1       3.9571      2.00000
      2       4.3535      2.00000
      3       7.4731     -0.00000
      4       8.0626      0.00000
      5      10.1483      0.00000
      6      13.9307      0.00000

 k-point   421 :      -0.4400    0.4800    0.2800
  band No.  band energies     occupation 
      1       3.9419      2.00000
      2       4.1781      2.00000
      3       7.6094      0.00000
      4       8.3798      0.00000
      5      10.0095      0.00000
      6      13.9549      0.00000

 k-point   422 :      -0.4000    0.4800    0.2800
  band No.  band energies     occupation 
      1       3.9712      2.00000
      2       4.0507      2.00000
      3       7.6092      0.00000
      4       8.7372      0.00000
      5       9.8111      0.00000
      6      13.9348      0.00000

 k-point   423 :      -0.4800   -0.4800    0.2800
  band No.  band energies     occupation 
      1       3.9103      2.00000
      2       4.1718      2.00000
      3       7.6010     -0.00000
      4       8.4059      0.00000
      5      10.0955      0.00000
      6      14.5192      0.00000

 k-point   424 :      -0.4400   -0.4800    0.2800
  band No.  band energies     occupation 
      1       3.9036      2.00000
      2       4.0343      2.00000
      3       7.5888     -0.00000
      4       8.8618      0.00000
      5       9.9155      0.00000
      6      14.8723      0.00000

 k-point   425 :      -0.4000   -0.4800    0.2800
  band No.  band energies     occupation 
      1       3.9308      2.00000
      2       3.9579      2.00000
      3       7.5773     -0.00000
      4       9.1171      0.00000
      5       9.7618      0.00000
      6      14.9551      0.00000

 k-point   426 :      -0.4400   -0.4400    0.2800
  band No.  band energies     occupation 
      1       3.8999      2.00000
      2       3.9433      2.00000
      3       7.5645     -0.00000
      4       9.2983      0.00000
      5       9.6980      0.00000
      6      15.7519      0.00000

 k-point   427 :      -0.3200    0.3200    0.3200
  band No.  band energies     occupation 
      1       3.9940      2.00000
      2       4.5837      2.00000
      3       7.8545      0.00000
      4       7.8545      0.00000
      5       8.9717      0.00000
      6      11.3216      0.00000

 k-point   428 :      -0.3600    0.3600    0.3200
  band No.  band energies     occupation 
      1       3.9873      2.00000
      2       4.3206      2.00000
      3       8.0258      0.00000
      4       8.1009      0.00000
      5       9.2500      0.00000
      6      11.9643      0.00000

 k-point   429 :      -0.4000    0.4000    0.3200
  band No.  band energies     occupation 
      1       3.9489      2.00000
      2       4.1203      2.00000
      3       8.0767      0.00000
      4       8.2914      0.00000
      5       9.6078      0.00000
      6      12.7743      0.00000

 k-point   430 :      -0.3600    0.4000    0.3200
  band No.  band energies     occupation 
      1       3.9264      2.00000
      2       4.0882      2.00000
      3       8.1567      0.00000
      4       8.4309      0.00000
      5       9.4816      0.00000
      6      12.6928      0.00000

 k-point   431 :      -0.4400    0.4400    0.3200
  band No.  band energies     occupation 
      1       3.8747      2.00000
      2       4.0203      2.00000
      3       8.0824      0.00000
      4       8.4095      0.00000
      5       9.9206      0.00000
      6      13.7128      0.00000

 k-point   432 :      -0.4000    0.4400    0.3200
  band No.  band energies     occupation 
      1       3.8554      2.00000
      2       3.9240      2.00000
      3       8.1901      0.00000
      4       8.6861      0.00000
      5       9.7520      0.00000
      6      13.5733      0.00000

 k-point   433 :      -0.4800    0.4800    0.3200
  band No.  band energies     occupation 
      1       3.8133      2.00000
      2       3.9905      2.00000
      3       8.0791      0.00000
      4       8.4638      0.00000
      5      10.1007      0.00000
      6      14.6078      0.00000

 k-point   434 :      -0.4400    0.4800    0.3200
  band No.  band energies     occupation 
      1       3.7702      2.00000
      2       3.8588      2.00000
      3       8.1952      0.00000
      4       8.8281      0.00000
      5       9.9689      0.00000
      6      14.5452      0.00000

 k-point   435 :      -0.4000    0.4800    0.3200
  band No.  band energies     occupation 
      1       3.7824      2.00000
      2       3.7872      2.00000
      3       8.1992      0.00000
      4       9.0672      0.00000
      5       9.8459      0.00000
      6      14.5039      0.00000

 k-point   436 :      -0.4800   -0.4800    0.3200
  band No.  band energies     occupation 
      1       3.7347      2.00000
      2       3.8428      2.00000
      3       8.1948      0.00000
      4       8.8725      0.00000
      5      10.0518      0.00000
      6      15.2126      0.00000

 k-point   437 :      -0.4400   -0.4800    0.3200
  band No.  band energies     occupation 
      1       3.7100      2.00000
      2       3.7502      2.00000
      3       8.1961      0.00000
      4       9.2909      0.00000
      5       9.8848      0.00000
      6      15.4751      0.00000

 k-point   438 :      -0.4400   -0.4400    0.3200
  band No.  band energies     occupation 
      1       3.7013      2.00000
      2       3.7013      2.00000
      3       8.1925      0.00000
      4       9.6559      0.00000
      5       9.6559      0.00000
      6      16.3879      0.00000

 k-point   439 :      -0.3600    0.3600    0.3600
  band No.  band energies     occupation 
      1       3.8908      2.00000
      2       4.0671      2.00000
      3       8.4132      0.00000
      4       8.4132      0.00000
      5       9.3467      0.00000
      6      12.5975      0.00000

 k-point   440 :      -0.4000    0.4000    0.3600
  band No.  band energies     occupation 
      1       3.7915      2.00000
      2       3.8636      2.00000
      3       8.6107      0.00000
      4       8.6768      0.00000
      5       9.5924      0.00000
      6      13.3752      0.00000

 k-point   441 :      -0.4400    0.4400    0.3600
  band No.  band energies     occupation 
      1       3.6955      2.00000
      2       3.7408      2.00000
      3       8.6731      0.00000
      4       8.8548      0.00000
      5       9.8785      0.00000
      6      14.2856      0.00000

 k-point   442 :      -0.4000    0.4400    0.3600
  band No.  band energies     occupation 
      1       3.6784      2.00000
      2       3.6926      2.00000
      3       8.7450      0.00000
      4       9.0350      0.00000
      5       9.7711      0.00000
      6      14.1895      0.00000

 k-point   443 :      -0.4800    0.4800    0.3600
  band No.  band energies     occupation 
      1       3.6268      2.00000
      2       3.6955      2.00000
      3       8.6880      0.00000
      4       8.9418      0.00000
      5      10.0587      0.00000
      6      15.2190      0.00000

 k-point   444 :      -0.4400    0.4800    0.3600
  band No.  band energies     occupation 
      1       3.5827      2.00000
      2       3.6080      2.00000
      3       8.7841      0.00000
      4       9.2691      0.00000
      5       9.9424      0.00000
      6      15.1083      0.00000

 k-point   445 :      -0.4800   -0.4800    0.3600
  band No.  band energies     occupation 
      1       3.5459      2.00000
      2       3.5831      2.00000
      3       8.7929      0.00000
      4       9.3446      0.00000
      5      10.0142      0.00000
      6      15.8308      0.00000

 k-point   446 :      -0.4400   -0.4800    0.3600
  band No.  band energies     occupation 
      1       3.5263      2.00000
      2       3.5368      2.00000
      3       8.8007      0.00000
      4       9.6222      0.00000
      5       9.8917      0.00000
      6      15.9974      0.00000

 k-point   447 :      -0.4000    0.4000    0.4000
  band No.  band energies     occupation 
      1       3.6411      2.00000
      2       3.6626      2.00000
      3       9.0239      0.00000
      4       9.0239      0.00000
      5       9.6581      0.00000
      6      14.0766      0.00000

 k-point   448 :      -0.4400    0.4400    0.4000
  band No.  band energies     occupation 
      1       3.5215      2.00000
      2       3.5304      2.00000
      3       9.2091      0.00000
      4       9.2742      0.00000
      5       9.8537      0.00000
      6      14.8871      0.00000

 k-point   449 :      -0.4800    0.4800    0.4000
  band No.  band energies     occupation 
      1       3.4495      2.00000
      2       3.4718      2.00000
      3       9.2533      0.00000
      4       9.4025      0.00000
      5      10.0249      0.00000
      6      15.7527      0.00000

 k-point   450 :      -0.4400    0.4800    0.4000
  band No.  band energies     occupation 
      1       3.4205      2.00000
      2       3.4301      2.00000
      3       9.3185      0.00000
      4       9.6005      0.00000
      5       9.9500      0.00000
      6      15.6610      0.00000

 k-point   451 :      -0.4800   -0.4800    0.4000
  band No.  band energies     occupation 
      1       3.3865      2.00000
      2       3.3955      2.00000
      3       9.3378      0.00000
      4       9.7351      0.00000
      5       9.9852      0.00000
      6      16.3351      0.00000

 k-point   452 :      -0.4400    0.4400    0.4400
  band No.  band energies     occupation 
      1       3.3851      2.00000
      2       3.3933      2.00000
      3       9.5930      0.00000
      4       9.5930      0.00000
      5       9.8812      0.00000
      6      15.5338      0.00000

 k-point   453 :      -0.4800    0.4800    0.4400
  band No.  band energies     occupation 
      1       3.3153      2.00000
      2       3.3217      2.00000
      3       9.7080      0.00000
      4       9.7633      0.00000
      5      10.0017      0.00000
      6      16.2031      0.00000

 k-point   454 :      -0.4800   -0.4800    0.4400
  band No.  band energies     occupation 
      1       3.2821      2.00000
      2       3.2821      2.00000
      3       9.7563      0.00000
      4       9.9671      0.00000
      5       9.9671      0.00000
      6      16.6742      0.00000

 k-point   455 :      -0.4800    0.4800    0.4800
  band No.  band energies     occupation 
      1       3.2442      2.00000
      2       3.2460      2.00000
      3       9.9609      0.00000
      4       9.9609      0.00000
      5       9.9977      0.00000
      6      16.5584      0.00000


--------------------------------------------------------------------------------------------------------


 soft charge-density along one line, spin component            1
         0         1         2         3         4         5         6         7         8         9
 total charge-density along one line
 
 pseudopotential strength for first ion, spin component:            1
 -1.184  -0.006  -0.000  -0.000  -0.000  -1.705  -0.006  -0.000
 -0.006  -1.180  -0.000   0.000   0.000  -0.006  -1.700  -0.000
 -0.000  -0.000  -1.188  -0.000  -0.000  -0.000  -0.000  -1.709
 -0.000   0.000  -0.000  -1.180   0.006  -0.000   0.000  -0.000
 -0.000   0.000  -0.000   0.006  -1.184  -0.000   0.000  -0.000
 -1.705  -0.006  -0.000  -0.000  -0.000  -2.175  -0.006  -0.000
 -0.006  -1.700  -0.000   0.000   0.000  -0.006  -2.171  -0.000
 -0.000  -0.000  -1.709  -0.000  -0.000  -0.000  -0.000  -2.180
 -0.000   0.000  -0.000  -1.700   0.006  -0.000   0.000  -0.000
 -0.000   0.000  -0.000   0.006  -1.705  -0.000   0.000  -0.000
 -0.000   0.000  -0.000   0.000  -0.000  -0.000   0.000  -0.000
  0.000  -0.000   0.000  -0.000   0.000   0.000  -0.000   0.000
  0.000  -0.000  -0.000   0.000   0.000   0.000  -0.000  -0.000
  0.000  -0.000  -0.000  -0.000   0.000   0.000  -0.000  -0.000
 -0.000   0.000  -0.000  -0.000  -0.000  -0.000   0.000  -0.000
 -0.000   0.000  -0.000  -0.000  -0.000  -0.000   0.000   0.000
 -0.000   0.000   0.000   0.000  -0.000  -0.000   0.000   0.000
  0.000  -0.000   0.000   0.000   0.000   0.000  -0.000   0.000
 total augmentation occupancy for first ion, spin component:            1
  0.406  -0.093   0.000  -0.000   0.000  -0.686   0.200  -0.000   0.000  -0.000  -0.000   0.000   0.000   0.000   0.000   0.000
 -0.093   0.472  -0.000   0.000   0.000   0.200  -0.827   0.000  -0.000  -0.000  -0.000  -0.000   0.000   0.000   0.000   0.000
  0.000  -0.000   0.340  -0.000  -0.000  -0.000   0.000  -0.545   0.000   0.000   0.000   0.000   0.000   0.000   0.000   0.000
 -0.000   0.000  -0.000   0.472   0.093   0.000  -0.000   0.000  -0.827  -0.200  -0.000  -0.000   0.000   0.000   0.000   0.000
  0.000   0.000  -0.000   0.093   0.406  -0.000  -0.000   0.000  -0.200  -0.686   0.000   0.000   0.000   0.000   0.000   0.000
 -0.686   0.200  -0.000   0.000   0.000   1.738  -0.215   0.000  -0.000  -0.000   0.000   0.000   0.000   0.000   0.000   0.000
  0.200  -0.827   0.000  -0.000  -0.000  -0.215   1.890  -0.000   0.000   0.000   0.000   0.000   0.000   0.000   0.000   0.000
 -0.000   0.000  -0.545   0.000   0.000   0.000  -0.000   1.586  -0.000  -0.000  -0.000  -0.000   0.000   0.000   0.000   0.000
  0.000  -0.000   0.000  -0.827  -0.200  -0.000   0.000  -0.000   1.890   0.215   0.000   0.000   0.000   0.000   0.000   0.000
 -0.000  -0.000   0.000  -0.200  -0.686   0.000   0.000  -0.000   0.215   1.738  -0.000  -0.000   0.000   0.000   0.000   0.000
  0.000  -0.000   0.000  -0.000   0.000   0.000   0.000  -0.000   0.000  -0.000   2.017   0.045   0.000   0.000   0.000   0.000
 -0.000  -0.000   0.000  -0.000   0.000   0.000   0.000  -0.000   0.000  -0.000   0.045   0.001   0.000   0.000   0.000   0.000
  0.000   0.000   0.000   0.000   0.000   0.000   0.000   0.000   0.000   0.000   0.000   0.000   0.367  -0.000  -0.000   0.010
  0.000   0.000   0.000   0.000   0.000   0.000   0.000   0.000   0.000   0.000   0.000   0.000  -0.000   0.367  -0.000  -0.000
  0.000   0.000   0.000   0.000   0.000   0.000   0.000   0.000   0.000   0.000   0.000   0.000  -0.000  -0.000   0.367  -0.000
  0.000   0.000   0.000   0.000   0.000   0.000   0.000   0.000   0.000   0.000   0.000   0.000   0.010  -0.000  -0.000   0.000
  0.000   0.000   0.000   0.000   0.000   0.000   0.000   0.000   0.000   0.000   0.000   0.000  -0.000   0.010  -0.000  -0.000
  0.000   0.000   0.000   0.000   0.000   0.000   0.000   0.000   0.000   0.000   0.000   0.000  -0.000  -0.000   0.010  -0.000


------------------------ aborting loop because EDIFF is reached ----------------------------------------


    CHARGE:  cpu time      0.3351: real time      0.3330
    FORLOC:  cpu time      0.0022: real time      0.0018
    FORNL :  cpu time      0.9325: real time      0.9167
    STRESS:  cpu time      7.4211: real time      6.9850
    FORCOR:  cpu time      0.0046: real time      0.0035
    FORHAR:  cpu time      0.0009: real time      0.0009
    MIXING:  cpu time      0.0011: real time      0.0007
    OFIELD:  cpu time      0.0000: real time      0.0000

  FORCE on cell =-STRESS in cart. coord.  units (eV):
  Direction    XX          YY          ZZ          XY          YZ          ZX
  --------------------------------------------------------------------------------------
  Alpha Z    23.36964    23.36964    23.36964
  Ewald     -73.21313   -73.21312   -73.21313     0.00000     0.00000     0.00000
  Hartree     3.24410     3.24410     3.24410     0.00000     0.00000     0.00000
  E(xc)     -22.26765   -22.26765   -22.26765     0.00000     0.00000     0.00000
  Local      13.26598    13.26598    13.26599    -0.00000    -0.00000    -0.00000
  n-local    -2.82670    -2.84154     3.42336     0.67967    -0.55590    -0.43342
  augment    19.74815    19.74815    19.74815     0.00000    -0.00000    -0.00000
  Kinetic    39.10019    40.28684    30.22953    -0.46376     1.01651    -0.97529
  Fock        0.00000     0.00000     0.00000     0.00000     0.00000     0.00000
  -------------------------------------------------------------------------------------
  Total      -0.06235    -0.06235    -0.06235    -0.00000     0.00000     0.00000
  in kB      -7.53202    -7.53202    -7.53202    -0.00000     0.00000     0.00000
  external pressure =       -7.53 kB  Pullay stress =        0.00 kB


 VOLUME and BASIS-vectors are now :
 -----------------------------------------------------------------------------
  energy-cutoff  :      400.00
  volume of cell :       13.26
      direct lattice vectors                 reciprocal lattice vectors
     2.435118760  0.000000000 -0.860944880     0.410657589  0.237093292  0.000000000
    -1.217559380  2.108874510 -0.860944880     0.000000000  0.474186584  0.000000000
    -0.000000000 -0.000000000  2.582833620     0.136885917  0.237093386  0.387171668

  length of vectors
     2.582833611  2.582833450  2.582833620     0.474186551  0.474186584  0.474186596


 FORCES acting on ions
    electron-ion (+dipol)            ewald-force                    non-local-force                 convergence-correction
 -----------------------------------------------------------------------------------------------
   -.727E-15 0.517E-14 -.772E-15   -.262E-15 -.215E-15 0.108E-16   0.517E-25 0.000E+00 -.103E-24   0.813E-15 -.733E-15 0.155E-14
 -----------------------------------------------------------------------------------------------
   -.727E-15 0.517E-14 -.772E-15   -.262E-15 -.215E-15 0.108E-16   0.517E-25 0.000E+00 -.103E-24   0.813E-15 -.733E-15 0.155E-14
 
 
 POSITION                                       TOTAL-FORCE (eV/Angst)
 -----------------------------------------------------------------------------------
      0.00000      0.00000      0.00000         0.000000      0.000000      0.000000
 -----------------------------------------------------------------------------------
    total drift:                               -0.000000      0.000000      0.000000


--------------------------------------------------------------------------------------------------------



  FREE ENERGIE OF THE ION-ELECTRON SYSTEM (eV)
  ---------------------------------------------------
  free  energy   TOTEN  =        -8.94151534 eV

  energy  without entropy=       -8.94140378  energy(sigma->0) =       -8.94147815
 


--------------------------------------------------------------------------------------------------------


    POTLOK:  cpu time      0.0124: real time      0.0078


--------------------------------------------------------------------------------------------------------


     LOOP+:  cpu time     52.8073: real time     52.2940
    4ORBIT:  cpu time      0.0000: real time      0.0000

 total amount of memory used by VASP MPI-rank0    62231. kBytes
=======================================================================

   base      :      30000. kBytes
   nonl-proj :      16318. kBytes
   fftplans  :       1676. kBytes
   grid      :       2560. kBytes
   one-center:         15. kBytes
   wavefun   :      11662. kBytes
 
  
  
 General timing and accounting informations for this job:
 ========================================================
  
                  Total CPU time used (sec):       54.589
                            User time (sec):       53.592
                          System time (sec):        0.997
                         Elapsed time (sec):       53.965
  
                   Maximum memory used (kb):     1418840.
                   Average memory used (kb):          N/A
  
                          Minor page faults:       371501
                          Major page faults:            0
                 Voluntary context switches:        55510
