       N       E                     dE             d eps       ncg     rms          ort
SDA:   1    -0.294085421368E+02   -0.29409E+02    0.00000E+00   660   0.598E+00 0.000E+00
CGA:   2    -0.295140754473E+02   -0.10553E+00   -0.10563E+00   660   0.122E+00 0.168E-02
CGA:   3    -0.295640249137E+02   -0.49949E-01   -0.49244E-01   660   0.322E-01 0.351E-02
CGA:   4    -0.295734782743E+02   -0.94534E-02   -0.93920E-02   660   0.178E-01 0.661E-03
CGA:   5    -0.295783359245E+02   -0.48577E-02   -0.48376E-02   660   0.517E-02 0.273E-03
CGA:   6    -0.295796283583E+02   -0.12924E-02   -0.12919E-02   660   0.216E-02 0.959E-05
CGA:   7    -0.295800849848E+02   -0.45663E-03   -0.45665E-03   660   0.524E-03 0.174E-05
CGA:   8    -0.295802191763E+02   -0.13419E-03   -0.13416E-03   660   0.220E-03 0.443E-06
CGA:   9    -0.295802667332E+02   -0.47557E-04   -0.47558E-04   660   0.687E-04 0.429E-06
CGA:  10    -0.295802827562E+02   -0.16023E-04   -0.16003E-04   660   0.282E-04 0.150E-05
CGA:  11    -0.295802887326E+02   -0.59764E-05   -0.59901E-05   660   0.904E-05 0.118E-05
CGA:  12    -0.295802911093E+02   -0.23766E-05   -0.23596E-05   660   0.384E-05 0.537E-06
CGA:  13    -0.295802919534E+02   -0.84415E-06   -0.84909E-06   660   0.133E-05 0.423E-06
   1 F= -.29580292E+02 E0= -.29580292E+02  d E =-.634168E-19
