    1    1    1    1
  0.4336096E+02  0.3943404E-09  0.3943403E-09  0.3943405E-09  0.5000000E-15
   1.0000000000000000E-004
  CAR 
 FCC Ca EOS                              
      8    165      8
 
  0.1262379E-14  0.1262379E-14  0.1262379E-14  0.2035416E-03
      1        -20.898680   1.000000
      2        -20.898678   1.000000
      3        -20.898676   1.000000
      4         -1.889056   1.000000
      5          4.396389  -0.000000
      6          4.396390  -0.000000
      7          4.396391  -0.000000
      8          5.433544  -0.000000
 
  0.5882353E-01  0.1261892E-14  0.1262379E-14  0.1628333E-02
      1        -20.902969   1.000000
      2        -20.899273   1.000000
      3        -20.899270   1.000000
      4         -1.831207   1.000000
      5          4.333218  -0.000000
      6          4.418900  -0.000000
      7          4.418902  -0.000000
      8          5.413615  -0.000000
 
  0.1176471E+00  0.1252346E-14  0.1262379E-14  0.1628333E-02
      1        -20.915237   1.000000
      2        -20.900968   1.000000
      3        -20.900965   1.000000
      4         -1.659476   1.000000
      5          4.156813  -0.000000
      6          4.476030  -0.000000
      7          4.476032  -0.000000
      8          5.369404  -0.000000
 
  0.1764706E+00  0.1255299E-14  0.1262379E-14  0.1628333E-02
      1        -20.933756   1.000000
      2        -20.903536   1.000000
      3        -20.903533   1.000000
      4         -1.379454   1.000000
      5          3.896628  -0.000000
      6          4.532296  -0.000000
      7          4.532299  -0.000000
      8          5.348240  -0.000000
 
  0.2352941E+00  0.1257429E-14  0.1262379E-14  0.1628333E-02
      1        -20.955951   1.000000
      2        -20.906622   1.000000
      3        -20.906619   1.000000
      4         -1.000845   1.000000
      5          3.580762  -0.000000
      6          4.536665  -0.000000
      7          4.536669  -0.000000
      8          5.411971  -0.000000
 
  0.2941176E+00  0.1261736E-14  0.1262379E-14  0.1628333E-02
      1        -20.978792   1.000000
      2        -20.909816   1.000000
      3        -20.909813   1.000000
      4         -0.538368   1.000000
      5          3.224698  -0.000000
      6          4.479373  -0.000000
      7          4.479377  -0.000000
      8          5.572453  -0.000000
 
  0.3529412E+00  0.1275036E-14  0.1262379E-14  0.1628333E-02
      1        -20.999202   1.000000
      2        -20.912682   1.000000
      3        -20.912679   1.000000
      4         -0.013940   1.000000
      5          2.830545  -0.000001
      6          4.398677  -0.000000
      7          4.398681  -0.000000
      8          5.779154  -0.000000
 
  0.4117647E+00  0.1307442E-14  0.1262379E-14  0.1628333E-02
      1        -21.014489   1.000000
      2        -20.914840   1.000000
      3        -20.914837   1.000000
      4          0.536369   1.000000
      5          2.399313  -0.024928
      6          4.329509  -0.000000
      7          4.329513  -0.000000
      8          5.968426  -0.000000
 
  0.4705882E+00  0.1231719E-14  0.1262379E-14  0.1628333E-02
      1        -21.022663   1.000000
      2        -20.916001   1.000000
      3        -20.915998   1.000000
      4          1.017928   1.000000
      5          1.988742   0.866280
      6          4.290930  -0.000000
      7          4.290934  -0.000000
      8          6.082273  -0.000000
 
  0.5882353E-01  0.5882353E-01  0.1262379E-14  0.1221250E-02
      1        -20.902869   1.000000
      2        -20.900238   1.000000
      3        -20.900238   1.000000
      4         -1.811957   1.000000
      5          4.315536  -0.000000
      6          4.426275  -0.000000
      7          4.426277  -0.000000
      8          5.357153  -0.000000
 
  0.1176471E+00  0.5882353E-01  0.1262379E-14  0.4884999E-02
      1        -20.911999   1.000000
      2        -20.902272   1.000000
      3        -20.901309   1.000000
      4         -1.678288   1.000000
      5          4.181912  -0.000000
      6          4.473039  -0.000000
      7          4.475121  -0.000000
      8          5.270089  -0.000000
 
  0.1764706E+00  0.5882353E-01  0.1262379E-14  0.4884999E-02
      1        -20.928290   1.000000
      2        -20.905114   1.000000
      3        -20.903149   1.000000
      4         -1.434460   1.000000
      5          3.958046  -0.000000
      6          4.530984  -0.000000
      7          4.534558  -0.000000
      8          5.197240  -0.000000
 
  0.2352941E+00  0.5882353E-01  0.1262379E-14  0.4884999E-02
      1        -20.949047   1.000000
      2        -20.908366   1.000000
      3        -20.905906   1.000000
      4         -1.088666   1.000000
      5          3.671528  -0.000000
      6          4.538598  -0.000000
      7          4.556425  -0.000000
      8          5.221106  -0.000000
 
  0.2941176E+00  0.5882353E-01  0.1262379E-14  0.4884999E-02
      1        -20.971414   1.000000
      2        -20.911596   1.000000
      3        -20.909230   1.000000
      4         -0.653675   1.000000
      5          3.340057  -0.000000
      6          4.463916  -0.000000
      7          4.524906  -0.000000
      8          5.375269  -0.000000
 
  0.3529412E+00  0.5882353E-01  0.1262379E-14  0.4884999E-02
      1        -20.992370   1.000000
      2        -20.914364   1.000000
      3        -20.912656   1.000000
      4         -0.148398   1.000000
      5          2.968312  -0.000000
      6          4.364283  -0.000000
      7          4.456555  -0.000000
      8          5.602960  -0.000000
 
  0.4117647E+00  0.5882353E-01  0.1262379E-14  0.4884999E-02
      1        -21.009140   1.000000
      2        -20.916298   1.000000
      3        -20.915716   1.000000
      4          0.397919   1.000000
      5          2.554595  -0.002333
      6          4.281611  -0.000000
      7          4.385447  -0.000000
      8          5.841413  -0.000000
 
  0.4705882E+00  0.5882353E-01  0.1262379E-14  0.4884999E-02
      1        -21.019531   1.000000
      2        -20.917994   1.000000
      3        -20.917135   1.000000
      4          0.925289   1.000000
      5          2.121225   0.358960
      6          4.232324  -0.000000
      7          4.335862  -0.000000
      8          6.035064  -0.000000
 
 -0.4705882E+00  0.5882353E-01  0.1262379E-14  0.4884999E-02
      1        -21.022204   1.000000
      2        -20.919183   1.000000
      3        -20.916771   1.000000
      4          1.155086   1.000000
      5          1.917830   1.001253
      6          4.220112  -0.000000
      7          4.321020  -0.000000
      8          6.075993  -0.000000
 
 -0.4117647E+00  0.5882353E-01  0.1262379E-14  0.4884999E-02
      1        -21.016817   1.000000
      2        -20.919114   1.000000
      3        -20.915254   1.000000
      4          0.758861   1.000000
      5          2.264654  -0.008983
      6          4.244102  -0.000000
      7          4.345869  -0.000000
      8          5.942422  -0.000000
 
 -0.3529412E+00  0.5882353E-01  0.1262379E-14  0.4884999E-02
      1        -21.004072   1.000000
      2        -20.917785   1.000000
      3        -20.912786   1.000000
      4          0.213882   1.000000
      5          2.700072  -0.000065
      6          4.300791  -0.000000
      7          4.407944  -0.000000
      8          5.730812  -0.000000
 
 -0.2941176E+00  0.5882353E-01  0.1262379E-14  0.4884999E-02
      1        -20.985635   1.000000
      2        -20.915370   1.000000
      3        -20.909688   1.000000
      4         -0.323029   1.000000
      5          3.100529  -0.000000
      6          4.379388  -0.000000
      7          4.495248  -0.000000
      8          5.494580  -0.000000
 
 -0.2352941E+00  0.5882353E-01  0.1262379E-14  0.4884999E-02
      1        -20.963951   1.000000
      2        -20.912184   1.000000
      3        -20.906395   1.000000
      4         -0.807535   1.000000
      5          3.458571  -0.000000
      6          4.456073  -0.000000
      7          4.577571  -0.000000
      8          5.295017  -0.000000
 
 -0.1764706E+00  0.5882353E-01  0.1262379E-14  0.4884999E-02
      1        -20.941937   1.000000
      2        -20.908612   1.000000
      3        -20.903335   1.000000
      4         -1.214606   1.000000
      5          3.775349  -0.000000
      6          4.496900  -0.000000
      7          4.596984  -0.000000
      8          5.205339  -0.000000
 
 -0.1176471E+00  0.5882353E-01  0.1262379E-14  0.4884999E-02
      1        -20.922667   1.000000
      2        -20.905078   1.000000
      3        -20.900934   1.000000
      4         -1.527615   1.000000
      5          4.042015  -0.000000
      6          4.484746  -0.000000
      7          4.534848  -0.000000
      8          5.244859  -0.000000
 
 -0.5882353E-01  0.5882353E-01  0.1262379E-14  0.2442499E-02
      1        -20.909043   1.000000
      2        -20.901819   1.000000
      3        -20.899518   1.000000
      4         -1.735426   1.000000
      5          4.236792  -0.000000
      6          4.445528  -0.000000
      7          4.459278  -0.000000
      8          5.335481  -0.000000
 
  0.1176471E+00  0.1176471E+00  0.1262379E-14  0.1221250E-02
      1        -20.914780   1.000000
      2        -20.904688   1.000000
      3        -20.904688   1.000000
      4         -1.583538   1.000000
      5          4.098348  -0.000000
      6          4.517215  -0.000000
      7          4.517216  -0.000000
      8          5.135948  -0.000000
 
  0.1764706E+00  0.1176471E+00  0.1262379E-14  0.4884999E-02
      1        -20.926902   1.000000
      2        -20.907872   1.000000
      3        -20.906897   1.000000
      4         -1.378247   1.000000
      5          3.925757  -0.000000
      6          4.573540  -0.000000
      7          4.584405  -0.000000
      8          5.011386  -0.000000
 
  0.2352941E+00  0.1176471E+00  0.1262379E-14  0.4884999E-02
      1        -20.944903   1.000000
      2        -20.911405   1.000000
      3        -20.909413   1.000000
      4         -1.069081   1.000000
      5          3.692094  -0.000000
      6          4.528976  -0.000000
      7          4.634478  -0.000000
      8          5.028220  -0.000000
 
  0.2941176E+00  0.1176471E+00  0.1262379E-14  0.4884999E-02
      1        -20.965342   1.000000
      2        -20.914807   1.000000
      3        -20.912858   1.000000
      4         -0.666872   1.000000
      5          3.411654  -0.000000
      6          4.381497  -0.000000
      7          4.632566  -0.000000
      8          5.209525  -0.000000
 
  0.3529412E+00  0.1176471E+00  0.1262379E-14  0.4884999E-02
      1        -20.985296   1.000000
      2        -20.917605   1.000000
      3        -20.916894   1.000000
      4         -0.187710   1.000000
      5          3.086177  -0.000000
      6          4.234308  -0.000000
      7          4.582224  -0.000000
      8          5.463631  -0.000000
 
  0.4117647E+00  0.1176471E+00  0.1262379E-14  0.4884999E-02
      1        -21.002100   1.000000
      2        -20.920993   1.000000
      3        -20.919438   1.000000
      4          0.344622   1.000000
      5          2.711422  -0.000047
      6          4.126830  -0.000000
      7          4.513713  -0.000000
      8          5.741191  -0.000000
 
  0.4705882E+00  0.1176471E+00  0.1262379E-14  0.4884999E-02
      1        -21.013560   1.000000
      2        -20.924570   1.000000
      3        -20.920059   1.000000
      4          0.890082   1.000000
      5          2.291708  -0.027239
      6          4.064162  -0.000000
      7          4.455187  -0.000000
      8          5.998993  -0.000000
 
 -0.4705882E+00  0.1176471E+00  0.1262379E-14  0.4884999E-02
      1        -21.018216   1.000000
      2        -20.927114   1.000000
      3        -20.919378   1.000000
      4          1.305095   1.000000
      5          1.937480   0.975946
      6          4.037418  -0.000000
      7          4.424763  -0.000000
      8          6.077752  -0.000000
 
 -0.4117647E+00  0.1176471E+00  0.1262379E-14  0.4884999E-02
      1        -21.015514   1.000000
      2        -20.928235   1.000000
      3        -20.917489   1.000000
      4          1.058844   1.000000
      5          2.162719   0.204840
      6          4.039972  -0.000000
      7          4.432043  -0.000000
      8          5.927961  -0.000000
 
 -0.3529412E+00  0.1176471E+00  0.1262379E-14  0.4884999E-02
      1        -21.005865   1.000000
      2        -20.927724   1.000000
      3        -20.914653   1.000000
      4          0.528402   1.000000
      5          2.597089  -0.000929
      6          4.076541  -0.000000
      7          4.479886  -0.000000
      8          5.698245  -0.000000
 
 -0.2941176E+00  0.1176471E+00  0.1262379E-14  0.4884999E-02
      1        -20.990605   1.000000
      2        -20.925554   1.000000
      3        -20.911244   1.000000
      4         -0.013857   1.000000
      5          2.994142  -0.000000
      6          4.153859  -0.000000
      7          4.564347  -0.000000
      8          5.436425  -0.000000
 
 -0.2352941E+00  0.1176471E+00  0.1262379E-14  0.4884999E-02
      1        -20.971882   1.000000
      2        -20.921890   1.000000
      3        -20.907720   1.000000
      4         -0.514326   1.000000
      5          3.334280  -0.000000
      6          4.264543  -0.000000
      7          4.668939  -0.000000
      8          5.192101  -0.000000
 
 -0.1764706E+00  0.1176471E+00  0.1262379E-14  0.4884999E-02
      1        -20.952414   1.000000
      2        -20.916984   1.000000
      3        -20.904560   1.000000
      4         -0.944817   1.000000
      5          3.621344  -0.000000
      6          4.379717  -0.000000
      7          4.726066  -0.000000
      8          5.050747  -0.000000
 
 -0.1176471E+00  0.1176471E+00  0.1262379E-14  0.2442499E-02
      1        -20.935196   1.000000
      2        -20.911145   1.000000
      3        -20.902199   1.000000
      4         -1.286743   1.000000
      5          3.858985  -0.000000
      6          4.459476  -0.000000
      7          4.640686  -0.000000
      8          5.111368  -0.000000
 
  0.1764706E+00  0.1764706E+00  0.1262379E-14  0.1221250E-02
      1        -20.932606   1.000000
      2        -20.911436   1.000000
      3        -20.911436   1.000000
      4         -1.212771   1.000000
      5          3.802109  -0.000000
      6          4.672189  -0.000000
      7          4.672191  -0.000000
      8          4.797698  -0.000000
 
  0.2352941E+00  0.1764706E+00  0.1262379E-14  0.4884999E-02
      1        -20.945891   1.000000
      2        -20.915318   1.000000
      3        -20.914840   1.000000
      4         -0.943364   1.000000
      5          3.621544  -0.000000
      6          4.524965  -0.000000
      7          4.757277  -0.000000
      8          4.869449  -0.000000
 
  0.2941176E+00  0.1764706E+00  0.1262379E-14  0.4884999E-02
      1        -20.962948   1.000000
      2        -20.918981   1.000000
      3        -20.918623   1.000000
      4         -0.579094   1.000000
      5          3.405308  -0.000000
      6          4.279093  -0.000000
      7          4.795371  -0.000000
      8          5.096463  -0.000000
 
  0.3529412E+00  0.1764706E+00  0.1262379E-14  0.4884999E-02
      1        -20.980368   1.000000
      2        -20.923359   1.000000
      3        -20.921952   1.000000
      4         -0.133523   1.000000
      5          3.150730  -0.000000
      6          4.067426  -0.000000
      7          4.771914  -0.000000
      8          5.370802  -0.000000
 
  0.4117647E+00  0.1764706E+00  0.1262379E-14  0.4884999E-02
      1        -20.995525   1.000000
      2        -20.928703   1.000000
      3        -20.923823   1.000000
      4          0.373806   1.000000
      5          2.843009  -0.000001
      6          3.918630  -0.000000
      7          4.711531  -0.000000
      8          5.675186  -0.000000
 
  0.4705882E+00  0.1764706E+00  0.1262379E-14  0.4884999E-02
      1        -21.006395   1.000000
      2        -20.933940   1.000000
      3        -20.924342   1.000000
      4          0.914258   1.000000
      5          2.474165  -0.009836
      6          3.832812  -0.000000
      7          4.646161  -0.000000
      8          5.980747  -0.000000
 
 -0.4705882E+00  0.1764706E+00  0.1262379E-14  0.4884999E-02
      1        -21.011633   1.000000
      2        -20.938280   1.000000
      3        -20.923439   1.000000
      4          1.427953   1.000016
      5          2.070019   0.573070
      6          3.786573  -0.000000
      7          4.598705  -0.000000
      8          6.088275  -0.000000
 
 -0.4117647E+00  0.1764706E+00  0.1262379E-14  0.4884999E-02
      1        -21.010732   1.000000
      2        -20.940979   1.000000
      3        -20.921244   1.000000
      4          1.421370   1.000013
      5          2.099148   0.450216
      6          3.760357  -0.000000
      7          4.582946  -0.000000
      8          5.929445  -0.000000
 
 -0.3529412E+00  0.1764706E+00  0.1262379E-14  0.4884999E-02
      1        -21.004058   1.000000
      2        -20.941416   1.000000
      3        -20.918039   1.000000
      4          0.915273   1.000000
      5          2.536184  -0.003362
      6          3.763894  -0.000000
      7          4.605822  -0.000000
      8          5.691802  -0.000000
 
 -0.2941176E+00  0.1764706E+00  0.1262379E-14  0.4884999E-02
      1        -20.992849   1.000000
      2        -20.939155   1.000000
      3        -20.914260   1.000000
      4          0.377253   1.000000
      5          2.925127  -0.000000
      6          3.829685  -0.000000
      7          4.668987  -0.000000
      8          5.420255  -0.000000
 
 -0.2352941E+00  0.1764706E+00  0.1262379E-14  0.4884999E-02
      1        -20.979085   1.000000
      2        -20.934000   1.000000
      3        -20.910422   1.000000
      4         -0.131346   1.000000
      5          3.223530  -0.000000
      6          3.980640  -0.000000
      7          4.769488  -0.000000
      8          5.152393  -0.000000
 
 -0.1764706E+00  0.1764706E+00  0.1262379E-14  0.2442499E-02
      1        -20.965022   1.000000
      2        -20.926207   1.000000
      3        -20.907033   1.000000
      4         -0.579046   1.000000
      5          3.443183  -0.000000
      6          4.188230  -0.000000
      7          4.897066  -0.000000
      8          4.918399  -0.000000
 
  0.2352941E+00  0.2352941E+00  0.1262379E-14  0.1221250E-02
      1        -20.953731   1.000000
      2        -20.919560   1.000000
      3        -20.919560   1.000000
      4         -0.715896   1.000000
      5          3.485127  -0.000000
      6          4.391133  -0.000000
      7          4.894305  -0.000000
      8          4.894307  -0.000000
 
  0.2941176E+00  0.2352941E+00  0.1262379E-14  0.4884999E-02
      1        -20.966434   1.000000
      2        -20.923862   1.000000
      3        -20.923582   1.000000
      4         -0.394339   1.000000
      5          3.319550  -0.000000
      6          4.151798  -0.000000
      7          4.994045  -0.000000
      8          5.079565  -0.000000
 
  0.3529412E+00  0.2352941E+00  0.1262379E-14  0.4884999E-02
      1        -20.980289   1.000000
      2        -20.929128   1.000000
      3        -20.926829   1.000000
      4          0.009713   1.000000
      5          3.136558  -0.000000
      6          3.907866  -0.000000
      7          5.015576  -0.000000
      8          5.340455  -0.000000
 
  0.4117647E+00  0.2352941E+00  0.1262379E-14  0.4884999E-02
      1        -20.992416   1.000000
      2        -20.935667   1.000000
      3        -20.928862   1.000000
      4          0.479826   1.000000
      5          2.917503  -0.000000
      6          3.712738  -0.000000
      7          4.972560  -0.000000
      8          5.650060  -0.000000
 
  0.4705882E+00  0.2352941E+00  0.1262379E-14  0.4884999E-02
      1        -21.000889   1.000000
      2        -20.942927   1.000000
      3        -20.929419   1.000000
      4          0.993536   1.000000
      5          2.635255  -0.000372
      6          3.590309  -0.000000
      7          4.903223  -0.000000
      8          5.984128  -0.000000
 
 -0.4705882E+00  0.2352941E+00  0.1262379E-14  0.4884999E-02
      1        -21.004634   1.000000
      2        -20.949860   1.000000
      3        -20.928419   1.000000
      4          1.520944   1.000232
      5          2.281777  -0.021983
      6          3.516941  -0.000000
      7          4.836697  -0.000000
      8          6.107423  -0.000000
 
 -0.4117647E+00  0.2352941E+00  0.1262379E-14  0.4884999E-02
      1        -21.003560   1.000000
      2        -20.955141   1.000000
      3        -20.925995   1.000000
      4          1.817612   1.033468
      5          2.072184   0.564010
      6          3.454807  -0.000000
      7          4.790233  -0.000000
      8          5.950094  -0.000000
 
 -0.3529412E+00  0.2352941E+00  0.1262379E-14  0.4884999E-02
      1        -20.998708   1.000000
      2        -20.957172   1.000000
      3        -20.922481   1.000000
      4          1.346388   1.000001
      5          2.526806  -0.004017
      6          3.408078  -0.000000
      7          4.772058  -0.000000
      8          5.721286  -0.000000
 
 -0.2941176E+00  0.2352941E+00  0.1262379E-14  0.4884999E-02
      1        -20.992123   1.000000
      2        -20.954250   1.000000
      3        -20.918336   1.000000
      4          0.829565   1.000000
      5          2.906671  -0.000000
      6          3.444642  -0.000000
      7          4.781330  -0.000000
      8          5.471829  -0.000000
 
 -0.2352941E+00  0.2352941E+00  0.1262379E-14  0.2442499E-02
      1        -20.985596   1.000000
      2        -20.945850   1.000000
      3        -20.914122   1.000000
      4          0.324993   1.000000
      5          3.113554  -0.000000
      6          3.663683  -0.000000
      7          4.799956  -0.000000
      8          5.255653  -0.000000
 
  0.2941176E+00  0.2941176E+00  0.1262379E-14  0.1221250E-02
      1        -20.975197   1.000000
      2        -20.927975   1.000000
      3        -20.927974   1.000000
      4         -0.119580   1.000000
      5          3.191763  -0.000000
      6          3.972335  -0.000000
      7          5.184162  -0.000000
      8          5.184163  -0.000000
 
  0.3529412E+00  0.2941176E+00  0.1262379E-14  0.4884999E-02
      1        -20.985817   1.000000
      2        -20.932650   1.000000
      3        -20.931567   1.000000
      4          0.234825   1.000000
      5          3.055811  -0.000000
      6          3.755353  -0.000000
      7          5.290170  -0.000000
      8          5.391939  -0.000000
 
  0.4117647E+00  0.2941176E+00  0.1262379E-14  0.4884999E-02
      1        -20.994994   1.000000
      2        -20.939135   1.000000
      3        -20.933882   1.000000
      4          0.654221   1.000000
      5          2.914315  -0.000000
      6          3.543443  -0.000000
      7          5.284343  -0.000000
      8          5.675387  -0.000000
 
  0.4705882E+00  0.2941176E+00  0.1262379E-14  0.4884999E-02
      1        -21.000542   1.000000
      2        -20.947523   1.000000
      3        -20.934604   1.000000
      4          1.118967   1.000000
      5          2.737181  -0.000022
      6          3.380861  -0.000000
      7          5.216410  -0.000000
      8          6.010754  -0.000000
 
 -0.4705882E+00  0.2941176E+00  0.1262379E-14  0.4884999E-02
      1        -21.001322   1.000000
      2        -20.957088   1.000000
      3        -20.933634   1.000000
      4          1.604644   1.001689
      5          2.494553  -0.007105
      6          3.272097  -0.000000
      7          5.128479  -0.000000
      8          6.134388  -0.000000
 
 -0.4117647E+00  0.2941176E+00  0.1262379E-14  0.4884999E-02
      1        -20.997280   1.000000
      2        -20.966475   1.000000
      3        -20.931107   1.000000
      4          2.065245   0.592946
      5          2.200109   0.096919
      6          3.170680  -0.000000
      7          5.040781  -0.000000
      8          5.991997  -0.000000
 
 -0.3529412E+00  0.2941176E+00  0.1262379E-14  0.4884999E-02
      1        -20.990637   1.000000
      2        -20.972747   1.000000
      3        -20.927367   1.000000
      4          1.769176   1.023486
      5          2.564010  -0.001920
      6          3.057699  -0.000000
      7          4.959335  -0.000000
      8          5.794829  -0.000000
 
 -0.2941176E+00  0.2941176E+00  0.1262379E-14  0.2442499E-02
      1        -20.989453   1.000000
      2        -20.967868   1.000000
      3        -20.922909   1.000000
      4          1.309456   1.000000
      5          2.923572  -0.000000
      6          3.048122  -0.000000
      7          4.877647  -0.000000
      8          5.604364  -0.000000
 
  0.3529412E+00  0.3529412E+00  0.1262379E-14  0.1221250E-02
      1        -20.994148   1.000000
      2        -20.935539   1.000000
      3        -20.935539   1.000000
      4          0.531450   1.000000
      5          2.951535  -0.000000
      6          3.586737  -0.000000
      7          5.534511  -0.000000
      8          5.534512  -0.000000
 
  0.4117647E+00  0.3529412E+00  0.1262379E-14  0.4884999E-02
      1        -21.001587   1.000000
      2        -20.939977   1.000000
      3        -20.938196   1.000000
      4          0.885234   1.000000
      5          2.853778  -0.000000
      6          3.402226  -0.000000
      7          5.621953  -0.000000
      8          5.762053  -0.000000
 
  0.4705882E+00  0.3529412E+00  0.1262379E-14  0.4884999E-02
      1        -21.005580   1.000000
      2        -20.946952   1.000000
      3        -20.939190   1.000000
      4          1.276566   1.000000
      5          2.758660  -0.000011
      6          3.228491  -0.000000
      7          5.566384  -0.000000
      8          6.060521  -0.000000
 
 -0.4705882E+00  0.3529412E+00  0.1262379E-14  0.4884999E-02
      1        -21.004790   1.000000
      2        -20.956340   1.000000
      3        -20.938390   1.000000
      4          1.679151   1.006986
      5          2.637363  -0.000353
      6          3.090182  -0.000000
      7          5.455139  -0.000000
      8          6.168504  -0.000000
 
 -0.4117647E+00  0.3529412E+00  0.1262379E-14  0.4884999E-02
      1        -20.998924   1.000000
      2        -20.967260   1.000000
      3        -20.935898   1.000000
      4          2.042783   0.683524
      5          2.491639  -0.007456
      6          2.967416  -0.000000
      7          5.313014  -0.000000
      8          6.056320  -0.000000
 
 -0.3529412E+00  0.3529412E+00  0.1262379E-14  0.2442499E-02
      1        -20.989127   1.000000
      2        -20.977852   1.000000
      3        -20.932054   1.000000
      4          2.090395   0.487158
      5          2.524953  -0.004158
      6          2.874264  -0.000000
      7          5.145397  -0.000000
      8          5.913300  -0.000000
 
  0.4117647E+00  0.4117647E+00  0.1262379E-14  0.1221250E-02
      1        -21.008192   1.000000
      2        -20.941221   1.000000
      3        -20.941221   1.000000
      4          1.156555   1.000000
      5          2.782794  -0.000005
      6          3.261640  -0.000000
      7          5.915553  -0.000000
      8          5.915554  -0.000000
 
  0.4705882E+00  0.4117647E+00  0.1262379E-14  0.4884999E-02
      1        -21.011839   1.000000
      2        -20.944821   1.000000
      3        -20.942559   1.000000
      4          1.445574   1.000028
      5          2.727786  -0.000029
      6          3.120019  -0.000000
      7          5.907474  -0.000000
      8          6.132198  -0.000000
 
 -0.4705882E+00  0.4117647E+00  0.1262379E-14  0.4884999E-02
      1        -21.011095   1.000000
      2        -20.951239   1.000000
      3        -20.942032   1.000000
      4          1.720386   1.013127
      5          2.684142  -0.000102
      6          2.999163  -0.000000
      7          5.776157  -0.000000
      8          6.211414  -0.000000
 
 -0.4117647E+00  0.4117647E+00  0.1262379E-14  0.2442499E-02
      1        -21.006015   1.000000
      2        -20.959656   1.000000
      3        -20.939711   1.000000
      4          1.934908   0.979753
      5          2.631715  -0.000406
      6          2.923122  -0.000000
      7          5.572095  -0.000000
      8          6.139998  -0.000000
 
  0.4705882E+00  0.4705882E+00  0.1262379E-14  0.1221250E-02
      1        -21.015647   1.000000
      2        -20.944267   1.000000
      3        -20.944267   1.000000
      4          1.596832   1.001427
      5          2.696039  -0.000073
      6          3.035866  -0.000000
      7          6.084614  -0.000000
      8          6.222733  -0.000000
 
 -0.4705882E+00  0.4705882E+00  0.1262379E-14  0.2442499E-02
      1        -21.015389   1.000000
      2        -20.946515   1.000000
      3        -20.944082   1.000000
      4          1.696121   1.009186
      5          2.685303  -0.000099
      6          2.988690  -0.000000
      7          6.007643  -0.000000
      8          6.258558  -0.000000
 
  0.1764706E+00  0.1176471E+00  0.5882353E-01  0.4884999E-02
      1        -20.921678   1.000000
      2        -20.906357   1.000000
      3        -20.902443   1.000000
      4         -1.508654   1.000000
      5          4.032250  -0.000000
      6          4.500021  -0.000000
      7          4.550133  -0.000000
      8          5.155794  -0.000000
 
  0.2352941E+00  0.1176471E+00  0.5882353E-01  0.9769998E-02
      1        -20.937829   1.000000
      2        -20.910858   1.000000
      3        -20.904298   1.000000
      4         -1.231926   1.000000
      5          3.811411  -0.000000
      6          4.491802  -0.000000
      7          4.637764  -0.000000
      8          5.078228  -0.000000
 
  0.2941176E+00  0.1176471E+00  0.5882353E-01  0.9769998E-02
      1        -20.957811   1.000000
      2        -20.915099   1.000000
      3        -20.907087   1.000000
      4         -0.857546   1.000000
      5          3.537242  -0.000000
      6          4.416959  -0.000000
      7          4.652202  -0.000000
      8          5.142940  -0.000000
 
  0.3529412E+00  0.1176471E+00  0.5882353E-01  0.9769998E-02
      1        -20.978572   1.000000
      2        -20.918840   1.000000
      3        -20.910429   1.000000
      4         -0.399868   1.000000
      5          3.217015  -0.000000
      6          4.303952  -0.000000
      7          4.586169  -0.000000
      8          5.344583  -0.000000
 
  0.4117647E+00  0.1176471E+00  0.5882353E-01  0.9769998E-02
      1        -20.997194   1.000000
      2        -20.921759   1.000000
      3        -20.913802   1.000000
      4          0.119922   1.000000
      5          2.848940  -0.000001
      6          4.200755  -0.000000
      7          4.501557  -0.000000
      8          5.599235  -0.000000
 
  0.4705882E+00  0.1176471E+00  0.5882353E-01  0.9769998E-02
      1        -21.011169   1.000000
      2        -20.923653   1.000000
      3        -20.916623   1.000000
      4          0.668177   1.000000
      5          2.432669  -0.017406
      6          4.131545  -0.000000
      7          4.431815  -0.000000
      8          5.848964  -0.000000
 
 -0.4705882E+00  0.1176471E+00  0.5882353E-01  0.9769998E-02
      1        -21.018645   1.000000
      2        -20.924525   1.000000
      3        -20.918275   1.000000
      4          1.161266   1.000000
      5          2.016805   0.778947
      6          4.099316  -0.000000
      7          4.393362  -0.000000
      8          6.032646  -0.000000
 
  0.2352941E+00  0.1764706E+00  0.5882353E-01  0.4884999E-02
      1        -20.938705   1.000000
      2        -20.913233   1.000000
      3        -20.908782   1.000000
      4         -1.140497   1.000000
      5          3.753366  -0.000000
      6          4.538536  -0.000000
      7          4.701917  -0.000000
      8          4.914568  -0.000000
 
  0.2941176E+00  0.1764706E+00  0.5882353E-01  0.9769998E-02
      1        -20.955166   1.000000
      2        -20.918644   1.000000
      3        -20.911189   1.000000
      4         -0.803186   1.000000
      5          3.537721  -0.000000
      6          4.376940  -0.000000
      7          4.768139  -0.000000
      8          4.997457  -0.000000
 
  0.3529412E+00  0.1764706E+00  0.5882353E-01  0.9769998E-02
      1        -20.973371   1.000000
      2        -20.923412   1.000000
      3        -20.914404   1.000000
      4         -0.378496   1.000000
      5          3.281323  -0.000000
      6          4.184951  -0.000000
      7          4.733330  -0.000000
      8          5.223771  -0.000000
 
  0.4117647E+00  0.1764706E+00  0.5882353E-01  0.9769998E-02
      1        -20.990482   1.000000
      2        -20.927438   1.000000
      3        -20.917816   1.000000
      4          0.115731   1.000000
      5          2.973159  -0.000000
      6          4.031068  -0.000000
      7          4.661910  -0.000000
      8          5.498582  -0.000000
 
  0.4705882E+00  0.1764706E+00  0.5882353E-01  0.9769998E-02
      1        -21.004093   1.000000
      2        -20.930748   1.000000
      3        -20.920556   1.000000
      4          0.653191   1.000000
      5          2.604407  -0.000785
      6          3.936098  -0.000000
      7          4.588612  -0.000000
      8          5.778939  -0.000000
 
 -0.4705882E+00  0.1764706E+00  0.5882353E-01  0.9769998E-02
      1        -21.012372   1.000000
      2        -20.933363   1.000000
      3        -20.921804   1.000000
      4          1.187287   1.000000
      5          2.187459   0.129629
      6          3.890096  -0.000000
      7          4.535758  -0.000000
      8          5.994548  -0.000000
 
 -0.4117647E+00  0.1764706E+00  0.5882353E-01  0.9769998E-02
      1        -21.014263   1.000000
      2        -20.935038   1.000000
      3        -20.921268   1.000000
      4          1.447721   1.000030
      5          1.965022   0.925192
      6          3.873097  -0.000000
      7          4.516725  -0.000000
      8          6.007208  -0.000000
 
 -0.3529412E+00  0.1764706E+00  0.5882353E-01  0.9769998E-02
      1        -21.009589   1.000000
      2        -20.935321   1.000000
      3        -20.919190   1.000000
      4          1.014312   1.000000
      5          2.347914  -0.034616
      6          3.880166  -0.000000
      7          4.537313  -0.000000
      8          5.833905  -0.000000
 
 -0.2941176E+00  0.1764706E+00  0.5882353E-01  0.9769998E-02
      1        -20.999072   1.000000
      2        -20.933845   1.000000
      3        -20.916052   1.000000
      4          0.472473   1.000000
      5          2.763477  -0.000010
      6          3.928445  -0.000000
      7          4.596514  -0.000000
      8          5.578766  -0.000000
 
 -0.2352941E+00  0.1764706E+00  0.5882353E-01  0.9769998E-02
      1        -20.984278   1.000000
      2        -20.930458   1.000000
      3        -20.912435   1.000000
      4         -0.054351   1.000000
      5          3.114137  -0.000000
      6          4.036750  -0.000000
      7          4.687168  -0.000000
      8          5.304884  -0.000000
 
 -0.1764706E+00  0.1764706E+00  0.5882353E-01  0.9769998E-02
      1        -20.967456   1.000000
      2        -20.925215   1.000000
      3        -20.908941   1.000000
      4         -0.528545   1.000000
      5          3.395368  -0.000000
      6          4.199213  -0.000000
      7          4.791829  -0.000000
      8          5.056091  -0.000000
 
 -0.1176471E+00  0.1764706E+00  0.5882353E-01  0.4884999E-02
      1        -20.951217   1.000000
      2        -20.918392   1.000000
      3        -20.906095   1.000000
      4         -0.926412   1.000000
      5          3.622931  -0.000000
      6          4.371690  -0.000000
      7          4.785759  -0.000000
      8          4.967828  -0.000000
 
  0.2941176E+00  0.2352941E+00  0.5882353E-01  0.4884999E-02
      1        -20.958111   1.000000
      2        -20.921524   1.000000
      3        -20.917204   1.000000
      4         -0.646953   1.000000
      5          3.453056  -0.000000
      6          4.309729  -0.000000
      7          4.919153  -0.000000
      8          4.929977  -0.000000
 
  0.3529412E+00  0.2352941E+00  0.5882353E-01  0.9769998E-02
      1        -20.972606   1.000000
      2        -20.927517   1.000000
      3        -20.920138   1.000000
      4         -0.261505   1.000000
      5          3.263395  -0.000000
      6          4.060624  -0.000000
      7          4.933126  -0.000000
      8          5.161572  -0.000000
 
  0.4117647E+00  0.2352941E+00  0.5882353E-01  0.9769998E-02
      1        -20.986673   1.000000
      2        -20.933096   1.000000
      3        -20.923390   1.000000
      4          0.197872   1.000000
      5          3.038327  -0.000000
      6          3.849019  -0.000000
      7          4.884272  -0.000000
      8          5.443473  -0.000000
 
  0.4705882E+00  0.2352941E+00  0.5882353E-01  0.9769998E-02
      1        -20.998081   1.000000
      2        -20.938499   1.000000
      3        -20.925861   1.000000
      4          0.709807   1.000000
      5          2.750232  -0.000014
      6          3.711786  -0.000000
      7          4.810927  -0.000000
      8          5.741257  -0.000000
 
 -0.4705882E+00  0.2352941E+00  0.5882353E-01  0.9769998E-02
      1        -21.005261   1.000000
      2        -20.943600   1.000000
      3        -20.926703   1.000000
      4          1.244096   1.000000
      5          2.389528  -0.027165
      6          3.641129  -0.000000
      7          4.741840  -0.000000
      8          5.972552  -0.000000
 
 -0.4117647E+00  0.2352941E+00  0.5882353E-01  0.9769998E-02
      1        -21.007391   1.000000
      2        -20.947648   1.000000
      3        -20.925738   1.000000
      4          1.718306   1.012753
      5          2.009287   0.804101
      6          3.600214  -0.000000
      7          4.697599  -0.000000
      8          5.986925  -0.000000
 
 -0.3529412E+00  0.2352941E+00  0.5882353E-01  0.9769998E-02
      1        -21.004507   1.000000
      2        -20.949628   1.000000
      3        -20.923248   1.000000
      4          1.414301   1.000010
      5          2.308942  -0.033006
      6          3.571487  -0.000000
      7          4.690344  -0.000000
      8          5.833152  -0.000000
 
 -0.2941176E+00  0.2352941E+00  0.5882353E-01  0.9769998E-02
      1        -20.997509   1.000000
      2        -20.948593   1.000000
      3        -20.919724   1.000000
      4          0.891387   1.000000
      5          2.727478  -0.000029
      6          3.584825  -0.000000
      7          4.721221  -0.000000
      8          5.590514  -0.000000
 
 -0.2352941E+00  0.2352941E+00  0.5882353E-01  0.9769998E-02
      1        -20.987984   1.000000
      2        -20.943888   1.000000
      3        -20.915756   1.000000
      4          0.368726   1.000000
      5          3.044658  -0.000000
      6          3.699831  -0.000000
      7          4.782940  -0.000000
      8          5.327137  -0.000000
 
 -0.1764706E+00  0.2352941E+00  0.5882353E-01  0.4884999E-02
      1        -20.977628   1.000000
      2        -20.935624   1.000000
      3        -20.911971   1.000000
      4         -0.113648   1.000000
      5          3.245830  -0.000000
      6          3.932462  -0.000000
      7          4.849641  -0.000000
      8          5.102104  -0.000000
 
  0.3529412E+00  0.2941176E+00  0.5882353E-01  0.4884999E-02
      1        -20.977447   1.000000
      2        -20.930097   1.000000
      3        -20.926279   1.000000
      4         -0.054272   1.000000
      5          3.173417  -0.000000
      6          3.926063  -0.000000
      7          5.147555  -0.000000
      8          5.203008  -0.000000
 
  0.4117647E+00  0.2941176E+00  0.5882353E-01  0.9769998E-02
      1        -20.988193   1.000000
      2        -20.936471   1.000000
      3        -20.929299   1.000000
      4          0.360182   1.000000
      5          3.021341  -0.000000
      6          3.693043  -0.000000
      7          5.155610  -0.000000
      8          5.449045  -0.000000
 
  0.4705882E+00  0.2941176E+00  0.5882353E-01  0.9769998E-02
      1        -20.996423   1.000000
      2        -20.943596   1.000000
      3        -20.931601   1.000000
      4          0.830660   1.000000
      5          2.834172  -0.000001
      6          3.509182  -0.000000
      7          5.090042  -0.000000
      8          5.743733  -0.000000
 
 -0.4705882E+00  0.2941176E+00  0.5882353E-01  0.9769998E-02
      1        -21.000719   1.000000
      2        -20.951495   1.000000
      3        -20.932210   1.000000
      4          1.333067   1.000001
      5          2.574960  -0.001521
      6          3.399847  -0.000000
      7          5.001749  -0.000000
      8          5.981087  -0.000000
 
 -0.4117647E+00  0.2941176E+00  0.5882353E-01  0.9769998E-02
      1        -21.000608   1.000000
      2        -20.959068   1.000000
      3        -20.930961   1.000000
      4          1.839459   1.035425
      5          2.235842   0.026187
      6          3.327416  -0.000000
      7          4.920524  -0.000000
      8          5.990549  -0.000000
 
 -0.3529412E+00  0.2941176E+00  0.5882353E-01  0.9769998E-02
      1        -20.996956   1.000000
      2        -20.964354   1.000000
      3        -20.928148   1.000000
      4          1.820494   1.033871
      5          2.323047  -0.035106
      6          3.251628  -0.000000
      7          4.869257  -0.000000
      8          5.862629  -0.000000
 
 -0.2941176E+00  0.2941176E+00  0.5882353E-01  0.9769998E-02
      1        -20.992561   1.000000
      2        -20.964196   1.000000
      3        -20.924255   1.000000
      4          1.344894   1.000001
      5          2.751067  -0.000014
      6          3.203693  -0.000000
      7          4.847938  -0.000000
      8          5.659792  -0.000000
 
 -0.2352941E+00  0.2941176E+00  0.5882353E-01  0.4884999E-02
      1        -20.990081   1.000000
      2        -20.956427   1.000000
      3        -20.919900   1.000000
      4          0.846532   1.000000
      5          2.987207  -0.000000
      6          3.352970  -0.000000
      7          4.831817  -0.000000
      8          5.455386  -0.000000
 
  0.4117647E+00  0.3529412E+00  0.5882353E-01  0.4884999E-02
      1        -20.994335   1.000000
      2        -20.937796   1.000000
      3        -20.934599   1.000000
      4          0.593564   1.000000
      5          2.943393  -0.000000
      6          3.553871  -0.000000
      7          5.433014  -0.000000
      8          5.546678  -0.000000
 
  0.4705882E+00  0.3529412E+00  0.5882353E-01  0.9769998E-02
      1        -21.000359   1.000000
      2        -20.944385   1.000000
      3        -20.936938   1.000000
      4          1.004924   1.000000
      5          2.834731  -0.000001
      6          3.356706  -0.000000
      7          5.408718  -0.000000
      8          5.796332  -0.000000
 
 -0.4705882E+00  0.3529412E+00  0.5882353E-01  0.9769998E-02
      1        -21.002232   1.000000
      2        -20.953122   1.000000
      3        -20.937523   1.000000
      4          1.446022   1.000028
      5          2.693047  -0.000080
      6          3.206276  -0.000000
      7          5.301773  -0.000000
      8          6.031286  -0.000000
 
 -0.4117647E+00  0.3529412E+00  0.5882353E-01  0.9769998E-02
      1        -20.999217   1.000000
      2        -20.963429   1.000000
      3        -20.936168   1.000000
      4          1.885327   1.026150
      5          2.492004  -0.007411
      6          3.098084  -0.000000
      7          5.167300  -0.000000
      8          6.048880  -0.000000
 
 -0.3529412E+00  0.3529412E+00  0.5882353E-01  0.9769998E-02
      1        -20.991485   1.000000
      2        -20.974047   1.000000
      3        -20.933153   1.000000
      4          2.111162   0.400070
      5          2.416337  -0.021005
      6          2.978901  -0.000000
      7          5.047256  -0.000000
      8          5.945129  -0.000000
 
 -0.2941176E+00  0.3529412E+00  0.5882353E-01  0.4884999E-02
      1        -20.985357   1.000000
      2        -20.978154   1.000000
      3        -20.928969   1.000000
      4          1.781244   1.026270
      5          2.770697  -0.000008
      6          2.872511  -0.000000
      7          4.952650  -0.000000
      8          5.793668  -0.000000
 
  0.4705882E+00  0.4117647E+00  0.5882353E-01  0.4884999E-02
      1        -21.006770   1.000000
      2        -20.943592   1.000000
      3        -20.940933   1.000000
      4          1.217205   1.000000
      5          2.781330  -0.000005
      6          3.236710  -0.000000
      7          5.718558  -0.000000
      8          5.921091  -0.000000
 
 -0.4705882E+00  0.4117647E+00  0.5882353E-01  0.9769998E-02
      1        -21.008030   1.000000
      2        -20.949916   1.000000
      3        -20.941888   1.000000
      4          1.564556   1.000685
      5          2.719632  -0.000037
      6          3.082898  -0.000000
      7          5.618600  -0.000000
      8          6.118772  -0.000000
 
 -0.4117647E+00  0.4117647E+00  0.5882353E-01  0.9769998E-02
      1        -21.004674   1.000000
      2        -20.958943   1.000000
      3        -20.940602   1.000000
      4          1.890445   1.023452
      5          2.644148  -0.000297
      6          2.962257  -0.000000
      7          5.430433  -0.000000
      8          6.153693  -0.000000
 
 -0.3529412E+00  0.4117647E+00  0.5882353E-01  0.4884999E-02
      1        -20.997373   1.000000
      2        -20.968933   1.000000
      3        -20.937523   1.000000
      4          2.119290   0.366783
      5          2.555425  -0.002294
      6          2.880860  -0.000000
      7          5.226735  -0.000000
      8          6.067802  -0.000000
 
 -0.4705882E+00  0.4705882E+00  0.5882353E-01  0.4884999E-02
      1        -21.013346   1.000000
      2        -20.946701   1.000000
      3        -20.944354   1.000000
      4          1.659158   1.004938
      5          2.697869  -0.000069
      6          3.014167  -0.000000
      7          5.892402  -0.000000
      8          6.223648  -0.000000
 
 -0.4117647E+00  0.4705882E+00  0.5882353E-01  0.4884999E-02
      1        -21.010645   1.000000
      2        -20.951911   1.000000
      3        -20.943594   1.000000
      4          1.818416   1.033584
      5          2.683846  -0.000103
      6          2.949450  -0.000000
      7          5.695198  -0.000000
      8          6.241123  -0.000000
 
  0.3529412E+00  0.2352941E+00  0.1176471E+00  0.4884999E-02
      1        -20.967600   1.000000
      2        -20.927126   1.000000
      3        -20.913436   1.000000
      4         -0.443117   1.000000
      5          3.366249  -0.000000
      6          4.141947  -0.000000
      7          4.927434  -0.000000
      8          4.990108  -0.000000
 
  0.4117647E+00  0.2352941E+00  0.1176471E+00  0.9769998E-02
      1        -20.980869   1.000000
      2        -20.934548   1.000000
      3        -20.916659   1.000000
      4         -0.002523   1.000000
      5          3.166122  -0.000000
      6          3.908297  -0.000000
      7          4.858212  -0.000000
      8          5.228668  -0.000000
 
  0.4705882E+00  0.2352941E+00  0.1176471E+00  0.9769998E-02
      1        -20.993156   1.000000
      2        -20.940122   1.000000
      3        -20.920230   1.000000
      4          0.498522   1.000000
      5          2.899117  -0.000000
      6          3.741972  -0.000000
      7          4.771433  -0.000000
      8          5.504521  -0.000000
 
 -0.4705882E+00  0.2352941E+00  0.1176471E+00  0.9769998E-02
      1        -21.002589   1.000000
      2        -20.943683   1.000000
      3        -20.923335   1.000000
      4          1.031031   1.000000
      5          2.543970  -0.002888
      6          3.664998  -0.000000
      7          4.698633  -0.000000
      8          5.767772  -0.000000
 
 -0.4117647E+00  0.2352941E+00  0.1176471E+00  0.9769998E-02
      1        -21.007694   1.000000
      2        -20.945368   1.000000
      3        -20.925153   1.000000
      4          1.544842   1.000425
      5          2.126639   0.337300
      6          3.645067  -0.000000
      7          4.656442  -0.000000
      8          5.934531  -0.000000
 
  0.4117647E+00  0.2941176E+00  0.1176471E+00  0.4884999E-02
      1        -20.982496   1.000000
      2        -20.936170   1.000000
      3        -20.922774   1.000000
      4          0.137868   1.000000
      5          3.124166  -0.000000
      6          3.802490  -0.000000
      7          5.036277  -0.000000
      8          5.256839  -0.000000
 
  0.4705882E+00  0.2941176E+00  0.1176471E+00  0.9769998E-02
      1        -20.991200   1.000000
      2        -20.943913   1.000000
      3        -20.926103   1.000000
      4          0.601739   1.000000
      5          2.960071  -0.000000
      6          3.575552  -0.000000
      7          4.989704  -0.000000
      8          5.493880  -0.000000
 
 -0.4705882E+00  0.2941176E+00  0.1176471E+00  0.9769998E-02
      1        -20.997530   1.000000
      2        -20.950399   1.000000
      3        -20.929045   1.000000
      4          1.105709   1.000000
      5          2.711622  -0.000047
      6          3.445009  -0.000000
      7          4.902611  -0.000000
      8          5.750859  -0.000000
 
 -0.4117647E+00  0.2941176E+00  0.1176471E+00  0.9769998E-02
      1        -21.000681   1.000000
      2        -20.955390   1.000000
      3        -20.930514   1.000000
      4          1.618211   1.002243
      5          2.363704  -0.032420
      6          3.398095  -0.000000
      7          4.822762  -0.000000
      8          5.904376  -0.000000
 
 -0.3529412E+00  0.2941176E+00  0.1176471E+00  0.9769998E-02
      1        -21.000495   1.000000
      2        -20.958289   1.000000
      3        -20.929969   1.000000
      4          1.930958   0.985301
      5          2.111828   0.397319
      6          3.371647  -0.000000
      7          4.785757  -0.000000
      8          5.902174  -0.000000
 
 -0.2941176E+00  0.2941176E+00  0.1176471E+00  0.9769998E-02
      1        -20.997583   1.000000
      2        -20.958047   1.000000
      3        -20.927586   1.000000
      4          1.449575   1.000031
      5          2.541693  -0.003020
      6          3.351003  -0.000000
      7          4.805567  -0.000000
      8          5.781906  -0.000000
 
 -0.2352941E+00  0.2941176E+00  0.1176471E+00  0.9769998E-02
      1        -20.992984   1.000000
      2        -20.953696   1.000000
      3        -20.924009   1.000000
      4          0.940311   1.000000
      5          2.875850  -0.000000
      6          3.402961  -0.000000
      7          4.857313  -0.000000
      8          5.560728  -0.000000
 
 -0.1764706E+00  0.2941176E+00  0.1176471E+00  0.4884999E-02
      1        -20.987403   1.000000
      2        -20.945358   1.000000
      3        -20.920087   1.000000
      4          0.445097   1.000000
      5          3.057447  -0.000000
      6          3.613539  -0.000000
      7          4.899057  -0.000000
      8          5.341126  -0.000000
 
  0.4705882E+00  0.3529412E+00  0.1176471E+00  0.4884999E-02
      1        -20.994461   1.000000
      2        -20.944280   1.000000
      3        -20.932303   1.000000
      4          0.774364   1.000000
      5          2.922813  -0.000000
      6          3.459494  -0.000000
      7          5.217185  -0.000000
      8          5.581020  -0.000000
 
 -0.4705882E+00  0.3529412E+00  0.1176471E+00  0.9769998E-02
      1        -20.997789   1.000000
      2        -20.952255   1.000000
      3        -20.935143   1.000000
      4          1.230091   1.000000
      5          2.798754  -0.000003
      6          3.270862  -0.000000
      7          5.133945  -0.000000
      8          5.804884  -0.000000
 
 -0.4117647E+00  0.3529412E+00  0.1176471E+00  0.9769998E-02
      1        -20.997499   1.000000
      2        -20.960633   1.000000
      3        -20.936361   1.000000
      4          1.697535   1.009390
      5          2.583264  -0.001268
      6          3.175408  -0.000000
      7          4.996210  -0.000000
      8          5.959734  -0.000000
 
 -0.3529412E+00  0.3529412E+00  0.1176471E+00  0.9769998E-02
      1        -20.993834   1.000000
      2        -20.968493   1.000000
      3        -20.935373   1.000000
      4          2.107931   0.413465
      5          2.316806  -0.034431
      6          3.112892  -0.000000
      7          4.886995  -0.000000
      8          5.960670  -0.000000
 
 -0.2941176E+00  0.3529412E+00  0.1176471E+00  0.9769998E-02
      1        -20.989693   1.000000
      2        -20.972206   1.000000
      3        -20.932476   1.000000
      4          1.854215   1.034877
      5          2.601503  -0.000839
      6          3.031322  -0.000000
      7          4.862224  -0.000000
      8          5.871209  -0.000000
 
 -0.2352941E+00  0.3529412E+00  0.1176471E+00  0.4884999E-02
      1        -20.990632   1.000000
      2        -20.965926   1.000000
      3        -20.928387   1.000000
      4          1.408181   1.000009
      5          2.880472  -0.000000
      6          3.063248  -0.000000
      7          4.878767  -0.000000
      8          5.703079  -0.000000
 
 -0.4705882E+00  0.4117647E+00  0.1176471E+00  0.4884999E-02
      1        -21.002646   1.000000
      2        -20.950387   1.000000
      3        -20.940120   1.000000
      4          1.390319   1.000005
      5          2.779824  -0.000006
      6          3.165740  -0.000000
      7          5.379941  -0.000000
      8          5.936273  -0.000000
 
 -0.4117647E+00  0.4117647E+00  0.1176471E+00  0.9769998E-02
      1        -21.000959   1.000000
      2        -20.958362   1.000000
      3        -20.941563   1.000000
      4          1.779129   1.025785
      5          2.703044  -0.000060
      6          3.021120  -0.000000
      7          5.192861  -0.000000
      8          6.093984  -0.000000
 
 -0.3529412E+00  0.4117647E+00  0.1176471E+00  0.9769998E-02
      1        -20.995108   1.000000
      2        -20.968369   1.000000
      3        -20.940361   1.000000
      4          2.112207   0.395758
      5          2.585812  -0.001199
      6          2.924003  -0.000000
      7          4.990474  -0.000000
      8          6.111440  -0.000000
 
 -0.2941176E+00  0.4117647E+00  0.1176471E+00  0.4884999E-02
      1        -20.985882   1.000000
      2        -20.978644   1.000000
      3        -20.937050   1.000000
      4          2.148436   0.254441
      5          2.625104  -0.000478
      6          2.837147  -0.000001
      7          4.888376  -0.000000
      8          6.019665  -0.000000
 
 -0.4117647E+00  0.4705882E+00  0.1176471E+00  0.4884999E-02
      1        -21.006742   1.000000
      2        -20.953661   1.000000
      3        -20.944544   1.000000
      4          1.833039   1.035141
      5          2.705841  -0.000055
      6          2.957024  -0.000000
      7          5.441809  -0.000000
      8          6.226008  -0.000000
 
 -0.3529412E+00  0.4705882E+00  0.1176471E+00  0.4884999E-02
      1        -21.001793   1.000000
      2        -20.960695   1.000000
      3        -20.943864   1.000000
      4          2.031264   0.727327
      5          2.685971  -0.000097
      6          2.886213  -0.000000
      7          5.181200  -0.000000
      8          6.235857  -0.000000
 
 -0.4705882E+00  0.3529412E+00  0.1764706E+00  0.4884999E-02
      1        -20.993527   1.000000
      2        -20.954105   1.000000
      3        -20.929819   1.000000
      4          1.056399   1.000000
      5          2.898846  -0.000000
      6          3.300905  -0.000000
      7          4.991950  -0.000000
      8          5.633561  -0.000000
 
 -0.4117647E+00  0.3529412E+00  0.1764706E+00  0.9769998E-02
      1        -20.993881   1.000000
      2        -20.962392   1.000000
      3        -20.933388   1.000000
      4          1.529978   1.000292
      5          2.735953  -0.000023
      6          3.148702  -0.000000
      7          4.903259  -0.000000
      8          5.827611  -0.000000
 
 -0.3529412E+00  0.3529412E+00  0.1764706E+00  0.9769998E-02
      1        -20.993319   1.000000
      2        -20.967294   1.000000
      3        -20.935578   1.000000
      4          1.977845   0.895101
      5          2.418525  -0.020509
      6          3.141153  -0.000000
      7          4.813790  -0.000000
      8          5.936500  -0.000000
 
 -0.4117647E+00  0.4117647E+00  0.1764706E+00  0.4884999E-02
      1        -20.996194   1.000000
      2        -20.960683   1.000000
      3        -20.938942   1.000000
      4          1.646724   1.003929
      5          2.785090  -0.000005
      6          3.046694  -0.000000
      7          5.012987  -0.000000
      8          5.958201  -0.000000
 
 -0.3529412E+00  0.4117647E+00  0.1764706E+00  0.9769998E-02
      1        -20.991781   1.000000
      2        -20.969108   1.000000
      3        -20.941194   1.000000
      4          2.031557   0.726238
      5          2.664538  -0.000174
      6          2.952321  -0.000000
      7          4.823107  -0.000000
      8          6.087315  -0.000000
 
 -0.2941176E+00  0.4117647E+00  0.1764706E+00  0.9769998E-02
      1        -20.985821   1.000000
      2        -20.976577   1.000000
      3        -20.940717   1.000000
      4          2.203044   0.089905
      5          2.584738  -0.001228
      6          2.912346  -0.000000
      7          4.734143  -0.000000
      8          6.092862  -0.000000
 
 -0.2352941E+00  0.4117647E+00  0.1764706E+00  0.4884999E-02
      1        -20.987971   1.000000
      2        -20.973073   1.000000
      3        -20.937736   1.000000
      4          1.930500   0.985921
      5          2.803554  -0.000003
      6          2.858019  -0.000000
      7          4.802780  -0.000000
      8          5.985310  -0.000000
 
 -0.3529412E+00  0.4705882E+00  0.1764706E+00  0.4884999E-02
      1        -20.996723   1.000000
      2        -20.964209   1.000000
      3        -20.944689   1.000000
      4          2.069514   0.575181
      5          2.725863  -0.000031
      6          2.879143  -0.000000
      7          4.935369  -0.000000
      8          6.228901  -0.000000
 
 -0.2941176E+00  0.4705882E+00  0.1764706E+00  0.4884999E-02
      1        -20.990022   1.000000
      2        -20.972074   1.000000
      3        -20.944319   1.000000
      4          2.237968   0.022961
      5          2.708572  -0.000051
      6          2.819089  -0.000001
      7          4.743899  -0.000000
      8          6.233562  -0.000000
 
 -0.2941176E+00  0.4705882E+00  0.2352941E+00  0.4884999E-02
      1        -20.984622   1.000000
      2        -20.976902   1.000000
      3        -20.944630   1.000000
      4          2.256691  -0.001040
      5          2.763348  -0.000010
      6          2.786155  -0.000005
      7          4.638435  -0.000000
      8          6.231501  -0.000000
