[1776255974.574716] [d01:784740:f]        vfs_fuse.c:281  UCX  ERROR inotify_add_watch(/tmp) failed: No space left on device
 running    1 mpi-ranks, with    1 threads/rank, on    1 nodes
 distrk:  each k-point on    1 cores,    1 groups
 distr:  one band on    1 cores,    1 groups
 OpenACC runtime initialized ...    1 GPUs detected
 vasp.6.4.2 20Jul23 (build Mar  2 2025 11:04:54) complex                         
 POSCAR found type information on POSCAR Fe
 POSCAR found :  1 types and       2 ions
 scaLAPACK will be used selectively (only on CPU)
 LDA part: xc-table for Pade appr. of Perdew
 -----------------------------------------------------------------------------
|                                                                             |
|           W    W    AA    RRRRR   N    N  II  N    N   GGGG   !!!           |
|           W    W   A  A   R    R  NN   N  II  NN   N  G    G  !!!           |
|           W    W  A    A  R    R  N N  N  II  N N  N  G       !!!           |
|           W WW W  AAAAAA  RRRRR   N  N N  II  N  N N  G  GGG   !            |
|           WW  WW  A    A  R   R   N   NN  II  N   NN  G    G                |
|           W    W  A    A  R    R  N    N  II  N    N   GGGG   !!!           |
|                                                                             |
|     The requested file  could not be found or opened for reading            |
|     k-point information. Automatic k-point generation is used as a          |
|     fallback, which may lead to unwanted results.                           |
|                                                                             |
 -----------------------------------------------------------------------------

 POSCAR, INCAR and KPOINTS ok, starting setup
 FFT: planning ... GRIDC
 FFT: planning ... GRID_SOFT
 FFT: planning ... GRID
 WAVECAR not read
 entering main loop
       N       E                     dE             d eps       ncg     rms          rms(c)
DAV:   1     0.768853477721E+02    0.76885E+02   -0.70581E+03  6920   0.135E+03
DAV:   2    -0.165121189587E+02   -0.93397E+02   -0.85390E+02  6738   0.252E+02
DAV:   3    -0.185539089888E+02   -0.20418E+01   -0.19640E+01  7572   0.547E+01
DAV:   4    -0.185663356726E+02   -0.12427E-01   -0.12424E-01  7338   0.375E+00
DAV:   5    -0.185664886451E+02   -0.15297E-03   -0.15297E-03  7734   0.394E-01    0.166E+01
DAV:   6    -0.165771147467E+02    0.19894E+01   -0.13700E+01  6888   0.734E+01    0.749E+00
DAV:   7    -0.164820399425E+02    0.95075E-01   -0.91245E-01  7308   0.184E+01    0.465E+00
DAV:   8    -0.164759729294E+02    0.60670E-02   -0.15584E-02  8186   0.122E+00    0.216E+00
DAV:   9    -0.164610768232E+02    0.14896E-01   -0.66720E-03  8334   0.846E-01    0.631E-01
DAV:  10    -0.164615666746E+02   -0.48985E-03   -0.35788E-03  8974   0.775E-01    0.323E-01
DAV:  11    -0.164619170253E+02   -0.35035E-03   -0.43845E-04  7786   0.270E-01    0.418E-02
DAV:  12    -0.164619224743E+02   -0.54490E-05   -0.14523E-05  8060   0.525E-02    0.244E-02
DAV:  13    -0.164619217037E+02    0.77064E-06   -0.27179E-06  6072   0.233E-02
   1 F= -.16461922E+02 E0= -.16462089E+02  d E =0.502052E-03  mag=     4.3134
Warning: ieee_invalid is signaling
Warning: ieee_divide_by_zero is signaling
Warning: ieee_underflow is signaling
Warning: ieee_inexact is signaling
FORTRAN STOP
