       N       E                     dE             d eps       ncg     rms          ort
SDA:   1    -0.151623195688E+02   -0.15162E+02   -0.11377E+00  1824   0.284E+00 0.000E+00
DMP:   2    -0.152370997880E+02   -0.74780E-01   -0.45750E-01  1824   0.815E-01 0.862E-01
DMP:   3    -0.152684520123E+02   -0.31352E-01   -0.23494E-01  1824   0.425E-01 0.425E-01
DMP:   4    -0.152832116355E+02   -0.14760E-01   -0.76492E-02  1824   0.131E-01 0.157E-01
DMP:   5    -0.152889508195E+02   -0.57392E-02   -0.46976E-02  1824   0.808E-02 0.958E-02
DMP:   6    -0.152924120077E+02   -0.34612E-02   -0.19505E-02  1824   0.277E-02 0.552E-02
DMP:   7    -0.152938789381E+02   -0.14669E-02   -0.94039E-03  1824   0.141E-02 0.245E-02
DMP:   8    -0.152945589419E+02   -0.68000E-03   -0.33459E-03  1824   0.428E-03 0.107E-02
DMP:   9    -0.152948114995E+02   -0.25256E-03   -0.15396E-03  1824   0.219E-03 0.434E-03
DMP:  10    -0.152949300331E+02   -0.11853E-03   -0.63421E-04  1824   0.799E-04 0.206E-03
DMP:  11    -0.152949797347E+02   -0.49702E-04   -0.29213E-04  1824   0.390E-04 0.890E-04
DMP:  12    -0.152950024092E+02   -0.22674E-04   -0.12369E-04  1824   0.149E-04 0.420E-04
DMP:  13    -0.152950116452E+02   -0.92361E-05   -0.49971E-05  1824   0.612E-05 0.167E-04
   1 F= -.15295012E+02 E0= -.15295012E+02  d E =-.109753E-14
