[1776669451.520264] [d01:761950:f]        vfs_fuse.c:281  UCX  ERROR inotify_add_watch(/tmp) failed: No space left on device
 running    1 mpi-ranks, with    2 threads/rank, on    1 nodes
 distrk:  each k-point on    1 cores,    1 groups
 distr:  one band on    1 cores,    1 groups
 OpenACC runtime initialized ...    1 GPUs detected
 vasp.6.4.2 20Jul23 (build Mar  2 2025 11:04:54) complex                         
 POSCAR found type information on POSCAR CdS 
 POSCAR found :  2 types and       4 ions
 scaLAPACK will be used selectively (only on CPU)
 LDA part: xc-table for Pade appr. of Perdew
 -----------------------------------------------------------------------------
|                                                                             |
|           W    W    AA    RRRRR   N    N  II  N    N   GGGG   !!!           |
|           W    W   A  A   R    R  NN   N  II  NN   N  G    G  !!!           |
|           W    W  A    A  R    R  N N  N  II  N N  N  G       !!!           |
|           W WW W  AAAAAA  RRRRR   N  N N  II  N  N N  G  GGG   !            |
|           WW  WW  A    A  R   R   N   NN  II  N   NN  G    G                |
|           W    W  A    A  R    R  N    N  II  N    N   GGGG   !!!           |
|                                                                             |
|     The requested file  could not be found or opened for reading            |
|     k-point information. Automatic k-point generation is used as a          |
|     fallback, which may lead to unwanted results.                           |
|                                                                             |
 -----------------------------------------------------------------------------

 POSCAR, INCAR and KPOINTS ok, starting setup
 FFT: planning ... GRIDC
 FFT: planning ... GRID_SOFT
 FFT: planning ... GRID
 WAVECAR not read
 entering main loop
       N       E                     dE             d eps       ncg     rms          rms(c)
DAV:   1     0.249503013908E+03    0.24950E+03   -0.17777E+04  3344   0.150E+03
DAV:   2     0.942818983124E+00   -0.24856E+03   -0.24282E+03  3692   0.358E+02
DAV:   3    -0.132164380028E+02   -0.14159E+02   -0.14113E+02  4034   0.850E+01
DAV:   4    -0.133781506894E+02   -0.16171E+00   -0.16158E+00  3872   0.913E+00
DAV:   5    -0.133810260392E+02   -0.28753E-02   -0.28752E-02  4108   0.118E+00    0.108E+01
DAV:   6    -0.123077501116E+02    0.10733E+01   -0.25919E+00  4348   0.166E+01    0.861E+00
DAV:   7    -0.122916499054E+02    0.16100E-01   -0.82387E-01  3932   0.530E+00    0.400E+00
DAV:   8    -0.122890102183E+02    0.26397E-02   -0.11785E-01  3874   0.368E+00    0.528E-01
DAV:   9    -0.122868483367E+02    0.21619E-02   -0.23361E-02  4208   0.197E+00    0.163E-01
DAV:  10    -0.122870239025E+02   -0.17557E-03   -0.17422E-03  3972   0.445E-01    0.114E-01
DAV:  11    -0.122871176938E+02   -0.93791E-04   -0.21359E-04  4034   0.109E-01    0.113E-01
DAV:  12    -0.122871743236E+02   -0.56630E-04   -0.19394E-04  3686   0.742E-02    0.290E-02
DAV:  13    -0.122871754365E+02   -0.11129E-05   -0.18293E-05  4082   0.324E-02    0.842E-03
DAV:  14    -0.122871762897E+02   -0.85324E-06   -0.20064E-06  3054   0.116E-02
   1 F= -.12287176E+02 E0= -.12287176E+02  d E =-.273368E-13
 writing wavefunctions
Warning: ieee_invalid is signaling
Warning: ieee_divide_by_zero is signaling
Warning: ieee_underflow is signaling
Warning: ieee_inexact is signaling
FORTRAN STOP
