<?xml version="1.0" encoding="ISO-8859-1"?>
<modeling>
 <generator>
  <i name="program" type="string">vasp </i>
  <i name="version" type="string">6.4.2  </i>
  <i name="subversion" type="string">20Jul23 (build Mar  2 2025 11:04:54) complex                          parallel </i>
  <i name="platform" type="string">LinuxNV </i>
  <i name="date" type="string">2026 05 09 </i>
  <i name="time" type="string">00:37:16 </i>
 </generator>
 <incar>
  <i type="string" name="SYSTEM">CO/Pt(111) adsorption geometry optimization</i>
  <i type="string" name="PREC">Normal</i>
  <i type="int" name="IBRION">     2</i>
  <i name="EDIFF">      0.00001000</i>
  <i name="EDIFFG">     -0.05000000</i>
  <i type="int" name="NSW">   200</i>
  <i type="int" name="ISIF">     2</i>
  <i name="ENCUT">    400.00000000</i>
  <i type="int" name="ISMEAR">     1</i>
  <i name="SIGMA">      0.10000000</i>
  <i name="KSPACING">      0.20000000</i>
  <i type="logical" name="KGAMMA"> T  </i>
  <i type="logical" name="LWAVE"> F  </i>
  <i type="logical" name="LCHARG"> F  </i>
 </incar>
 <primitive_cell>
  <structure name="primitive_cell" >
   <crystal>
    <varray name="basis" >
     <v>       5.54371716       0.00000000       0.00000000 </v>
     <v>       2.77185858       4.80099990       0.00000000 </v>
     <v>       0.00000000       0.00000000      36.78963917 </v>
    </varray>
    <i name="volume">    979.17042988 </i>
    <varray name="rec_basis" >
     <v>       0.18038438      -0.10414497       0.00000000 </v>
     <v>       0.00000000       0.20828994       0.00000000 </v>
     <v>       0.00000000       0.00000000       0.02718157 </v>
    </varray>
   </crystal>
   <varray name="positions" >
    <v>       0.00000000       0.00000000       0.40772349 </v>
    <v>       0.50000000       0.00000000       0.40772349 </v>
    <v>       1.00000000       0.50000000       0.40772349 </v>
    <v>       0.50000000       0.50000000       0.40772349 </v>
    <v>       0.16666667       0.16666667       0.46924116 </v>
    <v>       0.66666667       0.16666667       0.46924116 </v>
    <v>       0.16666667       0.66666667       0.46924116 </v>
    <v>       0.66666667       0.66666667       0.46924116 </v>
    <v>       0.83333333       0.33333333       0.53075884 </v>
    <v>       0.33333333       0.33333333       0.53075884 </v>
    <v>       0.83333333       0.83333333       0.53075884 </v>
    <v>       0.33333333       0.83333333       0.53075884 </v>
    <v>       0.00000000       0.00000000       0.59227651 </v>
    <v>       0.50000000       0.00000000       0.59227651 </v>
    <v>       1.00000000       0.50000000       0.59227651 </v>
    <v>       0.50000000       0.50000000       0.59227651 </v>
    <v>       0.31339371       0.16666667       0.66467225 </v>
    <v>       0.16666667       0.16666667       0.64256241 </v>
   </varray>
  </structure>
  <varray name="primitive_index" >
   <v type="int" >        1 </v>
   <v type="int" >        2 </v>
   <v type="int" >        3 </v>
   <v type="int" >        4 </v>
   <v type="int" >        5 </v>
   <v type="int" >        6 </v>
   <v type="int" >        7 </v>
   <v type="int" >        8 </v>
   <v type="int" >        9 </v>
   <v type="int" >       10 </v>
   <v type="int" >       11 </v>
   <v type="int" >       12 </v>
   <v type="int" >       13 </v>
   <v type="int" >       14 </v>
   <v type="int" >       15 </v>
   <v type="int" >       16 </v>
   <v type="int" >       17 </v>
   <v type="int" >       18 </v>
  </varray>
 </primitive_cell>
 <kpoints>
  <generation param="Gamma">
   <v type="int" name="divisions">       7        7        1 </v>
   <v name="usershift">      0.00000000       0.00000000       0.00000000 </v>
   <v name="genvec1">      0.14285714       0.00000000       0.00000000 </v>
   <v name="genvec2">      0.00000000       0.14285714       0.00000000 </v>
   <v name="genvec3">      0.00000000       0.00000000       1.00000000 </v>
   <v name="shift">      0.00000000       0.00000000       0.00000000 </v>
  </generation>
  <varray name="kpointlist" >
   <v>       0.00000000       0.00000000       0.00000000 </v>
   <v>       0.14285714       0.00000000       0.00000000 </v>
   <v>       0.14285714       0.14285714       0.00000000 </v>
   <v>       0.00000000       0.14285714       0.00000000 </v>
   <v>       0.28571429       0.00000000       0.00000000 </v>
   <v>       0.28571429       0.28571429       0.00000000 </v>
   <v>       0.00000000       0.28571429       0.00000000 </v>
   <v>       0.42857143       0.00000000       0.00000000 </v>
   <v>       0.42857143       0.42857143       0.00000000 </v>
   <v>       0.00000000       0.42857143       0.00000000 </v>
   <v>       0.28571429       0.14285714       0.00000000 </v>
   <v>       0.14285714       0.28571429       0.00000000 </v>
   <v>      -0.14285714       0.14285714       0.00000000 </v>
   <v>       0.42857143       0.14285714       0.00000000 </v>
   <v>       0.28571429       0.42857143       0.00000000 </v>
   <v>      -0.14285714       0.28571429       0.00000000 </v>
   <v>       0.28571429      -0.14285714       0.00000000 </v>
   <v>      -0.14285714      -0.42857143       0.00000000 </v>
   <v>      -0.42857143      -0.28571429       0.00000000 </v>
   <v>      -0.42857143       0.14285714       0.00000000 </v>
   <v>       0.42857143      -0.42857143       0.00000000 </v>
   <v>      -0.14285714       0.42857143       0.00000000 </v>
   <v>      -0.42857143       0.28571429       0.00000000 </v>
   <v>       0.28571429      -0.42857143       0.00000000 </v>
   <v>      -0.28571429       0.28571429       0.00000000 </v>
  </varray>
  <varray name="weights" >
   <v>       0.02040816 </v>
   <v>       0.04081633 </v>
   <v>       0.04081633 </v>
   <v>       0.04081633 </v>
   <v>       0.04081633 </v>
   <v>       0.04081633 </v>
   <v>       0.04081633 </v>
   <v>       0.04081633 </v>
   <v>       0.04081633 </v>
   <v>       0.04081633 </v>
   <v>       0.04081633 </v>
   <v>       0.04081633 </v>
   <v>       0.04081633 </v>
   <v>       0.04081633 </v>
   <v>       0.04081633 </v>
   <v>       0.04081633 </v>
   <v>       0.04081633 </v>
   <v>       0.04081633 </v>
   <v>       0.04081633 </v>
   <v>       0.04081633 </v>
   <v>       0.04081633 </v>
   <v>       0.04081633 </v>
   <v>       0.04081633 </v>
   <v>       0.04081633 </v>
   <v>       0.04081633 </v>
  </varray>
 </kpoints>
 <parameters>
  <separator name="general" >
   <i type="string" name="SYSTEM">CO/Pt(111) adsorption geometry optimizat</i>
   <i type="logical" name="LCOMPAT"> F  </i>
  </separator>
  <separator name="electronic" >
   <i type="string" name="PREC">normal</i>
   <i name="ENMAX">    400.00000000</i>
   <i name="ENAUG">    644.87300000</i>
   <i name="EDIFF">      0.00001000</i>
   <i type="int" name="IALGO">    38</i>
   <i type="int" name="IWAVPR">    11</i>
   <i type="int" name="NBANDS">   102</i>
   <i type="int" name="NBANDSLOW">    -1</i>
   <i type="int" name="NBANDSHIGH">    -1</i>
   <i name="NELECT">    170.00000000</i>
   <i type="int" name="TURBO">     0</i>
   <i type="int" name="IRESTART">     0</i>
   <i type="int" name="NREBOOT">     0</i>
   <i type="int" name="NMIN">     0</i>
   <i name="EREF">      0.00000000</i>
   <separator name="electronic smearing" >
    <i type="int" name="ISMEAR">     1</i>
    <i name="SIGMA">      0.10000000</i>
    <i name="KSPACING">      0.20000000</i>
    <i type="logical" name="KGAMMA"> T  </i>
    <i type="logical" name="KBLOWUP"> T  </i>
   </separator>
   <separator name="electronic projectors" >
    <i type="logical" name="LREAL"> F  </i>
    <v name="ROPT">      0.00000000      0.00000000      0.00000000</v>
    <i type="int" name="LMAXPAW">  -100</i>
    <i type="int" name="LMAXMIX">     2</i>
    <i type="logical" name="NLSPLINE"> F  </i>
   </separator>
   <separator name="electronic startup" >
    <i type="int" name="ISTART">     0</i>
    <i type="int" name="ICHARG">     2</i>
    <i type="int" name="INIWAV">     1</i>
   </separator>
   <separator name="electronic spin" >
    <i type="int" name="ISPIN">     1</i>
    <i type="logical" name="LNONCOLLINEAR"> F  </i>
    <v name="MAGMOM">      1.00000000      1.00000000      1.00000000      1.00000000      1.00000000      1.00000000      1.00000000      1.00000000      1.00000000      1.00000000      1.00000000      1.00000000      1.00000000      1.00000000      1.00000000      1.00000000      1.00000000      1.00000000</v>
    <i name="NUPDOWN">     -1.00000000</i>
    <i type="logical" name="LSORBIT"> F  </i>
    <v name="SAXIS">      0.00000000      0.00000000      1.00000000</v>
    <i type="logical" name="LSPIRAL"> F  </i>
    <v name="QSPIRAL">      0.00000000      0.00000000      0.00000000</v>
    <i type="logical" name="LZEROZ"> F  </i>
   </separator>
   <separator name="electronic exchange-correlation" >
    <i type="logical" name="LASPH"> F  </i>
    <i type="logical" name="LMETAGGA"> F  </i>
   </separator>
   <separator name="electronic convergence" >
    <i type="int" name="NELM">    60</i>
    <i type="int" name="NELMDL">    -5</i>
    <i type="int" name="NELMIN">     2</i>
    <i name="ENINI">    400.00000000</i>
    <separator name="electronic convergence detail" >
     <i type="logical" name="LDIAG"> T  </i>
     <i type="logical" name="LSUBROT"> F  </i>
     <i name="WEIMIN">      0.00100000</i>
     <i name="EBREAK">      0.00000002</i>
     <i name="DEPER">      0.30000000</i>
     <i type="int" name="NRMM">     4</i>
     <i name="TIME">      0.40000000</i>
    </separator>
   </separator>
   <separator name="electronic mixer" >
    <i name="AMIX">      0.40000000</i>
    <i name="BMIX">      1.00000000</i>
    <i name="AMIN">      0.10000000</i>
    <i name="AMIX_MAG">      1.60000000</i>
    <i name="BMIX_MAG">      1.00000000</i>
    <separator name="electronic mixer details" >
     <i type="int" name="IMIX">     4</i>
     <i type="logical" name="MIXFIRST"> F  </i>
     <i type="int" name="MAXMIX">   -45</i>
     <i name="WC">    100.00000000</i>
     <i type="int" name="INIMIX">     1</i>
     <i type="int" name="MIXPRE">     1</i>
     <i type="int" name="MREMOVE">     5</i>
    </separator>
   </separator>
   <separator name="electronic dipolcorrection" >
    <i type="logical" name="LDIPOL"> F  </i>
    <i type="logical" name="LMONO"> F  </i>
    <i type="int" name="IDIPOL">     0</i>
    <i name="EPSILON">      1.00000000</i>
    <v name="DIPOL">   -100.00000000   -100.00000000   -100.00000000</v>
    <i name="EFIELD">      0.00000000</i>
   </separator>
  </separator>
  <separator name="grids" >
   <i type="int" name="NGX">    28</i>
   <i type="int" name="NGY">    28</i>
   <i type="int" name="NGZ">   180</i>
   <i type="int" name="NGXF">    56</i>
   <i type="int" name="NGYF">    56</i>
   <i type="int" name="NGZF">   360</i>
   <i type="logical" name="ADDGRID"> F  </i>
  </separator>
  <separator name="ionic" >
   <i type="int" name="NSW">   200</i>
   <i type="int" name="IBRION">     2</i>
   <i type="int" name="MDALGO">     0</i>
   <i type="int" name="ISIF">     2</i>
   <i name="PSTRESS">      0.00000000</i>
   <i name="EDIFFG">     -0.05000000</i>
   <i type="int" name="NFREE">     1</i>
   <i name="POTIM">      0.50000000</i>
   <i name="SMASS">     -3.00000000</i>
   <i name="SCALEE">      1.00000000</i>
  </separator>
  <separator name="ionic md" >
   <i name="TEBEG">      0.00010000</i>
   <i name="TEEND">      0.00010000</i>
   <i type="int" name="NBLOCK">     1</i>
   <i type="int" name="KBLOCK">   200</i>
   <i type="int" name="NPACO">   256</i>
   <i name="APACO">     10.00000000</i>
  </separator>
  <separator name="symmetry" >
   <i type="int" name="ISYM">     2</i>
   <i name="SYMPREC">      0.00001000</i>
  </separator>
  <separator name="dos" >
   <i type="int" name="LORBIT">     0</i>
   <v name="RWIGS">     -1.00000000     -1.00000000     -1.00000000</v>
   <i type="int" name="NEDOS">   301</i>
   <i name="EMIN">     10.00000000</i>
   <i name="EMAX">    -10.00000000</i>
   <i name="EFERMI">      0.00000000</i>
  </separator>
  <separator name="writing" >
   <i type="int" name="NWRITE">     2</i>
   <i type="logical" name="LWAVE"> F  </i>
   <i type="logical" name="LDOWNSAMPLE"> F  </i>
   <i type="logical" name="LCHARG"> F  </i>
   <i type="logical" name="LPARD"> F  </i>
   <i type="logical" name="LVTOT"> F  </i>
   <i type="logical" name="LVHAR"> F  </i>
   <i type="logical" name="LELF"> F  </i>
   <i type="logical" name="LOPTICS"> F  </i>
   <v name="STM">      0.00000000      0.00000000      0.00000000      0.00000000      0.00000000      0.00000000      0.00000000</v>
  </separator>
  <separator name="performance" >
   <i type="int" name="NPAR">     1</i>
   <i type="int" name="NSIM">     4</i>
   <i type="int" name="NBLK">    -1</i>
   <i type="logical" name="LPLANE"> T  </i>
   <i type="logical" name="LSCALAPACK"> T  </i>
   <i type="logical" name="LSCAAWARE"> F  </i>
   <i type="logical" name="LSCALU"> F  </i>
   <i type="logical" name="LASYNC"> F  </i>
   <i type="logical" name="LORBITALREAL"> F  </i>
  </separator>
  <separator name="miscellaneous" >
   <i type="int" name="IDIOT">     3</i>
   <i type="int" name="PHON_NSTRUCT">    -1</i>
   <i type="logical" name="LMUSIC"> F  </i>
   <v name="POMASS">    195.08000000     16.00000000     12.01100000</v>
   <v name="DARWINR">      0.00000000      0.00000000      0.00000000</v>
   <v name="DARWINV">      1.00000000      1.00000000      1.00000000</v>
   <i type="logical" name="LCORR"> T  </i>
  </separator>
  <i type="logical" name="GGA_COMPAT"> T  </i>
  <i type="logical" name="LBERRY"> F  </i>
  <i type="int" name="ICORELEVEL">     0</i>
  <i type="logical" name="LDAU"> F  </i>
  <i type="int" name="I_CONSTRAINED_M">     0</i>
  <separator name="electronic exchange-correlation" >
   <i type="string" name="GGA">--</i>
   <i type="int" name="VOSKOWN">     0</i>
   <i type="logical" name="LHFCALC"> F  </i>
   <i type="string" name="PRECFOCK"></i>
   <i type="logical" name="LSYMGRAD"> F  </i>
   <i type="logical" name="LHFONE"> F  </i>
   <i type="logical" name="LRHFCALC"> F  </i>
   <i type="logical" name="LTHOMAS"> F  </i>
   <i type="logical" name="LMODELHF"> F  </i>
   <i type="logical" name="LFOCKACE"> F  </i>
   <i name="ENCUT4O">     -1.00000000</i>
   <i type="int" name="EXXOEP">     0</i>
   <i type="int" name="FOURORBIT">     0</i>
   <i name="AEXX">      0.00000000</i>
   <i name="HFALPHA">      0.00000000</i>
   <i name="MCALPHA">      0.00000000</i>
   <i name="ALDAX">      1.00000000</i>
   <i name="AGGAX">      1.00000000</i>
   <i name="ALDAC">      1.00000000</i>
   <i name="AGGAC">      1.00000000</i>
   <i type="int" name="NKREDX">     1</i>
   <i type="int" name="NKREDY">     1</i>
   <i type="int" name="NKREDZ">     1</i>
   <i type="logical" name="SHIFTRED"> F  </i>
   <i type="logical" name="ODDONLY"> F  </i>
   <i type="logical" name="EVENONLY"> F  </i>
   <i type="int" name="LMAXFOCK">     0</i>
   <i type="int" name="NMAXFOCKAE">     0</i>
   <i type="logical" name="LFOCKAEDFT"> F  </i>
   <i name="HFSCREEN">      0.00000000</i>
   <i name="HFSCREENC">      0.00000000</i>
   <i type="int" name="NBANDSGWLOW">     0</i>
  </separator>
  <separator name="vdW DFT" >
   <i type="logical" name="LUSE_VDW"> F  </i>
   <i type="int" name="IVDW_NL">     1</i>
   <i type="logical" name="LSPIN_VDW"> F  </i>
   <i name="Zab_VDW">     -0.84910000</i>
   <i name="PARAM1">      0.12340000</i>
   <i name="PARAM2">      1.00000000</i>
   <i name="PARAM3">      0.00000000</i>
  </separator>
  <separator name="model GW" >
   <i type="int" name="MODEL_GW">     0</i>
   <i name="MODEL_EPS0">     32.63901433</i>
   <i name="MODEL_ALPHA">      1.00000000</i>
  </separator>
  <separator name="linear response parameters" >
   <i type="logical" name="LEPSILON"> F  </i>
   <i type="logical" name="LRPA"> F  </i>
   <i type="logical" name="LNABLA"> F  </i>
   <i type="logical" name="LVEL"> F  </i>
   <i name="CSHIFT">      0.10000000</i>
   <i name="OMEGAMAX">     -1.00000000</i>
   <i name="DEG_THRESHOLD">      0.00200000</i>
   <i name="RTIME">     -0.10000000</i>
   <i name="WPLASMAI">      0.00000000</i>
   <v name="DFIELD">      0.00000000      0.00000000      0.00000000</v>
   <v name="WPLASMA">      0.00000000      0.00000000      0.00000000      0.00000000      0.00000000      0.00000000      0.00000000      0.00000000      0.00000000</v>
  </separator>
  <separator name="orbital magnetization" >
   <i type="logical" name="NUCIND"> F  </i>
   <v name="MAGPOS">      0.00000000      0.00000000      0.00000000</v>
   <i type="logical" name="LNICSALL"> T  </i>
   <i type="logical" name="ORBITALMAG"> F  </i>
   <i type="logical" name="LMAGBLOCH"> F  </i>
   <i type="logical" name="LCHIMAG"> F  </i>
   <i type="logical" name="LGAUGE"> T  </i>
   <i type="int" name="MAGATOM">     0</i>
   <v name="MAGDIPOL">      0.00000000      0.00000000      0.00000000</v>
   <v name="AVECCONST">      0.00000000      0.00000000      0.00000000</v>
  </separator>
  <separator name="response functions" >
   <i type="logical" name="LALL_IN_ONE"> F  </i>
   <i type="int" name="IALL_IN_ONE">    -1</i>
   <i type="int" name="NBANDS_WAVE">    -1</i>
   <i type="logical" name="LFINITE_TEMPERATURE"> F  </i>
   <i type="logical" name="LADDER"> F  </i>
   <i type="logical" name="LRPAFORCE"> F  </i>
   <i type="logical" name="LFXC"> F  </i>
   <i type="logical" name="LHARTREE"> T  </i>
   <i type="int" name="IBSE">     0</i>
   <v type="int" name="KPOINT">    -1     0     0     0</v>
   <i type="logical" name="LTCTC"> F  </i>
   <i type="logical" name="LTCTE"> F  </i>
   <i type="logical" name="LTETE"> F  </i>
   <i type="logical" name="LTRIPLET"> F  </i>
   <i type="logical" name="LFXCEPS"> F  </i>
   <i type="logical" name="LFXHEG"> F  </i>
   <i type="int" name="NATURALO">     2</i>
   <i type="logical" name="LHOLEGF"> F  </i>
   <i type="logical" name="L2ORDER"> F  </i>
   <i type="logical" name="LDMP1"> F  </i>
   <i type="logical" name="LMP2LT"> F  </i>
   <i type="logical" name="LSMP2LT"> F  </i>
   <i type="logical" name="LGWLF"> F  </i>
   <i name="ENCUTGW">     -1.60000002</i>
   <i name="ENCUTGWSOFT">     -1.60000002</i>
   <i name="ENCUTLF">     -1.00000000</i>
   <i type="logical" name="LESF_SPLINES"> F  </i>
   <i type="int" name="LMAXMP2">    -1</i>
   <i name="SCISSOR">      0.00000000</i>
   <i type="int" name="NOMEGA">     0</i>
   <i type="int" name="NOMEGAR">     0</i>
   <i type="int" name="NBANDSGW">    -1</i>
   <i type="int" name="NBANDSO">    -1</i>
   <i type="int" name="NBANDSV">    -1</i>
   <i type="int" name="NELMGW">     1</i>
   <i type="int" name="NELMHF">     1</i>
   <i type="int" name="DIM">     3</i>
   <i type="int" name="IESPILON">     4</i>
   <i type="int" name="ANTIRES">     0</i>
   <i name="OMEGAMAX">    -30.00000000</i>
   <i name="OMEGAMIN">    -30.00000000</i>
   <i name="OMEGATL">   -200.00000000</i>
   <i type="int" name="OMEGAGRID">     0</i>
   <i name="CSHIFT">     -0.10000000</i>
   <i type="logical" name="LSELFENERGY"> F  </i>
   <i type="logical" name="LSPECTRAL"> F  </i>
   <i type="logical" name="LSPECTRALGW"> F  </i>
   <i type="logical" name="LSINGLES"> F  </i>
   <i type="logical" name="LFERMIGW"> F  </i>
   <i type="logical" name="ODDONLYGW"> F  </i>
   <i type="logical" name="EVENONLYGW"> F  </i>
   <i type="int" name="NKREDLFX">     1</i>
   <i type="int" name="NKREDLFY">     1</i>
   <i type="int" name="NKREDLFZ">     1</i>
   <i type="int" name="MAXMEM">  2800</i>
   <i type="int" name="TELESCOPE">     0</i>
   <i type="int" name="NTAUPAR">    -1</i>
   <i type="int" name="NOMEGAPAR">    -1</i>
   <i name="DAMP_NEWTON">      0.80000001</i>
   <i name="LAMBDA">      1.00000000</i>
  </separator>
  <separator name="External order field" >
   <i name="OFIELD_KAPPA">      0.00000000</i>
   <v name="OFIELD_K">      0.00000000      0.00000000      0.00000000</v>
   <i name="OFIELD_Q6_NEAR">      0.00000000</i>
   <i name="OFIELD_Q6_FAR">      0.00000000</i>
   <i name="OFIELD_A">      0.00000000</i>
  </separator>
  <separator name="optional k-points parameters" >
   <i type="int" name="KPOINTS_OPT_MODE">     1</i>
   <i type="logical" name="LKPOINTS_OPT"> F  </i>
  </separator>
 </parameters>
 <atominfo>
  <atoms>      18 </atoms>
  <types>       3 </types>
  <array name="atoms" >
   <dimension dim="1">ion</dimension>
   <field type="string">element</field>
   <field type="int">atomtype</field>
   <set>
    <rc><c>Pt</c><c>   1</c></rc>
    <rc><c>Pt</c><c>   1</c></rc>
    <rc><c>Pt</c><c>   1</c></rc>
    <rc><c>Pt</c><c>   1</c></rc>
    <rc><c>Pt</c><c>   1</c></rc>
    <rc><c>Pt</c><c>   1</c></rc>
    <rc><c>Pt</c><c>   1</c></rc>
    <rc><c>Pt</c><c>   1</c></rc>
    <rc><c>Pt</c><c>   1</c></rc>
    <rc><c>Pt</c><c>   1</c></rc>
    <rc><c>Pt</c><c>   1</c></rc>
    <rc><c>Pt</c><c>   1</c></rc>
    <rc><c>Pt</c><c>   1</c></rc>
    <rc><c>Pt</c><c>   1</c></rc>
    <rc><c>Pt</c><c>   1</c></rc>
    <rc><c>Pt</c><c>   1</c></rc>
    <rc><c>O </c><c>   2</c></rc>
    <rc><c>C </c><c>   3</c></rc>
   </set>
  </array>
  <array name="atomtypes" >
   <dimension dim="1">type</dimension>
   <field type="int">atomspertype</field>
   <field type="string">element</field>
   <field>mass</field>
   <field>valence</field>
   <field type="string">pseudopotential</field>
   <set>
    <rc><c>  16</c><c>Pt</c><c>    195.08000000</c><c>     10.00000000</c><c>  PAW_PBE Pt 04Feb2005                  </c></rc>
    <rc><c>   1</c><c>O </c><c>     16.00000000</c><c>      6.00000000</c><c>  PAW_PBE O 08Apr2002                   </c></rc>
    <rc><c>   1</c><c>C </c><c>     12.01100000</c><c>      4.00000000</c><c>  PAW_PBE C 08Apr2002                   </c></rc>
   </set>
  </array>
 </atominfo>
 <structure name="initialpos" >
  <crystal>
   <varray name="basis" >
    <v>       5.54371716       0.00000000       0.00000000 </v>
    <v>       2.77185858       4.80099990       0.00000000 </v>
    <v>       0.00000000       0.00000000      36.78963917 </v>
   </varray>
   <i name="volume">    979.17042988 </i>
   <varray name="rec_basis" >
    <v>       0.18038438      -0.10414497       0.00000000 </v>
    <v>       0.00000000       0.20828994       0.00000000 </v>
    <v>       0.00000000       0.00000000       0.02718157 </v>
   </varray>
  </crystal>
  <varray name="positions" >
   <v>       0.00000000       0.00000000       0.40772349 </v>
   <v>       0.50000000       0.00000000       0.40772349 </v>
   <v>       0.00000000       0.50000000       0.40772349 </v>
   <v>       0.50000000       0.50000000       0.40772349 </v>
   <v>       0.16666667       0.16666667       0.46924116 </v>
   <v>       0.66666667       0.16666667       0.46924116 </v>
   <v>       0.16666667       0.66666667       0.46924116 </v>
   <v>       0.66666667       0.66666667       0.46924116 </v>
   <v>       0.83333333       0.33333333       0.53075884 </v>
   <v>       0.33333333       0.33333333       0.53075884 </v>
   <v>       0.83333333       0.83333333       0.53075884 </v>
   <v>       0.33333333       0.83333333       0.53075884 </v>
   <v>       0.00000000       0.00000000       0.59227651 </v>
   <v>       0.50000000       0.00000000       0.59227651 </v>
   <v>       0.00000000       0.50000000       0.59227651 </v>
   <v>       0.50000000       0.50000000       0.59227651 </v>
   <v>       0.31339371       0.16666667       0.66467225 </v>
   <v>       0.16666667       0.16666667       0.64256241 </v>
  </varray>
  <varray name="selective"  type="logical" >
   <v type="logical" >  F  F  F </v>
   <v type="logical" >  F  F  F </v>
   <v type="logical" >  F  F  F </v>
   <v type="logical" >  F  F  F </v>
   <v type="logical" >  F  F  F </v>
   <v type="logical" >  F  F  F </v>
   <v type="logical" >  F  F  F </v>
   <v type="logical" >  F  F  F </v>
   <v type="logical" >  T  T  T </v>
   <v type="logical" >  T  T  T </v>
   <v type="logical" >  T  T  T </v>
   <v type="logical" >  T  T  T </v>
   <v type="logical" >  T  T  T </v>
   <v type="logical" >  T  T  T </v>
   <v type="logical" >  T  T  T </v>
   <v type="logical" >  T  T  T </v>
   <v type="logical" >  T  T  T </v>
   <v type="logical" >  T  T  T </v>
  </varray>
  <nose>
   <v>      -3.00000000       0.00000000       0.00010000       0.00010000 </v>
  </nose>
 </structure>
 <calculation>
  <scstep>
   <time name="dav">    7.61    7.61</time>
   <time name="total">    7.69    7.69</time>
   <energy>
    <i name="alphaZ">    271.64501344 </i>
    <i name="ewald"> 150074.47955128 </i>
    <i name="hartreedc">-162486.06469385 </i>
    <i name="XCdc">     96.41687944 </i>
    <i name="pawpsdc">  11593.04809012 </i>
    <i name="pawaedc"> -11142.88431945 </i>
    <i name="eentropy">      0.00534922 </i>
    <i name="bandstr">    510.40581645 </i>
    <i name="atom">  12245.18164884 </i>
    <i name="e_fr_energy">   1162.23333549 </i>
    <i name="e_wo_entrp">   1162.22798628 </i>
    <i name="e_0_energy">   1162.23155242 </i>
   </energy>
  </scstep>
  <scstep>
   <time name="dav">    9.19    9.19</time>
   <time name="total">    9.19    9.20</time>
   <energy>
    <i name="e_fr_energy">     -6.60969878 </i>
    <i name="e_wo_entrp">     -6.61333545 </i>
    <i name="e_0_energy">     -6.61091101 </i>
   </energy>
  </scstep>
  <scstep>
   <time name="dav">    8.30    8.30</time>
   <time name="total">    8.30    8.31</time>
   <energy>
    <i name="e_fr_energy">   -111.10847772 </i>
    <i name="e_wo_entrp">   -111.09932389 </i>
    <i name="e_0_energy">   -111.10542644 </i>
   </energy>
  </scstep>
  <scstep>
   <time name="dav">    9.20    9.21</time>
   <time name="total">    9.21    9.21</time>
   <energy>
    <i name="e_fr_energy">   -115.40911310 </i>
    <i name="e_wo_entrp">   -115.39754007 </i>
    <i name="e_0_energy">   -115.40525543 </i>
   </energy>
  </scstep>
  <scstep>
   <time name="dav">    8.96    9.01</time>
   <time name="total">    9.53    9.60</time>
   <energy>
    <i name="e_fr_energy">   -115.53266253 </i>
    <i name="e_wo_entrp">   -115.52068470 </i>
    <i name="e_0_energy">   -115.52866992 </i>
   </energy>
  </scstep>
  <scstep>
   <time name="dav">    8.64    8.72</time>
   <time name="total">    9.26    9.35</time>
   <energy>
    <i name="e_fr_energy">   -112.47677573 </i>
    <i name="e_wo_entrp">   -112.48503834 </i>
    <i name="e_0_energy">   -112.47952993 </i>
   </energy>
  </scstep>
  <scstep>
   <time name="dav">    9.51    9.57</time>
   <time name="total">   10.15   10.20</time>
   <energy>
    <i name="e_fr_energy">   -139.68414243 </i>
    <i name="e_wo_entrp">   -139.68355920 </i>
    <i name="e_0_energy">   -139.68394802 </i>
   </energy>
  </scstep>
  <scstep>
   <time name="dav">    9.71    9.90</time>
   <time name="total">   10.31   10.51</time>
   <energy>
    <i name="e_fr_energy">   -139.83993464 </i>
    <i name="e_wo_entrp">   -139.84659286 </i>
    <i name="e_0_energy">   -139.84215405 </i>
   </energy>
  </scstep>
  <scstep>
   <time name="dav">    9.54    9.60</time>
   <time name="total">   10.15   10.18</time>
   <energy>
    <i name="e_fr_energy">   -114.97018978 </i>
    <i name="e_wo_entrp">   -114.96522545 </i>
    <i name="e_0_energy">   -114.96853500 </i>
   </energy>
  </scstep>
  <scstep>
   <time name="dav">    8.53    8.54</time>
   <time name="total">    9.15    9.15</time>
   <energy>
    <i name="e_fr_energy">   -117.53654787 </i>
    <i name="e_wo_entrp">   -117.53439935 </i>
    <i name="e_0_energy">   -117.53583169 </i>
   </energy>
  </scstep>
  <scstep>
   <time name="dav">    8.17    8.22</time>
   <time name="total">    8.82    8.86</time>
   <energy>
    <i name="e_fr_energy">   -109.88849341 </i>
    <i name="e_wo_entrp">   -109.89249308 </i>
    <i name="e_0_energy">   -109.88982663 </i>
   </energy>
  </scstep>
  <scstep>
   <time name="dav">    8.18    8.29</time>
   <time name="total">    8.80    8.91</time>
   <energy>
    <i name="e_fr_energy">   -108.05106518 </i>
    <i name="e_wo_entrp">   -108.05888741 </i>
    <i name="e_0_energy">   -108.05367259 </i>
   </energy>
  </scstep>
  <scstep>
   <time name="dav">    8.12    8.19</time>
   <time name="total">    8.73    8.82</time>
   <energy>
    <i name="e_fr_energy">   -107.95155209 </i>
    <i name="e_wo_entrp">   -107.95459236 </i>
    <i name="e_0_energy">   -107.95256551 </i>
   </energy>
  </scstep>
  <scstep>
   <time name="dav">    8.02    8.10</time>
   <time name="total">    8.60    8.66</time>
   <energy>
    <i name="e_fr_energy">   -107.92058048 </i>
    <i name="e_wo_entrp">   -107.92326224 </i>
    <i name="e_0_energy">   -107.92147440 </i>
   </energy>
  </scstep>
  <scstep>
   <time name="dav">    8.14    8.30</time>
   <time name="total">    8.76    8.91</time>
   <energy>
    <i name="e_fr_energy">   -107.89235533 </i>
    <i name="e_wo_entrp">   -107.89468011 </i>
    <i name="e_0_energy">   -107.89313026 </i>
   </energy>
  </scstep>
  <scstep>
   <time name="dav">    8.08    8.14</time>
   <time name="total">    8.72    8.76</time>
   <energy>
    <i name="e_fr_energy">   -107.88388204 </i>
    <i name="e_wo_entrp">   -107.88898478 </i>
    <i name="e_0_energy">   -107.88558295 </i>
   </energy>
  </scstep>
  <scstep>
   <time name="dav">    8.10    8.10</time>
   <time name="total">    8.71    8.70</time>
   <energy>
    <i name="e_fr_energy">   -107.86348794 </i>
    <i name="e_wo_entrp">   -107.86650099 </i>
    <i name="e_0_energy">   -107.86449229 </i>
   </energy>
  </scstep>
  <scstep>
   <time name="dav">    8.33    8.34</time>
   <time name="total">    8.96    8.94</time>
   <energy>
    <i name="e_fr_energy">   -107.86038002 </i>
    <i name="e_wo_entrp">   -107.86314088 </i>
    <i name="e_0_energy">   -107.86130031 </i>
   </energy>
  </scstep>
  <scstep>
   <time name="dav">    8.45    8.52</time>
   <time name="total">    9.07    9.12</time>
   <energy>
    <i name="e_fr_energy">   -107.85918398 </i>
    <i name="e_wo_entrp">   -107.86204293 </i>
    <i name="e_0_energy">   -107.86013696 </i>
   </energy>
  </scstep>
  <scstep>
   <time name="dav">    8.30    8.37</time>
   <time name="total">    8.91    8.96</time>
   <energy>
    <i name="e_fr_energy">   -107.85779243 </i>
    <i name="e_wo_entrp">   -107.86080068 </i>
    <i name="e_0_energy">   -107.85879518 </i>
   </energy>
  </scstep>
  <scstep>
   <time name="dav">    8.28    8.37</time>
   <time name="total">    8.90    8.97</time>
   <energy>
    <i name="e_fr_energy">   -107.85392828 </i>
    <i name="e_wo_entrp">   -107.85712156 </i>
    <i name="e_0_energy">   -107.85499271 </i>
   </energy>
  </scstep>
  <scstep>
   <time name="dav">    9.42    9.54</time>
   <time name="total">   10.09   10.21</time>
   <energy>
    <i name="e_fr_energy">   -107.85444574 </i>
    <i name="e_wo_entrp">   -107.85661684 </i>
    <i name="e_0_energy">   -107.85516944 </i>
   </energy>
  </scstep>
  <scstep>
   <time name="dav">    8.00    8.27</time>
   <time name="total">    8.63    8.91</time>
   <energy>
    <i name="e_fr_energy">   -107.85325914 </i>
    <i name="e_wo_entrp">   -107.85550766 </i>
    <i name="e_0_energy">   -107.85400865 </i>
   </energy>
  </scstep>
  <scstep>
   <time name="dav">    8.58    8.62</time>
   <time name="total">    9.23    9.27</time>
   <energy>
    <i name="e_fr_energy">   -107.85270748 </i>
    <i name="e_wo_entrp">   -107.85501683 </i>
    <i name="e_0_energy">   -107.85347726 </i>
   </energy>
  </scstep>
  <scstep>
   <time name="dav">    8.11    8.19</time>
   <time name="total">    8.75    8.83</time>
   <energy>
    <i name="e_fr_energy">   -107.85258842 </i>
    <i name="e_wo_entrp">   -107.85483767 </i>
    <i name="e_0_energy">   -107.85333817 </i>
   </energy>
  </scstep>
  <scstep>
   <time name="dav">    8.15    8.21</time>
   <time name="total">    8.80    8.85</time>
   <energy>
    <i name="e_fr_energy">   -107.85226471 </i>
    <i name="e_wo_entrp">   -107.85452072 </i>
    <i name="e_0_energy">   -107.85301671 </i>
   </energy>
  </scstep>
  <scstep>
   <time name="dav">    8.41    8.47</time>
   <time name="total">    9.04    9.11</time>
   <energy>
    <i name="e_fr_energy">   -107.85221229 </i>
    <i name="e_wo_entrp">   -107.85449208 </i>
    <i name="e_0_energy">   -107.85297222 </i>
   </energy>
  </scstep>
  <scstep>
   <time name="dav">    6.26    6.32</time>
   <time name="total">    6.88    6.92</time>
   <energy>
    <i name="e_fr_energy">   -107.85226072 </i>
    <i name="e_wo_entrp">   -107.85454255 </i>
    <i name="e_0_energy">   -107.85302133 </i>
   </energy>
  </scstep>
  <scstep>
   <time name="dav">    5.56    5.69</time>
   <time name="total">    6.24    6.42</time>
   <energy>
    <i name="e_fr_energy">   -107.85231428 </i>
    <i name="e_wo_entrp">   -107.85460412 </i>
    <i name="e_0_energy">   -107.85307756 </i>
   </energy>
  </scstep>
  <scstep>
   <time name="dav">    5.38    5.43</time>
   <time name="total">    6.04    6.12</time>
   <energy>
    <i name="e_fr_energy">   -107.85235797 </i>
    <i name="e_wo_entrp">   -107.85464593 </i>
    <i name="e_0_energy">   -107.85312062 </i>
   </energy>
  </scstep>
  <scstep>
   <time name="dav">    5.51    5.57</time>
   <time name="total">    6.18    6.23</time>
   <energy>
    <i name="e_fr_energy">   -107.85241858 </i>
    <i name="e_wo_entrp">   -107.85470827 </i>
    <i name="e_0_energy">   -107.85318181 </i>
   </energy>
  </scstep>
  <scstep>
   <time name="dav">    5.27    5.33</time>
   <time name="total">    5.93    5.98</time>
   <energy>
    <i name="e_fr_energy">   -107.85244426 </i>
    <i name="e_wo_entrp">   -107.85472615 </i>
    <i name="e_0_energy">   -107.85320489 </i>
   </energy>
  </scstep>
  <scstep>
   <time name="dav">    5.33    5.39</time>
   <time name="total">    5.99    6.04</time>
   <energy>
    <i name="e_fr_energy">   -107.85246484 </i>
    <i name="e_wo_entrp">   -107.85473934 </i>
    <i name="e_0_energy">   -107.85322300 </i>
   </energy>
  </scstep>
  <scstep>
   <time name="dav">    5.38    5.43</time>
   <time name="total">    6.01    6.06</time>
   <energy>
    <i name="e_fr_energy">   -107.85249240 </i>
    <i name="e_wo_entrp">   -107.85476251 </i>
    <i name="e_0_energy">   -107.85324910 </i>
   </energy>
  </scstep>
  <scstep>
   <time name="dav">    5.21    5.26</time>
   <time name="total">    5.28    5.31</time>
   <energy>
    <i name="alphaZ">    271.64501344 </i>
    <i name="ewald"> 150074.47955128 </i>
    <i name="hartreedc">-162346.61965563 </i>
    <i name="XCdc">     91.87720187 </i>
    <i name="pawpsdc">  15381.60858619 </i>
    <i name="pawaedc"> -14978.11425175 </i>
    <i name="eentropy">      0.00227315 </i>
    <i name="bandstr">   -847.91286809 </i>
    <i name="atom">  12245.18164884 </i>
    <i name="e_fr_energy">   -107.85250069 </i>
    <i name="e_wo_entrp">   -107.85477384 </i>
    <i name="e_0_energy">   -107.85325841 </i>
   </energy>
  </scstep>
  <structure>
   <crystal>
    <varray name="basis" >
     <v>       5.54371716       0.00000000       0.00000000 </v>
     <v>       2.77185858       4.80099990       0.00000000 </v>
     <v>       0.00000000       0.00000000      36.78963917 </v>
    </varray>
    <i name="volume">    979.17042988 </i>
    <varray name="rec_basis" >
     <v>       0.18038438      -0.10414497       0.00000000 </v>
     <v>       0.00000000       0.20828994       0.00000000 </v>
     <v>       0.00000000       0.00000000       0.02718157 </v>
    </varray>
   </crystal>
   <varray name="positions" >
    <v>       0.00000000       0.00000000       0.40772349 </v>
    <v>       0.50000000       0.00000000       0.40772349 </v>
    <v>       0.00000000       0.50000000       0.40772349 </v>
    <v>       0.50000000       0.50000000       0.40772349 </v>
    <v>       0.16666667       0.16666667       0.46924116 </v>
    <v>       0.66666667       0.16666667       0.46924116 </v>
    <v>       0.16666667       0.66666667       0.46924116 </v>
    <v>       0.66666667       0.66666667       0.46924116 </v>
    <v>       0.83333333       0.33333333       0.53075884 </v>
    <v>       0.33333333       0.33333333       0.53075884 </v>
    <v>       0.83333333       0.83333333       0.53075884 </v>
    <v>       0.33333333       0.83333333       0.53075884 </v>
    <v>       0.00000000       0.00000000       0.59227651 </v>
    <v>       0.50000000       0.00000000       0.59227651 </v>
    <v>       0.00000000       0.50000000       0.59227651 </v>
    <v>       0.50000000       0.50000000       0.59227651 </v>
    <v>       0.31339371       0.16666667       0.66467225 </v>
    <v>       0.16666667       0.16666667       0.64256241 </v>
   </varray>
  </structure>
  <varray name="forces" >
   <v>       0.03060817       0.01349893      -0.38070288 </v>
   <v>      -0.01907069       0.00865371      -0.38285318 </v>
   <v>      -0.00186018      -0.02727076      -0.37961295 </v>
   <v>       0.00352127       0.00442652      -0.54135001 </v>
   <v>       0.00054307      -0.00212405       0.23532350 </v>
   <v>       0.01225633       0.07188359       0.13167044 </v>
   <v>       0.05198976      -0.01324431       0.17354638 </v>
   <v>      -0.04843657      -0.02389318       0.16818127 </v>
   <v>      -0.03891625       0.01779833      -0.43214232 </v>
   <v>       0.02165992      -0.00096204      -0.34636848 </v>
   <v>       0.15377286       0.04804803       0.17422190 </v>
   <v>       0.02870364      -0.02953380      -0.39866656 </v>
   <v>       0.07301001       0.01405184       1.46979176 </v>
   <v>       0.22354139      -0.21747943       0.36743022 </v>
   <v>      -0.07573827      -0.04224833       1.12439107 </v>
   <v>      -0.04280150       0.02589885       0.08209369 </v>
   <v>       0.75823794      -0.06706713       2.24361820 </v>
   <v>      -1.13102091       0.21956324      -3.30857204 </v>
  </varray>
  <varray name="stress" >
   <v>      -2.80720236      -1.23423920      -0.94597103 </v>
   <v>      -1.23423922      -3.76180538       0.01447906 </v>
   <v>      -0.94597105       0.01447909      15.21348208 </v>
  </varray>
  <energy>
   <i name="e_fr_energy">   -107.85250069 </i>
   <i name="e_wo_entrp">   -107.85477384 </i>
   <i name="e_0_energy">   -107.85325841 </i>
  </energy>
  <time name="totalsc">  318.04  320.01</time>
 </calculation>
 <calculation>
  <scstep>
   <time name="dav">    7.37    7.38</time>
   <time name="total">    8.00    8.00</time>
   <energy>
    <i name="alphaZ">    271.64501344 </i>
    <i name="ewald"> 149657.12699392 </i>
    <i name="hartreedc">-161946.05687856 </i>
    <i name="XCdc">     91.03706961 </i>
    <i name="pawpsdc">  15381.69583139 </i>
    <i name="pawaedc"> -14978.20177618 </i>
    <i name="eentropy">      0.00341674 </i>
    <i name="bandstr">   -829.26604523 </i>
    <i name="atom">  12245.18164884 </i>
    <i name="e_fr_energy">   -106.83472602 </i>
    <i name="e_wo_entrp">   -106.83814276 </i>
    <i name="e_0_energy">   -106.83586493 </i>
   </energy>
  </scstep>
  <scstep>
   <time name="dav">    7.86    7.86</time>
   <time name="total">    8.47    8.48</time>
   <energy>
    <i name="e_fr_energy">   -107.27694962 </i>
    <i name="e_wo_entrp">   -107.28352353 </i>
    <i name="e_0_energy">   -107.27914092 </i>
   </energy>
  </scstep>
  <scstep>
   <time name="dav">    8.46    8.54</time>
   <time name="total">    9.09    9.17</time>
   <energy>
    <i name="e_fr_energy">   -107.48315370 </i>
    <i name="e_wo_entrp">   -107.48255399 </i>
    <i name="e_0_energy">   -107.48295380 </i>
   </energy>
  </scstep>
  <scstep>
   <time name="dav">    8.33    8.41</time>
   <time name="total">    8.95    9.02</time>
   <energy>
    <i name="e_fr_energy">   -107.34323560 </i>
    <i name="e_wo_entrp">   -107.35453098 </i>
    <i name="e_0_energy">   -107.34700073 </i>
   </energy>
  </scstep>
  <scstep>
   <time name="dav">    8.17    8.28</time>
   <time name="total">    8.78    8.86</time>
   <energy>
    <i name="e_fr_energy">   -107.09846813 </i>
    <i name="e_wo_entrp">   -107.10337061 </i>
    <i name="e_0_energy">   -107.10010229 </i>
   </energy>
  </scstep>
  <scstep>
   <time name="dav">    8.06    8.17</time>
   <time name="total">    8.67    8.76</time>
   <energy>
    <i name="e_fr_energy">   -107.07067568 </i>
    <i name="e_wo_entrp">   -107.07577618 </i>
    <i name="e_0_energy">   -107.07237585 </i>
   </energy>
  </scstep>
  <scstep>
   <time name="dav">    7.74    7.79</time>
   <time name="total">    8.36    8.42</time>
   <energy>
    <i name="e_fr_energy">   -107.06052252 </i>
    <i name="e_wo_entrp">   -107.06476745 </i>
    <i name="e_0_energy">   -107.06193749 </i>
   </energy>
  </scstep>
  <scstep>
   <time name="dav">    7.97    7.99</time>
   <time name="total">    8.60    8.62</time>
   <energy>
    <i name="e_fr_energy">   -107.05904336 </i>
    <i name="e_wo_entrp">   -107.06438802 </i>
    <i name="e_0_energy">   -107.06082491 </i>
   </energy>
  </scstep>
  <scstep>
   <time name="dav">    8.12    8.32</time>
   <time name="total">    8.74    8.92</time>
   <energy>
    <i name="e_fr_energy">   -107.05910115 </i>
    <i name="e_wo_entrp">   -107.06379107 </i>
    <i name="e_0_energy">   -107.06066445 </i>
   </energy>
  </scstep>
  <scstep>
   <time name="dav">    8.00    8.03</time>
   <time name="total">    8.63    8.65</time>
   <energy>
    <i name="e_fr_energy">   -107.05953803 </i>
    <i name="e_wo_entrp">   -107.06449488 </i>
    <i name="e_0_energy">   -107.06119031 </i>
   </energy>
  </scstep>
  <scstep>
   <time name="dav">    7.77    7.77</time>
   <time name="total">    8.41    8.40</time>
   <energy>
    <i name="e_fr_energy">   -107.05959935 </i>
    <i name="e_wo_entrp">   -107.06442023 </i>
    <i name="e_0_energy">   -107.06120631 </i>
   </energy>
  </scstep>
  <scstep>
   <time name="dav">    8.52    8.57</time>
   <time name="total">    9.15    9.21</time>
   <energy>
    <i name="e_fr_energy">   -107.05979854 </i>
    <i name="e_wo_entrp">   -107.06452415 </i>
    <i name="e_0_energy">   -107.06137375 </i>
   </energy>
  </scstep>
  <scstep>
   <time name="dav">    7.67    7.70</time>
   <time name="total">    8.27    8.30</time>
   <energy>
    <i name="e_fr_energy">   -107.06005675 </i>
    <i name="e_wo_entrp">   -107.06483386 </i>
    <i name="e_0_energy">   -107.06164912 </i>
   </energy>
  </scstep>
  <scstep>
   <time name="dav">    7.78    7.87</time>
   <time name="total">    8.43    8.49</time>
   <energy>
    <i name="e_fr_energy">   -107.06034911 </i>
    <i name="e_wo_entrp">   -107.06518855 </i>
    <i name="e_0_energy">   -107.06196226 </i>
   </energy>
  </scstep>
  <scstep>
   <time name="dav">    7.62    7.64</time>
   <time name="total">    8.25    8.26</time>
   <energy>
    <i name="e_fr_energy">   -107.06059117 </i>
    <i name="e_wo_entrp">   -107.06535084 </i>
    <i name="e_0_energy">   -107.06217772 </i>
   </energy>
  </scstep>
  <scstep>
   <time name="dav">    7.39    7.55</time>
   <time name="total">    8.00    8.17</time>
   <energy>
    <i name="e_fr_energy">   -107.06076894 </i>
    <i name="e_wo_entrp">   -107.06555381 </i>
    <i name="e_0_energy">   -107.06236390 </i>
   </energy>
  </scstep>
  <scstep>
   <time name="dav">    7.57    7.59</time>
   <time name="total">    8.22    8.25</time>
   <energy>
    <i name="e_fr_energy">   -107.06106269 </i>
    <i name="e_wo_entrp">   -107.06584745 </i>
    <i name="e_0_energy">   -107.06265761 </i>
   </energy>
  </scstep>
  <scstep>
   <time name="dav">    7.21    7.24</time>
   <time name="total">    7.86    7.87</time>
   <energy>
    <i name="e_fr_energy">   -107.06118371 </i>
    <i name="e_wo_entrp">   -107.06597020 </i>
    <i name="e_0_energy">   -107.06277921 </i>
   </energy>
  </scstep>
  <scstep>
   <time name="dav">    5.46    5.52</time>
   <time name="total">    6.10    6.16</time>
   <energy>
    <i name="e_fr_energy">   -107.06124362 </i>
    <i name="e_wo_entrp">   -107.06602817 </i>
    <i name="e_0_energy">   -107.06283847 </i>
   </energy>
  </scstep>
  <scstep>
   <time name="dav">    5.04    5.17</time>
   <time name="total">    5.70    5.86</time>
   <energy>
    <i name="e_fr_energy">   -107.06126847 </i>
    <i name="e_wo_entrp">   -107.06605071 </i>
    <i name="e_0_energy">   -107.06286255 </i>
   </energy>
  </scstep>
  <scstep>
   <time name="dav">    5.27    5.50</time>
   <time name="total">    5.90    6.12</time>
   <energy>
    <i name="e_fr_energy">   -107.06131000 </i>
    <i name="e_wo_entrp">   -107.06609296 </i>
    <i name="e_0_energy">   -107.06290432 </i>
   </energy>
  </scstep>
  <scstep>
   <time name="dav">    5.07    5.12</time>
   <time name="total">    5.69    5.72</time>
   <energy>
    <i name="e_fr_energy">   -107.06133113 </i>
    <i name="e_wo_entrp">   -107.06611309 </i>
    <i name="e_0_energy">   -107.06292512 </i>
   </energy>
  </scstep>
  <scstep>
   <time name="dav">    5.18    5.23</time>
   <time name="total">    5.81    5.84</time>
   <energy>
    <i name="e_fr_energy">   -107.06135168 </i>
    <i name="e_wo_entrp">   -107.06613072 </i>
    <i name="e_0_energy">   -107.06294469 </i>
   </energy>
  </scstep>
  <scstep>
   <time name="dav">    5.03    5.06</time>
   <time name="total">    5.66    5.66</time>
   <energy>
    <i name="e_fr_energy">   -107.06136683 </i>
    <i name="e_wo_entrp">   -107.06614714 </i>
    <i name="e_0_energy">   -107.06296027 </i>
   </energy>
  </scstep>
  <scstep>
   <time name="dav">    4.88    4.88</time>
   <time name="total">    4.95    4.94</time>
   <energy>
    <i name="alphaZ">    271.64501344 </i>
    <i name="ewald"> 149657.12699392 </i>
    <i name="hartreedc">-161865.01963808 </i>
    <i name="XCdc">     90.50914181 </i>
    <i name="pawpsdc">  15122.32254556 </i>
    <i name="pawaedc"> -14718.72519489 </i>
    <i name="eentropy">      0.00478082 </i>
    <i name="bandstr">   -910.10666743 </i>
    <i name="atom">  12245.18164884 </i>
    <i name="e_fr_energy">   -107.06137600 </i>
    <i name="e_wo_entrp">   -107.06615682 </i>
    <i name="e_0_energy">   -107.06296961 </i>
   </energy>
  </scstep>
  <structure>
   <crystal>
    <varray name="basis" >
     <v>       5.54371716       0.00000000       0.00000000 </v>
     <v>       2.77185858       4.80099990       0.00000000 </v>
     <v>       0.00000000       0.00000000      36.78963917 </v>
    </varray>
    <i name="volume">    979.17042988 </i>
    <varray name="rec_basis" >
     <v>       0.18038438      -0.10414497       0.00000000 </v>
     <v>       0.00000000       0.20828994       0.00000000 </v>
     <v>       0.00000000       0.00000000       0.02718157 </v>
    </varray>
   </crystal>
   <varray name="positions" >
    <v>       0.00000000       0.00000000       0.40772349 </v>
    <v>       0.50000000       0.00000000       0.40772349 </v>
    <v>       0.00000000       0.50000000       0.40772349 </v>
    <v>       0.50000000       0.50000000       0.40772349 </v>
    <v>       0.16666667       0.16666667       0.46924116 </v>
    <v>       0.66666667       0.16666667       0.46924116 </v>
    <v>       0.16666667       0.66666667       0.46924116 </v>
    <v>       0.66666667       0.66666667       0.46924116 </v>
    <v>       0.83290525       0.33351218       0.53019216 </v>
    <v>       0.33352666       0.33332367       0.53030464 </v>
    <v>       0.83443009       0.83381614       0.53098730 </v>
    <v>       0.33373150       0.83303656       0.53023606 </v>
    <v>       0.00056475       0.00014120       0.59420387 </v>
    <v>       0.50303797      -0.00218533       0.59275833 </v>
    <v>      -0.00044683       0.49957547       0.59375094 </v>
    <v>       0.49949741       0.50026024       0.59238416 </v>
    <v>       0.32032902       0.16599275       0.66761433 </v>
    <v>       0.15572114       0.16887294       0.63822384 </v>
   </varray>
  </structure>
  <varray name="forces" >
   <v>       0.03350906       0.00202286      -0.37874198 </v>
   <v>      -0.01035562       0.00379223      -0.37792740 </v>
   <v>       0.01221393      -0.02031005      -0.37907069 </v>
   <v>      -0.02676369       0.01232761      -0.54034145 </v>
   <v>       0.02382954       0.00039242       0.10689501 </v>
   <v>      -0.00362985       0.04577272      -0.04208577 </v>
   <v>      -0.00155552       0.01193916       0.10256975 </v>
   <v>      -0.01191199      -0.00019218      -0.02810144 </v>
   <v>       0.05643303      -0.01600839       0.11416964 </v>
   <v>      -0.06531881       0.00568079       0.07340134 </v>
   <v>       0.18961248      -0.01957091       0.46891688 </v>
   <v>      -0.00808385       0.04874839       0.08276015 </v>
   <v>       0.27066873       0.08896786       1.48859337 </v>
   <v>       0.02058397       0.00215945       0.73723016 </v>
   <v>       0.00332466      -0.34891106       1.24105765 </v>
   <v>      -0.05376801      -0.00872306      -0.07120288 </v>
   <v>      -6.29903580      -0.03963190      -6.53724283 </v>
   <v>       5.87024772       0.23154408       3.93912050 </v>
  </varray>
  <varray name="stress" >
   <v>     -15.57125857      -1.33115558     -12.91537291 </v>
   <v>      -1.33115550      -6.64020067      -0.01269409 </v>
   <v>     -12.91537289      -0.01269414      -5.13548416 </v>
  </varray>
  <energy>
   <i name="e_fr_energy">   -107.06137600 </i>
   <i name="e_wo_entrp">   -107.06615682 </i>
   <i name="e_0_energy">   -107.06296961 </i>
  </energy>
  <time name="totalsc">  217.94  219.23</time>
 </calculation>
 <calculation>
  <scstep>
   <time name="dav">    7.38    7.38</time>
   <time name="total">    8.00    8.00</time>
   <energy>
    <i name="alphaZ">    271.64501344 </i>
    <i name="ewald"> 149983.68053625 </i>
    <i name="hartreedc">-162179.11850744 </i>
    <i name="XCdc">     91.09378990 </i>
    <i name="pawpsdc">  15122.30228887 </i>
    <i name="pawaedc"> -14718.70491750 </i>
    <i name="eentropy">      0.00422278 </i>
    <i name="bandstr">   -923.71890079 </i>
    <i name="atom">  12245.18164884 </i>
    <i name="e_fr_energy">   -107.63482565 </i>
    <i name="e_wo_entrp">   -107.63904842 </i>
    <i name="e_0_energy">   -107.63623324 </i>
   </energy>
  </scstep>
  <scstep>
   <time name="dav">    8.04    8.13</time>
   <time name="total">    8.66    8.75</time>
   <energy>
    <i name="e_fr_energy">   -108.09454846 </i>
    <i name="e_wo_entrp">   -108.09747376 </i>
    <i name="e_0_energy">   -108.09552356 </i>
   </energy>
  </scstep>
  <scstep>
   <time name="dav">    8.68    8.83</time>
   <time name="total">    9.31    9.45</time>
   <energy>
    <i name="e_fr_energy">   -108.85799027 </i>
    <i name="e_wo_entrp">   -108.85658284 </i>
    <i name="e_0_energy">   -108.85752112 </i>
   </energy>
  </scstep>
  <scstep>
   <time name="dav">    9.02    9.06</time>
   <time name="total">    9.65    9.67</time>
   <energy>
    <i name="e_fr_energy">   -108.05443036 </i>
    <i name="e_wo_entrp">   -108.05426740 </i>
    <i name="e_0_energy">   -108.05437604 </i>
   </energy>
  </scstep>
  <scstep>
   <time name="dav">    7.95    7.96</time>
   <time name="total">    8.58    8.58</time>
   <energy>
    <i name="e_fr_energy">   -107.98993979 </i>
    <i name="e_wo_entrp">   -107.99548166 </i>
    <i name="e_0_energy">   -107.99178708 </i>
   </energy>
  </scstep>
  <scstep>
   <time name="dav">    8.02    8.03</time>
   <time name="total">    8.64    8.65</time>
   <energy>
    <i name="e_fr_energy">   -107.96434598 </i>
    <i name="e_wo_entrp">   -107.96713530 </i>
    <i name="e_0_energy">   -107.96527575 </i>
   </energy>
  </scstep>
  <scstep>
   <time name="dav">    7.92    8.04</time>
   <time name="total">    8.56    8.69</time>
   <energy>
    <i name="e_fr_energy">   -107.95518158 </i>
    <i name="e_wo_entrp">   -107.95705473 </i>
    <i name="e_0_energy">   -107.95580596 </i>
   </energy>
  </scstep>
  <scstep>
   <time name="dav">    7.95    8.05</time>
   <time name="total">    8.58    8.66</time>
   <energy>
    <i name="e_fr_energy">   -107.95170888 </i>
    <i name="e_wo_entrp">   -107.95587366 </i>
    <i name="e_0_energy">   -107.95309714 </i>
   </energy>
  </scstep>
  <scstep>
   <time name="dav">    7.86    7.94</time>
   <time name="total">    8.49    8.56</time>
   <energy>
    <i name="e_fr_energy">   -107.95083888 </i>
    <i name="e_wo_entrp">   -107.95462849 </i>
    <i name="e_0_energy">   -107.95210208 </i>
   </energy>
  </scstep>
  <scstep>
   <time name="dav">    8.32    8.38</time>
   <time name="total">    8.95    9.01</time>
   <energy>
    <i name="e_fr_energy">   -107.95084094 </i>
    <i name="e_wo_entrp">   -107.95376357 </i>
    <i name="e_0_energy">   -107.95181515 </i>
   </energy>
  </scstep>
  <scstep>
   <time name="dav">    7.95    8.01</time>
   <time name="total">    8.54    8.64</time>
   <energy>
    <i name="e_fr_energy">   -107.94994451 </i>
    <i name="e_wo_entrp">   -107.95303824 </i>
    <i name="e_0_energy">   -107.95097576 </i>
   </energy>
  </scstep>
  <scstep>
   <time name="dav">    8.06    8.24</time>
   <time name="total">    8.69    8.85</time>
   <energy>
    <i name="e_fr_energy">   -107.94979896 </i>
    <i name="e_wo_entrp">   -107.95292885 </i>
    <i name="e_0_energy">   -107.95084226 </i>
   </energy>
  </scstep>
  <scstep>
   <time name="dav">    8.22    8.23</time>
   <time name="total">    8.83    8.81</time>
   <energy>
    <i name="e_fr_energy">   -107.94979704 </i>
    <i name="e_wo_entrp">   -107.95306653 </i>
    <i name="e_0_energy">   -107.95088687 </i>
   </energy>
  </scstep>
  <scstep>
   <time name="dav">    7.56    7.56</time>
   <time name="total">    8.17    8.15</time>
   <energy>
    <i name="e_fr_energy">   -107.94985792 </i>
    <i name="e_wo_entrp">   -107.95315438 </i>
    <i name="e_0_energy">   -107.95095674 </i>
   </energy>
  </scstep>
  <scstep>
   <time name="dav">    6.45    6.62</time>
   <time name="total">    7.09    7.24</time>
   <energy>
    <i name="e_fr_energy">   -107.94992938 </i>
    <i name="e_wo_entrp">   -107.95317216 </i>
    <i name="e_0_energy">   -107.95101031 </i>
   </energy>
  </scstep>
  <scstep>
   <time name="dav">    5.70    5.70</time>
   <time name="total">    6.30    6.30</time>
   <energy>
    <i name="e_fr_energy">   -107.94998667 </i>
    <i name="e_wo_entrp">   -107.95325048 </i>
    <i name="e_0_energy">   -107.95107461 </i>
   </energy>
  </scstep>
  <scstep>
   <time name="dav">    6.37    6.41</time>
   <time name="total">    7.00    7.04</time>
   <energy>
    <i name="e_fr_energy">   -107.95010457 </i>
    <i name="e_wo_entrp">   -107.95336805 </i>
    <i name="e_0_energy">   -107.95119240 </i>
   </energy>
  </scstep>
  <scstep>
   <time name="dav">    5.71    5.76</time>
   <time name="total">    6.33    6.36</time>
   <energy>
    <i name="e_fr_energy">   -107.95019485 </i>
    <i name="e_wo_entrp">   -107.95346508 </i>
    <i name="e_0_energy">   -107.95128493 </i>
   </energy>
  </scstep>
  <scstep>
   <time name="dav">    5.49    5.55</time>
   <time name="total">    6.13    6.19</time>
   <energy>
    <i name="e_fr_energy">   -107.95027308 </i>
    <i name="e_wo_entrp">   -107.95354106 </i>
    <i name="e_0_energy">   -107.95136241 </i>
   </energy>
  </scstep>
  <scstep>
   <time name="dav">    5.28    5.47</time>
   <time name="total">    5.92    6.10</time>
   <energy>
    <i name="e_fr_energy">   -107.95031613 </i>
    <i name="e_wo_entrp">   -107.95357750 </i>
    <i name="e_0_energy">   -107.95140325 </i>
   </energy>
  </scstep>
  <scstep>
   <time name="dav">    5.44    5.50</time>
   <time name="total">    6.10    6.15</time>
   <energy>
    <i name="e_fr_energy">   -107.95037973 </i>
    <i name="e_wo_entrp">   -107.95363627 </i>
    <i name="e_0_energy">   -107.95146524 </i>
   </energy>
  </scstep>
  <scstep>
   <time name="dav">    5.39    5.44</time>
   <time name="total">    6.06    6.10</time>
   <energy>
    <i name="e_fr_energy">   -107.95043209 </i>
    <i name="e_wo_entrp">   -107.95368993 </i>
    <i name="e_0_energy">   -107.95151804 </i>
   </energy>
  </scstep>
  <scstep>
   <time name="dav">    5.16    5.21</time>
   <time name="total">    5.80    5.86</time>
   <energy>
    <i name="e_fr_energy">   -107.95045743 </i>
    <i name="e_wo_entrp">   -107.95371643 </i>
    <i name="e_0_energy">   -107.95154376 </i>
   </energy>
  </scstep>
  <scstep>
   <time name="dav">    5.29    5.29</time>
   <time name="total">    5.90    5.90</time>
   <energy>
    <i name="e_fr_energy">   -107.95048486 </i>
    <i name="e_wo_entrp">   -107.95374637 </i>
    <i name="e_0_energy">   -107.95157203 </i>
   </energy>
  </scstep>
  <scstep>
   <time name="dav">    5.05    5.05</time>
   <time name="total">    5.70    5.69</time>
   <energy>
    <i name="e_fr_energy">   -107.95050004 </i>
    <i name="e_wo_entrp">   -107.95376263 </i>
    <i name="e_0_energy">   -107.95158757 </i>
   </energy>
  </scstep>
  <scstep>
   <time name="dav">    4.98    5.12</time>
   <time name="total">    5.05    5.19</time>
   <energy>
    <i name="alphaZ">    271.64501344 </i>
    <i name="ewald"> 149983.68053625 </i>
    <i name="hartreedc">-162241.88588151 </i>
    <i name="XCdc">     91.51228354 </i>
    <i name="pawpsdc">  15297.26007753 </i>
    <i name="pawaedc"> -14893.69672199 </i>
    <i name="eentropy">      0.00326257 </i>
    <i name="bandstr">   -861.65072647 </i>
    <i name="atom">  12245.18164884 </i>
    <i name="e_fr_energy">   -107.95050780 </i>
    <i name="e_wo_entrp">   -107.95377037 </i>
    <i name="e_0_energy">   -107.95159532 </i>
   </energy>
  </scstep>
  <structure>
   <crystal>
    <varray name="basis" >
     <v>       5.54371716       0.00000000       0.00000000 </v>
     <v>       2.77185858       4.80099990       0.00000000 </v>
     <v>       0.00000000       0.00000000      36.78963917 </v>
    </varray>
    <i name="volume">    979.17042988 </i>
    <varray name="rec_basis" >
     <v>       0.18038438      -0.10414497       0.00000000 </v>
     <v>       0.00000000       0.20828994       0.00000000 </v>
     <v>       0.00000000       0.00000000       0.02718157 </v>
    </varray>
   </crystal>
   <varray name="positions" >
    <v>       0.00000000       0.00000000       0.40772349 </v>
    <v>       0.50000000       0.00000000       0.40772349 </v>
    <v>       0.00000000       0.50000000       0.40772349 </v>
    <v>       0.50000000       0.50000000       0.40772349 </v>
    <v>       0.16666667       0.16666667       0.46924116 </v>
    <v>       0.66666667       0.16666667       0.46924116 </v>
    <v>       0.16666667       0.66666667       0.46924116 </v>
    <v>       0.66666667       0.66666667       0.46924116 </v>
    <v>       0.83324225       0.33337139       0.53063826 </v>
    <v>       0.33337447       0.33333128       0.53066219 </v>
    <v>       0.83356670       0.83343607       0.53080745 </v>
    <v>       0.33341806       0.83327019       0.53064760 </v>
    <v>       0.00012017       0.00003004       0.59268661 </v>
    <v>       0.50064642      -0.00046500       0.59237903 </v>
    <v>      -0.00009508       0.49990967       0.59259024 </v>
    <v>       0.49989306       0.50005537       0.59229942 </v>
    <v>       0.31486940       0.16652327       0.66529827 </v>
    <v>       0.16433768       0.16713612       0.64163925 </v>
   </varray>
  </structure>
  <varray name="forces" >
   <v>       0.03241244       0.01202499      -0.37896941 </v>
   <v>      -0.01805469       0.00779054      -0.38260172 </v>
   <v>       0.00020820      -0.02646095      -0.37910549 </v>
   <v>      -0.00204919       0.00588938      -0.54578726 </v>
   <v>       0.00539937      -0.00129966       0.21219166 </v>
   <v>       0.00875007       0.06893581       0.09461797 </v>
   <v>       0.04304097      -0.00919327       0.15931214 </v>
   <v>      -0.04240766      -0.01913578       0.12840387 </v>
   <v>      -0.01566040       0.00786082      -0.31149867 </v>
   <v>      -0.00000933      -0.00087667      -0.25142084 </v>
   <v>       0.16851177       0.03452040       0.26033698 </v>
   <v>       0.01989784      -0.01007414      -0.29215135 </v>
   <v>       0.12821616       0.03738884       1.49728646 </v>
   <v>       0.17089855      -0.16820504       0.45360880 </v>
   <v>      -0.06061192      -0.12258575       1.16979150 </v>
   <v>      -0.04456247       0.01932793       0.03679933 </v>
   <v>      -2.46230311      -0.07506464      -1.15093921 </v>
   <v>       2.06832339       0.23915719      -0.31987475 </v>
  </varray>
  <varray name="stress" >
   <v>      -7.76234581      -1.29748812      -5.47999746 </v>
   <v>      -1.29748817      -4.45271680      -0.00630483 </v>
   <v>      -5.47999745      -0.00630462       8.90668834 </v>
  </varray>
  <energy>
   <i name="e_fr_energy">   -107.95050780 </i>
   <i name="e_wo_entrp">   -107.95377037 </i>
   <i name="e_0_energy">   -107.95159532 </i>
  </energy>
  <time name="totalsc">  220.11  221.97</time>
 </calculation>
 <calculation>
  <scstep>
   <time name="dav">    7.38    7.42</time>
   <time name="total">    7.99    8.01</time>
   <energy>
    <i name="alphaZ">    271.64501344 </i>
    <i name="ewald"> 149611.90093349 </i>
    <i name="hartreedc">-161872.08546637 </i>
    <i name="XCdc">     91.39194795 </i>
    <i name="pawpsdc">  15297.26227384 </i>
    <i name="pawaedc"> -14893.69891328 </i>
    <i name="eentropy">      0.00147745 </i>
    <i name="bandstr">   -859.81884606 </i>
    <i name="atom">  12245.18164884 </i>
    <i name="e_fr_energy">   -108.21993069 </i>
    <i name="e_wo_entrp">   -108.22140814 </i>
    <i name="e_0_energy">   -108.22042318 </i>
   </energy>
  </scstep>
  <scstep>
   <time name="dav">    7.92    8.07</time>
   <time name="total">    8.52    8.65</time>
   <energy>
    <i name="e_fr_energy">   -108.43012011 </i>
    <i name="e_wo_entrp">   -108.43274261 </i>
    <i name="e_0_energy">   -108.43099428 </i>
   </energy>
  </scstep>
  <scstep>
   <time name="dav">    8.38    8.46</time>
   <time name="total">    9.00    9.05</time>
   <energy>
    <i name="e_fr_energy">   -108.58550503 </i>
    <i name="e_wo_entrp">   -108.58682100 </i>
    <i name="e_0_energy">   -108.58594369 </i>
   </energy>
  </scstep>
  <scstep>
   <time name="dav">    8.47    8.52</time>
   <time name="total">    9.07    9.10</time>
   <energy>
    <i name="e_fr_energy">   -108.46348088 </i>
    <i name="e_wo_entrp">   -108.46953886 </i>
    <i name="e_0_energy">   -108.46550020 </i>
   </energy>
  </scstep>
  <scstep>
   <time name="dav">    7.98    7.99</time>
   <time name="total">    8.60    8.58</time>
   <energy>
    <i name="e_fr_energy">   -108.38749699 </i>
    <i name="e_wo_entrp">   -108.38883768 </i>
    <i name="e_0_energy">   -108.38794389 </i>
   </energy>
  </scstep>
  <scstep>
   <time name="dav">    8.16    8.24</time>
   <time name="total">    8.76    8.82</time>
   <energy>
    <i name="e_fr_energy">   -108.38062527 </i>
    <i name="e_wo_entrp">   -108.38322482 </i>
    <i name="e_0_energy">   -108.38149179 </i>
   </energy>
  </scstep>
  <scstep>
   <time name="dav">    7.84    7.92</time>
   <time name="total">    8.46    8.52</time>
   <energy>
    <i name="e_fr_energy">   -108.37620242 </i>
    <i name="e_wo_entrp">   -108.37765262 </i>
    <i name="e_0_energy">   -108.37668582 </i>
   </energy>
  </scstep>
  <scstep>
   <time name="dav">    7.84    7.93</time>
   <time name="total">    8.48    8.56</time>
   <energy>
    <i name="e_fr_energy">   -108.37544283 </i>
    <i name="e_wo_entrp">   -108.37759610 </i>
    <i name="e_0_energy">   -108.37616058 </i>
   </energy>
  </scstep>
  <scstep>
   <time name="dav">    8.21    8.37</time>
   <time name="total">    8.82    9.01</time>
   <energy>
    <i name="e_fr_energy">   -108.37498804 </i>
    <i name="e_wo_entrp">   -108.37663644 </i>
    <i name="e_0_energy">   -108.37553750 </i>
   </energy>
  </scstep>
  <scstep>
   <time name="dav">    8.03    8.31</time>
   <time name="total">    8.64    8.90</time>
   <energy>
    <i name="e_fr_energy">   -108.37526364 </i>
    <i name="e_wo_entrp">   -108.37715521 </i>
    <i name="e_0_energy">   -108.37589417 </i>
   </energy>
  </scstep>
  <scstep>
   <time name="dav">    7.81    7.86</time>
   <time name="total">    8.45    8.49</time>
   <energy>
    <i name="e_fr_energy">   -108.37527409 </i>
    <i name="e_wo_entrp">   -108.37701768 </i>
    <i name="e_0_energy">   -108.37585528 </i>
   </energy>
  </scstep>
  <scstep>
   <time name="dav">    7.93    7.94</time>
   <time name="total">    8.55    8.56</time>
   <energy>
    <i name="e_fr_energy">   -108.37523274 </i>
    <i name="e_wo_entrp">   -108.37696393 </i>
    <i name="e_0_energy">   -108.37580981 </i>
   </energy>
  </scstep>
  <scstep>
   <time name="dav">    6.14    6.44</time>
   <time name="total">    6.75    7.05</time>
   <energy>
    <i name="e_fr_energy">   -108.37525917 </i>
    <i name="e_wo_entrp">   -108.37697991 </i>
    <i name="e_0_energy">   -108.37583275 </i>
   </energy>
  </scstep>
  <scstep>
   <time name="dav">    5.33    5.33</time>
   <time name="total">    5.95    5.93</time>
   <energy>
    <i name="e_fr_energy">   -108.37532391 </i>
    <i name="e_wo_entrp">   -108.37704225 </i>
    <i name="e_0_energy">   -108.37589669 </i>
   </energy>
  </scstep>
  <scstep>
   <time name="dav">    5.26    5.28</time>
   <time name="total">    5.91    5.94</time>
   <energy>
    <i name="e_fr_energy">   -108.37536712 </i>
    <i name="e_wo_entrp">   -108.37709254 </i>
    <i name="e_0_energy">   -108.37594226 </i>
   </energy>
  </scstep>
  <scstep>
   <time name="dav">    5.32    5.35</time>
   <time name="total">    5.96    5.97</time>
   <energy>
    <i name="e_fr_energy">   -108.37541151 </i>
    <i name="e_wo_entrp">   -108.37712412 </i>
    <i name="e_0_energy">   -108.37598238 </i>
   </energy>
  </scstep>
  <scstep>
   <time name="dav">    5.18    5.20</time>
   <time name="total">    5.80    5.82</time>
   <energy>
    <i name="e_fr_energy">   -108.37544195 </i>
    <i name="e_wo_entrp">   -108.37715949 </i>
    <i name="e_0_energy">   -108.37601446 </i>
   </energy>
  </scstep>
  <scstep>
   <time name="dav">    5.33    5.58</time>
   <time name="total">    5.97    6.24</time>
   <energy>
    <i name="e_fr_energy">   -108.37547929 </i>
    <i name="e_wo_entrp">   -108.37719670 </i>
    <i name="e_0_energy">   -108.37605176 </i>
   </energy>
  </scstep>
  <scstep>
   <time name="dav">    5.19    5.25</time>
   <time name="total">    5.82    5.86</time>
   <energy>
    <i name="e_fr_energy">   -108.37549863 </i>
    <i name="e_wo_entrp">   -108.37721467 </i>
    <i name="e_0_energy">   -108.37607065 </i>
   </energy>
  </scstep>
  <scstep>
   <time name="dav">    5.43    5.47</time>
   <time name="total">    6.05    6.07</time>
   <energy>
    <i name="e_fr_energy">   -108.37552523 </i>
    <i name="e_wo_entrp">   -108.37724067 </i>
    <i name="e_0_energy">   -108.37609704 </i>
   </energy>
  </scstep>
  <scstep>
   <time name="dav">    5.16    5.21</time>
   <time name="total">    5.22    5.26</time>
   <energy>
    <i name="alphaZ">    271.64501344 </i>
    <i name="ewald"> 149611.90093349 </i>
    <i name="hartreedc">-161853.13927224 </i>
    <i name="XCdc">     91.33551396 </i>
    <i name="pawpsdc">  15248.11409161 </i>
    <i name="pawaedc"> -14844.39739412 </i>
    <i name="eentropy">      0.00171447 </i>
    <i name="bandstr">   -879.01778350 </i>
    <i name="atom">  12245.18164884 </i>
    <i name="e_fr_energy">   -108.37553404 </i>
    <i name="e_wo_entrp">   -108.37724851 </i>
    <i name="e_0_energy">   -108.37610553 </i>
   </energy>
  </scstep>
  <structure>
   <crystal>
    <varray name="basis" >
     <v>       5.54371716       0.00000000       0.00000000 </v>
     <v>       2.77185858       4.80099990       0.00000000 </v>
     <v>       0.00000000       0.00000000      36.78963917 </v>
    </varray>
    <i name="volume">    979.17042988 </i>
    <varray name="rec_basis" >
     <v>       0.18038438      -0.10414497       0.00000000 </v>
     <v>       0.00000000       0.20828994       0.00000000 </v>
     <v>       0.00000000       0.00000000       0.02718157 </v>
    </varray>
   </crystal>
   <varray name="positions" >
    <v>       0.00000000       0.00000000       0.40772349 </v>
    <v>       0.50000000       0.00000000       0.40772349 </v>
    <v>       0.00000000       0.50000000       0.40772349 </v>
    <v>       0.50000000       0.50000000       0.40772349 </v>
    <v>       0.16666667       0.16666667       0.46924116 </v>
    <v>       0.66666667       0.16666667       0.46924116 </v>
    <v>       0.16666667       0.66666667       0.46924116 </v>
    <v>       0.66666667       0.66666667       0.46924116 </v>
    <v>       0.83289547       0.33352000       0.53006111 </v>
    <v>       0.33348065       0.33332019       0.53019806 </v>
    <v>       0.83502129       0.83392703       0.53115885 </v>
    <v>       0.33378110       0.83304364       0.53011095 </v>
    <v>       0.00104528       0.00035789       0.59503533 </v>
    <v>       0.50383627      -0.00276797       0.59303605 </v>
    <v>      -0.00027435       0.49885529       0.59440848 </v>
    <v>       0.49929879       0.50032488       0.59238935 </v>
    <v>       0.30443138       0.16565649       0.66585593 </v>
    <v>       0.16977609       0.16992928       0.63903979 </v>
   </varray>
  </structure>
  <varray name="forces" >
   <v>       0.03291440       0.00411844      -0.37284246 </v>
   <v>      -0.01331063       0.00799070      -0.36857930 </v>
   <v>       0.01229498      -0.02223786      -0.36889507 </v>
   <v>      -0.02297232       0.00949216      -0.53727634 </v>
   <v>       0.01898822       0.00029393       0.07088617 </v>
   <v>      -0.00616749       0.01469423      -0.05426879 </v>
   <v>      -0.01267209       0.01329838       0.06369495 </v>
   <v>       0.01168813       0.01096037      -0.04150182 </v>
   <v>       0.09684661      -0.03263950       0.27879653 </v>
   <v>      -0.09112852      -0.00232085       0.18770791 </v>
   <v>       0.16010696      -0.04909792       0.50613968 </v>
   <v>      -0.01760034       0.08384610       0.21824402 </v>
   <v>       0.21766478       0.04775876       1.13480625 </v>
   <v>       0.10841983      -0.08645949       0.31986896 </v>
   <v>       0.03010448      -0.18022230       0.89075434 </v>
   <v>      -0.01266721      -0.02713573      -0.12588284 </v>
   <v>      -3.03486330      -0.01772913      -2.37587568 </v>
   <v>       2.52235350       0.22538972       0.57422352 </v>
  </varray>
  <varray name="stress" >
   <v>     -10.35976684      -1.31494155      -6.90407401 </v>
   <v>      -1.31494137      -6.89401610       0.26823450 </v>
   <v>      -6.90407401       0.26823466       3.39364857 </v>
  </varray>
  <energy>
   <i name="e_fr_energy">   -108.37553404 </i>
   <i name="e_wo_entrp">   -108.37724851 </i>
   <i name="e_0_energy">   -108.37610553 </i>
  </energy>
  <time name="totalsc">  178.62  179.91</time>
 </calculation>
 <calculation>
  <scstep>
   <time name="dav">    6.98    6.98</time>
   <time name="total">    7.48    7.46</time>
   <energy>
    <i name="alphaZ">    271.64501344 </i>
    <i name="ewald"> 149188.12787178 </i>
    <i name="hartreedc">-161431.60019959 </i>
    <i name="XCdc">     91.22051610 </i>
    <i name="pawpsdc">  15248.13711348 </i>
    <i name="pawaedc"> -14844.42046951 </i>
    <i name="eentropy">     -0.00224497 </i>
    <i name="bandstr">   -876.67210240 </i>
    <i name="atom">  12245.18164884 </i>
    <i name="e_fr_energy">   -108.38285282 </i>
    <i name="e_wo_entrp">   -108.38060785 </i>
    <i name="e_0_energy">   -108.38210450 </i>
   </energy>
  </scstep>
  <scstep>
   <time name="dav">    7.58    7.58</time>
   <time name="total">    8.08    8.06</time>
   <energy>
    <i name="e_fr_energy">   -108.74013367 </i>
    <i name="e_wo_entrp">   -108.74506338 </i>
    <i name="e_0_energy">   -108.74177690 </i>
   </energy>
  </scstep>
  <scstep>
   <time name="dav">    7.79    7.79</time>
   <time name="total">    8.29    8.27</time>
   <energy>
    <i name="e_fr_energy">   -108.78109442 </i>
    <i name="e_wo_entrp">   -108.78151876 </i>
    <i name="e_0_energy">   -108.78123587 </i>
   </energy>
  </scstep>
  <scstep>
   <time name="dav">    7.64    7.64</time>
   <time name="total">    8.14    8.12</time>
   <energy>
    <i name="e_fr_energy">   -108.61671282 </i>
    <i name="e_wo_entrp">   -108.61628876 </i>
    <i name="e_0_energy">   -108.61657147 </i>
   </energy>
  </scstep>
  <scstep>
   <time name="dav">    7.62    7.62</time>
   <time name="total">    8.13    8.11</time>
   <energy>
    <i name="e_fr_energy">   -108.59148476 </i>
    <i name="e_wo_entrp">   -108.59145348 </i>
    <i name="e_0_energy">   -108.59147434 </i>
   </energy>
  </scstep>
  <scstep>
   <time name="dav">    7.75    7.75</time>
   <time name="total">    8.25    8.23</time>
   <energy>
    <i name="e_fr_energy">   -108.58042588 </i>
    <i name="e_wo_entrp">   -108.57897685 </i>
    <i name="e_0_energy">   -108.57994287 </i>
   </energy>
  </scstep>
  <scstep>
   <time name="dav">    7.62    7.62</time>
   <time name="total">    8.12    8.10</time>
   <energy>
    <i name="e_fr_energy">   -108.57884434 </i>
    <i name="e_wo_entrp">   -108.57978052 </i>
    <i name="e_0_energy">   -108.57915640 </i>
   </energy>
  </scstep>
  <scstep>
   <time name="dav">    7.64    7.64</time>
   <time name="total">    8.14    8.11</time>
   <energy>
    <i name="e_fr_energy">   -108.57701312 </i>
    <i name="e_wo_entrp">   -108.57620686 </i>
    <i name="e_0_energy">   -108.57674437 </i>
   </energy>
  </scstep>
  <scstep>
   <time name="dav">    7.58    7.58</time>
   <time name="total">    8.09    8.07</time>
   <energy>
    <i name="e_fr_energy">   -108.57652262 </i>
    <i name="e_wo_entrp">   -108.57592251 </i>
    <i name="e_0_energy">   -108.57632258 </i>
   </energy>
  </scstep>
  <scstep>
   <time name="dav">    7.76    7.76</time>
   <time name="total">    8.26    8.24</time>
   <energy>
    <i name="e_fr_energy">   -108.57637429 </i>
    <i name="e_wo_entrp">   -108.57592602 </i>
    <i name="e_0_energy">   -108.57622486 </i>
   </energy>
  </scstep>
  <scstep>
   <time name="dav">    7.55    7.55</time>
   <time name="total">    8.05    8.03</time>
   <energy>
    <i name="e_fr_energy">   -108.57657311 </i>
    <i name="e_wo_entrp">   -108.57611480 </i>
    <i name="e_0_energy">   -108.57642034 </i>
   </energy>
  </scstep>
  <scstep>
   <time name="dav">    7.59    7.59</time>
   <time name="total">    8.10    8.08</time>
   <energy>
    <i name="e_fr_energy">   -108.57660086 </i>
    <i name="e_wo_entrp">   -108.57609685 </i>
    <i name="e_0_energy">   -108.57643286 </i>
   </energy>
  </scstep>
  <scstep>
   <time name="dav">    5.94    5.94</time>
   <time name="total">    6.45    6.42</time>
   <energy>
    <i name="e_fr_energy">   -108.57664991 </i>
    <i name="e_wo_entrp">   -108.57616081 </i>
    <i name="e_0_energy">   -108.57648687 </i>
   </energy>
  </scstep>
  <scstep>
   <time name="dav">    5.38    5.38</time>
   <time name="total">    5.88    5.86</time>
   <energy>
    <i name="e_fr_energy">   -108.57676846 </i>
    <i name="e_wo_entrp">   -108.57626589 </i>
    <i name="e_0_energy">   -108.57660093 </i>
   </energy>
  </scstep>
  <scstep>
   <time name="dav">    4.99    4.99</time>
   <time name="total">    5.50    5.47</time>
   <energy>
    <i name="e_fr_energy">   -108.57683817 </i>
    <i name="e_wo_entrp">   -108.57636323 </i>
    <i name="e_0_energy">   -108.57667985 </i>
   </energy>
  </scstep>
  <scstep>
   <time name="dav">    5.23    5.23</time>
   <time name="total">    5.75    5.73</time>
   <energy>
    <i name="e_fr_energy">   -108.57691446 </i>
    <i name="e_wo_entrp">   -108.57642883 </i>
    <i name="e_0_energy">   -108.57675258 </i>
   </energy>
  </scstep>
  <scstep>
   <time name="dav">    5.04    5.04</time>
   <time name="total">    5.56    5.53</time>
   <energy>
    <i name="e_fr_energy">   -108.57697595 </i>
    <i name="e_wo_entrp">   -108.57649484 </i>
    <i name="e_0_energy">   -108.57681558 </i>
   </energy>
  </scstep>
  <scstep>
   <time name="dav">    5.40    5.40</time>
   <time name="total">    5.91    5.89</time>
   <energy>
    <i name="e_fr_energy">   -108.57704345 </i>
    <i name="e_wo_entrp">   -108.57656374 </i>
    <i name="e_0_energy">   -108.57688355 </i>
   </energy>
  </scstep>
  <scstep>
   <time name="dav">    5.00    5.00</time>
   <time name="total">    5.52    5.49</time>
   <energy>
    <i name="e_fr_energy">   -108.57708091 </i>
    <i name="e_wo_entrp">   -108.57660275 </i>
    <i name="e_0_energy">   -108.57692152 </i>
   </energy>
  </scstep>
  <scstep>
   <time name="dav">    4.79    4.79</time>
   <time name="total">    5.31    5.28</time>
   <energy>
    <i name="e_fr_energy">   -108.57709841 </i>
    <i name="e_wo_entrp">   -108.57662006 </i>
    <i name="e_0_energy">   -108.57693896 </i>
   </energy>
  </scstep>
  <scstep>
   <time name="dav">    4.87    4.87</time>
   <time name="total">    5.40    5.37</time>
   <energy>
    <i name="e_fr_energy">   -108.57711226 </i>
    <i name="e_wo_entrp">   -108.57663178 </i>
    <i name="e_0_energy">   -108.57695210 </i>
   </energy>
  </scstep>
  <scstep>
   <time name="dav">    4.69    4.69</time>
   <time name="total">    4.74    4.73</time>
   <energy>
    <i name="alphaZ">    271.64501344 </i>
    <i name="ewald"> 149188.12787178 </i>
    <i name="hartreedc">-161403.87993935 </i>
    <i name="XCdc">     91.15473730 </i>
    <i name="pawpsdc">  15213.51930976 </i>
    <i name="pawaedc"> -14809.76996163 </i>
    <i name="eentropy">     -0.00048095 </i>
    <i name="bandstr">   -904.55531858 </i>
    <i name="atom">  12245.18164884 </i>
    <i name="e_fr_energy">   -108.57711937 </i>
    <i name="e_wo_entrp">   -108.57663843 </i>
    <i name="e_0_energy">   -108.57695906 </i>
   </energy>
  </scstep>
  <structure>
   <crystal>
    <varray name="basis" >
     <v>       5.54371716       0.00000000       0.00000000 </v>
     <v>       2.77185858       4.80099990       0.00000000 </v>
     <v>       0.00000000       0.00000000      36.78963917 </v>
    </varray>
    <i name="volume">    979.17042988 </i>
    <varray name="rec_basis" >
     <v>       0.18038438      -0.10414497       0.00000000 </v>
     <v>       0.00000000       0.20828994       0.00000000 </v>
     <v>       0.00000000       0.00000000       0.02718157 </v>
    </varray>
   </crystal>
   <varray name="positions" >
    <v>       0.00000000       0.00000000       0.40772349 </v>
    <v>       0.50000000       0.00000000       0.40772349 </v>
    <v>       0.00000000       0.50000000       0.40772349 </v>
    <v>       0.50000000       0.50000000       0.40772349 </v>
    <v>       0.16666667       0.16666667       0.46924116 </v>
    <v>       0.66666667       0.16666667       0.46924116 </v>
    <v>       0.16666667       0.66666667       0.46924116 </v>
    <v>       0.66666667       0.66666667       0.46924116 </v>
    <v>       0.83250494       0.33368736       0.52941113 </v>
    <v>       0.33360022       0.33330771       0.52967535 </v>
    <v>       0.83665943       0.83447995       0.53155460 </v>
    <v>       0.33418995       0.83278851       0.52950657 </v>
    <v>       0.00208713       0.00072710       0.59768042 </v>
    <v>       0.50742863      -0.00536154       0.59377598 </v>
    <v>      -0.00047624       0.49766787       0.59645615 </v>
    <v>       0.49862954       0.50062840       0.59249062 </v>
    <v>       0.29267622       0.16468034       0.66648395 </v>
    <v>       0.17590075       0.17307491       0.63611231 </v>
   </varray>
  </structure>
  <varray name="forces" >
   <v>       0.02843908      -0.00129295      -0.37798489 </v>
   <v>      -0.00815036       0.00653066      -0.35682391 </v>
   <v>       0.01611174      -0.01676732      -0.36678261 </v>
   <v>      -0.03379621       0.01101739      -0.51748517 </v>
   <v>       0.03025877       0.00069227      -0.11694993 </v>
   <v>      -0.02061756      -0.06622230      -0.20297334 </v>
   <v>      -0.07952727       0.04090303      -0.06198366 </v>
   <v>       0.09246174       0.05729849      -0.19644269 </v>
   <v>       0.19085851      -0.04508268       0.83198760 </v>
   <v>      -0.15636831      -0.00615205       0.62396685 </v>
   <v>       0.08898845      -0.13128297       0.54688233 </v>
   <v>      -0.02544994       0.15503686       0.71159880 </v>
   <v>       0.14602008      -0.04418113       0.58472022 </v>
   <v>       0.09029999      -0.01319684       0.18114147 </v>
   <v>       0.14592388       0.00293256       0.37774718 </v>
   <v>       0.02027083      -0.07979037      -0.23086701 </v>
   <v>      -3.47869623       0.11279038      -4.49933397 </v>
   <v>       2.95297282       0.01676696       3.06958274 </v>
  </varray>
  <varray name="stress" >
   <v>     -11.85012676      -0.96638073      -8.07268082 </v>
   <v>      -0.96638059      -8.23510602       0.38339041 </v>
   <v>      -8.07268095       0.38339031      -1.13041586 </v>
  </varray>
  <energy>
   <i name="e_fr_energy">   -108.57711937 </i>
   <i name="e_wo_entrp">   -108.57663843 </i>
   <i name="e_0_energy">   -108.57695906 </i>
  </energy>
  <time name="totalsc">  174.10  172.98</time>
 </calculation>
 <calculation>
  <scstep>
   <time name="dav">    6.97    6.97</time>
   <time name="total">    7.47    7.45</time>
   <energy>
    <i name="alphaZ">    271.64501344 </i>
    <i name="ewald"> 149047.13615615 </i>
    <i name="hartreedc">-161259.62789398 </i>
    <i name="XCdc">     91.28231300 </i>
    <i name="pawpsdc">  15213.52956755 </i>
    <i name="pawaedc"> -14809.78034032 </i>
    <i name="eentropy">     -0.00225433 </i>
    <i name="bandstr">   -908.15534995 </i>
    <i name="atom">  12245.18164884 </i>
    <i name="e_fr_energy">   -108.79113959 </i>
    <i name="e_wo_entrp">   -108.78888525 </i>
    <i name="e_0_energy">   -108.79038814 </i>
   </energy>
  </scstep>
  <scstep>
   <time name="dav">    7.54    7.54</time>
   <time name="total">    8.04    8.01</time>
   <energy>
    <i name="e_fr_energy">   -108.87860831 </i>
    <i name="e_wo_entrp">   -108.87836673 </i>
    <i name="e_0_energy">   -108.87852778 </i>
   </energy>
  </scstep>
  <scstep>
   <time name="dav">    7.88    7.88</time>
   <time name="total">    8.38    8.36</time>
   <energy>
    <i name="e_fr_energy">   -108.89878530 </i>
    <i name="e_wo_entrp">   -108.89845168 </i>
    <i name="e_0_energy">   -108.89867410 </i>
   </energy>
  </scstep>
  <scstep>
   <time name="dav">    7.71    7.71</time>
   <time name="total">    8.21    8.18</time>
   <energy>
    <i name="e_fr_energy">   -108.85305635 </i>
    <i name="e_wo_entrp">   -108.85093300 </i>
    <i name="e_0_energy">   -108.85234857 </i>
   </energy>
  </scstep>
  <scstep>
   <time name="dav">    7.68    7.68</time>
   <time name="total">    8.19    8.17</time>
   <energy>
    <i name="e_fr_energy">   -108.84916597 </i>
    <i name="e_wo_entrp">   -108.84754486 </i>
    <i name="e_0_energy">   -108.84862560 </i>
   </energy>
  </scstep>
  <scstep>
   <time name="dav">    7.53    7.53</time>
   <time name="total">    8.04    8.02</time>
   <energy>
    <i name="e_fr_energy">   -108.84899913 </i>
    <i name="e_wo_entrp">   -108.84676533 </i>
    <i name="e_0_energy">   -108.84825453 </i>
   </energy>
  </scstep>
  <scstep>
   <time name="dav">    7.53    7.53</time>
   <time name="total">    8.03    8.01</time>
   <energy>
    <i name="e_fr_energy">   -108.84812382 </i>
    <i name="e_wo_entrp">   -108.84668276 </i>
    <i name="e_0_energy">   -108.84764346 </i>
   </energy>
  </scstep>
  <scstep>
   <time name="dav">    7.89    7.89</time>
   <time name="total">    8.40    8.37</time>
   <energy>
    <i name="e_fr_energy">   -108.84764881 </i>
    <i name="e_wo_entrp">   -108.84569998 </i>
    <i name="e_0_energy">   -108.84699920 </i>
   </energy>
  </scstep>
  <scstep>
   <time name="dav">    7.72    7.72</time>
   <time name="total">    8.24    8.21</time>
   <energy>
    <i name="e_fr_energy">   -108.84762468 </i>
    <i name="e_wo_entrp">   -108.84568696 </i>
    <i name="e_0_energy">   -108.84697877 </i>
   </energy>
  </scstep>
  <scstep>
   <time name="dav">    7.54    7.54</time>
   <time name="total">    8.05    8.02</time>
   <energy>
    <i name="e_fr_energy">   -108.84756467 </i>
    <i name="e_wo_entrp">   -108.84563705 </i>
    <i name="e_0_energy">   -108.84692213 </i>
   </energy>
  </scstep>
  <scstep>
   <time name="dav">    6.18    6.18</time>
   <time name="total">    6.69    6.66</time>
   <energy>
    <i name="e_fr_energy">   -108.84754797 </i>
    <i name="e_wo_entrp">   -108.84566787 </i>
    <i name="e_0_energy">   -108.84692127 </i>
   </energy>
  </scstep>
  <scstep>
   <time name="dav">    4.94    4.94</time>
   <time name="total">    5.00    4.98</time>
   <energy>
    <i name="alphaZ">    271.64501344 </i>
    <i name="ewald"> 149047.13615615 </i>
    <i name="hartreedc">-161264.79573883 </i>
    <i name="XCdc">     91.39010452 </i>
    <i name="pawpsdc">  15259.04336262 </i>
    <i name="pawaedc"> -14855.25346915 </i>
    <i name="eentropy">     -0.00187544 </i>
    <i name="bandstr">   -903.19275175 </i>
    <i name="atom">  12245.18164884 </i>
    <i name="e_fr_energy">   -108.84754959 </i>
    <i name="e_wo_entrp">   -108.84567415 </i>
    <i name="e_0_energy">   -108.84692444 </i>
   </energy>
  </scstep>
  <structure>
   <crystal>
    <varray name="basis" >
     <v>       5.54371716       0.00000000       0.00000000 </v>
     <v>       2.77185858       4.80099990       0.00000000 </v>
     <v>       0.00000000       0.00000000      36.78963917 </v>
    </varray>
    <i name="volume">    979.17042988 </i>
    <varray name="rec_basis" >
     <v>       0.18038438      -0.10414497       0.00000000 </v>
     <v>       0.00000000       0.20828994       0.00000000 </v>
     <v>       0.00000000       0.00000000       0.02718157 </v>
    </varray>
   </crystal>
   <varray name="positions" >
    <v>       0.00000000       0.00000000       0.40772349 </v>
    <v>       0.50000000       0.00000000       0.40772349 </v>
    <v>       0.00000000       0.50000000       0.40772349 </v>
    <v>       0.50000000       0.50000000       0.40772349 </v>
    <v>       0.16666667       0.16666667       0.46924116 </v>
    <v>       0.66666667       0.16666667       0.46924116 </v>
    <v>       0.16666667       0.66666667       0.46924116 </v>
    <v>       0.66666667       0.66666667       0.46924116 </v>
    <v>       0.83261499       0.33368806       0.52931852 </v>
    <v>       0.33346538       0.33329480       0.52959292 </v>
    <v>       0.83745557       0.83450613       0.53179679 </v>
    <v>       0.33420595       0.83290410       0.52940952 </v>
    <v>       0.00267158       0.00080336       0.59875763 </v>
    <v>       0.50886616      -0.00633449       0.59408041 </v>
    <v>      -0.00038177       0.49723455       0.59727685 </v>
    <v>       0.49846073       0.50063232       0.59248719 </v>
    <v>       0.28419923       0.16447331       0.66592163 </v>
    <v>       0.18160135       0.17425597       0.63557565 </v>
   </varray>
  </structure>
  <varray name="forces" >
   <v>       0.02648082      -0.00181320      -0.38023051 </v>
   <v>      -0.00834860       0.00674414      -0.35308806 </v>
   <v>       0.01500715      -0.01545277      -0.36716246 </v>
   <v>      -0.03309497       0.01047396      -0.51284239 </v>
   <v>       0.02742517       0.00126043      -0.15109770 </v>
   <v>      -0.02180612      -0.09612844      -0.21107569 </v>
   <v>      -0.09601632       0.04835311      -0.08515161 </v>
   <v>       0.12288948       0.07407852      -0.19985661 </v>
   <v>       0.20300147      -0.04480724       0.94661305 </v>
   <v>      -0.15312407      -0.01262511       0.72010622 </v>
   <v>       0.04691728      -0.14395413       0.50152864 </v>
   <v>      -0.01822728       0.16297509       0.81846264 </v>
   <v>       0.05665167      -0.10437589       0.28931839 </v>
   <v>       0.13351951      -0.03678068       0.00857430 </v>
   <v>       0.16422516       0.18554279       0.06263619 </v>
   <v>       0.04797556      -0.09430960      -0.23472459 </v>
   <v>      -2.31307701       0.09148910      -2.83617997 </v>
   <v>       1.79960109      -0.03067007       1.98417015 </v>
  </varray>
  <varray name="stress" >
   <v>     -10.77286644      -0.88712005      -5.89417721 </v>
   <v>      -0.88712003      -8.37398119       0.26280171 </v>
   <v>      -5.89417714       0.26280157       2.73469998 </v>
  </varray>
  <energy>
   <i name="e_fr_energy">   -108.84754959 </i>
   <i name="e_wo_entrp">   -108.84567415 </i>
   <i name="e_0_energy">   -108.84692444 </i>
  </energy>
  <time name="totalsc">  113.78  112.91</time>
 </calculation>
 <calculation>
  <scstep>
   <time name="dav">    6.97    6.97</time>
   <time name="total">    7.47    7.45</time>
   <energy>
    <i name="alphaZ">    271.64501344 </i>
    <i name="ewald"> 148848.17696625 </i>
    <i name="hartreedc">-161061.32211945 </i>
    <i name="XCdc">     91.56371406 </i>
    <i name="pawpsdc">  15259.00768296 </i>
    <i name="pawaedc"> -14855.21759344 </i>
    <i name="eentropy">     -0.00422974 </i>
    <i name="bandstr">   -907.92204872 </i>
    <i name="atom">  12245.18164884 </i>
    <i name="e_fr_energy">   -108.89096579 </i>
    <i name="e_wo_entrp">   -108.88673605 </i>
    <i name="e_0_energy">   -108.88955588 </i>
   </energy>
  </scstep>
  <scstep>
   <time name="dav">    7.54    7.54</time>
   <time name="total">    8.04    8.01</time>
   <energy>
    <i name="e_fr_energy">   -109.06115544 </i>
    <i name="e_wo_entrp">   -109.06034012 </i>
    <i name="e_0_energy">   -109.06088367 </i>
   </energy>
  </scstep>
  <scstep>
   <time name="dav">    7.89    7.90</time>
   <time name="total">    8.40    8.37</time>
   <energy>
    <i name="e_fr_energy">   -109.10930078 </i>
    <i name="e_wo_entrp">   -109.10916495 </i>
    <i name="e_0_energy">   -109.10925550 </i>
   </energy>
  </scstep>
  <scstep>
   <time name="dav">    7.74    7.75</time>
   <time name="total">    8.25    8.23</time>
   <energy>
    <i name="e_fr_energy">   -109.01142829 </i>
    <i name="e_wo_entrp">   -109.00740188 </i>
    <i name="e_0_energy">   -109.01008616 </i>
   </energy>
  </scstep>
  <scstep>
   <time name="dav">    7.72    7.73</time>
   <time name="total">    8.23    8.20</time>
   <energy>
    <i name="e_fr_energy">   -109.00134534 </i>
    <i name="e_wo_entrp">   -108.99800807 </i>
    <i name="e_0_energy">   -109.00023292 </i>
   </energy>
  </scstep>
  <scstep>
   <time name="dav">    7.54    7.54</time>
   <time name="total">    8.04    8.02</time>
   <energy>
    <i name="e_fr_energy">   -109.00093703 </i>
    <i name="e_wo_entrp">   -108.99668817 </i>
    <i name="e_0_energy">   -108.99952075 </i>
   </energy>
  </scstep>
  <scstep>
   <time name="dav">    7.63    7.63</time>
   <time name="total">    8.14    8.11</time>
   <energy>
    <i name="e_fr_energy">   -108.99959346 </i>
    <i name="e_wo_entrp">   -108.99652506 </i>
    <i name="e_0_energy">   -108.99857066 </i>
   </energy>
  </scstep>
  <scstep>
   <time name="dav">    7.73    7.73</time>
   <time name="total">    8.24    8.21</time>
   <energy>
    <i name="e_fr_energy">   -108.99845126 </i>
    <i name="e_wo_entrp">   -108.99469640 </i>
    <i name="e_0_energy">   -108.99719964 </i>
   </energy>
  </scstep>
  <scstep>
   <time name="dav">    7.69    7.69</time>
   <time name="total">    8.20    8.17</time>
   <energy>
    <i name="e_fr_energy">   -108.99842969 </i>
    <i name="e_wo_entrp">   -108.99468847 </i>
    <i name="e_0_energy">   -108.99718261 </i>
   </energy>
  </scstep>
  <scstep>
   <time name="dav">    7.46    7.46</time>
   <time name="total">    7.96    7.94</time>
   <energy>
    <i name="e_fr_energy">   -108.99827194 </i>
    <i name="e_wo_entrp">   -108.99453786 </i>
    <i name="e_0_energy">   -108.99702725 </i>
   </energy>
  </scstep>
  <scstep>
   <time name="dav">    7.71    7.71</time>
   <time name="total">    8.22    8.19</time>
   <energy>
    <i name="e_fr_energy">   -108.99819680 </i>
    <i name="e_wo_entrp">   -108.99452580 </i>
    <i name="e_0_energy">   -108.99697313 </i>
   </energy>
  </scstep>
  <scstep>
   <time name="dav">    5.65    5.65</time>
   <time name="total">    5.71    5.69</time>
   <energy>
    <i name="alphaZ">    271.64501344 </i>
    <i name="ewald"> 148848.17696625 </i>
    <i name="hartreedc">-161068.02513845 </i>
    <i name="XCdc">     91.71282700 </i>
    <i name="pawpsdc">  15330.82605516 </i>
    <i name="pawaedc"> -14926.99012342 </i>
    <i name="eentropy">     -0.00368015 </i>
    <i name="bandstr">   -901.52176175 </i>
    <i name="atom">  12245.18164884 </i>
    <i name="e_fr_energy">   -108.99819308 </i>
    <i name="e_wo_entrp">   -108.99451293 </i>
    <i name="e_0_energy">   -108.99696637 </i>
   </energy>
  </scstep>
  <structure>
   <crystal>
    <varray name="basis" >
     <v>       5.54371716       0.00000000       0.00000000 </v>
     <v>       2.77185858       4.80099990       0.00000000 </v>
     <v>       0.00000000       0.00000000      36.78963917 </v>
    </varray>
    <i name="volume">    979.17042988 </i>
    <varray name="rec_basis" >
     <v>       0.18038438      -0.10414497       0.00000000 </v>
     <v>       0.00000000       0.20828994       0.00000000 </v>
     <v>       0.00000000       0.00000000       0.02718157 </v>
    </varray>
   </crystal>
   <varray name="positions" >
    <v>       0.00000000       0.00000000       0.40772349 </v>
    <v>       0.50000000       0.00000000       0.40772349 </v>
    <v>       0.00000000       0.50000000       0.40772349 </v>
    <v>       0.50000000       0.50000000       0.40772349 </v>
    <v>       0.16666667       0.16666667       0.46924116 </v>
    <v>       0.66666667       0.16666667       0.46924116 </v>
    <v>       0.16666667       0.66666667       0.46924116 </v>
    <v>       0.66666667       0.66666667       0.46924116 </v>
    <v>       0.83276931       0.33368904       0.52918865 </v>
    <v>       0.33327631       0.33327670       0.52947732 </v>
    <v>       0.83857196       0.83454284       0.53213641 </v>
    <v>       0.33422839       0.83306619       0.52927342 </v>
    <v>       0.00349112       0.00091028       0.60026816 </v>
    <v>       0.51088195      -0.00769880       0.59450731 </v>
    <v>      -0.00024930       0.49662694       0.59842768 </v>
    <v>       0.49822401       0.50063783       0.59248239 </v>
    <v>       0.27231232       0.16418300       0.66513312 </v>
    <v>       0.18959505       0.17591213       0.63482312 </v>
   </varray>
  </structure>
  <varray name="forces" >
   <v>       0.02288801      -0.00321641      -0.38312877 </v>
   <v>      -0.00804396       0.00644120      -0.34817670 </v>
   <v>       0.01331875      -0.01308682      -0.36740333 </v>
   <v>      -0.03090625       0.00941169      -0.50944332 </v>
   <v>       0.02174607       0.00219388      -0.19615700 </v>
   <v>      -0.02257480      -0.13737499      -0.22201615 </v>
   <v>      -0.11728131       0.05858484      -0.11967159 </v>
   <v>       0.16768891       0.09866981      -0.19933259 </v>
   <v>       0.21651072      -0.04003531       1.08660928 </v>
   <v>      -0.14220951      -0.02255370       0.84468681 </v>
   <v>      -0.01248761      -0.15593726       0.43639591 </v>
   <v>      -0.00148935       0.16872701       0.95311605 </v>
   <v>      -0.11629166      -0.21288252      -0.16158590 </v>
   <v>       0.20704365      -0.07983628      -0.23410276 </v>
   <v>       0.17124815       0.52037541      -0.43801201 </v>
   <v>       0.08585709      -0.11093229      -0.23532610 </v>
   <v>      -0.73294503      -0.00396221       0.21053096 </v>
   <v>       0.27792815      -0.08458608      -0.11698279 </v>
  </varray>
  <varray name="stress" >
   <v>      -9.57503082      -0.80526521      -2.92900396 </v>
   <v>      -0.80526515      -8.19258530      -0.14736722 </v>
   <v>      -2.92900393      -0.14736730       9.63419978 </v>
  </varray>
  <energy>
   <i name="e_fr_energy">   -108.99819308 </i>
   <i name="e_wo_entrp">   -108.99451293 </i>
   <i name="e_0_energy">   -108.99696637 </i>
  </energy>
  <time name="totalsc">  115.94  115.07</time>
 </calculation>
 <calculation>
  <scstep>
   <time name="dav">    6.97    6.97</time>
   <time name="total">    7.47    7.45</time>
   <energy>
    <i name="alphaZ">    271.64501344 </i>
    <i name="ewald"> 148833.33380404 </i>
    <i name="hartreedc">-161052.99792570 </i>
    <i name="XCdc">     91.72528093 </i>
    <i name="pawpsdc">  15330.71470359 </i>
    <i name="pawaedc"> -14926.87850355 </i>
    <i name="eentropy">     -0.00382947 </i>
    <i name="bandstr">   -901.71865751 </i>
    <i name="atom">  12245.18164884 </i>
    <i name="e_fr_energy">   -108.99846539 </i>
    <i name="e_wo_entrp">   -108.99463591 </i>
    <i name="e_0_energy">   -108.99718889 </i>
   </energy>
  </scstep>
  <scstep>
   <time name="dav">    7.58    7.58</time>
   <time name="total">    8.08    8.06</time>
   <energy>
    <i name="e_fr_energy">   -108.99926832 </i>
    <i name="e_wo_entrp">   -108.99552677 </i>
    <i name="e_0_energy">   -108.99802114 </i>
   </energy>
  </scstep>
  <scstep>
   <time name="dav">    7.86    7.86</time>
   <time name="total">    8.36    8.33</time>
   <energy>
    <i name="e_fr_energy">   -108.99969526 </i>
    <i name="e_wo_entrp">   -108.99596236 </i>
    <i name="e_0_energy">   -108.99845096 </i>
   </energy>
  </scstep>
  <scstep>
   <time name="dav">    7.73    7.73</time>
   <time name="total">    8.24    8.22</time>
   <energy>
    <i name="e_fr_energy">   -108.99905892 </i>
    <i name="e_wo_entrp">   -108.99522476 </i>
    <i name="e_0_energy">   -108.99778086 </i>
   </energy>
  </scstep>
  <scstep>
   <time name="dav">    7.63    7.63</time>
   <time name="total">    8.14    8.11</time>
   <energy>
    <i name="e_fr_energy">   -108.99902995 </i>
    <i name="e_wo_entrp">   -108.99526205 </i>
    <i name="e_0_energy">   -108.99777398 </i>
   </energy>
  </scstep>
  <scstep>
   <time name="dav">    7.51    7.51</time>
   <time name="total">    8.02    7.99</time>
   <energy>
    <i name="e_fr_energy">   -108.99903477 </i>
    <i name="e_wo_entrp">   -108.99520793 </i>
    <i name="e_0_energy">   -108.99775915 </i>
   </energy>
  </scstep>
  <scstep>
   <time name="dav">    6.27    6.27</time>
   <time name="total">    6.32    6.30</time>
   <energy>
    <i name="alphaZ">    271.64501344 </i>
    <i name="ewald"> 148833.33380404 </i>
    <i name="hartreedc">-161053.78049373 </i>
    <i name="XCdc">     91.73721650 </i>
    <i name="pawpsdc">  15335.47283878 </i>
    <i name="pawaedc"> -14931.63339117 </i>
    <i name="eentropy">     -0.00375452 </i>
    <i name="bandstr">   -900.95191427 </i>
    <i name="atom">  12245.18164884 </i>
    <i name="e_fr_energy">   -108.99903208 </i>
    <i name="e_wo_entrp">   -108.99527756 </i>
    <i name="e_0_energy">   -108.99778057 </i>
   </energy>
  </scstep>
  <structure>
   <crystal>
    <varray name="basis" >
     <v>       5.54371716       0.00000000       0.00000000 </v>
     <v>       2.77185858       4.80099990       0.00000000 </v>
     <v>       0.00000000       0.00000000      36.78963917 </v>
    </varray>
    <i name="volume">    979.17042988 </i>
    <varray name="rec_basis" >
     <v>       0.18038438      -0.10414497       0.00000000 </v>
     <v>       0.00000000       0.20828994       0.00000000 </v>
     <v>       0.00000000       0.00000000       0.02718157 </v>
    </varray>
   </crystal>
   <varray name="positions" >
    <v>       0.00000000       0.00000000       0.40772349 </v>
    <v>       0.50000000       0.00000000       0.40772349 </v>
    <v>       0.00000000       0.50000000       0.40772349 </v>
    <v>       0.50000000       0.50000000       0.40772349 </v>
    <v>       0.16666667       0.16666667       0.46924116 </v>
    <v>       0.66666667       0.16666667       0.46924116 </v>
    <v>       0.16666667       0.66666667       0.46924116 </v>
    <v>       0.66666667       0.66666667       0.46924116 </v>
    <v>       0.83278076       0.33368911       0.52917901 </v>
    <v>       0.33326227       0.33327535       0.52946874 </v>
    <v>       0.83865484       0.83454556       0.53216162 </v>
    <v>       0.33423006       0.83307822       0.52926332 </v>
    <v>       0.00355196       0.00091822       0.60038029 </v>
    <v>       0.51103159      -0.00780008       0.59453900 </v>
    <v>      -0.00023946       0.49658183       0.59851311 </v>
    <v>       0.49820644       0.50063824       0.59248204 </v>
    <v>       0.27142991       0.16416144       0.66507459 </v>
    <v>       0.19018845       0.17603507       0.63476726 </v>
   </varray>
  </structure>
  <varray name="forces" >
   <v>       0.02262326      -0.00324894      -0.38376675 </v>
   <v>      -0.00840537       0.00652057      -0.34979515 </v>
   <v>       0.01303093      -0.01308345      -0.36777745 </v>
   <v>      -0.03083783       0.00934685      -0.51099128 </v>
   <v>       0.02118397       0.00225766      -0.19913911 </v>
   <v>      -0.02279488      -0.14032190      -0.22292334 </v>
   <v>      -0.11878460       0.05920806      -0.12252909 </v>
   <v>       0.17086731       0.10048109      -0.19920958 </v>
   <v>       0.21760343      -0.03958939       1.09738784 </v>
   <v>      -0.14165136      -0.02316830       0.85342358 </v>
   <v>      -0.01660657      -0.15664324       0.43345765 </v>
   <v>      -0.00034370       0.16915676       0.96251572 </v>
   <v>      -0.13124951      -0.22230938      -0.19420210 </v>
   <v>       0.21343255      -0.08377059      -0.25188215 </v>
   <v>       0.17074558       0.54980138      -0.47614746 </v>
   <v>       0.08829224      -0.11196580      -0.23740859 </v>
   <v>      -0.62492837      -0.01461908       0.46185923 </v>
   <v>       0.17782291      -0.08805232      -0.29287197 </v>
  </varray>
  <varray name="stress" >
   <v>      -9.47978378      -0.80000230      -2.72583540 </v>
   <v>      -0.80000204      -8.13695675      -0.19017055 </v>
   <v>      -2.72583535      -0.19017051      10.22167023 </v>
  </varray>
  <energy>
   <i name="e_fr_energy">   -108.99903208 </i>
   <i name="e_wo_entrp">   -108.99527756 </i>
   <i name="e_0_energy">   -108.99778057 </i>
  </energy>
  <time name="totalsc">   75.61   74.87</time>
 </calculation>
 <calculation>
  <scstep>
   <time name="dav">    6.97    6.97</time>
   <time name="total">    7.47    7.45</time>
   <energy>
    <i name="alphaZ">    271.64501344 </i>
    <i name="ewald"> 148822.09348468 </i>
    <i name="hartreedc">-161042.88831994 </i>
    <i name="XCdc">     91.72144010 </i>
    <i name="pawpsdc">  15335.60429292 </i>
    <i name="pawaedc"> -14931.76465086 </i>
    <i name="eentropy">     -0.00391117 </i>
    <i name="bandstr">   -900.62337508 </i>
    <i name="atom">  12245.18164884 </i>
    <i name="e_fr_energy">   -109.03437705 </i>
    <i name="e_wo_entrp">   -109.03046588 </i>
    <i name="e_0_energy">   -109.03307333 </i>
   </energy>
  </scstep>
  <scstep>
   <time name="dav">    7.28    7.28</time>
   <time name="total">    7.78    7.75</time>
   <energy>
    <i name="e_fr_energy">   -109.03917733 </i>
    <i name="e_wo_entrp">   -109.03525558 </i>
    <i name="e_0_energy">   -109.03787008 </i>
   </energy>
  </scstep>
  <scstep>
   <time name="dav">    7.64    7.64</time>
   <time name="total">    8.14    8.12</time>
   <energy>
    <i name="e_fr_energy">   -109.03733544 </i>
    <i name="e_wo_entrp">   -109.03334250 </i>
    <i name="e_0_energy">   -109.03600446 </i>
   </energy>
  </scstep>
  <scstep>
   <time name="dav">    7.54    7.54</time>
   <time name="total">    8.04    8.02</time>
   <energy>
    <i name="e_fr_energy">   -109.03814774 </i>
    <i name="e_wo_entrp">   -109.03439948 </i>
    <i name="e_0_energy">   -109.03689832 </i>
   </energy>
  </scstep>
  <scstep>
   <time name="dav">    7.50    7.50</time>
   <time name="total">    8.00    7.97</time>
   <energy>
    <i name="e_fr_energy">   -109.03733994 </i>
    <i name="e_wo_entrp">   -109.03329004 </i>
    <i name="e_0_energy">   -109.03598997 </i>
   </energy>
  </scstep>
  <scstep>
   <time name="dav">    7.89    7.89</time>
   <time name="total">    8.40    8.37</time>
   <energy>
    <i name="e_fr_energy">   -109.03716923 </i>
    <i name="e_wo_entrp">   -109.03325587 </i>
    <i name="e_0_energy">   -109.03586478 </i>
   </energy>
  </scstep>
  <scstep>
   <time name="dav">    7.59    7.60</time>
   <time name="total">    8.10    8.08</time>
   <energy>
    <i name="e_fr_energy">   -109.03712537 </i>
    <i name="e_wo_entrp">   -109.03324963 </i>
    <i name="e_0_energy">   -109.03583346 </i>
   </energy>
  </scstep>
  <scstep>
   <time name="dav">    5.62    5.62</time>
   <time name="total">    5.68    5.66</time>
   <energy>
    <i name="alphaZ">    271.64501344 </i>
    <i name="ewald"> 148822.09348468 </i>
    <i name="hartreedc">-161042.60924651 </i>
    <i name="XCdc">     91.71823220 </i>
    <i name="pawpsdc">  15329.45638760 </i>
    <i name="pawaedc"> -14925.58842619 </i>
    <i name="eentropy">     -0.00388281 </i>
    <i name="bandstr">   -900.93032667 </i>
    <i name="atom">  12245.18164884 </i>
    <i name="e_fr_energy">   -109.03711542 </i>
    <i name="e_wo_entrp">   -109.03323261 </i>
    <i name="e_0_energy">   -109.03582115 </i>
   </energy>
  </scstep>
  <structure>
   <crystal>
    <varray name="basis" >
     <v>       5.54371716       0.00000000       0.00000000 </v>
     <v>       2.77185858       4.80099990       0.00000000 </v>
     <v>       0.00000000       0.00000000      36.78963917 </v>
    </varray>
    <i name="volume">    979.17042988 </i>
    <varray name="rec_basis" >
     <v>       0.18038438      -0.10414497       0.00000000 </v>
     <v>       0.00000000       0.20828994       0.00000000 </v>
     <v>       0.00000000       0.00000000       0.02718157 </v>
    </varray>
   </crystal>
   <varray name="positions" >
    <v>       0.00000000       0.00000000       0.40772349 </v>
    <v>       0.50000000       0.00000000       0.40772349 </v>
    <v>       0.00000000       0.50000000       0.40772349 </v>
    <v>       0.50000000       0.50000000       0.40772349 </v>
    <v>       0.16666667       0.16666667       0.46924116 </v>
    <v>       0.66666667       0.16666667       0.46924116 </v>
    <v>       0.16666667       0.66666667       0.46924116 </v>
    <v>       0.66666667       0.66666667       0.46924116 </v>
    <v>       0.83315455       0.33361953       0.52942454 </v>
    <v>       0.33305767       0.33323372       0.52965898 </v>
    <v>       0.83882175       0.83427185       0.53227768 </v>
    <v>       0.33408188       0.83338364       0.52947760 </v>
    <v>       0.00358752       0.00053244       0.60040940 </v>
    <v>       0.51152868      -0.00801397       0.59450201 </v>
    <v>      -0.00045642       0.49751916       0.59845997 </v>
    <v>       0.49842784       0.50044159       0.59242731 </v>
    <v>       0.26991104       0.16412157       0.66514213 </v>
    <v>       0.19092668       0.17596100       0.63466333 </v>
   </varray>
  </structure>
  <varray name="forces" >
   <v>       0.02332430      -0.00214949      -0.38660607 </v>
   <v>      -0.00980446       0.00717620      -0.35369467 </v>
   <v>       0.01227528      -0.01472434      -0.37125178 </v>
   <v>      -0.02978765       0.00895491      -0.50586133 </v>
   <v>       0.01705263       0.00207114      -0.14292231 </v>
   <v>      -0.01792382      -0.12918066      -0.15838464 </v>
   <v>      -0.10727922       0.05567922      -0.07092881 </v>
   <v>       0.15945842       0.09272603      -0.13899345 </v>
   <v>       0.18755349      -0.04168942       0.99151333 </v>
   <v>      -0.11230831      -0.02287959       0.75787039 </v>
   <v>      -0.01163037      -0.13454272       0.36070519 </v>
   <v>      -0.00260044       0.14743577       0.86090851 </v>
   <v>      -0.09426182      -0.18404808      -0.19175251 </v>
   <v>       0.16682330      -0.04820135      -0.19057451 </v>
   <v>       0.16681638       0.46825981      -0.43190571 </v>
   <v>       0.09493241      -0.10728926      -0.18579387 </v>
   <v>      -0.64616518      -0.00075364       0.31824998 </v>
   <v>       0.20352509      -0.09684454      -0.16057772 </v>
  </varray>
  <varray name="stress" >
   <v>      -9.72593230      -0.79991114      -2.78530460 </v>
   <v>      -0.79991100      -8.44270821      -0.14697972 </v>
   <v>      -2.78530482      -0.14697956       9.66170391 </v>
  </varray>
  <energy>
   <i name="e_fr_energy">   -109.03711542 </i>
   <i name="e_wo_entrp">   -109.03323261 </i>
   <i name="e_0_energy">   -109.03582115 </i>
  </energy>
  <time name="totalsc">   82.59   81.82</time>
 </calculation>
 <calculation>
  <scstep>
   <time name="dav">    6.97    6.97</time>
   <time name="total">    7.47    7.45</time>
   <energy>
    <i name="alphaZ">    271.64501344 </i>
    <i name="ewald"> 148788.47983455 </i>
    <i name="hartreedc">-161009.80995385 </i>
    <i name="XCdc">     91.67482375 </i>
    <i name="pawpsdc">  15329.36185048 </i>
    <i name="pawaedc"> -14925.49357428 </i>
    <i name="eentropy">     -0.00421524 </i>
    <i name="bandstr">   -900.13567880 </i>
    <i name="atom">  12245.18164884 </i>
    <i name="e_fr_energy">   -109.10025111 </i>
    <i name="e_wo_entrp">   -109.09603587 </i>
    <i name="e_0_energy">   -109.09884603 </i>
   </energy>
  </scstep>
  <scstep>
   <time name="dav">    7.20    7.20</time>
   <time name="total">    7.71    7.68</time>
   <energy>
    <i name="e_fr_energy">   -109.13428520 </i>
    <i name="e_wo_entrp">   -109.13022100 </i>
    <i name="e_0_energy">   -109.13293047 </i>
   </energy>
  </scstep>
  <scstep>
   <time name="dav">    7.75    7.75</time>
   <time name="total">    8.25    8.22</time>
   <energy>
    <i name="e_fr_energy">   -109.12783423 </i>
    <i name="e_wo_entrp">   -109.12378341 </i>
    <i name="e_0_energy">   -109.12648395 </i>
   </energy>
  </scstep>
  <scstep>
   <time name="dav">    7.66    7.67</time>
   <time name="total">    8.17    8.14</time>
   <energy>
    <i name="e_fr_energy">   -109.13780113 </i>
    <i name="e_wo_entrp">   -109.13388111 </i>
    <i name="e_0_energy">   -109.13649446 </i>
   </energy>
  </scstep>
  <scstep>
   <time name="dav">    7.58    7.58</time>
   <time name="total">    8.09    8.06</time>
   <energy>
    <i name="e_fr_energy">   -109.12853131 </i>
    <i name="e_wo_entrp">   -109.12430842 </i>
    <i name="e_0_energy">   -109.12712368 </i>
   </energy>
  </scstep>
  <scstep>
   <time name="dav">    8.04    8.04</time>
   <time name="total">    8.55    8.52</time>
   <energy>
    <i name="e_fr_energy">   -109.12541321 </i>
    <i name="e_wo_entrp">   -109.12121301 </i>
    <i name="e_0_energy">   -109.12401314 </i>
   </energy>
  </scstep>
  <scstep>
   <time name="dav">    7.60    7.61</time>
   <time name="total">    8.11    8.09</time>
   <energy>
    <i name="e_fr_energy">   -109.12527296 </i>
    <i name="e_wo_entrp">   -109.12137340 </i>
    <i name="e_0_energy">   -109.12397311 </i>
   </energy>
  </scstep>
  <scstep>
   <time name="dav">    7.58    7.58</time>
   <time name="total">    8.09    8.06</time>
   <energy>
    <i name="e_fr_energy">   -109.12496507 </i>
    <i name="e_wo_entrp">   -109.12086033 </i>
    <i name="e_0_energy">   -109.12359682 </i>
   </energy>
  </scstep>
  <scstep>
   <time name="dav">    7.73    7.73</time>
   <time name="total">    8.25    8.22</time>
   <energy>
    <i name="e_fr_energy">   -109.12495495 </i>
    <i name="e_wo_entrp">   -109.12082582 </i>
    <i name="e_0_energy">   -109.12357857 </i>
   </energy>
  </scstep>
  <scstep>
   <time name="dav">    7.36    7.36</time>
   <time name="total">    7.87    7.84</time>
   <energy>
    <i name="e_fr_energy">   -109.12493771 </i>
    <i name="e_wo_entrp">   -109.12081066 </i>
    <i name="e_0_energy">   -109.12356203 </i>
   </energy>
  </scstep>
  <scstep>
   <time name="dav">    6.74    6.74</time>
   <time name="total">    7.24    7.22</time>
   <energy>
    <i name="e_fr_energy">   -109.12492038 </i>
    <i name="e_wo_entrp">   -109.12080445 </i>
    <i name="e_0_energy">   -109.12354841 </i>
   </energy>
  </scstep>
  <scstep>
   <time name="dav">    4.94    4.94</time>
   <time name="total">    5.00    4.98</time>
   <energy>
    <i name="alphaZ">    271.64501344 </i>
    <i name="ewald"> 148788.47983455 </i>
    <i name="hartreedc">-161007.76277311 </i>
    <i name="XCdc">     91.66078983 </i>
    <i name="pawpsdc">  15310.92060403 </i>
    <i name="pawaedc"> -14906.98663896 </i>
    <i name="eentropy">     -0.00412163 </i>
    <i name="bandstr">   -902.25927613 </i>
    <i name="atom">  12245.18164884 </i>
    <i name="e_fr_energy">   -109.12491913 </i>
    <i name="e_wo_entrp">   -109.12079750 </i>
    <i name="e_0_energy">   -109.12354525 </i>
   </energy>
  </scstep>
  <structure>
   <crystal>
    <varray name="basis" >
     <v>       5.54371716       0.00000000       0.00000000 </v>
     <v>       2.77185858       4.80099990       0.00000000 </v>
     <v>       0.00000000       0.00000000      36.78963917 </v>
    </varray>
    <i name="volume">    979.17042988 </i>
    <varray name="rec_basis" >
     <v>       0.18038438      -0.10414497       0.00000000 </v>
     <v>       0.00000000       0.20828994       0.00000000 </v>
     <v>       0.00000000       0.00000000       0.02718157 </v>
    </varray>
   </crystal>
   <varray name="positions" >
    <v>       0.00000000       0.00000000       0.40772349 </v>
    <v>       0.50000000       0.00000000       0.40772349 </v>
    <v>       0.00000000       0.50000000       0.40772349 </v>
    <v>       0.50000000       0.50000000       0.40772349 </v>
    <v>       0.16666667       0.16666667       0.46924116 </v>
    <v>       0.66666667       0.16666667       0.46924116 </v>
    <v>       0.16666667       0.66666667       0.46924116 </v>
    <v>       0.66666667       0.66666667       0.46924116 </v>
    <v>       0.83427589       0.33341079       0.53016115 </v>
    <v>       0.33244385       0.33310883       0.53022969 </v>
    <v>       0.83932250       0.83345073       0.53262584 </v>
    <v>       0.33363733       0.83429988       0.53012042 </v>
    <v>       0.00369421      -0.00062488       0.60049674 </v>
    <v>       0.51301994      -0.00865563       0.59439105 </v>
    <v>      -0.00110728       0.50033117       0.59830053 </v>
    <v>       0.49909202       0.49985163       0.59226314 </v>
    <v>       0.26535446       0.16400195       0.66534475 </v>
    <v>       0.19314136       0.17573878       0.63435154 </v>
   </varray>
  </structure>
  <varray name="forces" >
   <v>       0.02559844       0.00060228      -0.39644869 </v>
   <v>      -0.01332036       0.00918294      -0.37030803 </v>
   <v>       0.01080507      -0.01917529      -0.38435155 </v>
   <v>      -0.02625611       0.00769745      -0.49558264 </v>
   <v>       0.00634853       0.00166738       0.02432366 </v>
   <v>      -0.00455146      -0.09898574       0.02787526 </v>
   <v>      -0.07511576       0.04564210       0.08000043 </v>
   <v>       0.12881174       0.07181241       0.03620915 </v>
   <v>       0.10007220      -0.05144651       0.68288070 </v>
   <v>      -0.02501909      -0.02155625       0.47427676 </v>
   <v>       0.00670563      -0.06670073       0.14121044 </v>
   <v>      -0.01205757       0.08382079       0.56256473 </v>
   <v>       0.01545175      -0.07143022      -0.18094730 </v>
   <v>       0.02998852       0.05901724      -0.00218528 </v>
   <v>       0.15677478       0.22412741      -0.29058260 </v>
   <v>       0.11341636      -0.09227801      -0.02517055 </v>
   <v>      -0.72046646       0.04292768      -0.19467065 </v>
   <v>       0.28281379      -0.12492494       0.31090617 </v>
  </varray>
  <varray name="stress" >
   <v>     -10.21920727      -0.78107472      -2.94521136 </v>
   <v>      -0.78107458      -9.11721882      -0.00373941 </v>
   <v>      -2.94521140      -0.00373941       8.22114300 </v>
  </varray>
  <energy>
   <i name="e_fr_energy">   -109.12491913 </i>
   <i name="e_wo_entrp">   -109.12079750 </i>
   <i name="e_0_energy">   -109.12354525 </i>
  </energy>
  <time name="totalsc">  113.81  112.94</time>
 </calculation>
 <calculation>
  <scstep>
   <time name="dav">    6.98    6.98</time>
   <time name="total">    7.48    7.46</time>
   <energy>
    <i name="alphaZ">    271.64501344 </i>
    <i name="ewald"> 148721.77834691 </i>
    <i name="hartreedc">-160942.56928062 </i>
    <i name="XCdc">     91.59499240 </i>
    <i name="pawpsdc">  15310.85049067 </i>
    <i name="pawaedc"> -14906.91636474 </i>
    <i name="eentropy">     -0.00415432 </i>
    <i name="bandstr">   -900.63683186 </i>
    <i name="atom">  12245.18164884 </i>
    <i name="e_fr_energy">   -109.07613926 </i>
    <i name="e_wo_entrp">   -109.07198495 </i>
    <i name="e_0_energy">   -109.07475449 </i>
   </energy>
  </scstep>
  <scstep>
   <time name="dav">    7.31    7.32</time>
   <time name="total">    7.82    7.79</time>
   <energy>
    <i name="e_fr_energy">   -109.26943927 </i>
    <i name="e_wo_entrp">   -109.26635785 </i>
    <i name="e_0_energy">   -109.26841213 </i>
   </energy>
  </scstep>
  <scstep>
   <time name="dav">    7.61    7.62</time>
   <time name="total">    8.12    8.09</time>
   <energy>
    <i name="e_fr_energy">   -109.18970575 </i>
    <i name="e_wo_entrp">   -109.18568717 </i>
    <i name="e_0_energy">   -109.18836622 </i>
   </energy>
  </scstep>
  <scstep>
   <time name="dav">    7.49    7.49</time>
   <time name="total">    8.00    7.97</time>
   <energy>
    <i name="e_fr_energy">   -109.20476637 </i>
    <i name="e_wo_entrp">   -109.19931344 </i>
    <i name="e_0_energy">   -109.20294873 </i>
   </energy>
  </scstep>
  <scstep>
   <time name="dav">    7.43    7.43</time>
   <time name="total">    7.94    7.91</time>
   <energy>
    <i name="e_fr_energy">   -109.18945302 </i>
    <i name="e_wo_entrp">   -109.18713973 </i>
    <i name="e_0_energy">   -109.18868192 </i>
   </energy>
  </scstep>
  <scstep>
   <time name="dav">    7.74    7.74</time>
   <time name="total">    8.24    8.22</time>
   <energy>
    <i name="e_fr_energy">   -109.17825564 </i>
    <i name="e_wo_entrp">   -109.17427715 </i>
    <i name="e_0_energy">   -109.17692947 </i>
   </energy>
  </scstep>
  <scstep>
   <time name="dav">    7.53    7.53</time>
   <time name="total">    8.03    8.01</time>
   <energy>
    <i name="e_fr_energy">   -109.17703773 </i>
    <i name="e_wo_entrp">   -109.17299972 </i>
    <i name="e_0_energy">   -109.17569172 </i>
   </energy>
  </scstep>
  <scstep>
   <time name="dav">    7.69    7.69</time>
   <time name="total">    8.19    8.17</time>
   <energy>
    <i name="e_fr_energy">   -109.17700916 </i>
    <i name="e_wo_entrp">   -109.17260293 </i>
    <i name="e_0_energy">   -109.17554041 </i>
   </energy>
  </scstep>
  <scstep>
   <time name="dav">    7.44    7.44</time>
   <time name="total">    7.95    7.93</time>
   <energy>
    <i name="e_fr_energy">   -109.17686635 </i>
    <i name="e_wo_entrp">   -109.17269726 </i>
    <i name="e_0_energy">   -109.17547665 </i>
   </energy>
  </scstep>
  <scstep>
   <time name="dav">    7.43    7.43</time>
   <time name="total">    7.94    7.92</time>
   <energy>
    <i name="e_fr_energy">   -109.17671773 </i>
    <i name="e_wo_entrp">   -109.17244221 </i>
    <i name="e_0_energy">   -109.17529256 </i>
   </energy>
  </scstep>
  <scstep>
   <time name="dav">    7.46    7.46</time>
   <time name="total">    7.97    7.94</time>
   <energy>
    <i name="e_fr_energy">   -109.17648301 </i>
    <i name="e_wo_entrp">   -109.17230275 </i>
    <i name="e_0_energy">   -109.17508959 </i>
   </energy>
  </scstep>
  <scstep>
   <time name="dav">    5.66    5.66</time>
   <time name="total">    6.18    6.15</time>
   <energy>
    <i name="e_fr_energy">   -109.17643427 </i>
    <i name="e_wo_entrp">   -109.17229557 </i>
    <i name="e_0_energy">   -109.17505470 </i>
   </energy>
  </scstep>
  <scstep>
   <time name="dav">    4.83    4.83</time>
   <time name="total">    4.88    4.87</time>
   <energy>
    <i name="alphaZ">    271.64501344 </i>
    <i name="ewald"> 148721.77834691 </i>
    <i name="hartreedc">-160937.16744506 </i>
    <i name="XCdc">     91.55795614 </i>
    <i name="pawpsdc">  15282.45361952 </i>
    <i name="pawaedc"> -14878.47137404 </i>
    <i name="eentropy">     -0.00412677 </i>
    <i name="bandstr">   -906.15007776 </i>
    <i name="atom">  12245.18164884 </i>
    <i name="e_fr_energy">   -109.17643876 </i>
    <i name="e_wo_entrp">   -109.17231198 </i>
    <i name="e_0_energy">   -109.17506317 </i>
   </energy>
  </scstep>
  <structure>
   <crystal>
    <varray name="basis" >
     <v>       5.54371716       0.00000000       0.00000000 </v>
     <v>       2.77185858       4.80099990       0.00000000 </v>
     <v>       0.00000000       0.00000000      36.78963917 </v>
    </varray>
    <i name="volume">    979.17042988 </i>
    <varray name="rec_basis" >
     <v>       0.18038438      -0.10414497       0.00000000 </v>
     <v>       0.00000000       0.20828994       0.00000000 </v>
     <v>       0.00000000       0.00000000       0.02718157 </v>
    </varray>
   </crystal>
   <varray name="positions" >
    <v>       0.00000000       0.00000000       0.40772349 </v>
    <v>       0.50000000       0.00000000       0.40772349 </v>
    <v>       0.00000000       0.50000000       0.40772349 </v>
    <v>       0.50000000       0.50000000       0.40772349 </v>
    <v>       0.16666667       0.16666667       0.46924116 </v>
    <v>       0.66666667       0.16666667       0.46924116 </v>
    <v>       0.16666667       0.66666667       0.46924116 </v>
    <v>       0.66666667       0.66666667       0.46924116 </v>
    <v>       0.83651859       0.33299330       0.53163435 </v>
    <v>       0.33121622       0.33285904       0.53137111 </v>
    <v>       0.84032399       0.83180847       0.53332216 </v>
    <v>       0.33274823       0.83613237       0.53140608 </v>
    <v>       0.00390759      -0.00293954       0.60067142 </v>
    <v>       0.51600248      -0.00993895       0.59416913 </v>
    <v>      -0.00240902       0.50595518       0.59798167 </v>
    <v>       0.50042040       0.49867171       0.59193480 </v>
    <v>       0.25624128       0.16376271       0.66574999 </v>
    <v>       0.19757073       0.17529433       0.63372797 </v>
   </varray>
  </structure>
  <varray name="forces" >
   <v>       0.02977896       0.00584976      -0.41464868 </v>
   <v>      -0.02004122       0.01338271      -0.40004786 </v>
   <v>       0.00791590      -0.02785356      -0.40790753 </v>
   <v>      -0.01849752       0.00494993      -0.48463814 </v>
   <v>      -0.01149889       0.00156247       0.32801549 </v>
   <v>       0.01548142      -0.05199336       0.35214786 </v>
   <v>      -0.02323267       0.02890740       0.34709249 </v>
   <v>       0.07975555       0.03941494       0.34476533 </v>
   <v>      -0.05741903      -0.08650305       0.08145194 </v>
   <v>       0.13663613      -0.02408161      -0.08863911 </v>
   <v>       0.05283468       0.07302285      -0.30357752 </v>
   <v>      -0.03949909      -0.02883647      -0.02030684 </v>
   <v>       0.23164024       0.15007134      -0.13431107 </v>
   <v>      -0.23559072       0.28036492       0.40391368 </v>
   <v>       0.14202404      -0.26455797       0.03192139 </v>
   <v>       0.14073567      -0.06050650       0.33836956 </v>
   <v>      -0.82446813       0.13305169      -1.45347580 </v>
   <v>       0.39344470      -0.18624548       1.47987482 </v>
  </varray>
  <varray name="stress" >
   <v>     -10.51716498      -0.76659598      -3.22194266 </v>
   <v>      -0.76659605      -9.72060604       0.29406709 </v>
   <v>      -3.22194274       0.29406693       5.65131437 </v>
  </varray>
  <energy>
   <i name="e_fr_energy">   -109.17643876 </i>
   <i name="e_wo_entrp">   -109.17231198 </i>
   <i name="e_0_energy">   -109.17506317 </i>
  </energy>
  <time name="totalsc">  119.68  118.79</time>
 </calculation>
 <calculation>
  <scstep>
   <time name="dav">    6.97    6.97</time>
   <time name="total">    7.47    7.45</time>
   <energy>
    <i name="alphaZ">    271.64501344 </i>
    <i name="ewald"> 148708.60517181 </i>
    <i name="hartreedc">-160922.32794736 </i>
    <i name="XCdc">     91.61553350 </i>
    <i name="pawpsdc">  15282.38454152 </i>
    <i name="pawaedc"> -14878.40216350 </i>
    <i name="eentropy">     -0.00405039 </i>
    <i name="bandstr">   -907.88545913 </i>
    <i name="atom">  12245.18164884 </i>
    <i name="e_fr_energy">   -109.18771125 </i>
    <i name="e_wo_entrp">   -109.18366086 </i>
    <i name="e_0_energy">   -109.18636112 </i>
   </energy>
  </scstep>
  <scstep>
   <time name="dav">    7.16    7.16</time>
   <time name="total">    7.66    7.64</time>
   <energy>
    <i name="e_fr_energy">   -109.19974782 </i>
    <i name="e_wo_entrp">   -109.19583200 </i>
    <i name="e_0_energy">   -109.19844255 </i>
   </energy>
  </scstep>
  <scstep>
   <time name="dav">    8.39    8.39</time>
   <time name="total">    8.89    8.87</time>
   <energy>
    <i name="e_fr_energy">   -109.20501003 </i>
    <i name="e_wo_entrp">   -109.20172144 </i>
    <i name="e_0_energy">   -109.20391383 </i>
   </energy>
  </scstep>
  <scstep>
   <time name="dav">    8.23    8.23</time>
   <time name="total">    8.73    8.71</time>
   <energy>
    <i name="e_fr_energy">   -109.20541945 </i>
    <i name="e_wo_entrp">   -109.20092939 </i>
    <i name="e_0_energy">   -109.20392276 </i>
   </energy>
  </scstep>
  <scstep>
   <time name="dav">    7.84    7.85</time>
   <time name="total">    8.35    8.32</time>
   <energy>
    <i name="e_fr_energy">   -109.19929370 </i>
    <i name="e_wo_entrp">   -109.19595123 </i>
    <i name="e_0_energy">   -109.19817954 </i>
   </energy>
  </scstep>
  <scstep>
   <time name="dav">    7.69    7.69</time>
   <time name="total">    8.20    8.18</time>
   <energy>
    <i name="e_fr_energy">   -109.19801686 </i>
    <i name="e_wo_entrp">   -109.19383061 </i>
    <i name="e_0_energy">   -109.19662144 </i>
   </energy>
  </scstep>
  <scstep>
   <time name="dav">    7.65    7.65</time>
   <time name="total">    8.15    8.13</time>
   <energy>
    <i name="e_fr_energy">   -109.19788616 </i>
    <i name="e_wo_entrp">   -109.19389004 </i>
    <i name="e_0_energy">   -109.19655412 </i>
   </energy>
  </scstep>
  <scstep>
   <time name="dav">    7.79    7.79</time>
   <time name="total">    8.29    8.27</time>
   <energy>
    <i name="e_fr_energy">   -109.19786339 </i>
    <i name="e_wo_entrp">   -109.19379945 </i>
    <i name="e_0_energy">   -109.19650874 </i>
   </energy>
  </scstep>
  <scstep>
   <time name="dav">    7.17    7.18</time>
   <time name="total">    7.69    7.66</time>
   <energy>
    <i name="e_fr_energy">   -109.19783059 </i>
    <i name="e_wo_entrp">   -109.19379892 </i>
    <i name="e_0_energy">   -109.19648670 </i>
   </energy>
  </scstep>
  <scstep>
   <time name="dav">    5.44    5.44</time>
   <time name="total">    5.95    5.92</time>
   <energy>
    <i name="e_fr_energy">   -109.19783373 </i>
    <i name="e_wo_entrp">   -109.19375827 </i>
    <i name="e_0_energy">   -109.19647524 </i>
   </energy>
  </scstep>
  <scstep>
   <time name="dav">    5.51    5.51</time>
   <time name="total">    5.56    5.55</time>
   <energy>
    <i name="alphaZ">    271.64501344 </i>
    <i name="ewald"> 148708.60517181 </i>
    <i name="hartreedc">-160927.09147936 </i>
    <i name="XCdc">     91.66138508 </i>
    <i name="pawpsdc">  15305.40494694 </i>
    <i name="pawaedc"> -14901.40141454 </i>
    <i name="eentropy">     -0.00406137 </i>
    <i name="bandstr">   -903.19905405 </i>
    <i name="atom">  12245.18164884 </i>
    <i name="e_fr_energy">   -109.19784320 </i>
    <i name="e_wo_entrp">   -109.19378183 </i>
    <i name="e_0_energy">   -109.19648941 </i>
   </energy>
  </scstep>
  <structure>
   <crystal>
    <varray name="basis" >
     <v>       5.54371716       0.00000000       0.00000000 </v>
     <v>       2.77185858       4.80099990       0.00000000 </v>
     <v>       0.00000000       0.00000000      36.78963917 </v>
    </varray>
    <i name="volume">    979.17042988 </i>
    <varray name="rec_basis" >
     <v>       0.18038438      -0.10414497       0.00000000 </v>
     <v>       0.00000000       0.20828994       0.00000000 </v>
     <v>       0.00000000       0.00000000       0.02718157 </v>
    </varray>
   </crystal>
   <varray name="positions" >
    <v>       0.00000000       0.00000000       0.40772349 </v>
    <v>       0.50000000       0.00000000       0.40772349 </v>
    <v>       0.00000000       0.50000000       0.40772349 </v>
    <v>       0.50000000       0.50000000       0.40772349 </v>
    <v>       0.16666667       0.16666667       0.46924116 </v>
    <v>       0.66666667       0.16666667       0.46924116 </v>
    <v>       0.16666667       0.66666667       0.46924116 </v>
    <v>       0.66666667       0.66666667       0.46924116 </v>
    <v>       0.83703572       0.33275022       0.53199896 </v>
    <v>       0.33114545       0.33275993       0.53162046 </v>
    <v>       0.84057523       0.83154409       0.53341977 </v>
    <v>       0.33250580       0.83651550       0.53170430 </v>
    <v>       0.00416801      -0.00323324       0.60068321 </v>
    <v>       0.51612845      -0.00977177       0.59420512 </v>
    <v>      -0.00228817       0.50683632       0.59791357 </v>
    <v>       0.50098777       0.49829265       0.59193141 </v>
    <v>       0.25278936       0.16392910       0.66552789 </v>
    <v>       0.19933970       0.17487795       0.63390443 </v>
   </varray>
  </structure>
  <varray name="forces" >
   <v>       0.03052086       0.00769819      -0.41790517 </v>
   <v>      -0.02211453       0.01471119      -0.40829624 </v>
   <v>       0.00672638      -0.03012404      -0.41317674 </v>
   <v>      -0.01547418       0.00405706      -0.48407548 </v>
   <v>      -0.01635641       0.00267345       0.39704376 </v>
   <v>       0.02068661      -0.04017415       0.41570255 </v>
   <v>      -0.01008405       0.02349003       0.39751045 </v>
   <v>       0.06823551       0.03020714       0.41235980 </v>
   <v>      -0.07780269      -0.08333901      -0.06078481 </v>
   <v>       0.16013457      -0.02351199      -0.20554411 </v>
   <v>       0.04347058       0.09484475      -0.35763844 </v>
   <v>      -0.03334589      -0.05485820      -0.14349151 </v>
   <v>       0.23835619       0.17363046      -0.13701688 </v>
   <v>      -0.24056579       0.28234979       0.43574218 </v>
   <v>       0.12686637      -0.33475546       0.09409084 </v>
   <v>       0.14438906      -0.04014706       0.40925445 </v>
   <v>      -0.44014659       0.07467859       0.00905265 </v>
   <v>       0.01650399      -0.10143071       0.05717269 </v>
  </varray>
  <varray name="stress" >
   <v>     -10.40160384      -0.74911555      -2.46515348 </v>
   <v>      -0.74911550      -9.90179798       0.25353513 </v>
   <v>      -2.46515354       0.25353511       8.48846020 </v>
  </varray>
  <energy>
   <i name="e_fr_energy">   -109.19784320 </i>
   <i name="e_wo_entrp">   -109.19378183 </i>
   <i name="e_0_energy">   -109.19648941 </i>
  </energy>
  <time name="totalsc">  105.94  105.09</time>
 </calculation>
 <calculation>
  <scstep>
   <time name="dav">    6.97    6.97</time>
   <time name="total">    7.47    7.45</time>
   <energy>
    <i name="alphaZ">    271.64501344 </i>
    <i name="ewald"> 148707.79953717 </i>
    <i name="hartreedc">-160926.23999061 </i>
    <i name="XCdc">     91.66528650 </i>
    <i name="pawpsdc">  15305.31941998 </i>
    <i name="pawaedc"> -14901.31618387 </i>
    <i name="eentropy">     -0.00406530 </i>
    <i name="bandstr">   -903.24854466 </i>
    <i name="atom">  12245.18164884 </i>
    <i name="e_fr_energy">   -109.19787850 </i>
    <i name="e_wo_entrp">   -109.19381320 </i>
    <i name="e_0_energy">   -109.19652340 </i>
   </energy>
  </scstep>
  <scstep>
   <time name="dav">    7.41    7.41</time>
   <time name="total">    7.91    7.88</time>
   <energy>
    <i name="e_fr_energy">   -109.19798991 </i>
    <i name="e_wo_entrp">   -109.19400863 </i>
    <i name="e_0_energy">   -109.19666282 </i>
   </energy>
  </scstep>
  <scstep>
   <time name="dav">    7.02    7.02</time>
   <time name="total">    7.53    7.50</time>
   <energy>
    <i name="e_fr_energy">   -109.19796436 </i>
    <i name="e_wo_entrp">   -109.19386504 </i>
    <i name="e_0_energy">   -109.19659792 </i>
   </energy>
  </scstep>
  <scstep>
   <time name="dav">    5.33    5.33</time>
   <time name="total">    5.84    5.81</time>
   <energy>
    <i name="e_fr_energy">   -109.19792121 </i>
    <i name="e_wo_entrp">   -109.19383843 </i>
    <i name="e_0_energy">   -109.19656028 </i>
   </energy>
  </scstep>
  <scstep>
   <time name="dav">    5.16    5.16</time>
   <time name="total">    5.22    5.20</time>
   <energy>
    <i name="alphaZ">    271.64501344 </i>
    <i name="ewald"> 148707.79953717 </i>
    <i name="hartreedc">-160926.64378630 </i>
    <i name="XCdc">     91.66859376 </i>
    <i name="pawpsdc">  15306.45199155 </i>
    <i name="pawaedc"> -14902.44729160 </i>
    <i name="eentropy">     -0.00404131 </i>
    <i name="bandstr">   -902.84958726 </i>
    <i name="atom">  12245.18164884 </i>
    <i name="e_fr_energy">   -109.19792171 </i>
    <i name="e_wo_entrp">   -109.19388040 </i>
    <i name="e_0_energy">   -109.19657461 </i>
   </energy>
  </scstep>
  <structure>
   <crystal>
    <varray name="basis" >
     <v>       5.54371716       0.00000000       0.00000000 </v>
     <v>       2.77185858       4.80099990       0.00000000 </v>
     <v>       0.00000000       0.00000000      36.78963917 </v>
    </varray>
    <i name="volume">    979.17042988 </i>
    <varray name="rec_basis" >
     <v>       0.18038438      -0.10414497       0.00000000 </v>
     <v>       0.00000000       0.20828994       0.00000000 </v>
     <v>       0.00000000       0.00000000       0.02718157 </v>
    </varray>
   </crystal>
   <varray name="positions" >
    <v>       0.00000000       0.00000000       0.40772349 </v>
    <v>       0.50000000       0.00000000       0.40772349 </v>
    <v>       0.00000000       0.50000000       0.40772349 </v>
    <v>       0.50000000       0.50000000       0.40772349 </v>
    <v>       0.16666667       0.16666667       0.46924116 </v>
    <v>       0.66666667       0.16666667       0.46924116 </v>
    <v>       0.16666667       0.66666667       0.46924116 </v>
    <v>       0.66666667       0.66666667       0.46924116 </v>
    <v>       0.83706752       0.33273527       0.53202139 </v>
    <v>       0.33114109       0.33275383       0.53163579 </v>
    <v>       0.84059068       0.83152783       0.53342577 </v>
    <v>       0.33249089       0.83653906       0.53172264 </v>
    <v>       0.00418402      -0.00325130       0.60068393 </v>
    <v>       0.51613619      -0.00976149       0.59420733 </v>
    <v>      -0.00228074       0.50689051       0.59790938 </v>
    <v>       0.50102266       0.49826934       0.59193121 </v>
    <v>       0.25257709       0.16393933       0.66551424 </v>
    <v>       0.19944848       0.17485235       0.63391528 </v>
   </varray>
  </structure>
  <varray name="forces" >
   <v>       0.03054549       0.00792723      -0.42137619 </v>
   <v>      -0.02250879       0.01488239      -0.40944552 </v>
   <v>       0.00649577      -0.03035707      -0.41499465 </v>
   <v>      -0.01553398       0.00402753      -0.48631089 </v>
   <v>      -0.01683003       0.00277550       0.40264987 </v>
   <v>       0.02080211      -0.03937054       0.42076343 </v>
   <v>      -0.00952906       0.02317389       0.40199795 </v>
   <v>       0.06727946       0.02960656       0.41723705 </v>
   <v>      -0.07896708      -0.08307585      -0.06764197 </v>
   <v>       0.16137494      -0.02360739      -0.21082308 </v>
   <v>       0.04280506       0.09629775      -0.36013182 </v>
   <v>      -0.03293965      -0.05635246      -0.14925233 </v>
   <v>       0.23857239       0.17473936      -0.13801251 </v>
   <v>      -0.24055407       0.28220217       0.43735404 </v>
   <v>       0.12610469      -0.33890970       0.09731662 </v>
   <v>       0.14464912      -0.03879930       0.41154125 </v>
   <v>      -0.41633295       0.07104403       0.10158923 </v>
   <v>      -0.00543343      -0.09620413      -0.03246048 </v>
  </varray>
  <varray name="stress" >
   <v>     -10.37438125      -0.74648277      -2.41977813 </v>
   <v>      -0.74648272      -9.89170237       0.25209016 </v>
   <v>      -2.41977809       0.25208990       8.69230782 </v>
  </varray>
  <energy>
   <i name="e_fr_energy">   -109.19792171 </i>
   <i name="e_wo_entrp">   -109.19388040 </i>
   <i name="e_0_energy">   -109.19657461 </i>
  </energy>
  <time name="totalsc">   54.95   54.25</time>
 </calculation>
 <calculation>
  <scstep>
   <time name="dav">    6.97    6.97</time>
   <time name="total">    7.47    7.45</time>
   <energy>
    <i name="alphaZ">    271.64501344 </i>
    <i name="ewald"> 148693.86011322 </i>
    <i name="hartreedc">-160912.75091986 </i>
    <i name="XCdc">     91.66704004 </i>
    <i name="pawpsdc">  15306.69152983 </i>
    <i name="pawaedc"> -14902.68680712 </i>
    <i name="eentropy">     -0.00424908 </i>
    <i name="bandstr">   -902.80995049 </i>
    <i name="atom">  12245.18164884 </i>
    <i name="e_fr_energy">   -109.20658116 </i>
    <i name="e_wo_entrp">   -109.20233208 </i>
    <i name="e_0_energy">   -109.20516480 </i>
   </energy>
  </scstep>
  <scstep>
   <time name="dav">    7.43    7.43</time>
   <time name="total">    7.93    7.91</time>
   <energy>
    <i name="e_fr_energy">   -109.20906877 </i>
    <i name="e_wo_entrp">   -109.20531275 </i>
    <i name="e_0_energy">   -109.20781677 </i>
   </energy>
  </scstep>
  <scstep>
   <time name="dav">    7.55    7.56</time>
   <time name="total">    8.06    8.03</time>
   <energy>
    <i name="e_fr_energy">   -109.20735491 </i>
    <i name="e_wo_entrp">   -109.20324528 </i>
    <i name="e_0_energy">   -109.20598504 </i>
   </energy>
  </scstep>
  <scstep>
   <time name="dav">    7.85    7.85</time>
   <time name="total">    8.36    8.34</time>
   <energy>
    <i name="e_fr_energy">   -109.20730630 </i>
    <i name="e_wo_entrp">   -109.20312042 </i>
    <i name="e_0_energy">   -109.20591101 </i>
   </energy>
  </scstep>
  <scstep>
   <time name="dav">    7.46    7.46</time>
   <time name="total">    7.97    7.94</time>
   <energy>
    <i name="e_fr_energy">   -109.20729519 </i>
    <i name="e_wo_entrp">   -109.20311550 </i>
    <i name="e_0_energy">   -109.20590196 </i>
   </energy>
  </scstep>
  <scstep>
   <time name="dav">    7.25    7.25</time>
   <time name="total">    7.75    7.73</time>
   <energy>
    <i name="e_fr_energy">   -109.20731420 </i>
    <i name="e_wo_entrp">   -109.20318049 </i>
    <i name="e_0_energy">   -109.20593630 </i>
   </energy>
  </scstep>
  <scstep>
   <time name="dav">    6.11    6.11</time>
   <time name="total">    6.61    6.59</time>
   <energy>
    <i name="e_fr_energy">   -109.20729183 </i>
    <i name="e_wo_entrp">   -109.20307789 </i>
    <i name="e_0_energy">   -109.20588719 </i>
   </energy>
  </scstep>
  <scstep>
   <time name="dav">    5.04    5.04</time>
   <time name="total">    5.09    5.08</time>
   <energy>
    <i name="alphaZ">    271.64501344 </i>
    <i name="ewald"> 148693.86011322 </i>
    <i name="hartreedc">-160912.91793935 </i>
    <i name="XCdc">     91.67038836 </i>
    <i name="pawpsdc">  15306.73576224 </i>
    <i name="pawaedc"> -14902.71725367 </i>
    <i name="eentropy">     -0.00416949 </i>
    <i name="bandstr">   -902.66084588 </i>
    <i name="atom">  12245.18164884 </i>
    <i name="e_fr_energy">   -109.20728229 </i>
    <i name="e_wo_entrp">   -109.20311280 </i>
    <i name="e_0_energy">   -109.20589246 </i>
   </energy>
  </scstep>
  <structure>
   <crystal>
    <varray name="basis" >
     <v>       5.54371716       0.00000000       0.00000000 </v>
     <v>       2.77185858       4.80099990       0.00000000 </v>
     <v>       0.00000000       0.00000000      36.78963917 </v>
    </varray>
    <i name="volume">    979.17042988 </i>
    <varray name="rec_basis" >
     <v>       0.18038438      -0.10414497       0.00000000 </v>
     <v>       0.00000000       0.20828994       0.00000000 </v>
     <v>       0.00000000       0.00000000       0.02718157 </v>
    </varray>
   </crystal>
   <varray name="positions" >
    <v>       0.00000000       0.00000000       0.40772349 </v>
    <v>       0.50000000       0.00000000       0.40772349 </v>
    <v>       0.00000000       0.50000000       0.40772349 </v>
    <v>       0.50000000       0.50000000       0.40772349 </v>
    <v>       0.16666667       0.16666667       0.46924116 </v>
    <v>       0.66666667       0.16666667       0.46924116 </v>
    <v>       0.16666667       0.66666667       0.46924116 </v>
    <v>       0.66666667       0.66666667       0.46924116 </v>
    <v>       0.83703894       0.33258655       0.53201835 </v>
    <v>       0.33139559       0.33271059       0.53159733 </v>
    <v>       0.84058013       0.83168236       0.53334933 </v>
    <v>       0.33248237       0.83645610       0.53169939 </v>
    <v>       0.00439459      -0.00296482       0.60065380 </v>
    <v>       0.51554822      -0.00927784       0.59430522 </v>
    <v>      -0.00180460       0.50634505       0.59792868 </v>
    <v>       0.50128635       0.49819120       0.59202210 </v>
    <v>       0.25179307       0.16406516       0.66552944 </v>
    <v>       0.19957986       0.17467571       0.63391388 </v>
   </varray>
  </structure>
  <varray name="forces" >
   <v>       0.03003282       0.00832681      -0.42045956 </v>
   <v>      -0.02297969       0.01495764      -0.41122276 </v>
   <v>       0.00570189      -0.03030709      -0.41478741 </v>
   <v>      -0.01507737       0.00393079      -0.48461516 </v>
   <v>      -0.01799011       0.00345640       0.39829583 </v>
   <v>       0.02201297      -0.03751154       0.40981641 </v>
   <v>      -0.00768476       0.02142763       0.39004383 </v>
   <v>       0.06609016       0.02714122       0.41422379 </v>
   <v>      -0.06507076      -0.06572404      -0.05834188 </v>
   <v>       0.14821448      -0.01991895      -0.18352077 </v>
   <v>       0.02072603       0.08107039      -0.30944276 </v>
   <v>      -0.01750026      -0.05889056      -0.12524747 </v>
   <v>       0.19150874       0.14034531      -0.14996641 </v>
   <v>      -0.17730133       0.22826089       0.38490440 </v>
   <v>       0.11695476      -0.26163297       0.06610936 </v>
   <v>       0.13962813      -0.02829525       0.38326533 </v>
   <v>      -0.40147668       0.06783396       0.15499053 </v>
   <v>      -0.01578900      -0.09447063      -0.04404529 </v>
  </varray>
  <varray name="stress" >
   <v>     -10.43017068      -0.71868112      -2.39268017 </v>
   <v>      -0.71868108      -9.95128433       0.23980089 </v>
   <v>      -2.39268010       0.23980060       8.66352723 </v>
  </varray>
  <energy>
   <i name="e_fr_energy">   -109.20728229 </i>
   <i name="e_wo_entrp">   -109.20311280 </i>
   <i name="e_0_energy">   -109.20589246 </i>
  </energy>
  <time name="totalsc">   80.26   79.49</time>
 </calculation>
 <calculation>
  <scstep>
   <time name="dav">    6.97    6.97</time>
   <time name="total">    7.47    7.45</time>
   <energy>
    <i name="alphaZ">    271.64501344 </i>
    <i name="ewald"> 148652.12009084 </i>
    <i name="hartreedc">-160871.01966755 </i>
    <i name="XCdc">     91.66607068 </i>
    <i name="pawpsdc">  15306.76575611 </i>
    <i name="pawaedc"> -14902.74725233 </i>
    <i name="eentropy">     -0.00476404 </i>
    <i name="bandstr">   -902.82884100 </i>
    <i name="atom">  12245.18164884 </i>
    <i name="e_fr_energy">   -109.22194499 </i>
    <i name="e_wo_entrp">   -109.21718096 </i>
    <i name="e_0_energy">   -109.22035698 </i>
   </energy>
  </scstep>
  <scstep>
   <time name="dav">    7.42    7.42</time>
   <time name="total">    7.92    7.89</time>
   <energy>
    <i name="e_fr_energy">   -109.23843406 </i>
    <i name="e_wo_entrp">   -109.23522283 </i>
    <i name="e_0_energy">   -109.23736365 </i>
   </energy>
  </scstep>
  <scstep>
   <time name="dav">    7.58    7.58</time>
   <time name="total">    8.08    8.05</time>
   <energy>
    <i name="e_fr_energy">   -109.22880524 </i>
    <i name="e_wo_entrp">   -109.22432722 </i>
    <i name="e_0_energy">   -109.22731256 </i>
   </energy>
  </scstep>
  <scstep>
   <time name="dav">    7.69    7.70</time>
   <time name="total">    8.20    8.17</time>
   <energy>
    <i name="e_fr_energy">   -109.22874770 </i>
    <i name="e_wo_entrp">   -109.22421074 </i>
    <i name="e_0_energy">   -109.22723538 </i>
   </energy>
  </scstep>
  <scstep>
   <time name="dav">    7.46    7.46</time>
   <time name="total">    7.97    7.94</time>
   <energy>
    <i name="e_fr_energy">   -109.22842075 </i>
    <i name="e_wo_entrp">   -109.22375294 </i>
    <i name="e_0_energy">   -109.22686481 </i>
   </energy>
  </scstep>
  <scstep>
   <time name="dav">    7.41    7.41</time>
   <time name="total">    7.92    7.89</time>
   <energy>
    <i name="e_fr_energy">   -109.22856911 </i>
    <i name="e_wo_entrp">   -109.22423057 </i>
    <i name="e_0_energy">   -109.22712293 </i>
   </energy>
  </scstep>
  <scstep>
   <time name="dav">    7.43    7.43</time>
   <time name="total">    7.93    7.90</time>
   <energy>
    <i name="e_fr_energy">   -109.22836180 </i>
    <i name="e_wo_entrp">   -109.22364341 </i>
    <i name="e_0_energy">   -109.22678900 </i>
   </energy>
  </scstep>
  <scstep>
   <time name="dav">    7.50    7.50</time>
   <time name="total">    8.01    7.98</time>
   <energy>
    <i name="e_fr_energy">   -109.22826499 </i>
    <i name="e_wo_entrp">   -109.22366022 </i>
    <i name="e_0_energy">   -109.22673007 </i>
   </energy>
  </scstep>
  <scstep>
   <time name="dav">    6.84    6.84</time>
   <time name="total">    7.35    7.32</time>
   <energy>
    <i name="e_fr_energy">   -109.22825143 </i>
    <i name="e_wo_entrp">   -109.22359648 </i>
    <i name="e_0_energy">   -109.22669978 </i>
   </energy>
  </scstep>
  <scstep>
   <time name="dav">    4.73    4.73</time>
   <time name="total">    4.79    4.77</time>
   <energy>
    <i name="alphaZ">    271.64501344 </i>
    <i name="ewald"> 148652.12009084 </i>
    <i name="hartreedc">-160870.92555620 </i>
    <i name="XCdc">     91.67498221 </i>
    <i name="pawpsdc">  15308.02233826 </i>
    <i name="pawaedc"> -14903.96675946 </i>
    <i name="eentropy">     -0.00464803 </i>
    <i name="bandstr">   -902.97536034 </i>
    <i name="atom">  12245.18164884 </i>
    <i name="e_fr_energy">   -109.22825043 </i>
    <i name="e_wo_entrp">   -109.22360240 </i>
    <i name="e_0_energy">   -109.22670108 </i>
   </energy>
  </scstep>
  <structure>
   <crystal>
    <varray name="basis" >
     <v>       5.54371716       0.00000000       0.00000000 </v>
     <v>       2.77185858       4.80099990       0.00000000 </v>
     <v>       0.00000000       0.00000000      36.78963917 </v>
    </varray>
    <i name="volume">    979.17042988 </i>
    <varray name="rec_basis" >
     <v>       0.18038438      -0.10414497       0.00000000 </v>
     <v>       0.00000000       0.20828994       0.00000000 </v>
     <v>       0.00000000       0.00000000       0.02718157 </v>
    </varray>
   </crystal>
   <varray name="positions" >
    <v>       0.00000000       0.00000000       0.40772349 </v>
    <v>       0.50000000       0.00000000       0.40772349 </v>
    <v>       0.00000000       0.50000000       0.40772349 </v>
    <v>       0.50000000       0.50000000       0.40772349 </v>
    <v>       0.16666667       0.16666667       0.46924116 </v>
    <v>       0.66666667       0.16666667       0.46924116 </v>
    <v>       0.16666667       0.66666667       0.46924116 </v>
    <v>       0.66666667       0.66666667       0.46924116 </v>
    <v>       0.83695318       0.33214040       0.53200925 </v>
    <v>       0.33215908       0.33258086       0.53148193 </v>
    <v>       0.84054846       0.83214594       0.53312000 </v>
    <v>       0.33245680       0.83620723       0.53162964 </v>
    <v>       0.00502628      -0.00210536       0.60056340 </v>
    <v>       0.51378430      -0.00782689       0.59459888 </v>
    <v>      -0.00037617       0.50470868       0.59798655 </v>
    <v>       0.50207743       0.49795679       0.59229477 </v>
    <v>       0.24944101       0.16444262       0.66557504 </v>
    <v>       0.19997400       0.17414582       0.63390965 </v>
   </varray>
  </structure>
  <varray name="forces" >
   <v>       0.02871728       0.00949299      -0.41682914 </v>
   <v>      -0.02335991       0.01500715      -0.41240192 </v>
   <v>       0.00401030      -0.02982650      -0.41265285 </v>
   <v>      -0.01301026       0.00354661      -0.47774138 </v>
   <v>      -0.02091257       0.00559640       0.38201677 </v>
   <v>       0.02651364      -0.03153251       0.37282037 </v>
   <v>      -0.00141758       0.01618935       0.35077596 </v>
   <v>       0.06282689       0.01946493       0.40121254 </v>
   <v>      -0.02251076      -0.01230932      -0.03213539 </v>
   <v>       0.10773565      -0.00927907      -0.10171075 </v>
   <v>      -0.04364005       0.03404793      -0.16009307 </v>
   <v>       0.02997137      -0.06593960      -0.05463387 </v>
   <v>       0.04990054       0.03674352      -0.18090949 </v>
   <v>       0.01496193       0.06558486       0.22714647 </v>
   <v>       0.08971987      -0.03151197      -0.02494748 </v>
   <v>       0.12455310       0.00343521       0.29932516 </v>
   <v>      -0.37056536       0.06065212       0.29345810 </v>
   <v>      -0.04349409      -0.08936209      -0.05270003 </v>
  </varray>
  <varray name="stress" >
   <v>     -10.50570037      -0.65981069      -2.33936802 </v>
   <v>      -0.65981067     -10.04442584       0.20849679 </v>
   <v>      -2.33936788       0.20849698       8.67421484 </v>
  </varray>
  <energy>
   <i name="e_fr_energy">   -109.22825043 </i>
   <i name="e_wo_entrp">   -109.22360240 </i>
   <i name="e_0_energy">   -109.22670108 </i>
  </energy>
  <time name="totalsc">   96.66   95.83</time>
 </calculation>
 <calculation>
  <scstep>
   <time name="dav">    6.97    6.97</time>
   <time name="total">    7.47    7.45</time>
   <energy>
    <i name="alphaZ">    271.64501344 </i>
    <i name="ewald"> 148568.99111629 </i>
    <i name="hartreedc">-160787.41050852 </i>
    <i name="XCdc">     91.67518193 </i>
    <i name="pawpsdc">  15308.08728023 </i>
    <i name="pawaedc"> -14904.03179940 </i>
    <i name="eentropy">     -0.00586606 </i>
    <i name="bandstr">   -903.34553677 </i>
    <i name="atom">  12245.18164884 </i>
    <i name="e_fr_energy">   -109.21347002 </i>
    <i name="e_wo_entrp">   -109.20760395 </i>
    <i name="e_0_energy">   -109.21151466 </i>
   </energy>
  </scstep>
  <scstep>
   <time name="dav">    7.39    7.39</time>
   <time name="total">    7.89    7.86</time>
   <energy>
    <i name="e_fr_energy">   -109.26508967 </i>
    <i name="e_wo_entrp">   -109.26256548 </i>
    <i name="e_0_energy">   -109.26424827 </i>
   </energy>
  </scstep>
  <scstep>
   <time name="dav">    7.68    7.68</time>
   <time name="total">    8.18    8.16</time>
   <energy>
    <i name="e_fr_energy">   -109.24075056 </i>
    <i name="e_wo_entrp">   -109.23525510 </i>
    <i name="e_0_energy">   -109.23891874 </i>
   </energy>
  </scstep>
  <scstep>
   <time name="dav">    7.42    7.43</time>
   <time name="total">    7.94    7.91</time>
   <energy>
    <i name="e_fr_energy">   -109.24104366 </i>
    <i name="e_wo_entrp">   -109.23560088 </i>
    <i name="e_0_energy">   -109.23922940 </i>
   </energy>
  </scstep>
  <scstep>
   <time name="dav">    7.47    7.48</time>
   <time name="total">    7.98    7.95</time>
   <energy>
    <i name="e_fr_energy">   -109.23941961 </i>
    <i name="e_wo_entrp">   -109.23381750 </i>
    <i name="e_0_energy">   -109.23755224 </i>
   </energy>
  </scstep>
  <scstep>
   <time name="dav">    7.41    7.41</time>
   <time name="total">    7.91    7.89</time>
   <energy>
    <i name="e_fr_energy">   -109.23969526 </i>
    <i name="e_wo_entrp">   -109.23470169 </i>
    <i name="e_0_energy">   -109.23803074 </i>
   </energy>
  </scstep>
  <scstep>
   <time name="dav">    7.41    7.41</time>
   <time name="total">    7.91    7.89</time>
   <energy>
    <i name="e_fr_energy">   -109.23902011 </i>
    <i name="e_wo_entrp">   -109.23328753 </i>
    <i name="e_0_energy">   -109.23710925 </i>
   </energy>
  </scstep>
  <scstep>
   <time name="dav">    7.94    7.94</time>
   <time name="total">    8.44    8.42</time>
   <energy>
    <i name="e_fr_energy">   -109.23882512 </i>
    <i name="e_wo_entrp">   -109.23325725 </i>
    <i name="e_0_energy">   -109.23696916 </i>
   </energy>
  </scstep>
  <scstep>
   <time name="dav">    7.60    7.60</time>
   <time name="total">    8.11    8.08</time>
   <energy>
    <i name="e_fr_energy">   -109.23878663 </i>
    <i name="e_wo_entrp">   -109.23315774 </i>
    <i name="e_0_energy">   -109.23691033 </i>
   </energy>
  </scstep>
  <scstep>
   <time name="dav">    6.87    6.87</time>
   <time name="total">    6.93    6.91</time>
   <energy>
    <i name="alphaZ">    271.64501344 </i>
    <i name="ewald"> 148568.99111629 </i>
    <i name="hartreedc">-160786.98111525 </i>
    <i name="XCdc">     91.69326206 </i>
    <i name="pawpsdc">  15314.56887042 </i>
    <i name="pawaedc"> -14910.46244753 </i>
    <i name="eentropy">     -0.00561675 </i>
    <i name="bandstr">   -903.86951335 </i>
    <i name="atom">  12245.18164884 </i>
    <i name="e_fr_energy">   -109.23878181 </i>
    <i name="e_wo_entrp">   -109.23316506 </i>
    <i name="e_0_energy">   -109.23690956 </i>
   </energy>
  </scstep>
  <structure>
   <crystal>
    <varray name="basis" >
     <v>       5.54371716       0.00000000       0.00000000 </v>
     <v>       2.77185858       4.80099990       0.00000000 </v>
     <v>       0.00000000       0.00000000      36.78963917 </v>
    </varray>
    <i name="volume">    979.17042988 </i>
    <varray name="rec_basis" >
     <v>       0.18038438      -0.10414497       0.00000000 </v>
     <v>       0.00000000       0.20828994       0.00000000 </v>
     <v>       0.00000000       0.00000000       0.02718157 </v>
    </varray>
   </crystal>
   <varray name="positions" >
    <v>       0.00000000       0.00000000       0.40772349 </v>
    <v>       0.50000000       0.00000000       0.40772349 </v>
    <v>       0.00000000       0.50000000       0.40772349 </v>
    <v>       0.50000000       0.50000000       0.40772349 </v>
    <v>       0.16666667       0.16666667       0.46924116 </v>
    <v>       0.66666667       0.16666667       0.46924116 </v>
    <v>       0.16666667       0.66666667       0.46924116 </v>
    <v>       0.66666667       0.66666667       0.46924116 </v>
    <v>       0.83678167       0.33124809       0.53199104 </v>
    <v>       0.33368606       0.33232140       0.53125114 </v>
    <v>       0.84048512       0.83307311       0.53266135 </v>
    <v>       0.33240568       0.83570947       0.53149013 </v>
    <v>       0.00628967      -0.00038644       0.60038260 </v>
    <v>       0.51025645      -0.00492499       0.59518620 </v>
    <v>       0.00248067       0.50143593       0.59810231 </v>
    <v>       0.50365957       0.49748795       0.59284012 </v>
    <v>       0.24473690       0.16519756       0.66566625 </v>
    <v>       0.20076228       0.17308604       0.63390121 </v>
   </varray>
  </structure>
  <varray name="forces" >
   <v>       0.02594437       0.01237852      -0.40897769 </v>
   <v>      -0.02495346       0.01524044      -0.41435160 </v>
   <v>       0.00025061      -0.02926851      -0.40705068 </v>
   <v>      -0.00896800       0.00264264      -0.46604574 </v>
   <v>      -0.02710823       0.01010116       0.34996957 </v>
   <v>       0.03584561      -0.01833045       0.29633948 </v>
   <v>       0.01136179       0.00530668       0.27031178 </v>
   <v>       0.05511268       0.00326289       0.37494936 </v>
   <v>       0.06316572       0.09301087       0.01861753 </v>
   <v>       0.02280852       0.00957817       0.05588614 </v>
   <v>      -0.16114365      -0.06254315       0.11207936 </v>
   <v>       0.12150923      -0.07628542       0.07836437 </v>
   <v>      -0.23358442      -0.17053883      -0.24220800 </v>
   <v>       0.40713906      -0.25840564      -0.08678437 </v>
   <v>       0.03908033       0.42286713      -0.20199921 </v>
   <v>       0.09748899       0.06589193       0.14215112 </v>
   <v>      -0.31956970       0.04905676       0.54278769 </v>
   <v>      -0.10437944      -0.07396518      -0.01403912 </v>
  </varray>
  <varray name="stress" >
   <v>     -10.46654088      -0.59368762      -2.27888152 </v>
   <v>      -0.59368754     -10.03557916       0.17292601 </v>
   <v>      -2.27888158       0.17292619       8.83109670 </v>
  </varray>
  <energy>
   <i name="e_fr_energy">   -109.23878181 </i>
   <i name="e_wo_entrp">   -109.23316506 </i>
   <i name="e_0_energy">   -109.23690956 </i>
  </energy>
  <time name="totalsc">   99.81   98.99</time>
 </calculation>
 <calculation>
  <scstep>
   <time name="dav">    6.97    6.97</time>
   <time name="total">    7.47    7.44</time>
   <energy>
    <i name="alphaZ">    271.64501344 </i>
    <i name="ewald"> 148589.90213049 </i>
    <i name="hartreedc">-160807.95073232 </i>
    <i name="XCdc">     91.69232652 </i>
    <i name="pawpsdc">  15314.65264384 </i>
    <i name="pawaedc"> -14910.54658066 </i>
    <i name="eentropy">     -0.00528213 </i>
    <i name="bandstr">   -903.80967364 </i>
    <i name="atom">  12245.18164884 </i>
    <i name="e_fr_energy">   -109.23850560 </i>
    <i name="e_wo_entrp">   -109.23322347 </i>
    <i name="e_0_energy">   -109.23674489 </i>
   </energy>
  </scstep>
  <scstep>
   <time name="dav">    7.41    7.41</time>
   <time name="total">    7.91    7.89</time>
   <energy>
    <i name="e_fr_energy">   -109.24697323 </i>
    <i name="e_wo_entrp">   -109.24121014 </i>
    <i name="e_0_energy">   -109.24505220 </i>
   </energy>
  </scstep>
  <scstep>
   <time name="dav">    7.60    7.60</time>
   <time name="total">    8.10    8.08</time>
   <energy>
    <i name="e_fr_energy">   -109.24010123 </i>
    <i name="e_wo_entrp">   -109.23464733 </i>
    <i name="e_0_energy">   -109.23828326 </i>
   </energy>
  </scstep>
  <scstep>
   <time name="dav">    7.82    7.82</time>
   <time name="total">    8.33    8.30</time>
   <energy>
    <i name="e_fr_energy">   -109.24011905 </i>
    <i name="e_wo_entrp">   -109.23471031 </i>
    <i name="e_0_energy">   -109.23831613 </i>
   </energy>
  </scstep>
  <scstep>
   <time name="dav">    7.50    7.50</time>
   <time name="total">    8.01    7.98</time>
   <energy>
    <i name="e_fr_energy">   -109.24007650 </i>
    <i name="e_wo_entrp">   -109.23473472 </i>
    <i name="e_0_energy">   -109.23829591 </i>
   </energy>
  </scstep>
  <scstep>
   <time name="dav">    7.43    7.43</time>
   <time name="total">    7.93    7.91</time>
   <energy>
    <i name="e_fr_energy">   -109.24009573 </i>
    <i name="e_wo_entrp">   -109.23455856 </i>
    <i name="e_0_energy">   -109.23825001 </i>
   </energy>
  </scstep>
  <scstep>
   <time name="dav">    7.42    7.42</time>
   <time name="total">    7.93    7.90</time>
   <energy>
    <i name="e_fr_energy">   -109.24007450 </i>
    <i name="e_wo_entrp">   -109.23469964 </i>
    <i name="e_0_energy">   -109.23828288 </i>
   </energy>
  </scstep>
  <scstep>
   <time name="dav">    5.44    5.44</time>
   <time name="total">    5.94    5.92</time>
   <energy>
    <i name="e_fr_energy">   -109.24004228 </i>
    <i name="e_wo_entrp">   -109.23461929 </i>
    <i name="e_0_energy">   -109.23823462 </i>
   </energy>
  </scstep>
  <scstep>
   <time name="dav">    5.04    5.04</time>
   <time name="total">    5.09    5.08</time>
   <energy>
    <i name="alphaZ">    271.64501344 </i>
    <i name="ewald"> 148589.90213049 </i>
    <i name="hartreedc">-160807.98832404 </i>
    <i name="XCdc">     91.68812359 </i>
    <i name="pawpsdc">  15313.01657826 </i>
    <i name="pawaedc"> -14908.92074290 </i>
    <i name="eentropy">     -0.00538710 </i>
    <i name="bandstr">   -903.75908024 </i>
    <i name="atom">  12245.18164884 </i>
    <i name="e_fr_energy">   -109.24003965 </i>
    <i name="e_wo_entrp">   -109.23465255 </i>
    <i name="e_0_energy">   -109.23824395 </i>
   </energy>
  </scstep>
  <structure>
   <crystal>
    <varray name="basis" >
     <v>       5.54371716       0.00000000       0.00000000 </v>
     <v>       2.77185858       4.80099990       0.00000000 </v>
     <v>       0.00000000       0.00000000      36.78963917 </v>
    </varray>
    <i name="volume">    979.17042988 </i>
    <varray name="rec_basis" >
     <v>       0.18038438      -0.10414497       0.00000000 </v>
     <v>       0.00000000       0.20828994       0.00000000 </v>
     <v>       0.00000000       0.00000000       0.02718157 </v>
    </varray>
   </crystal>
   <varray name="positions" >
    <v>       0.00000000       0.00000000       0.40772349 </v>
    <v>       0.50000000       0.00000000       0.40772349 </v>
    <v>       0.00000000       0.50000000       0.40772349 </v>
    <v>       0.50000000       0.50000000       0.40772349 </v>
    <v>       0.16666667       0.16666667       0.46924116 </v>
    <v>       0.66666667       0.16666667       0.46924116 </v>
    <v>       0.16666667       0.66666667       0.46924116 </v>
    <v>       0.66666667       0.66666667       0.46924116 </v>
    <v>       0.83682490       0.33147302       0.53199563 </v>
    <v>       0.33330114       0.33238681       0.53130932 </v>
    <v>       0.84050108       0.83283939       0.53277696 </v>
    <v>       0.33241856       0.83583495       0.53152530 </v>
    <v>       0.00597119      -0.00081975       0.60042818 </v>
    <v>       0.51114575      -0.00565650       0.59503815 </v>
    <v>       0.00176052       0.50226092       0.59807313 </v>
    <v>       0.50326075       0.49760613       0.59270265 </v>
    <v>       0.24592271       0.16500726       0.66564326 </v>
    <v>       0.20056357       0.17335319       0.63390334 </v>
   </varray>
  </structure>
  <varray name="forces" >
   <v>       0.02621460       0.01162067      -0.40999048 </v>
   <v>      -0.02476201       0.01513045      -0.41225413 </v>
   <v>       0.00080168      -0.02925686      -0.40842213 </v>
   <v>      -0.01037505       0.00296509      -0.46849562 </v>
   <v>      -0.02596674       0.00899611       0.35669989 </v>
   <v>       0.03310993      -0.02172189       0.31460689 </v>
   <v>       0.00765491       0.00822854       0.28987751 </v>
   <v>       0.05673473       0.00744803       0.38073930 </v>
   <v>       0.04081508       0.06584760       0.00514423 </v>
   <v>       0.04553162       0.00466284       0.01503797 </v>
   <v>      -0.13329038      -0.03726291       0.04392611 </v>
   <v>       0.09842861      -0.07426502       0.04493008 </v>
   <v>      -0.16053527      -0.11709754      -0.22921226 </v>
   <v>       0.30649898      -0.17539788      -0.00331239 </v>
   <v>       0.05237033       0.30749383      -0.15782537 </v>
   <v>       0.10468329       0.05010119       0.18608343 </v>
   <v>      -0.32901517       0.05133988       0.48497027 </v>
   <v>      -0.08889914      -0.07883216      -0.03250331 </v>
  </varray>
  <varray name="stress" >
   <v>     -10.49953454      -0.60599772      -2.28554279 </v>
   <v>      -0.60599761     -10.06770843       0.17816256 </v>
   <v>      -2.28554283       0.17816253       8.83377371 </v>
  </varray>
  <energy>
   <i name="e_fr_energy">   -109.24003965 </i>
   <i name="e_wo_entrp">   -109.23465255 </i>
   <i name="e_0_energy">   -109.23824395 </i>
  </energy>
  <time name="totalsc">   87.74   86.94</time>
 </calculation>
 <calculation>
  <scstep>
   <time name="dav">    6.97    6.97</time>
   <time name="total">    7.47    7.45</time>
   <energy>
    <i name="alphaZ">    271.64501344 </i>
    <i name="ewald"> 148555.69956501 </i>
    <i name="hartreedc">-160774.66084010 </i>
    <i name="XCdc">     91.64057571 </i>
    <i name="pawpsdc">  15312.97701750 </i>
    <i name="pawaedc"> -14908.88106200 </i>
    <i name="eentropy">     -0.00563322 </i>
    <i name="bandstr">   -902.84294514 </i>
    <i name="atom">  12245.18164884 </i>
    <i name="e_fr_energy">   -109.24665996 </i>
    <i name="e_wo_entrp">   -109.24102673 </i>
    <i name="e_0_energy">   -109.24478222 </i>
   </energy>
  </scstep>
  <scstep>
   <time name="dav">    7.07    7.07</time>
   <time name="total">    7.57    7.54</time>
   <energy>
    <i name="e_fr_energy">   -109.25311235 </i>
    <i name="e_wo_entrp">   -109.24801672 </i>
    <i name="e_0_energy">   -109.25141381 </i>
   </energy>
  </scstep>
  <scstep>
   <time name="dav">    7.91    7.91</time>
   <time name="total">    8.41    8.38</time>
   <energy>
    <i name="e_fr_energy">   -109.25265143 </i>
    <i name="e_wo_entrp">   -109.24690348 </i>
    <i name="e_0_energy">   -109.25073545 </i>
   </energy>
  </scstep>
  <scstep>
   <time name="dav">    7.74    7.74</time>
   <time name="total">    8.25    8.23</time>
   <energy>
    <i name="e_fr_energy">   -109.25239833 </i>
    <i name="e_wo_entrp">   -109.24706756 </i>
    <i name="e_0_energy">   -109.25062140 </i>
   </energy>
  </scstep>
  <scstep>
   <time name="dav">    7.57    7.57</time>
   <time name="total">    8.07    8.05</time>
   <energy>
    <i name="e_fr_energy">   -109.25147417 </i>
    <i name="e_wo_entrp">   -109.24610601 </i>
    <i name="e_0_energy">   -109.24968478 </i>
   </energy>
  </scstep>
  <scstep>
   <time name="dav">    7.55    7.55</time>
   <time name="total">    8.05    8.03</time>
   <energy>
    <i name="e_fr_energy">   -109.25144156 </i>
    <i name="e_wo_entrp">   -109.24583181 </i>
    <i name="e_0_energy">   -109.24957164 </i>
   </energy>
  </scstep>
  <scstep>
   <time name="dav">    7.44    7.44</time>
   <time name="total">    7.95    7.92</time>
   <energy>
    <i name="e_fr_energy">   -109.25134805 </i>
    <i name="e_wo_entrp">   -109.24577317 </i>
    <i name="e_0_energy">   -109.24948976 </i>
   </energy>
  </scstep>
  <scstep>
   <time name="dav">    6.89    6.89</time>
   <time name="total">    7.39    7.37</time>
   <energy>
    <i name="e_fr_energy">   -109.25133683 </i>
    <i name="e_wo_entrp">   -109.24583242 </i>
    <i name="e_0_energy">   -109.24950203 </i>
   </energy>
  </scstep>
  <scstep>
   <time name="dav">    5.03    5.03</time>
   <time name="total">    5.09    5.07</time>
   <energy>
    <i name="alphaZ">    271.64501344 </i>
    <i name="ewald"> 148555.69956501 </i>
    <i name="hartreedc">-160772.70558141 </i>
    <i name="XCdc">     91.62056217 </i>
    <i name="pawpsdc">  15298.13478372 </i>
    <i name="pawaedc"> -14894.02251911 </i>
    <i name="eentropy">     -0.00553700 </i>
    <i name="bandstr">   -904.79927296 </i>
    <i name="atom">  12245.18164884 </i>
    <i name="e_fr_energy">   -109.25133728 </i>
    <i name="e_wo_entrp">   -109.24580028 </i>
    <i name="e_0_energy">   -109.24949162 </i>
   </energy>
  </scstep>
  <structure>
   <crystal>
    <varray name="basis" >
     <v>       5.54371716       0.00000000       0.00000000 </v>
     <v>       2.77185858       4.80099990       0.00000000 </v>
     <v>       0.00000000       0.00000000      36.78963917 </v>
    </varray>
    <i name="volume">    979.17042988 </i>
    <varray name="rec_basis" >
     <v>       0.18038438      -0.10414497       0.00000000 </v>
     <v>       0.00000000       0.20828994       0.00000000 </v>
     <v>       0.00000000       0.00000000       0.02718157 </v>
    </varray>
   </crystal>
   <varray name="positions" >
    <v>       0.00000000       0.00000000       0.40772349 </v>
    <v>       0.50000000       0.00000000       0.40772349 </v>
    <v>       0.00000000       0.50000000       0.40772349 </v>
    <v>       0.50000000       0.50000000       0.40772349 </v>
    <v>       0.16666667       0.16666667       0.46924116 </v>
    <v>       0.66666667       0.16666667       0.46924116 </v>
    <v>       0.16666667       0.66666667       0.46924116 </v>
    <v>       0.66666667       0.66666667       0.46924116 </v>
    <v>       0.83679083       0.33150402       0.53199363 </v>
    <v>       0.33383403       0.33233916       0.53125839 </v>
    <v>       0.84010632       0.83292907       0.53268292 </v>
    <v>       0.33288430       0.83541803       0.53151281 </v>
    <v>       0.00597719      -0.00084132       0.60026525 </v>
    <v>       0.51163133      -0.00560574       0.59518560 </v>
    <v>       0.00206196       0.50263273       0.59802196 </v>
    <v>       0.50391917       0.49768307       0.59293613 </v>
    <v>       0.24351309       0.16539980       0.66591400 </v>
    <v>       0.20061677       0.17277568       0.63388460 </v>
   </varray>
  </structure>
  <varray name="forces" >
   <v>       0.02487205       0.01232861      -0.40810628 </v>
   <v>      -0.02532807       0.01480610      -0.41295726 </v>
   <v>      -0.00066250      -0.02862188      -0.40820474 </v>
   <v>      -0.00887842       0.00269742      -0.46450112 </v>
   <v>      -0.02756851       0.00779327       0.35393382 </v>
   <v>       0.03753229      -0.02059646       0.30189581 </v>
   <v>       0.00993934       0.00848998       0.27733816 </v>
   <v>       0.05528099       0.00366947       0.37141007 </v>
   <v>       0.05664680       0.05786914       0.02049797 </v>
   <v>       0.02238668       0.00897338       0.06478911 </v>
   <v>      -0.11289162      -0.04652017       0.07179731 </v>
   <v>       0.08576729      -0.05495524       0.07447312 </v>
   <v>      -0.12467321      -0.10565927      -0.20199284 </v>
   <v>       0.27804321      -0.15057204      -0.00291585 </v>
   <v>       0.06184765       0.25776572      -0.13244722 </v>
   <v>       0.08362217       0.05030387       0.12309926 </v>
   <v>      -0.43709358       0.06677249      -0.20659352 </v>
   <v>       0.02115744      -0.08454440       0.57848421 </v>
  </varray>
  <varray name="stress" >
   <v>     -10.62513153      -0.57665566      -2.48048130 </v>
   <v>      -0.57665572     -10.18746406       0.21906515 </v>
   <v>      -2.48048123       0.21906521       7.13746580 </v>
  </varray>
  <energy>
   <i name="e_fr_energy">   -109.25133728 </i>
   <i name="e_wo_entrp">   -109.24580028 </i>
   <i name="e_0_energy">   -109.24949162 </i>
  </energy>
  <time name="totalsc">   89.26   88.47</time>
 </calculation>
 <calculation>
  <scstep>
   <time name="dav">    6.97    6.97</time>
   <time name="total">    7.47    7.45</time>
   <energy>
    <i name="alphaZ">    271.64501344 </i>
    <i name="ewald"> 148520.77737205 </i>
    <i name="hartreedc">-160738.64333949 </i>
    <i name="XCdc">     91.57241980 </i>
    <i name="pawpsdc">  15297.99586854 </i>
    <i name="pawaedc"> -14893.88323856 </i>
    <i name="eentropy">     -0.00574091 </i>
    <i name="bandstr">   -903.89030451 </i>
    <i name="atom">  12245.18164884 </i>
    <i name="e_fr_energy">   -109.25030078 </i>
    <i name="e_wo_entrp">   -109.24455988 </i>
    <i name="e_0_energy">   -109.24838715 </i>
   </energy>
  </scstep>
  <scstep>
   <time name="dav">    7.03    7.03</time>
   <time name="total">    7.54    7.51</time>
   <energy>
    <i name="e_fr_energy">   -109.25593709 </i>
    <i name="e_wo_entrp">   -109.25029809 </i>
    <i name="e_0_energy">   -109.25405742 </i>
   </energy>
  </scstep>
  <scstep>
   <time name="dav">    7.75    7.76</time>
   <time name="total">    8.25    8.23</time>
   <energy>
    <i name="e_fr_energy">   -109.25598111 </i>
    <i name="e_wo_entrp">   -109.25011810 </i>
    <i name="e_0_energy">   -109.25402677 </i>
   </energy>
  </scstep>
  <scstep>
   <time name="dav">    8.40    8.40</time>
   <time name="total">    8.90    8.88</time>
   <energy>
    <i name="e_fr_energy">   -109.25809627 </i>
    <i name="e_wo_entrp">   -109.25297853 </i>
    <i name="e_0_energy">   -109.25639036 </i>
   </energy>
  </scstep>
  <scstep>
   <time name="dav">    8.32    8.32</time>
   <time name="total">    8.83    8.80</time>
   <energy>
    <i name="e_fr_energy">   -109.25539918 </i>
    <i name="e_wo_entrp">   -109.24980220 </i>
    <i name="e_0_energy">   -109.25353352 </i>
   </energy>
  </scstep>
  <scstep>
   <time name="dav">    7.53    7.53</time>
   <time name="total">    8.04    8.01</time>
   <energy>
    <i name="e_fr_energy">   -109.25543179 </i>
    <i name="e_wo_entrp">   -109.24978774 </i>
    <i name="e_0_energy">   -109.25355044 </i>
   </energy>
  </scstep>
  <scstep>
   <time name="dav">    7.48    7.48</time>
   <time name="total">    7.98    7.96</time>
   <energy>
    <i name="e_fr_energy">   -109.25531791 </i>
    <i name="e_wo_entrp">   -109.24957090 </i>
    <i name="e_0_energy">   -109.25340224 </i>
   </energy>
  </scstep>
  <scstep>
   <time name="dav">    7.41    7.41</time>
   <time name="total">    7.91    7.88</time>
   <energy>
    <i name="e_fr_energy">   -109.25530718 </i>
    <i name="e_wo_entrp">   -109.24965805 </i>
    <i name="e_0_energy">   -109.25342414 </i>
   </energy>
  </scstep>
  <scstep>
   <time name="dav">    4.96    4.96</time>
   <time name="total">    5.02    5.00</time>
   <energy>
    <i name="alphaZ">    271.64501344 </i>
    <i name="ewald"> 148520.77737205 </i>
    <i name="hartreedc">-160736.41225276 </i>
    <i name="XCdc">     91.55155303 </i>
    <i name="pawpsdc">  15283.27395241 </i>
    <i name="pawaedc"> -14879.14523587 </i>
    <i name="eentropy">     -0.00569236 </i>
    <i name="bandstr">   -906.12166991 </i>
    <i name="atom">  12245.18164884 </i>
    <i name="e_fr_energy">   -109.25531112 </i>
    <i name="e_wo_entrp">   -109.24961876 </i>
    <i name="e_0_energy">   -109.25341367 </i>
   </energy>
  </scstep>
  <structure>
   <crystal>
    <varray name="basis" >
     <v>       5.54371716       0.00000000       0.00000000 </v>
     <v>       2.77185858       4.80099990       0.00000000 </v>
     <v>       0.00000000       0.00000000      36.78963917 </v>
    </varray>
    <i name="volume">    979.17042988 </i>
    <varray name="rec_basis" >
     <v>       0.18038438      -0.10414497       0.00000000 </v>
     <v>       0.00000000       0.20828994       0.00000000 </v>
     <v>       0.00000000       0.00000000       0.02718157 </v>
    </varray>
   </crystal>
   <varray name="positions" >
    <v>       0.00000000       0.00000000       0.40772349 </v>
    <v>       0.50000000       0.00000000       0.40772349 </v>
    <v>       0.00000000       0.50000000       0.40772349 </v>
    <v>       0.50000000       0.50000000       0.40772349 </v>
    <v>       0.16666667       0.16666667       0.46924116 </v>
    <v>       0.66666667       0.16666667       0.46924116 </v>
    <v>       0.16666667       0.66666667       0.46924116 </v>
    <v>       0.66666667       0.66666667       0.46924116 </v>
    <v>       0.83675612       0.33153560       0.53199160 </v>
    <v>       0.33437682       0.33229063       0.53120652 </v>
    <v>       0.83970423       0.83302041       0.53258712 </v>
    <v>       0.33335868       0.83499337       0.53150008 </v>
    <v>       0.00598330      -0.00086330       0.60009931 </v>
    <v>       0.51212592      -0.00555403       0.59533579 </v>
    <v>       0.00236900       0.50301145       0.59796983 </v>
    <v>       0.50458982       0.49776143       0.59317395 </v>
    <v>       0.24105872       0.16579964       0.66618976 </v>
    <v>       0.20067095       0.17218745       0.63386551 </v>
   </varray>
  </structure>
  <varray name="forces" >
   <v>       0.02348574       0.01297742      -0.40470840 </v>
   <v>      -0.02587578       0.01445133      -0.41281378 </v>
   <v>      -0.00207352      -0.02793390      -0.40636342 </v>
   <v>      -0.00730671       0.00239203      -0.45979906 </v>
   <v>      -0.02931933       0.00649829       0.34960258 </v>
   <v>       0.04231031      -0.01956660       0.28777282 </v>
   <v>       0.01223495       0.00895178       0.26354027 </v>
   <v>       0.05383972      -0.00031520       0.36060900 </v>
   <v>       0.07350301       0.04943482       0.03462526 </v>
   <v>      -0.00185029       0.01317370       0.11294077 </v>
   <v>      -0.09216632      -0.05611645       0.09907680 </v>
   <v>       0.07279875      -0.03500370       0.10234570 </v>
   <v>      -0.08672682      -0.09387641      -0.17421631 </v>
   <v>       0.25002861      -0.12620275      -0.00215560 </v>
   <v>       0.07176593       0.20759073      -0.10722450 </v>
   <v>       0.06273167       0.05099844       0.06416072 </v>
   <v>      -0.53017661       0.07651643      -0.88112473 </v>
   <v>       0.11279670      -0.08396996       1.17373189 </v>
  </varray>
  <varray name="stress" >
   <v>     -10.75496752      -0.56050305      -2.64681245 </v>
   <v>      -0.56050306     -10.32286155       0.24885280 </v>
   <v>      -2.64681235       0.24885283       5.42773285 </v>
  </varray>
  <energy>
   <i name="e_fr_energy">   -109.25531112 </i>
   <i name="e_wo_entrp">   -109.24961876 </i>
   <i name="e_0_energy">   -109.25341367 </i>
  </energy>
  <time name="totalsc">   90.96   90.16</time>
 </calculation>
 <calculation>
  <scstep>
   <time name="dav">    6.97    6.97</time>
   <time name="total">    7.47    7.45</time>
   <energy>
    <i name="alphaZ">    271.64501344 </i>
    <i name="ewald"> 148512.02671566 </i>
    <i name="hartreedc">-160727.61178256 </i>
    <i name="XCdc">     91.54619512 </i>
    <i name="pawpsdc">  15283.11757092 </i>
    <i name="pawaedc"> -14878.98870613 </i>
    <i name="eentropy">     -0.00570052 </i>
    <i name="bandstr">   -906.17020994 </i>
    <i name="atom">  12245.18164884 </i>
    <i name="e_fr_energy">   -109.25925518 </i>
    <i name="e_wo_entrp">   -109.25355465 </i>
    <i name="e_0_energy">   -109.25735500 </i>
   </energy>
  </scstep>
  <scstep>
   <time name="dav">    7.34    7.34</time>
   <time name="total">    7.84    7.82</time>
   <energy>
    <i name="e_fr_energy">   -109.26007391 </i>
    <i name="e_wo_entrp">   -109.25419809 </i>
    <i name="e_0_energy">   -109.25811530 </i>
   </energy>
  </scstep>
  <scstep>
   <time name="dav">    7.90    7.90</time>
   <time name="total">    8.41    8.38</time>
   <energy>
    <i name="e_fr_energy">   -109.26034335 </i>
    <i name="e_wo_entrp">   -109.25483174 </i>
    <i name="e_0_energy">   -109.25850615 </i>
   </energy>
  </scstep>
  <scstep>
   <time name="dav">    7.54    7.54</time>
   <time name="total">    8.05    8.02</time>
   <energy>
    <i name="e_fr_energy">   -109.25985541 </i>
    <i name="e_wo_entrp">   -109.25422454 </i>
    <i name="e_0_energy">   -109.25797846 </i>
   </energy>
  </scstep>
  <scstep>
   <time name="dav">    7.27    7.27</time>
   <time name="total">    7.78    7.75</time>
   <energy>
    <i name="e_fr_energy">   -109.25978461 </i>
    <i name="e_wo_entrp">   -109.25410219 </i>
    <i name="e_0_energy">   -109.25789047 </i>
   </energy>
  </scstep>
  <scstep>
   <time name="dav">    7.36    7.36</time>
   <time name="total">    7.86    7.84</time>
   <energy>
    <i name="e_fr_energy">   -109.25978377 </i>
    <i name="e_wo_entrp">   -109.25400817 </i>
    <i name="e_0_energy">   -109.25785857 </i>
   </energy>
  </scstep>
  <scstep>
   <time name="dav">    5.47    5.47</time>
   <time name="total">    5.52    5.51</time>
   <energy>
    <i name="alphaZ">    271.64501344 </i>
    <i name="ewald"> 148512.02671566 </i>
    <i name="hartreedc">-160727.68488803 </i>
    <i name="XCdc">     91.54654234 </i>
    <i name="pawpsdc">  15282.21486108 </i>
    <i name="pawaedc"> -14878.07849779 </i>
    <i name="eentropy">     -0.00570361 </i>
    <i name="bandstr">   -906.10547398 </i>
    <i name="atom">  12245.18164884 </i>
    <i name="e_fr_energy">   -109.25978204 </i>
    <i name="e_wo_entrp">   -109.25407844 </i>
    <i name="e_0_energy">   -109.25788084 </i>
   </energy>
  </scstep>
  <structure>
   <crystal>
    <varray name="basis" >
     <v>       5.54371716       0.00000000       0.00000000 </v>
     <v>       2.77185858       4.80099990       0.00000000 </v>
     <v>       0.00000000       0.00000000      36.78963917 </v>
    </varray>
    <i name="volume">    979.17042988 </i>
    <varray name="rec_basis" >
     <v>       0.18038438      -0.10414497       0.00000000 </v>
     <v>       0.00000000       0.20828994       0.00000000 </v>
     <v>       0.00000000       0.00000000       0.02718157 </v>
    </varray>
   </crystal>
   <varray name="positions" >
    <v>       0.00000000       0.00000000       0.40772349 </v>
    <v>       0.50000000       0.00000000       0.40772349 </v>
    <v>       0.00000000       0.50000000       0.40772349 </v>
    <v>       0.50000000       0.50000000       0.40772349 </v>
    <v>       0.16666667       0.16666667       0.46924116 </v>
    <v>       0.66666667       0.16666667       0.46924116 </v>
    <v>       0.16666667       0.66666667       0.46924116 </v>
    <v>       0.66666667       0.66666667       0.46924116 </v>
    <v>       0.83675938       0.33156206       0.53199256 </v>
    <v>       0.33453424       0.33228087       0.53119631 </v>
    <v>       0.83956755       0.83302792       0.53256332 </v>
    <v>       0.33352668       0.83485585       0.53150096 </v>
    <v>       0.00597533      -0.00090234       0.60004242 </v>
    <v>       0.51236893      -0.00558253       0.59538004 </v>
    <v>       0.00244521       0.50319526       0.59794959 </v>
    <v>       0.50479783       0.49780226       0.59324707 </v>
    <v>       0.24016156       0.16594423       0.66623131 </v>
    <v>       0.20073538       0.17198465       0.63391300 </v>
   </varray>
  </structure>
  <varray name="forces" >
   <v>       0.02282753       0.01326901      -0.40405210 </v>
   <v>      -0.02660619       0.01445250      -0.41328847 </v>
   <v>      -0.00287379      -0.02788897      -0.40643374 </v>
   <v>      -0.00716269       0.00228363      -0.45933421 </v>
   <v>      -0.03013318       0.00588546       0.35024308 </v>
   <v>       0.04342724      -0.01951526       0.28616027 </v>
   <v>       0.01240708       0.00942977       0.26208411 </v>
   <v>       0.05307681      -0.00132562       0.35906106 </v>
   <v>       0.07711957       0.04403270       0.03839397 </v>
   <v>      -0.00849276       0.01375276       0.12551616 </v>
   <v>      -0.08332495      -0.05687412       0.10426494 </v>
   <v>       0.06635756      -0.02768605       0.10889783 </v>
   <v>      -0.06896566      -0.08575232      -0.16795698 </v>
   <v>       0.23176710      -0.11159517       0.00248821 </v>
   <v>       0.07537662       0.17991830      -0.09665510 </v>
   <v>       0.05732791       0.05025116       0.04907244 </v>
   <v>      -0.51109192       0.07165875      -0.82826173 </v>
   <v>       0.09896370      -0.07429652       1.08980028 </v>
  </varray>
  <varray name="stress" >
   <v>     -10.81239611      -0.55466889      -2.60032995 </v>
   <v>      -0.55466874     -10.40462662       0.24720779 </v>
   <v>      -2.60033005       0.24720773       5.37073308 </v>
  </varray>
  <energy>
   <i name="e_fr_energy">   -109.25978204 </i>
   <i name="e_wo_entrp">   -109.25407844 </i>
   <i name="e_0_energy">   -109.25788084 </i>
  </energy>
  <time name="totalsc">   73.88   73.12</time>
 </calculation>
 <calculation>
  <scstep>
   <time name="dav">    6.97    6.97</time>
   <time name="total">    7.48    7.45</time>
   <energy>
    <i name="alphaZ">    271.64501344 </i>
    <i name="ewald"> 148485.70847880 </i>
    <i name="hartreedc">-160701.34695708 </i>
    <i name="XCdc">     91.52997802 </i>
    <i name="pawpsdc">  15282.17523232 </i>
    <i name="pawaedc"> -14878.03917956 </i>
    <i name="eentropy">     -0.00592506 </i>
    <i name="bandstr">   -906.11518893 </i>
    <i name="atom">  12245.18164884 </i>
    <i name="e_fr_energy">   -109.26689920 </i>
    <i name="e_wo_entrp">   -109.26097414 </i>
    <i name="e_0_energy">   -109.26492418 </i>
   </energy>
  </scstep>
  <scstep>
   <time name="dav">    7.14    7.14</time>
   <time name="total">    7.64    7.62</time>
   <energy>
    <i name="e_fr_energy">   -109.27169477 </i>
    <i name="e_wo_entrp">   -109.26595143 </i>
    <i name="e_0_energy">   -109.26978032 </i>
   </energy>
  </scstep>
  <scstep>
   <time name="dav">    7.60    7.60</time>
   <time name="total">    8.11    8.08</time>
   <energy>
    <i name="e_fr_energy">   -109.27170431 </i>
    <i name="e_wo_entrp">   -109.26550730 </i>
    <i name="e_0_energy">   -109.26963864 </i>
   </energy>
  </scstep>
  <scstep>
   <time name="dav">    8.45    8.45</time>
   <time name="total">    8.95    8.93</time>
   <energy>
    <i name="e_fr_energy">   -109.27364212 </i>
    <i name="e_wo_entrp">   -109.26829779 </i>
    <i name="e_0_energy">   -109.27186067 </i>
   </energy>
  </scstep>
  <scstep>
   <time name="dav">    7.90    7.90</time>
   <time name="total">    8.41    8.38</time>
   <energy>
    <i name="e_fr_energy">   -109.27137749 </i>
    <i name="e_wo_entrp">   -109.26578657 </i>
    <i name="e_0_energy">   -109.26951385 </i>
   </energy>
  </scstep>
  <scstep>
   <time name="dav">    7.58    7.58</time>
   <time name="total">    8.09    8.06</time>
   <energy>
    <i name="e_fr_energy">   -109.27131618 </i>
    <i name="e_wo_entrp">   -109.26520835 </i>
    <i name="e_0_energy">   -109.26928024 </i>
   </energy>
  </scstep>
  <scstep>
   <time name="dav">    7.54    7.55</time>
   <time name="total">    8.06    8.03</time>
   <energy>
    <i name="e_fr_energy">   -109.27125492 </i>
    <i name="e_wo_entrp">   -109.26541256 </i>
    <i name="e_0_energy">   -109.26930747 </i>
   </energy>
  </scstep>
  <scstep>
   <time name="dav">    7.29    7.29</time>
   <time name="total">    7.80    7.77</time>
   <energy>
    <i name="e_fr_energy">   -109.27124407 </i>
    <i name="e_wo_entrp">   -109.26534468 </i>
    <i name="e_0_energy">   -109.26927760 </i>
   </energy>
  </scstep>
  <scstep>
   <time name="dav">    5.16    5.16</time>
   <time name="total">    5.22    5.20</time>
   <energy>
    <i name="alphaZ">    271.64501344 </i>
    <i name="ewald"> 148485.70847880 </i>
    <i name="hartreedc">-160702.22607362 </i>
    <i name="XCdc">     91.53416224 </i>
    <i name="pawpsdc">  15279.74217750 </i>
    <i name="pawaedc"> -14875.58576439 </i>
    <i name="eentropy">     -0.00587442 </i>
    <i name="bandstr">   -905.26500919 </i>
    <i name="atom">  12245.18164884 </i>
    <i name="e_fr_energy">   -109.27124080 </i>
    <i name="e_wo_entrp">   -109.26536637 </i>
    <i name="e_0_energy">   -109.26928266 </i>
   </energy>
  </scstep>
  <structure>
   <crystal>
    <varray name="basis" >
     <v>       5.54371716       0.00000000       0.00000000 </v>
     <v>       2.77185858       4.80099990       0.00000000 </v>
     <v>       0.00000000       0.00000000      36.78963917 </v>
    </varray>
    <i name="volume">    979.17042988 </i>
    <varray name="rec_basis" >
     <v>       0.18038438      -0.10414497       0.00000000 </v>
     <v>       0.00000000       0.20828994       0.00000000 </v>
     <v>       0.00000000       0.00000000       0.02718157 </v>
    </varray>
   </crystal>
   <varray name="positions" >
    <v>       0.00000000       0.00000000       0.40772349 </v>
    <v>       0.50000000       0.00000000       0.40772349 </v>
    <v>       0.00000000       0.50000000       0.40772349 </v>
    <v>       0.50000000       0.50000000       0.40772349 </v>
    <v>       0.16666667       0.16666667       0.46924116 </v>
    <v>       0.66666667       0.16666667       0.46924116 </v>
    <v>       0.16666667       0.66666667       0.46924116 </v>
    <v>       0.66666667       0.66666667       0.46924116 </v>
    <v>       0.83676915       0.33164146       0.53199546 </v>
    <v>       0.33500651       0.33225159       0.53116570 </v>
    <v>       0.83915754       0.83305044       0.53249193 </v>
    <v>       0.33403067       0.83444328       0.53150359 </v>
    <v>       0.00595144      -0.00101948       0.59987178 </v>
    <v>       0.51309795      -0.00566803       0.59551278 </v>
    <v>       0.00267385       0.50374669       0.59788886 </v>
    <v>       0.50542186       0.49792473       0.59346643 </v>
    <v>       0.23747008       0.16637799       0.66635595 </v>
    <v>       0.20092868       0.17137626       0.63405545 </v>
   </varray>
  </structure>
  <varray name="forces" >
   <v>       0.02166494       0.01379793      -0.40224741 </v>
   <v>      -0.02710180       0.01412323      -0.41427702 </v>
   <v>      -0.00402641      -0.02723454      -0.40611229 </v>
   <v>      -0.00553164       0.00199418      -0.45616344 </v>
   <v>      -0.03102638       0.00417898       0.35201640 </v>
   <v>       0.04770914      -0.01860965       0.27911368 </v>
   <v>       0.01466365       0.01016180       0.25514504 </v>
   <v>       0.05142046      -0.00479177       0.35187858 </v>
   <v>       0.08760677       0.02869820       0.04992507 </v>
   <v>      -0.02791071       0.01622420       0.16317182 </v>
   <v>      -0.05492504      -0.05935112       0.12231040 </v>
   <v>       0.04742669      -0.00616791       0.12827765 </v>
   <v>      -0.01559677      -0.06186492      -0.13925666 </v>
   <v>       0.17345878      -0.06668493       0.01431161 </v>
   <v>       0.08455641       0.09704323      -0.06211090 </v>
   <v>       0.03969409       0.04748415      -0.00778885 </v>
   <v>      -0.46322774       0.05890916      -0.67170884 </v>
   <v>       0.06114556      -0.04791021       0.84351516 </v>
  </varray>
  <varray name="stress" >
   <v>     -10.92928450      -0.51869851      -2.45355475 </v>
   <v>      -0.51869852     -10.59205121       0.24373290 </v>
   <v>      -2.45355454       0.24373294       5.33623677 </v>
  </varray>
  <energy>
   <i name="e_fr_energy">   -109.27124080 </i>
   <i name="e_wo_entrp">   -109.26536637 </i>
   <i name="e_0_energy">   -109.26928266 </i>
  </energy>
  <time name="totalsc">   90.76   89.96</time>
 </calculation>
 <calculation>
  <scstep>
   <time name="dav">    6.97    6.97</time>
   <time name="total">    7.47    7.45</time>
   <energy>
    <i name="alphaZ">    271.64501344 </i>
    <i name="ewald"> 148432.77219239 </i>
    <i name="hartreedc">-160649.39112059 </i>
    <i name="XCdc">     91.49974888 </i>
    <i name="pawpsdc">  15279.71992192 </i>
    <i name="pawaedc"> -14875.56339108 </i>
    <i name="eentropy">     -0.00631618 </i>
    <i name="bandstr">   -905.12646523 </i>
    <i name="atom">  12245.18164884 </i>
    <i name="e_fr_energy">   -109.26876762 </i>
    <i name="e_wo_entrp">   -109.26245144 </i>
    <i name="e_0_energy">   -109.26666223 </i>
   </energy>
  </scstep>
  <scstep>
   <time name="dav">    7.15    7.16</time>
   <time name="total">    7.65    7.63</time>
   <energy>
    <i name="e_fr_energy">   -109.28796515 </i>
    <i name="e_wo_entrp">   -109.28196607 </i>
    <i name="e_0_energy">   -109.28596545 </i>
   </energy>
  </scstep>
  <scstep>
   <time name="dav">    7.59    7.59</time>
   <time name="total">    8.09    8.07</time>
   <energy>
    <i name="e_fr_energy">   -109.28771601 </i>
    <i name="e_wo_entrp">   -109.28101477 </i>
    <i name="e_0_energy">   -109.28548227 </i>
   </energy>
  </scstep>
  <scstep>
   <time name="dav">    8.38    8.38</time>
   <time name="total">    8.89    8.87</time>
   <energy>
    <i name="e_fr_energy">   -109.29453979 </i>
    <i name="e_wo_entrp">   -109.28941119 </i>
    <i name="e_0_energy">   -109.29283026 </i>
   </energy>
  </scstep>
  <scstep>
   <time name="dav">    7.85    7.85</time>
   <time name="total">    8.35    8.33</time>
   <energy>
    <i name="e_fr_energy">   -109.28657195 </i>
    <i name="e_wo_entrp">   -109.28083059 </i>
    <i name="e_0_energy">   -109.28465816 </i>
   </energy>
  </scstep>
  <scstep>
   <time name="dav">    7.57    7.57</time>
   <time name="total">    8.07    8.05</time>
   <energy>
    <i name="e_fr_energy">   -109.28634204 </i>
    <i name="e_wo_entrp">   -109.27970499 </i>
    <i name="e_0_energy">   -109.28412969 </i>
   </energy>
  </scstep>
  <scstep>
   <time name="dav">    7.44    7.44</time>
   <time name="total">    7.95    7.92</time>
   <energy>
    <i name="e_fr_energy">   -109.28613850 </i>
    <i name="e_wo_entrp">   -109.28002543 </i>
    <i name="e_0_energy">   -109.28410081 </i>
   </energy>
  </scstep>
  <scstep>
   <time name="dav">    7.56    7.56</time>
   <time name="total">    8.06    8.04</time>
   <energy>
    <i name="e_fr_energy">   -109.28611319 </i>
    <i name="e_wo_entrp">   -109.27980477 </i>
    <i name="e_0_energy">   -109.28401038 </i>
   </energy>
  </scstep>
  <scstep>
   <time name="dav">    7.21    7.21</time>
   <time name="total">    7.72    7.69</time>
   <energy>
    <i name="e_fr_energy">   -109.28609612 </i>
    <i name="e_wo_entrp">   -109.27987220 </i>
    <i name="e_0_energy">   -109.28402148 </i>
   </energy>
  </scstep>
  <scstep>
   <time name="dav">    5.03    5.03</time>
   <time name="total">    5.55    5.52</time>
   <energy>
    <i name="e_fr_energy">   -109.28608503 </i>
    <i name="e_wo_entrp">   -109.27986872 </i>
    <i name="e_0_energy">   -109.28401293 </i>
   </energy>
  </scstep>
  <scstep>
   <time name="dav">    5.18    5.18</time>
   <time name="total">    5.69    5.66</time>
   <energy>
    <i name="e_fr_energy">   -109.28607496 </i>
    <i name="e_wo_entrp">   -109.27983234 </i>
    <i name="e_0_energy">   -109.28399409 </i>
   </energy>
  </scstep>
  <scstep>
   <time name="dav">    4.70    4.70</time>
   <time name="total">    4.76    4.74</time>
   <energy>
    <i name="alphaZ">    271.64501344 </i>
    <i name="ewald"> 148432.77219239 </i>
    <i name="hartreedc">-160651.41736373 </i>
    <i name="XCdc">     91.50834592 </i>
    <i name="pawpsdc">  15274.52836703 </i>
    <i name="pawaedc"> -14870.33285894 </i>
    <i name="eentropy">     -0.00626706 </i>
    <i name="bandstr">   -903.16515253 </i>
    <i name="atom">  12245.18164884 </i>
    <i name="e_fr_energy">   -109.28607465 </i>
    <i name="e_wo_entrp">   -109.27980759 </i>
    <i name="e_0_energy">   -109.28398563 </i>
   </energy>
  </scstep>
  <structure>
   <crystal>
    <varray name="basis" >
     <v>       5.54371716       0.00000000       0.00000000 </v>
     <v>       2.77185858       4.80099990       0.00000000 </v>
     <v>       0.00000000       0.00000000      36.78963917 </v>
    </varray>
    <i name="volume">    979.17042988 </i>
    <varray name="rec_basis" >
     <v>       0.18038438      -0.10414497       0.00000000 </v>
     <v>       0.00000000       0.20828994       0.00000000 </v>
     <v>       0.00000000       0.00000000       0.02718157 </v>
    </varray>
   </crystal>
   <varray name="positions" >
    <v>       0.00000000       0.00000000       0.40772349 </v>
    <v>       0.50000000       0.00000000       0.40772349 </v>
    <v>       0.00000000       0.50000000       0.40772349 </v>
    <v>       0.50000000       0.50000000       0.40772349 </v>
    <v>       0.16666667       0.16666667       0.46924116 </v>
    <v>       0.66666667       0.16666667       0.46924116 </v>
    <v>       0.16666667       0.66666667       0.46924116 </v>
    <v>       0.66666667       0.66666667       0.46924116 </v>
    <v>       0.83678868       0.33180026       0.53200126 </v>
    <v>       0.33595103       0.33219303       0.53110447 </v>
    <v>       0.83833752       0.83309549       0.53234913 </v>
    <v>       0.33503866       0.83361814       0.53150884 </v>
    <v>       0.00590364      -0.00125374       0.59953049 </v>
    <v>       0.51455599      -0.00583903       0.59577827 </v>
    <v>       0.00313112       0.50484955       0.59776740 </v>
    <v>       0.50666992       0.49816967       0.59390516 </v>
    <v>       0.23208710       0.16724553       0.66660522 </v>
    <v>       0.20131528       0.17015947       0.63434035 </v>
   </varray>
  </structure>
  <varray name="forces" >
   <v>       0.01917682       0.01499689      -0.39654175 </v>
   <v>      -0.02864075       0.01371585      -0.41460712 </v>
   <v>      -0.00658785      -0.02607643      -0.40368480 </v>
   <v>      -0.00249465       0.00150534      -0.44827576 </v>
   <v>      -0.03328382       0.00075750       0.35194329 </v>
   <v>       0.05632504      -0.01722291       0.26232331 </v>
   <v>       0.01856151       0.01217424       0.23920835 </v>
   <v>       0.04802997      -0.01162303       0.33468260 </v>
   <v>       0.10989683      -0.00242080       0.07147636 </v>
   <v>      -0.06887285       0.02089226       0.23488931 </v>
   <v>       0.00130655      -0.06418558       0.15842580 </v>
   <v>       0.00923364       0.03776950       0.16456150 </v>
   <v>       0.09309020      -0.01420472      -0.08266364 </v>
   <v>       0.05567197       0.02260305       0.04363371 </v>
   <v>       0.10237807      -0.06229098       0.00197409 </v>
   <v>       0.00511734       0.04281156      -0.11064146 </v>
   <v>      -0.37983801       0.03633677      -0.37796088 </v>
   <v>       0.00092999      -0.00553851       0.37125710 </v>
  </varray>
  <varray name="stress" >
   <v>     -11.14712750      -0.45207433      -2.18171794 </v>
   <v>      -0.45207434     -10.92297284       0.23152912 </v>
   <v>      -2.18171795       0.23152927       5.11825046 </v>
  </varray>
  <energy>
   <i name="e_fr_energy">   -109.28607465 </i>
   <i name="e_wo_entrp">   -109.27980759 </i>
   <i name="e_0_energy">   -109.28398563 </i>
  </energy>
  <time name="totalsc">  109.23  108.36</time>
 </calculation>
 <calculation>
  <scstep>
   <time name="dav">    6.97    6.97</time>
   <time name="total">    7.47    7.45</time>
   <energy>
    <i name="alphaZ">    271.64501344 </i>
    <i name="ewald"> 148325.68888868 </i>
    <i name="hartreedc">-160544.58266250 </i>
    <i name="XCdc">     91.43505660 </i>
    <i name="pawpsdc">  15274.45864465 </i>
    <i name="pawaedc"> -14870.26320409 </i>
    <i name="eentropy">     -0.00717330 </i>
    <i name="bandstr">   -902.77353961 </i>
    <i name="atom">  12245.18164884 </i>
    <i name="e_fr_energy">   -109.21732728 </i>
    <i name="e_wo_entrp">   -109.21015398 </i>
    <i name="e_0_energy">   -109.21493618 </i>
   </energy>
  </scstep>
  <scstep>
   <time name="dav">    7.15    7.15</time>
   <time name="total">    7.65    7.63</time>
   <energy>
    <i name="e_fr_energy">   -109.29560081 </i>
    <i name="e_wo_entrp">   -109.28937514 </i>
    <i name="e_0_energy">   -109.29352559 </i>
   </energy>
  </scstep>
  <scstep>
   <time name="dav">    7.63    7.63</time>
   <time name="total">    8.13    8.11</time>
   <energy>
    <i name="e_fr_energy">   -109.30519882 </i>
    <i name="e_wo_entrp">   -109.29797497 </i>
    <i name="e_0_energy">   -109.30279087 </i>
   </energy>
  </scstep>
  <scstep>
   <time name="dav">    8.50    8.50</time>
   <time name="total">    9.00    8.98</time>
   <energy>
    <i name="e_fr_energy">   -109.31743913 </i>
    <i name="e_wo_entrp">   -109.31231258 </i>
    <i name="e_0_energy">   -109.31573028 </i>
   </energy>
  </scstep>
  <scstep>
   <time name="dav">    7.72    7.73</time>
   <time name="total">    8.24    8.21</time>
   <energy>
    <i name="e_fr_energy">   -109.28935258 </i>
    <i name="e_wo_entrp">   -109.28359815 </i>
    <i name="e_0_energy">   -109.28743444 </i>
   </energy>
  </scstep>
  <scstep>
   <time name="dav">    7.62    7.62</time>
   <time name="total">    8.12    8.10</time>
   <energy>
    <i name="e_fr_energy">   -109.28788058 </i>
    <i name="e_wo_entrp">   -109.28000442 </i>
    <i name="e_0_energy">   -109.28525520 </i>
   </energy>
  </scstep>
  <scstep>
   <time name="dav">    7.52    7.52</time>
   <time name="total">    8.02    8.00</time>
   <energy>
    <i name="e_fr_energy">   -109.28673157 </i>
    <i name="e_wo_entrp">   -109.28001461 </i>
    <i name="e_0_energy">   -109.28449259 </i>
   </energy>
  </scstep>
  <scstep>
   <time name="dav">    7.65    7.65</time>
   <time name="total">    8.16    8.13</time>
   <energy>
    <i name="e_fr_energy">   -109.28642130 </i>
    <i name="e_wo_entrp">   -109.27940145 </i>
    <i name="e_0_energy">   -109.28408135 </i>
   </energy>
  </scstep>
  <scstep>
   <time name="dav">    7.60    7.60</time>
   <time name="total">    8.11    8.08</time>
   <energy>
    <i name="e_fr_energy">   -109.28638921 </i>
    <i name="e_wo_entrp">   -109.27942220 </i>
    <i name="e_0_energy">   -109.28406687 </i>
   </energy>
  </scstep>
  <scstep>
   <time name="dav">    7.61    7.61</time>
   <time name="total">    8.12    8.09</time>
   <energy>
    <i name="e_fr_energy">   -109.28627520 </i>
    <i name="e_wo_entrp">   -109.27934435 </i>
    <i name="e_0_energy">   -109.28396491 </i>
   </energy>
  </scstep>
  <scstep>
   <time name="dav">    7.31    7.31</time>
   <time name="total">    7.82    7.79</time>
   <energy>
    <i name="e_fr_energy">   -109.28623246 </i>
    <i name="e_wo_entrp">   -109.27922979 </i>
    <i name="e_0_energy">   -109.28389824 </i>
   </energy>
  </scstep>
  <scstep>
   <time name="dav">    5.65    5.65</time>
   <time name="total">    5.70    5.68</time>
   <energy>
    <i name="alphaZ">    271.64501344 </i>
    <i name="ewald"> 148325.68888868 </i>
    <i name="hartreedc">-160548.34866365 </i>
    <i name="XCdc">     91.45012992 </i>
    <i name="pawpsdc">  15264.62610064 </i>
    <i name="pawaedc"> -14860.36257731 </i>
    <i name="eentropy">     -0.00703295 </i>
    <i name="bandstr">   -899.15973840 </i>
    <i name="atom">  12245.18164884 </i>
    <i name="e_fr_energy">   -109.28623078 </i>
    <i name="e_wo_entrp">   -109.27919782 </i>
    <i name="e_0_energy">   -109.28388646 </i>
   </energy>
  </scstep>
  <structure>
   <crystal>
    <varray name="basis" >
     <v>       5.54371716       0.00000000       0.00000000 </v>
     <v>       2.77185858       4.80099990       0.00000000 </v>
     <v>       0.00000000       0.00000000      36.78963917 </v>
    </varray>
    <i name="volume">    979.17042988 </i>
    <varray name="rec_basis" >
     <v>       0.18038438      -0.10414497       0.00000000 </v>
     <v>       0.00000000       0.20828994       0.00000000 </v>
     <v>       0.00000000       0.00000000       0.02718157 </v>
    </varray>
   </crystal>
   <varray name="positions" >
    <v>       0.00000000       0.00000000       0.40772349 </v>
    <v>       0.50000000       0.00000000       0.40772349 </v>
    <v>       0.00000000       0.50000000       0.40772349 </v>
    <v>       0.50000000       0.50000000       0.40772349 </v>
    <v>       0.16666667       0.16666667       0.46924116 </v>
    <v>       0.66666667       0.16666667       0.46924116 </v>
    <v>       0.16666667       0.66666667       0.46924116 </v>
    <v>       0.66666667       0.66666667       0.46924116 </v>
    <v>       0.83682775       0.33211785       0.53201286 </v>
    <v>       0.33784009       0.33207590       0.53098200 </v>
    <v>       0.83669747       0.83318558       0.53206354 </v>
    <v>       0.33705463       0.83196788       0.53151935 </v>
    <v>       0.00580805      -0.00172228       0.59884790 </v>
    <v>       0.51747207      -0.00618103       0.59630923 </v>
    <v>       0.00404567       0.50705526       0.59752449 </v>
    <v>       0.50916604       0.49865955       0.59478260 </v>
    <v>       0.22132116       0.16898059       0.66710377 </v>
    <v>       0.20208848       0.16772589       0.63491014 </v>
   </varray>
  </structure>
  <varray name="forces" >
   <v>       0.01332064       0.01692416      -0.38859477 </v>
   <v>      -0.03225949       0.01295654      -0.41774830 </v>
   <v>      -0.01212958      -0.02377481      -0.40205127 </v>
   <v>       0.00323437       0.00041161      -0.43710647 </v>
   <v>      -0.03846708      -0.00616901       0.35512812 </v>
   <v>       0.07333902      -0.01436154       0.23018220 </v>
   <v>       0.02588201       0.01619646       0.21114461 </v>
   <v>       0.03977758      -0.02617155       0.30117095 </v>
   <v>       0.15522430      -0.06402409       0.11273427 </v>
   <v>      -0.15614498       0.03020273       0.36862081 </v>
   <v>       0.11289728      -0.07338753       0.23366074 </v>
   <v>      -0.06815295       0.12520492       0.23151113 </v>
   <v>       0.30803617       0.07653768       0.02696225 </v>
   <v>      -0.18478663       0.19694472       0.11110907 </v>
   <v>       0.13285068      -0.35457677       0.10655923 </v>
   <v>      -0.06046783       0.03552190      -0.30319443 </v>
   <v>      -0.25365262       0.00702643       0.10811232 </v>
   <v>      -0.05850088       0.04453815      -0.44820045 </v>
  </varray>
  <varray name="stress" >
   <v>     -11.50725076      -0.27422283      -1.69837700 </v>
   <v>      -0.27422276     -11.40817470       0.19675352 </v>
   <v>      -1.69837688       0.19675353       4.58595632 </v>
  </varray>
  <energy>
   <i name="e_fr_energy">   -109.28623078 </i>
   <i name="e_wo_entrp">   -109.27919782 </i>
   <i name="e_0_energy">   -109.28388646 </i>
  </energy>
  <time name="totalsc">  115.57  114.70</time>
 </calculation>
 <calculation>
  <scstep>
   <time name="dav">    6.97    6.97</time>
   <time name="total">    7.47    7.45</time>
   <energy>
    <i name="alphaZ">    271.64501344 </i>
    <i name="ewald"> 148377.67811963 </i>
    <i name="hartreedc">-160600.22698129 </i>
    <i name="XCdc">     91.48434964 </i>
    <i name="pawpsdc">  15264.41748902 </i>
    <i name="pawaedc"> -14860.15400733 </i>
    <i name="eentropy">     -0.00654913 </i>
    <i name="bandstr">   -899.29415795 </i>
    <i name="atom">  12245.18164884 </i>
    <i name="e_fr_energy">   -109.27507511 </i>
    <i name="e_wo_entrp">   -109.26852598 </i>
    <i name="e_0_energy">   -109.27289206 </i>
   </energy>
  </scstep>
  <scstep>
   <time name="dav">    7.06    7.06</time>
   <time name="total">    7.56    7.53</time>
   <energy>
    <i name="e_fr_energy">   -109.29567491 </i>
    <i name="e_wo_entrp">   -109.28864818 </i>
    <i name="e_0_energy">   -109.29333266 </i>
   </energy>
  </scstep>
  <scstep>
   <time name="dav">    7.80    7.80</time>
   <time name="total">    8.30    8.28</time>
   <energy>
    <i name="e_fr_energy">   -109.29692420 </i>
    <i name="e_wo_entrp">   -109.29085463 </i>
    <i name="e_0_energy">   -109.29490101 </i>
   </energy>
  </scstep>
  <scstep>
   <time name="dav">    7.77    7.77</time>
   <time name="total">    8.28    8.25</time>
   <energy>
    <i name="e_fr_energy">   -109.29503450 </i>
    <i name="e_wo_entrp">   -109.28854610 </i>
    <i name="e_0_energy">   -109.29287170 </i>
   </energy>
  </scstep>
  <scstep>
   <time name="dav">    7.51    7.51</time>
   <time name="total">    8.02    7.99</time>
   <energy>
    <i name="e_fr_energy">   -109.29153481 </i>
    <i name="e_wo_entrp">   -109.28462605 </i>
    <i name="e_0_energy">   -109.28923189 </i>
   </energy>
  </scstep>
  <scstep>
   <time name="dav">    7.70    7.70</time>
   <time name="total">    8.21    8.18</time>
   <energy>
    <i name="e_fr_energy">   -109.29106457 </i>
    <i name="e_wo_entrp">   -109.28435437 </i>
    <i name="e_0_energy">   -109.28882784 </i>
   </energy>
  </scstep>
  <scstep>
   <time name="dav">    7.35    7.35</time>
   <time name="total">    7.85    7.83</time>
   <energy>
    <i name="e_fr_energy">   -109.29094861 </i>
    <i name="e_wo_entrp">   -109.28448488 </i>
    <i name="e_0_energy">   -109.28879403 </i>
   </energy>
  </scstep>
  <scstep>
   <time name="dav">    7.42    7.42</time>
   <time name="total">    7.92    7.90</time>
   <energy>
    <i name="e_fr_energy">   -109.29084586 </i>
    <i name="e_wo_entrp">   -109.28410142 </i>
    <i name="e_0_energy">   -109.28859771 </i>
   </energy>
  </scstep>
  <scstep>
   <time name="dav">    6.48    6.48</time>
   <time name="total">    6.99    6.97</time>
   <energy>
    <i name="e_fr_energy">   -109.29084775 </i>
    <i name="e_wo_entrp">   -109.28416535 </i>
    <i name="e_0_energy">   -109.28862028 </i>
   </energy>
  </scstep>
  <scstep>
   <time name="dav">    6.22    6.23</time>
   <time name="total">    6.28    6.26</time>
   <energy>
    <i name="alphaZ">    271.64501344 </i>
    <i name="ewald"> 148377.67811963 </i>
    <i name="hartreedc">-160598.86630914 </i>
    <i name="XCdc">     91.48101529 </i>
    <i name="pawpsdc">  15268.98097387 </i>
    <i name="pawaedc"> -14864.74901636 </i>
    <i name="eentropy">     -0.00667897 </i>
    <i name="bandstr">   -900.63560775 </i>
    <i name="atom">  12245.18164884 </i>
    <i name="e_fr_energy">   -109.29084115 </i>
    <i name="e_wo_entrp">   -109.28416218 </i>
    <i name="e_0_energy">   -109.28861483 </i>
   </energy>
  </scstep>
  <structure>
   <crystal>
    <varray name="basis" >
     <v>       5.54371716       0.00000000       0.00000000 </v>
     <v>       2.77185858       4.80099990       0.00000000 </v>
     <v>       0.00000000       0.00000000      36.78963917 </v>
    </varray>
    <i name="volume">    979.17042988 </i>
    <varray name="rec_basis" >
     <v>       0.18038438      -0.10414497       0.00000000 </v>
     <v>       0.00000000       0.20828994       0.00000000 </v>
     <v>       0.00000000       0.00000000       0.02718157 </v>
    </varray>
   </crystal>
   <varray name="positions" >
    <v>       0.00000000       0.00000000       0.40772349 </v>
    <v>       0.50000000       0.00000000       0.40772349 </v>
    <v>       0.00000000       0.50000000       0.40772349 </v>
    <v>       0.50000000       0.50000000       0.40772349 </v>
    <v>       0.16666667       0.16666667       0.46924116 </v>
    <v>       0.66666667       0.16666667       0.46924116 </v>
    <v>       0.16666667       0.66666667       0.46924116 </v>
    <v>       0.66666667       0.66666667       0.46924116 </v>
    <v>       0.83680886       0.33196426       0.53200725 </v>
    <v>       0.33692652       0.33213255       0.53104123 </v>
    <v>       0.83749061       0.83314201       0.53220165 </v>
    <v>       0.33607968       0.83276596       0.53151427 </v>
    <v>       0.00585428      -0.00149569       0.59917801 </v>
    <v>       0.51606182      -0.00601564       0.59605245 </v>
    <v>       0.00360338       0.50598855       0.59764196 </v>
    <v>       0.50795889       0.49842264       0.59435826 </v>
    <v>       0.22652769       0.16814150       0.66686266 </v>
    <v>       0.20171455       0.16890280       0.63463458 </v>
   </varray>
  </structure>
  <varray name="forces" >
   <v>       0.01561929       0.01610779      -0.39153277 </v>
   <v>      -0.03091057       0.01323457      -0.41222936 </v>
   <v>      -0.01005656      -0.02472695      -0.40057499 </v>
   <v>      -0.00011680       0.00100904      -0.44051663 </v>
   <v>      -0.03648955      -0.00279370       0.35106744 </v>
   <v>       0.06457917      -0.01566512       0.24387527 </v>
   <v>       0.02169583       0.01438468       0.22296371 </v>
   <v>       0.04331495      -0.01902029       0.31533098 </v>
   <v>       0.13296455      -0.03401446       0.09111184 </v>
   <v>      -0.11257064       0.02521382       0.30451521 </v>
   <v>       0.05706952      -0.06894442       0.19486272 </v>
   <v>      -0.02982995       0.08233696       0.19899238 </v>
   <v>       0.20533653       0.03382291      -0.02877667 </v>
   <v>      -0.06615458       0.11324452       0.08105097 </v>
   <v>       0.12013384      -0.21692063       0.05939507 </v>
   <v>      -0.02831527       0.03912510      -0.20426009 </v>
   <v>      -0.30670028       0.01842727      -0.10816756 </v>
   <v>      -0.03956949       0.02517890      -0.07710753 </v>
  </varray>
  <varray name="stress" >
   <v>     -11.34280067      -0.36825780      -1.92105317 </v>
   <v>      -0.36825786     -11.20014341       0.21670288 </v>
   <v>      -1.92105309       0.21670301       4.83581290 </v>
  </varray>
  <energy>
   <i name="e_fr_energy">   -109.29084115 </i>
   <i name="e_wo_entrp">   -109.28416218 </i>
   <i name="e_0_energy">   -109.28861483 </i>
  </energy>
  <time name="totalsc">   97.85   97.03</time>
 </calculation>
 <calculation>
  <scstep>
   <time name="dav">    6.97    6.97</time>
   <time name="total">    7.47    7.45</time>
   <energy>
    <i name="alphaZ">    271.64501344 </i>
    <i name="ewald"> 148373.04778629 </i>
    <i name="hartreedc">-160594.15440756 </i>
    <i name="XCdc">     91.48305923 </i>
    <i name="pawpsdc">  15268.89795107 </i>
    <i name="pawaedc"> -14864.66643134 </i>
    <i name="eentropy">     -0.00666824 </i>
    <i name="bandstr">   -900.72171529 </i>
    <i name="atom">  12245.18164884 </i>
    <i name="e_fr_energy">   -109.29376357 </i>
    <i name="e_wo_entrp">   -109.28709532 </i>
    <i name="e_0_energy">   -109.29154082 </i>
   </energy>
  </scstep>
  <scstep>
   <time name="dav">    7.29    7.29</time>
   <time name="total">    7.79    7.77</time>
   <energy>
    <i name="e_fr_energy">   -109.29460336 </i>
    <i name="e_wo_entrp">   -109.28804376 </i>
    <i name="e_0_energy">   -109.29241683 </i>
   </energy>
  </scstep>
  <scstep>
   <time name="dav">    7.92    7.93</time>
   <time name="total">    8.43    8.40</time>
   <energy>
    <i name="e_fr_energy">   -109.29445584 </i>
    <i name="e_wo_entrp">   -109.28771143 </i>
    <i name="e_0_energy">   -109.29220770 </i>
   </energy>
  </scstep>
  <scstep>
   <time name="dav">    7.56    7.56</time>
   <time name="total">    8.06    8.04</time>
   <energy>
    <i name="e_fr_energy">   -109.29419413 </i>
    <i name="e_wo_entrp">   -109.28753205 </i>
    <i name="e_0_energy">   -109.29197344 </i>
   </energy>
  </scstep>
  <scstep>
   <time name="dav">    6.48    6.48</time>
   <time name="total">    6.53    6.51</time>
   <energy>
    <i name="alphaZ">    271.64501344 </i>
    <i name="ewald"> 148373.04778629 </i>
    <i name="hartreedc">-160594.18159689 </i>
    <i name="XCdc">     91.48504732 </i>
    <i name="pawpsdc">  15269.47659264 </i>
    <i name="pawaedc"> -14865.24193054 </i>
    <i name="eentropy">     -0.00674851 </i>
    <i name="bandstr">   -900.70000474 </i>
    <i name="atom">  12245.18164884 </i>
    <i name="e_fr_energy">   -109.29419213 </i>
    <i name="e_wo_entrp">   -109.28744363 </i>
    <i name="e_0_energy">   -109.29194263 </i>
   </energy>
  </scstep>
  <structure>
   <crystal>
    <varray name="basis" >
     <v>       5.54371716       0.00000000       0.00000000 </v>
     <v>       2.77185858       4.80099990       0.00000000 </v>
     <v>       0.00000000       0.00000000      36.78963917 </v>
    </varray>
    <i name="volume">    979.17042988 </i>
    <varray name="rec_basis" >
     <v>       0.18038438      -0.10414497       0.00000000 </v>
     <v>       0.00000000       0.20828994       0.00000000 </v>
     <v>       0.00000000       0.00000000       0.02718157 </v>
    </varray>
   </crystal>
   <varray name="positions" >
    <v>       0.00000000       0.00000000       0.40772349 </v>
    <v>       0.50000000       0.00000000       0.40772349 </v>
    <v>       0.00000000       0.50000000       0.40772349 </v>
    <v>       0.50000000       0.50000000       0.40772349 </v>
    <v>       0.16666667       0.16666667       0.46924116 </v>
    <v>       0.66666667       0.16666667       0.46924116 </v>
    <v>       0.16666667       0.66666667       0.46924116 </v>
    <v>       0.66666667       0.66666667       0.46924116 </v>
    <v>       0.83699582       0.33193151       0.53202445 </v>
    <v>       0.33686092       0.33216237       0.53109115 </v>
    <v>       0.83753119       0.83304966       0.53222387 </v>
    <v>       0.33608041       0.83280388       0.53155113 </v>
    <v>       0.00607521      -0.00147029       0.59914072 </v>
    <v>       0.51603906      -0.00587305       0.59609218 </v>
    <v>       0.00394396       0.50578817       0.59764142 </v>
    <v>       0.50801424       0.49850043       0.59436209 </v>
    <v>       0.22563763       0.16824871       0.66686628 </v>
    <v>       0.20168519       0.16882389       0.63464722 </v>
   </varray>
  </structure>
  <varray name="forces" >
   <v>       0.01540308       0.01606426      -0.39116515 </v>
   <v>      -0.03133424       0.01332590      -0.41057825 </v>
   <v>      -0.01019049      -0.02485697      -0.40181091 </v>
   <v>      -0.00020001       0.00107894      -0.43951557 </v>
   <v>      -0.03434921      -0.00343261       0.35722174 </v>
   <v>       0.06254298      -0.01450560       0.25315840 </v>
   <v>       0.02273388       0.01319735       0.23039147 </v>
   <v>       0.04163663      -0.01841283       0.32138771 </v>
   <v>       0.11761668      -0.03260473       0.08277692 </v>
   <v>      -0.09969919       0.02115666       0.28525832 </v>
   <v>       0.05552038      -0.05952365       0.19015124 </v>
   <v>      -0.02674247       0.07728724       0.18464477 </v>
   <v>       0.18843890       0.02974800      -0.02451283 </v>
   <v>      -0.05120584       0.09931588       0.07991666 </v>
   <v>       0.10942673      -0.19606190       0.06076938 </v>
   <v>      -0.02050756       0.03529059      -0.20307087 </v>
   <v>      -0.29065056       0.01578042      -0.04577141 </v>
   <v>      -0.04843969       0.02715306      -0.12925163 </v>
  </varray>
  <varray name="stress" >
   <v>     -11.33974551      -0.35961147      -1.89014821 </v>
   <v>      -0.35961159     -11.20531886       0.20729142 </v>
   <v>      -1.89014821       0.20729134       5.02563958 </v>
  </varray>
  <energy>
   <i name="e_fr_energy">   -109.29419213 </i>
   <i name="e_wo_entrp">   -109.28744363 </i>
   <i name="e_0_energy">   -109.29194263 </i>
  </energy>
  <time name="totalsc">   59.31   58.60</time>
 </calculation>
 <calculation>
  <scstep>
   <time name="dav">    6.97    6.97</time>
   <time name="total">    7.47    7.44</time>
   <energy>
    <i name="alphaZ">    271.64501344 </i>
    <i name="ewald"> 148359.13565295 </i>
    <i name="hartreedc">-160580.24419474 </i>
    <i name="XCdc">     91.49192047 </i>
    <i name="pawpsdc">  15269.80566773 </i>
    <i name="pawaedc"> -14865.56982448 </i>
    <i name="eentropy">     -0.00666861 </i>
    <i name="bandstr">   -900.73832630 </i>
    <i name="atom">  12245.18164884 </i>
    <i name="e_fr_energy">   -109.29911070 </i>
    <i name="e_wo_entrp">   -109.29244209 </i>
    <i name="e_0_energy">   -109.29688783 </i>
   </energy>
  </scstep>
  <scstep>
   <time name="dav">    6.99    6.99</time>
   <time name="total">    7.49    7.47</time>
   <energy>
    <i name="e_fr_energy">   -109.30300968 </i>
    <i name="e_wo_entrp">   -109.29631115 </i>
    <i name="e_0_energy">   -109.30077683 </i>
   </energy>
  </scstep>
  <scstep>
   <time name="dav">    7.79    7.79</time>
   <time name="total">    8.29    8.27</time>
   <energy>
    <i name="e_fr_energy">   -109.30309865 </i>
    <i name="e_wo_entrp">   -109.29645445 </i>
    <i name="e_0_energy">   -109.30088392 </i>
   </energy>
  </scstep>
  <scstep>
   <time name="dav">    7.74    7.74</time>
   <time name="total">    8.24    8.22</time>
   <energy>
    <i name="e_fr_energy">   -109.30296987 </i>
    <i name="e_wo_entrp">   -109.29639726 </i>
    <i name="e_0_energy">   -109.30077900 </i>
   </energy>
  </scstep>
  <scstep>
   <time name="dav">    8.00    8.00</time>
   <time name="total">    8.51    8.49</time>
   <energy>
    <i name="e_fr_energy">   -109.30337888 </i>
    <i name="e_wo_entrp">   -109.29655441 </i>
    <i name="e_0_energy">   -109.30110406 </i>
   </energy>
  </scstep>
  <scstep>
   <time name="dav">    7.73    7.73</time>
   <time name="total">    8.24    8.21</time>
   <energy>
    <i name="e_fr_energy">   -109.30281255 </i>
    <i name="e_wo_entrp">   -109.29613766 </i>
    <i name="e_0_energy">   -109.30058759 </i>
   </energy>
  </scstep>
  <scstep>
   <time name="dav">    7.54    7.55</time>
   <time name="total">    8.05    8.02</time>
   <energy>
    <i name="e_fr_energy">   -109.30281888 </i>
    <i name="e_wo_entrp">   -109.29611238 </i>
    <i name="e_0_energy">   -109.30058338 </i>
   </energy>
  </scstep>
  <scstep>
   <time name="dav">    5.76    5.76</time>
   <time name="total">    5.81    5.79</time>
   <energy>
    <i name="alphaZ">    271.64501344 </i>
    <i name="ewald"> 148359.13565295 </i>
    <i name="hartreedc">-160580.71708252 </i>
    <i name="XCdc">     91.49880593 </i>
    <i name="pawpsdc">  15272.66460429 </i>
    <i name="pawaedc"> -14868.41691536 </i>
    <i name="eentropy">     -0.00664925 </i>
    <i name="bandstr">   -900.28788785 </i>
    <i name="atom">  12245.18164884 </i>
    <i name="e_fr_energy">   -109.30280952 </i>
    <i name="e_wo_entrp">   -109.29616027 </i>
    <i name="e_0_energy">   -109.30059310 </i>
   </energy>
  </scstep>
  <structure>
   <crystal>
    <varray name="basis" >
     <v>       5.54371716       0.00000000       0.00000000 </v>
     <v>       2.77185858       4.80099990       0.00000000 </v>
     <v>       0.00000000       0.00000000      36.78963917 </v>
    </varray>
    <i name="volume">    979.17042988 </i>
    <varray name="rec_basis" >
     <v>       0.18038438      -0.10414497       0.00000000 </v>
     <v>       0.00000000       0.20828994       0.00000000 </v>
     <v>       0.00000000       0.00000000       0.02718157 </v>
    </varray>
   </crystal>
   <varray name="positions" >
    <v>       0.00000000       0.00000000       0.40772349 </v>
    <v>       0.50000000       0.00000000       0.40772349 </v>
    <v>       0.00000000       0.50000000       0.40772349 </v>
    <v>       0.50000000       0.50000000       0.40772349 </v>
    <v>       0.16666667       0.16666667       0.46924116 </v>
    <v>       0.66666667       0.16666667       0.46924116 </v>
    <v>       0.16666667       0.66666667       0.46924116 </v>
    <v>       0.66666667       0.66666667       0.46924116 </v>
    <v>       0.83755670       0.33183327       0.53207605 </v>
    <v>       0.33666413       0.33225184       0.53124091 </v>
    <v>       0.83765293       0.83277261       0.53229054 </v>
    <v>       0.33608257       0.83291763       0.53166174 </v>
    <v>       0.00673799      -0.00139410       0.59902887 </v>
    <v>       0.51597077      -0.00544528       0.59621136 </v>
    <v>       0.00496569       0.50518702       0.59763981 </v>
    <v>       0.50818029       0.49873380       0.59437356 </v>
    <v>       0.22296745       0.16857035       0.66687713 </v>
    <v>       0.20159710       0.16858719       0.63468513 </v>
   </varray>
  </structure>
  <varray name="forces" >
   <v>       0.01602851       0.01590689      -0.39543374 </v>
   <v>      -0.03215696       0.01371813      -0.41549219 </v>
   <v>      -0.00979227      -0.02552698      -0.40532802 </v>
   <v>       0.00038692       0.00107209      -0.44327354 </v>
   <v>      -0.02738420      -0.00556304       0.38055656 </v>
   <v>       0.05753034      -0.01074986       0.28680799 </v>
   <v>       0.02734623       0.00914703       0.25593038 </v>
   <v>       0.03700105      -0.01725399       0.34586899 </v>
   <v>       0.07420802      -0.02822560       0.06013975 </v>
   <v>      -0.06073999       0.00980853       0.22492916 </v>
   <v>       0.05057022      -0.03259291       0.17558479 </v>
   <v>      -0.01688041       0.06119714       0.13963977 </v>
   <v>       0.13760261       0.01745983      -0.01348714 </v>
   <v>      -0.00545228       0.05723325       0.07278017 </v>
   <v>       0.07818490      -0.13197309       0.06458588 </v>
   <v>       0.00345103       0.02413765      -0.19242099 </v>
   <v>      -0.25270063       0.00992156       0.15072678 </v>
   <v>      -0.07720309       0.03228339      -0.29211460 </v>
  </varray>
  <varray name="stress" >
   <v>     -11.41156909      -0.33553423      -1.80309126 </v>
   <v>      -0.33553424     -11.30044996       0.19290448 </v>
   <v>      -1.80309117       0.19290462       5.30450579 </v>
  </varray>
  <energy>
   <i name="e_fr_energy">   -109.30280952 </i>
   <i name="e_wo_entrp">   -109.29616027 </i>
   <i name="e_0_energy">   -109.30059310 </i>
  </energy>
  <time name="totalsc">   83.13   82.35</time>
 </calculation>
 <calculation>
  <scstep>
   <time name="dav">    6.97    6.97</time>
   <time name="total">    7.47    7.45</time>
   <energy>
    <i name="alphaZ">    271.64501344 </i>
    <i name="ewald"> 148331.21384015 </i>
    <i name="hartreedc">-160552.38611946 </i>
    <i name="XCdc">     91.51172980 </i>
    <i name="pawpsdc">  15272.71426584 </i>
    <i name="pawaedc"> -14868.46667259 </i>
    <i name="eentropy">     -0.00667091 </i>
    <i name="bandstr">   -900.70611367 </i>
    <i name="atom">  12245.18164884 </i>
    <i name="e_fr_energy">   -109.29907855 </i>
    <i name="e_wo_entrp">   -109.29240764 </i>
    <i name="e_0_energy">   -109.29685491 </i>
   </energy>
  </scstep>
  <scstep>
   <time name="dav">    6.99    7.00</time>
   <time name="total">    7.50    7.47</time>
   <energy>
    <i name="e_fr_energy">   -109.31554558 </i>
    <i name="e_wo_entrp">   -109.30892795 </i>
    <i name="e_0_energy">   -109.31333970 </i>
   </energy>
  </scstep>
  <scstep>
   <time name="dav">    7.96    7.96</time>
   <time name="total">    8.47    8.44</time>
   <energy>
    <i name="e_fr_energy">   -109.32107669 </i>
    <i name="e_wo_entrp">   -109.31519084 </i>
    <i name="e_0_energy">   -109.31911474 </i>
   </energy>
  </scstep>
  <scstep>
   <time name="dav">    7.84    7.84</time>
   <time name="total">    8.34    8.32</time>
   <energy>
    <i name="e_fr_energy">   -109.31703305 </i>
    <i name="e_wo_entrp">   -109.31012131 </i>
    <i name="e_0_energy">   -109.31472914 </i>
   </energy>
  </scstep>
  <scstep>
   <time name="dav">    7.58    7.58</time>
   <time name="total">    8.09    8.07</time>
   <energy>
    <i name="e_fr_energy">   -109.31505111 </i>
    <i name="e_wo_entrp">   -109.30867949 </i>
    <i name="e_0_energy">   -109.31292724 </i>
   </energy>
  </scstep>
  <scstep>
   <time name="dav">    7.57    7.57</time>
   <time name="total">    8.08    8.05</time>
   <energy>
    <i name="e_fr_energy">   -109.31419675 </i>
    <i name="e_wo_entrp">   -109.30718839 </i>
    <i name="e_0_energy">   -109.31186063 </i>
   </energy>
  </scstep>
  <scstep>
   <time name="dav">    7.47    7.47</time>
   <time name="total">    7.97    7.95</time>
   <energy>
    <i name="e_fr_energy">   -109.31416767 </i>
    <i name="e_wo_entrp">   -109.30772829 </i>
    <i name="e_0_energy">   -109.31202121 </i>
   </energy>
  </scstep>
  <scstep>
   <time name="dav">    7.78    7.78</time>
   <time name="total">    8.29    8.26</time>
   <energy>
    <i name="e_fr_energy">   -109.31409562 </i>
    <i name="e_wo_entrp">   -109.30746705 </i>
    <i name="e_0_energy">   -109.31188610 </i>
   </energy>
  </scstep>
  <scstep>
   <time name="dav">    5.98    5.98</time>
   <time name="total">    6.50    6.47</time>
   <energy>
    <i name="e_fr_energy">   -109.31408048 </i>
    <i name="e_wo_entrp">   -109.30739016 </i>
    <i name="e_0_energy">   -109.31185037 </i>
   </energy>
  </scstep>
  <scstep>
   <time name="dav">    4.93    4.93</time>
   <time name="total">    4.98    4.96</time>
   <energy>
    <i name="alphaZ">    271.64501344 </i>
    <i name="ewald"> 148331.21384015 </i>
    <i name="hartreedc">-160553.40607424 </i>
    <i name="XCdc">     91.52442847 </i>
    <i name="pawpsdc">  15278.72286186 </i>
    <i name="pawaedc"> -14874.45346381 </i>
    <i name="eentropy">     -0.00665703 </i>
    <i name="bandstr">   -899.73568219 </i>
    <i name="atom">  12245.18164884 </i>
    <i name="e_fr_energy">   -109.31408451 </i>
    <i name="e_wo_entrp">   -109.30742748 </i>
    <i name="e_0_energy">   -109.31186550 </i>
   </energy>
  </scstep>
  <structure>
   <crystal>
    <varray name="basis" >
     <v>       5.54371716       0.00000000       0.00000000 </v>
     <v>       2.77185858       4.80099990       0.00000000 </v>
     <v>       0.00000000       0.00000000      36.78963917 </v>
    </varray>
    <i name="volume">    979.17042988 </i>
    <varray name="rec_basis" >
     <v>       0.18038438      -0.10414497       0.00000000 </v>
     <v>       0.00000000       0.20828994       0.00000000 </v>
     <v>       0.00000000       0.00000000       0.02718157 </v>
    </varray>
   </crystal>
   <varray name="positions" >
    <v>       0.00000000       0.00000000       0.40772349 </v>
    <v>       0.50000000       0.00000000       0.40772349 </v>
    <v>       0.00000000       0.50000000       0.40772349 </v>
    <v>       0.50000000       0.50000000       0.40772349 </v>
    <v>       0.16666667       0.16666667       0.46924116 </v>
    <v>       0.66666667       0.16666667       0.46924116 </v>
    <v>       0.16666667       0.66666667       0.46924116 </v>
    <v>       0.66666667       0.66666667       0.46924116 </v>
    <v>       0.83867846       0.33163678       0.53217924 </v>
    <v>       0.33627054       0.33243079       0.53154044 </v>
    <v>       0.83789640       0.83221850       0.53242388 </v>
    <v>       0.33608691       0.83314512       0.53188296 </v>
    <v>       0.00806354      -0.00124171       0.59880517 </v>
    <v>       0.51583419      -0.00458975       0.59644972 </v>
    <v>       0.00700915       0.50398473       0.59763658 </v>
    <v>       0.50851241       0.49920053       0.59439652 </v>
    <v>       0.21762710       0.16921363       0.66689882 </v>
    <v>       0.20142092       0.16811379       0.63476095 </v>
   </varray>
  </structure>
  <varray name="forces" >
   <v>       0.01605711       0.01555517      -0.39806313 </v>
   <v>      -0.03386642       0.01408759      -0.41258741 </v>
   <v>      -0.00987549      -0.02628828      -0.40714526 </v>
   <v>       0.00104503       0.00124921      -0.44223828 </v>
   <v>      -0.01449341      -0.00961334       0.41608694 </v>
   <v>       0.04733912      -0.00342337       0.34298614 </v>
   <v>       0.03514389       0.00175954       0.29865253 </v>
   <v>       0.02735163      -0.01491149       0.38374050 </v>
   <v>      -0.01466372      -0.01834537       0.00917268 </v>
   <v>       0.01828384      -0.01487739       0.10239160 </v>
   <v>       0.03836871       0.02221655       0.14505793 </v>
   <v>       0.00516224       0.02875720       0.04633118 </v>
   <v>       0.03703505      -0.00554002       0.01198808 </v>
   <v>       0.08663487      -0.02622531       0.06813306 </v>
   <v>       0.01619938      -0.00496239       0.07712361 </v>
   <v>       0.05243068       0.00126151      -0.15873469 </v>
   <v>      -0.18745079      -0.00071777       0.51408222 </v>
   <v>      -0.12070171       0.04001795      -0.59697769 </v>
  </varray>
  <varray name="stress" >
   <v>     -11.48238408      -0.30510125      -1.65805093 </v>
   <v>      -0.30510125     -11.41170421       0.16327386 </v>
   <v>      -1.65805094       0.16327364       5.96777778 </v>
  </varray>
  <energy>
   <i name="e_fr_energy">   -109.31408451 </i>
   <i name="e_wo_entrp">   -109.30742748 </i>
   <i name="e_0_energy">   -109.31186550 </i>
  </energy>
  <time name="totalsc">   96.73   95.90</time>
 </calculation>
 <calculation>
  <scstep>
   <time name="dav">    6.97    6.97</time>
   <time name="total">    7.47    7.45</time>
   <energy>
    <i name="alphaZ">    271.64501344 </i>
    <i name="ewald"> 148274.96122262 </i>
    <i name="hartreedc">-160496.49430915 </i>
    <i name="XCdc">     91.54689699 </i>
    <i name="pawpsdc">  15278.52690468 </i>
    <i name="pawaedc"> -14874.25731197 </i>
    <i name="eentropy">     -0.00648581 </i>
    <i name="bandstr">   -900.35784776 </i>
    <i name="atom">  12245.18164884 </i>
    <i name="e_fr_energy">   -109.25426811 </i>
    <i name="e_wo_entrp">   -109.24778230 </i>
    <i name="e_0_energy">   -109.25210617 </i>
   </energy>
  </scstep>
  <scstep>
   <time name="dav">    6.99    6.99</time>
   <time name="total">    7.49    7.47</time>
   <energy>
    <i name="e_fr_energy">   -109.32022883 </i>
    <i name="e_wo_entrp">   -109.31379705 </i>
    <i name="e_0_energy">   -109.31808490 </i>
   </energy>
  </scstep>
  <scstep>
   <time name="dav">    7.97    7.97</time>
   <time name="total">    8.48    8.45</time>
   <energy>
    <i name="e_fr_energy">   -109.34342421 </i>
    <i name="e_wo_entrp">   -109.33945796 </i>
    <i name="e_0_energy">   -109.34210213 </i>
   </energy>
  </scstep>
  <scstep>
   <time name="dav">    7.85    7.85</time>
   <time name="total">    8.36    8.33</time>
   <energy>
    <i name="e_fr_energy">   -109.32611552 </i>
    <i name="e_wo_entrp">   -109.31924804 </i>
    <i name="e_0_energy">   -109.32382636 </i>
   </energy>
  </scstep>
  <scstep>
   <time name="dav">    7.57    7.57</time>
   <time name="total">    8.08    8.05</time>
   <energy>
    <i name="e_fr_energy">   -109.31885505 </i>
    <i name="e_wo_entrp">   -109.31323153 </i>
    <i name="e_0_energy">   -109.31698055 </i>
   </energy>
  </scstep>
  <scstep>
   <time name="dav">    7.58    7.58</time>
   <time name="total">    8.08    8.06</time>
   <energy>
    <i name="e_fr_energy">   -109.31492335 </i>
    <i name="e_wo_entrp">   -109.30763855 </i>
    <i name="e_0_energy">   -109.31249508 </i>
   </energy>
  </scstep>
  <scstep>
   <time name="dav">    7.51    7.51</time>
   <time name="total">    8.02    7.99</time>
   <energy>
    <i name="e_fr_energy">   -109.31462166 </i>
    <i name="e_wo_entrp">   -109.30871023 </i>
    <i name="e_0_energy">   -109.31265119 </i>
   </energy>
  </scstep>
  <scstep>
   <time name="dav">    7.84    7.84</time>
   <time name="total">    8.34    8.32</time>
   <energy>
    <i name="e_fr_energy">   -109.31431937 </i>
    <i name="e_wo_entrp">   -109.30789942 </i>
    <i name="e_0_energy">   -109.31217939 </i>
   </energy>
  </scstep>
  <scstep>
   <time name="dav">    7.74    7.74</time>
   <time name="total">    8.25    8.23</time>
   <energy>
    <i name="e_fr_energy">   -109.31425054 </i>
    <i name="e_wo_entrp">   -109.30769794 </i>
    <i name="e_0_energy">   -109.31206634 </i>
   </energy>
  </scstep>
  <scstep>
   <time name="dav">    7.64    7.64</time>
   <time name="total">    8.15    8.12</time>
   <energy>
    <i name="e_fr_energy">   -109.31427767 </i>
    <i name="e_wo_entrp">   -109.30777517 </i>
    <i name="e_0_energy">   -109.31211017 </i>
   </energy>
  </scstep>
  <scstep>
   <time name="dav">    6.96    6.96</time>
   <time name="total">    7.46    7.44</time>
   <energy>
    <i name="e_fr_energy">   -109.31428912 </i>
    <i name="e_wo_entrp">   -109.30774643 </i>
    <i name="e_0_energy">   -109.31210822 </i>
   </energy>
  </scstep>
  <scstep>
   <time name="dav">    5.34    5.34</time>
   <time name="total">    5.85    5.83</time>
   <energy>
    <i name="e_fr_energy">   -109.31423104 </i>
    <i name="e_wo_entrp">   -109.30774375 </i>
    <i name="e_0_energy">   -109.31206861 </i>
   </energy>
  </scstep>
  <scstep>
   <time name="dav">    4.93    4.94</time>
   <time name="total">    4.99    4.97</time>
   <energy>
    <i name="alphaZ">    271.64501344 </i>
    <i name="ewald"> 148274.96122262 </i>
    <i name="hartreedc">-160498.18449275 </i>
    <i name="XCdc">     91.56994408 </i>
    <i name="pawpsdc">  15289.67032921 </i>
    <i name="pawaedc"> -14885.36953915 </i>
    <i name="eentropy">     -0.00647908 </i>
    <i name="bandstr">   -898.78187658 </i>
    <i name="atom">  12245.18164884 </i>
    <i name="e_fr_energy">   -109.31422935 </i>
    <i name="e_wo_entrp">   -109.30775027 </i>
    <i name="e_0_energy">   -109.31206965 </i>
   </energy>
  </scstep>
  <structure>
   <crystal>
    <varray name="basis" >
     <v>       5.54371716       0.00000000       0.00000000 </v>
     <v>       2.77185858       4.80099990       0.00000000 </v>
     <v>       0.00000000       0.00000000      36.78963917 </v>
    </varray>
    <i name="volume">    979.17042988 </i>
    <varray name="rec_basis" >
     <v>       0.18038438      -0.10414497       0.00000000 </v>
     <v>       0.00000000       0.20828994       0.00000000 </v>
     <v>       0.00000000       0.00000000       0.02718157 </v>
    </varray>
   </crystal>
   <varray name="positions" >
    <v>       0.00000000       0.00000000       0.40772349 </v>
    <v>       0.50000000       0.00000000       0.40772349 </v>
    <v>       0.00000000       0.50000000       0.40772349 </v>
    <v>       0.50000000       0.50000000       0.40772349 </v>
    <v>       0.16666667       0.16666667       0.46924116 </v>
    <v>       0.66666667       0.16666667       0.46924116 </v>
    <v>       0.16666667       0.66666667       0.46924116 </v>
    <v>       0.66666667       0.66666667       0.46924116 </v>
    <v>       0.84092198       0.33124381       0.53238564 </v>
    <v>       0.33548337       0.33278869       0.53213949 </v>
    <v>       0.83838335       0.83111029       0.53269056 </v>
    <v>       0.33609558       0.83360011       0.53232539 </v>
    <v>       0.01071466      -0.00093693       0.59835776 </v>
    <v>       0.51556103      -0.00287869       0.59692644 </v>
    <v>       0.01109606       0.50158014       0.59763011 </v>
    <v>       0.50917663       0.50013401       0.59444243 </v>
    <v>       0.20694639       0.17050020       0.66694222 </v>
    <v>       0.20106855       0.16716698       0.63491259 </v>
   </varray>
  </structure>
  <varray name="forces" >
   <v>       0.01617112       0.01511434      -0.40989180 </v>
   <v>      -0.03763605       0.01504795      -0.41319158 </v>
   <v>      -0.01031715      -0.02791662      -0.41485735 </v>
   <v>       0.00224163       0.00172450      -0.44636100 </v>
   <v>       0.00933148      -0.01728349       0.49198265 </v>
   <v>       0.02851526       0.01046451       0.45603827 </v>
   <v>       0.04930062      -0.01181501       0.38636426 </v>
   <v>       0.00889337      -0.01074507       0.46341263 </v>
   <v>      -0.19240721       0.00379678      -0.09044800 </v>
   <v>       0.17810995      -0.06538670      -0.13978422 </v>
   <v>       0.01334944       0.13087386       0.08898450 </v>
   <v>       0.05346829      -0.03748250      -0.14071421 </v>
   <v>      -0.16466461      -0.05011767       0.06480747 </v>
   <v>       0.27202516      -0.19203016       0.06599528 </v>
   <v>      -0.10637924       0.24869472       0.10907061 </v>
   <v>       0.15362521      -0.04511613      -0.09748074 </v>
   <v>      -0.10707081      -0.01677337       1.11488035 </v>
   <v>      -0.16655646       0.04895007      -1.08880710 </v>
  </varray>
  <varray name="stress" >
   <v>     -11.46935497      -0.25245962      -1.45554508 </v>
   <v>      -0.25245951     -11.45561084       0.11845394 </v>
   <v>      -1.45554513       0.11845371       7.21197446 </v>
  </varray>
  <energy>
   <i name="e_fr_energy">   -109.31422935 </i>
   <i name="e_wo_entrp">   -109.30775027 </i>
   <i name="e_0_energy">   -109.31206965 </i>
  </energy>
  <time name="totalsc">  120.07  119.17</time>
 </calculation>
 <calculation>
  <scstep>
   <time name="dav">    6.98    6.98</time>
   <time name="total">    7.48    7.45</time>
   <energy>
    <i name="alphaZ">    271.64501344 </i>
    <i name="ewald"> 148302.60580854 </i>
    <i name="hartreedc">-160526.13374634 </i>
    <i name="XCdc">     91.55671246 </i>
    <i name="pawpsdc">  15289.58139338 </i>
    <i name="pawaedc"> -14885.28056966 </i>
    <i name="eentropy">     -0.00660815 </i>
    <i name="bandstr">   -898.45341607 </i>
    <i name="atom">  12245.18164884 </i>
    <i name="e_fr_energy">   -109.30376354 </i>
    <i name="e_wo_entrp">   -109.29715540 </i>
    <i name="e_0_energy">   -109.30156083 </i>
   </energy>
  </scstep>
  <scstep>
   <time name="dav">    6.98    6.98</time>
   <time name="total">    7.49    7.46</time>
   <energy>
    <i name="e_fr_energy">   -109.31960995 </i>
    <i name="e_wo_entrp">   -109.31319442 </i>
    <i name="e_0_energy">   -109.31747144 </i>
   </energy>
  </scstep>
  <scstep>
   <time name="dav">    7.96    7.96</time>
   <time name="total">    8.47    8.44</time>
   <energy>
    <i name="e_fr_energy">   -109.32289570 </i>
    <i name="e_wo_entrp">   -109.31603378 </i>
    <i name="e_0_energy">   -109.32060840 </i>
   </energy>
  </scstep>
  <scstep>
   <time name="dav">    7.76    7.76</time>
   <time name="total">    8.26    8.24</time>
   <energy>
    <i name="e_fr_energy">   -109.32052335 </i>
    <i name="e_wo_entrp">   -109.31454050 </i>
    <i name="e_0_energy">   -109.31852907 </i>
   </energy>
  </scstep>
  <scstep>
   <time name="dav">    7.58    7.58</time>
   <time name="total">    8.08    8.06</time>
   <energy>
    <i name="e_fr_energy">   -109.31862787 </i>
    <i name="e_wo_entrp">   -109.31201212 </i>
    <i name="e_0_energy">   -109.31642262 </i>
   </energy>
  </scstep>
  <scstep>
   <time name="dav">    7.61    7.62</time>
   <time name="total">    8.12    8.10</time>
   <energy>
    <i name="e_fr_energy">   -109.31784427 </i>
    <i name="e_wo_entrp">   -109.31142455 </i>
    <i name="e_0_energy">   -109.31570436 </i>
   </energy>
  </scstep>
  <scstep>
   <time name="dav">    7.32    7.32</time>
   <time name="total">    7.82    7.80</time>
   <energy>
    <i name="e_fr_energy">   -109.31782281 </i>
    <i name="e_wo_entrp">   -109.31100506 </i>
    <i name="e_0_energy">   -109.31555023 </i>
   </energy>
  </scstep>
  <scstep>
   <time name="dav">    7.64    7.65</time>
   <time name="total">    8.15    8.13</time>
   <energy>
    <i name="e_fr_energy">   -109.31774557 </i>
    <i name="e_wo_entrp">   -109.31115914 </i>
    <i name="e_0_energy">   -109.31555009 </i>
   </energy>
  </scstep>
  <scstep>
   <time name="dav">    5.59    5.59</time>
   <time name="total">    5.65    5.63</time>
   <energy>
    <i name="alphaZ">    271.64501344 </i>
    <i name="ewald"> 148302.60580854 </i>
    <i name="hartreedc">-160525.45616896 </i>
    <i name="XCdc">     91.54859803 </i>
    <i name="pawpsdc">  15284.27693261 </i>
    <i name="pawaedc"> -14879.98960007 </i>
    <i name="eentropy">     -0.00658765 </i>
    <i name="bandstr">   -899.12338954 </i>
    <i name="atom">  12245.18164884 </i>
    <i name="e_fr_energy">   -109.31774475 </i>
    <i name="e_wo_entrp">   -109.31115710 </i>
    <i name="e_0_energy">   -109.31554887 </i>
   </energy>
  </scstep>
  <structure>
   <crystal>
    <varray name="basis" >
     <v>       5.54371716       0.00000000       0.00000000 </v>
     <v>       2.77185858       4.80099990       0.00000000 </v>
     <v>       0.00000000       0.00000000      36.78963917 </v>
    </varray>
    <i name="volume">    979.17042988 </i>
    <varray name="rec_basis" >
     <v>       0.18038438      -0.10414497       0.00000000 </v>
     <v>       0.00000000       0.20828994       0.00000000 </v>
     <v>       0.00000000       0.00000000       0.02718157 </v>
    </varray>
   </crystal>
   <varray name="positions" >
    <v>       0.00000000       0.00000000       0.40772349 </v>
    <v>       0.50000000       0.00000000       0.40772349 </v>
    <v>       0.00000000       0.50000000       0.40772349 </v>
    <v>       0.50000000       0.50000000       0.40772349 </v>
    <v>       0.16666667       0.16666667       0.46924116 </v>
    <v>       0.66666667       0.16666667       0.46924116 </v>
    <v>       0.16666667       0.66666667       0.46924116 </v>
    <v>       0.66666667       0.66666667       0.46924116 </v>
    <v>       0.83982222       0.33143644       0.53228447 </v>
    <v>       0.33586924       0.33261325       0.53184584 </v>
    <v>       0.83814465       0.83165353       0.53255983 </v>
    <v>       0.33609133       0.83337708       0.53210851 </v>
    <v>       0.00941510      -0.00108633       0.59857708 </v>
    <v>       0.51569493      -0.00371744       0.59669275 </v>
    <v>       0.00909267       0.50275886       0.59763328 </v>
    <v>       0.50885103       0.49967642       0.59441993 </v>
    <v>       0.21218202       0.16986953       0.66692095 </v>
    <v>       0.20124128       0.16763110       0.63483825 </v>
   </varray>
  </structure>
  <varray name="forces" >
   <v>       0.01611571       0.01541264      -0.40655810 </v>
   <v>      -0.03616484       0.01472010      -0.41544162 </v>
   <v>      -0.01022896      -0.02726058      -0.41359508 </v>
   <v>       0.00134826       0.00152723      -0.44679487 </v>
   <v>      -0.00231850      -0.01359258       0.45762220 </v>
   <v>       0.03723872       0.00384814       0.40337075 </v>
   <v>       0.04237411      -0.00533401       0.34566497 </v>
   <v>       0.01750929      -0.01268316       0.42671815 </v>
   <v>      -0.10440365      -0.00768769      -0.03899764 </v>
   <v>       0.09918272      -0.04006382      -0.01703980 </v>
   <v>       0.02586769       0.07732088       0.11793816 </v>
   <v>       0.02898011      -0.00467542      -0.04502331 </v>
   <v>      -0.06410024      -0.02826344       0.03309122 </v>
   <v>       0.18274779      -0.11061997       0.06807646 </v>
   <v>      -0.04472227       0.12417775       0.09100510 </v>
   <v>       0.10491599      -0.02163195      -0.13142211 </v>
   <v>      -0.14318779      -0.01034868       0.83237335 </v>
   <v>      -0.15115414       0.04515455      -0.86098784 </v>
  </varray>
  <varray name="stress" >
   <v>     -11.44456726      -0.28009685      -1.54586504 </v>
   <v>      -0.28009672     -11.40770514       0.13773269 </v>
   <v>      -1.54586503       0.13773275       6.68207152 </v>
  </varray>
  <energy>
   <i name="e_fr_energy">   -109.31774475 </i>
   <i name="e_wo_entrp">   -109.31115710 </i>
   <i name="e_0_energy">   -109.31554887 </i>
  </energy>
  <time name="totalsc">   90.56   89.75</time>
 </calculation>
 <calculation>
  <scstep>
   <time name="dav">    6.97    6.97</time>
   <time name="total">    7.47    7.45</time>
   <energy>
    <i name="alphaZ">    271.64501344 </i>
    <i name="ewald"> 148295.16593823 </i>
    <i name="hartreedc">-160518.33555237 </i>
    <i name="XCdc">     91.53958839 </i>
    <i name="pawpsdc">  15284.27996926 </i>
    <i name="pawaedc"> -14879.99242321 </i>
    <i name="eentropy">     -0.00657920 </i>
    <i name="bandstr">   -898.79790528 </i>
    <i name="atom">  12245.18164884 </i>
    <i name="e_fr_energy">   -109.32030189 </i>
    <i name="e_wo_entrp">   -109.31372268 </i>
    <i name="e_0_energy">   -109.31810882 </i>
   </energy>
  </scstep>
  <scstep>
   <time name="dav">    7.25    7.25</time>
   <time name="total">    7.75    7.72</time>
   <energy>
    <i name="e_fr_energy">   -109.32126592 </i>
    <i name="e_wo_entrp">   -109.31463765 </i>
    <i name="e_0_energy">   -109.31905650 </i>
   </energy>
  </scstep>
  <scstep>
   <time name="dav">    7.81    7.81</time>
   <time name="total">    8.31    8.28</time>
   <energy>
    <i name="e_fr_energy">   -109.32092535 </i>
    <i name="e_wo_entrp">   -109.31446099 </i>
    <i name="e_0_energy">   -109.31877056 </i>
   </energy>
  </scstep>
  <scstep>
   <time name="dav">    7.78    7.79</time>
   <time name="total">    8.30    8.27</time>
   <energy>
    <i name="e_fr_energy">   -109.32093715 </i>
    <i name="e_wo_entrp">   -109.31427878 </i>
    <i name="e_0_energy">   -109.31871769 </i>
   </energy>
  </scstep>
  <scstep>
   <time name="dav">    7.38    7.38</time>
   <time name="total">    7.88    7.86</time>
   <energy>
    <i name="e_fr_energy">   -109.32083979 </i>
    <i name="e_wo_entrp">   -109.31426204 </i>
    <i name="e_0_energy">   -109.31864721 </i>
   </energy>
  </scstep>
  <scstep>
   <time name="dav">    6.91    6.91</time>
   <time name="total">    7.42    7.39</time>
   <energy>
    <i name="e_fr_energy">   -109.32082467 </i>
    <i name="e_wo_entrp">   -109.31434239 </i>
    <i name="e_0_energy">   -109.31866391 </i>
   </energy>
  </scstep>
  <scstep>
   <time name="dav">    6.25    6.25</time>
   <time name="total">    6.76    6.73</time>
   <energy>
    <i name="e_fr_energy">   -109.32081035 </i>
    <i name="e_wo_entrp">   -109.31423006 </i>
    <i name="e_0_energy">   -109.31861692 </i>
   </energy>
  </scstep>
  <scstep>
   <time name="dav">    4.74    4.74</time>
   <time name="total">    4.80    4.78</time>
   <energy>
    <i name="alphaZ">    271.64501344 </i>
    <i name="ewald"> 148295.16593823 </i>
    <i name="hartreedc">-160517.49005794 </i>
    <i name="XCdc">     91.53295528 </i>
    <i name="pawpsdc">  15280.51388938 </i>
    <i name="pawaedc"> -14876.22573965 </i>
    <i name="eentropy">     -0.00655003 </i>
    <i name="bandstr">   -899.63790754 </i>
    <i name="atom">  12245.18164884 </i>
    <i name="e_fr_energy">   -109.32080998 </i>
    <i name="e_wo_entrp">   -109.31425995 </i>
    <i name="e_0_energy">   -109.31862664 </i>
   </energy>
  </scstep>
  <structure>
   <crystal>
    <varray name="basis" >
     <v>       5.54371716       0.00000000       0.00000000 </v>
     <v>       2.77185858       4.80099990       0.00000000 </v>
     <v>       0.00000000       0.00000000      36.78963917 </v>
    </varray>
    <i name="volume">    979.17042988 </i>
    <varray name="rec_basis" >
     <v>       0.18038438      -0.10414497       0.00000000 </v>
     <v>       0.00000000       0.20828994       0.00000000 </v>
     <v>       0.00000000       0.00000000       0.02718157 </v>
    </varray>
   </crystal>
   <varray name="positions" >
    <v>       0.00000000       0.00000000       0.40772349 </v>
    <v>       0.50000000       0.00000000       0.40772349 </v>
    <v>       0.00000000       0.50000000       0.40772349 </v>
    <v>       0.50000000       0.50000000       0.40772349 </v>
    <v>       0.16666667       0.16666667       0.46924116 </v>
    <v>       0.66666667       0.16666667       0.46924116 </v>
    <v>       0.16666667       0.66666667       0.46924116 </v>
    <v>       0.66666667       0.66666667       0.46924116 </v>
    <v>       0.83997951       0.33139848       0.53230025 </v>
    <v>       0.33584848       0.33262638       0.53189736 </v>
    <v>       0.83817994       0.83159158       0.53259023 </v>
    <v>       0.33610459       0.83341484       0.53214463 </v>
    <v>       0.00962873      -0.00107249       0.59853981 </v>
    <v>       0.51576831      -0.00361780       0.59673861 </v>
    <v>       0.00940513       0.50260458       0.59763812 </v>
    <v>       0.50895561       0.49974843       0.59441614 </v>
    <v>       0.21119123       0.16997764       0.66697425 </v>
    <v>       0.20114044       0.16756865       0.63480035 </v>
   </varray>
  </structure>
  <varray name="forces" >
   <v>       0.01582593       0.01528589      -0.40631889 </v>
   <v>      -0.03632055       0.01467700      -0.41348629 </v>
   <v>      -0.01037040      -0.02712367      -0.41225581 </v>
   <v>       0.00142401       0.00159068      -0.44512971 </v>
   <v>      -0.00030974      -0.01397681       0.46205594 </v>
   <v>       0.03550015       0.00443240       0.41082352 </v>
   <v>       0.04287682      -0.00635333       0.35223773 </v>
   <v>       0.01661800      -0.01205106       0.43194909 </v>
   <v>      -0.11463878      -0.00481717      -0.04960376 </v>
   <v>       0.10794974      -0.04292951      -0.03943826 </v>
   <v>       0.02377808       0.08295805       0.10723003 </v>
   <v>       0.03273074      -0.00902326      -0.06273458 </v>
   <v>      -0.07638477      -0.03116108       0.04255625 </v>
   <v>       0.19354475      -0.12123519       0.06832541 </v>
   <v>      -0.05256602       0.14119411       0.09492121 </v>
   <v>       0.10976620      -0.02514338      -0.12082104 </v>
   <v>      -0.14731573      -0.01498719       0.57561661 </v>
   <v>      -0.14210844       0.04866351      -0.59592744 </v>
  </varray>
  <varray name="stress" >
   <v>     -11.47116856      -0.27669501      -1.56005670 </v>
   <v>      -0.27669494     -11.43546235       0.12854030 </v>
   <v>      -1.56005670       0.12854036       6.14230119 </v>
  </varray>
  <energy>
   <i name="e_fr_energy">   -109.32080998 </i>
   <i name="e_wo_entrp">   -109.31425995 </i>
   <i name="e_0_energy">   -109.31862664 </i>
  </energy>
  <time name="totalsc">   79.67   78.89</time>
 </calculation>
 <calculation>
  <scstep>
   <time name="dav">    6.97    6.97</time>
   <time name="total">    7.47    7.45</time>
   <energy>
    <i name="alphaZ">    271.64501344 </i>
    <i name="ewald"> 148275.92079832 </i>
    <i name="hartreedc">-160498.84705790 </i>
    <i name="XCdc">     91.50924743 </i>
    <i name="pawpsdc">  15280.45716317 </i>
    <i name="pawaedc"> -14876.16879005 </i>
    <i name="eentropy">     -0.00646864 </i>
    <i name="bandstr">   -899.01206764 </i>
    <i name="atom">  12245.18164884 </i>
    <i name="e_fr_energy">   -109.32051303 </i>
    <i name="e_wo_entrp">   -109.31404438 </i>
    <i name="e_0_energy">   -109.31835681 </i>
   </energy>
  </scstep>
  <scstep>
   <time name="dav">    7.03    7.04</time>
   <time name="total">    7.54    7.51</time>
   <energy>
    <i name="e_fr_energy">   -109.32460301 </i>
    <i name="e_wo_entrp">   -109.31824712 </i>
    <i name="e_0_energy">   -109.32248438 </i>
   </energy>
  </scstep>
  <scstep>
   <time name="dav">    7.94    7.94</time>
   <time name="total">    8.44    8.42</time>
   <energy>
    <i name="e_fr_energy">   -109.32544519 </i>
    <i name="e_wo_entrp">   -109.31873708 </i>
    <i name="e_0_energy">   -109.32320916 </i>
   </energy>
  </scstep>
  <scstep>
   <time name="dav">    7.75    7.75</time>
   <time name="total">    8.25    8.22</time>
   <energy>
    <i name="e_fr_energy">   -109.32443878 </i>
    <i name="e_wo_entrp">   -109.31805671 </i>
    <i name="e_0_energy">   -109.32231142 </i>
   </energy>
  </scstep>
  <scstep>
   <time name="dav">    7.71    7.71</time>
   <time name="total">    8.22    8.19</time>
   <energy>
    <i name="e_fr_energy">   -109.32468727 </i>
    <i name="e_wo_entrp">   -109.31827037 </i>
    <i name="e_0_energy">   -109.32254830 </i>
   </energy>
  </scstep>
  <scstep>
   <time name="dav">    7.68    7.69</time>
   <time name="total">    8.20    8.17</time>
   <energy>
    <i name="e_fr_energy">   -109.32420485 </i>
    <i name="e_wo_entrp">   -109.31761097 </i>
    <i name="e_0_energy">   -109.32200689 </i>
   </energy>
  </scstep>
  <scstep>
   <time name="dav">    7.46    7.46</time>
   <time name="total">    7.96    7.94</time>
   <energy>
    <i name="e_fr_energy">   -109.32418154 </i>
    <i name="e_wo_entrp">   -109.31788729 </i>
    <i name="e_0_energy">   -109.32208346 </i>
   </energy>
  </scstep>
  <scstep>
   <time name="dav">    6.38    6.38</time>
   <time name="total">    6.44    6.42</time>
   <energy>
    <i name="alphaZ">    271.64501344 </i>
    <i name="ewald"> 148275.92079832 </i>
    <i name="hartreedc">-160496.57738948 </i>
    <i name="XCdc">     91.49154112 </i>
    <i name="pawpsdc">  15271.24856018 </i>
    <i name="pawaedc"> -14866.95835683 </i>
    <i name="eentropy">     -0.00644409 </i>
    <i name="bandstr">   -901.26954728 </i>
    <i name="atom">  12245.18164884 </i>
    <i name="e_fr_energy">   -109.32417577 </i>
    <i name="e_wo_entrp">   -109.31773168 </i>
    <i name="e_0_energy">   -109.32202774 </i>
   </energy>
  </scstep>
  <structure>
   <crystal>
    <varray name="basis" >
     <v>       5.54371716       0.00000000       0.00000000 </v>
     <v>       2.77185858       4.80099990       0.00000000 </v>
     <v>       0.00000000       0.00000000      36.78963917 </v>
    </varray>
    <i name="volume">    979.17042988 </i>
    <varray name="rec_basis" >
     <v>       0.18038438      -0.10414497       0.00000000 </v>
     <v>       0.00000000       0.20828994       0.00000000 </v>
     <v>       0.00000000       0.00000000       0.02718157 </v>
    </varray>
   </crystal>
   <varray name="positions" >
    <v>       0.00000000       0.00000000       0.40772349 </v>
    <v>       0.50000000       0.00000000       0.40772349 </v>
    <v>       0.00000000       0.50000000       0.40772349 </v>
    <v>       0.50000000       0.50000000       0.40772349 </v>
    <v>       0.16666667       0.16666667       0.46924116 </v>
    <v>       0.66666667       0.16666667       0.46924116 </v>
    <v>       0.16666667       0.66666667       0.46924116 </v>
    <v>       0.66666667       0.66666667       0.46924116 </v>
    <v>       0.84038617       0.33130032       0.53234104 </v>
    <v>       0.33579481       0.33266032       0.53203056 </v>
    <v>       0.83827119       0.83143142       0.53266883 </v>
    <v>       0.33613888       0.83351249       0.53223802 </v>
    <v>       0.01018104      -0.00103669       0.59844346 </v>
    <v>       0.51595800      -0.00336019       0.59685716 </v>
    <v>       0.01021294       0.50220570       0.59765065 </v>
    <v>       0.50922600       0.49993458       0.59440634 </v>
    <v>       0.20862967       0.17025714       0.66711207 </v>
    <v>       0.20087972       0.16740718       0.63470235 </v>
   </varray>
  </structure>
  <varray name="forces" >
   <v>       0.01544003       0.01500427      -0.40850179 </v>
   <v>      -0.03678101       0.01478669      -0.41397965 </v>
   <v>      -0.01041422      -0.02711635      -0.41411439 </v>
   <v>       0.00159830       0.00167126      -0.44515588 </v>
   <v>       0.00475195      -0.01511933       0.47807350 </v>
   <v>       0.03137063       0.00585527       0.43320008 </v>
   <v>       0.04429273      -0.00882176       0.37214224 </v>
   <v>       0.01436569      -0.01051617       0.44958259 </v>
   <v>      -0.14053064       0.00230236      -0.07190217 </v>
   <v>       0.13117547      -0.05018827      -0.09139468 </v>
   <v>       0.01900350       0.09725390       0.08339110 </v>
   <v>       0.04266841      -0.02053817      -0.10261006 </v>
   <v>      -0.10685374      -0.03837766       0.06175736 </v>
   <v>       0.22401020      -0.14912679       0.07043890 </v>
   <v>      -0.07118673       0.18561950       0.10343523 </v>
   <v>       0.12401127      -0.03385308      -0.09970450 </v>
   <v>      -0.15666188      -0.02747981      -0.09127849 </v>
   <v>      -0.13025997       0.05864413       0.08662059 </v>
  </varray>
  <varray name="stress" >
   <v>     -11.43226236      -0.27955148      -1.59042862 </v>
   <v>      -0.27955151     -11.39901556       0.09932363 </v>
   <v>      -1.59042886       0.09932370       4.92118887 </v>
  </varray>
  <energy>
   <i name="e_fr_energy">   -109.32417577 </i>
   <i name="e_wo_entrp">   -109.31773168 </i>
   <i name="e_0_energy">   -109.32202774 </i>
  </energy>
  <time name="totalsc">   83.48   82.71</time>
 </calculation>
 <calculation>
  <scstep>
   <time name="dav">    6.97    6.97</time>
   <time name="total">    7.48    7.45</time>
   <energy>
    <i name="alphaZ">    271.64501344 </i>
    <i name="ewald"> 148273.76340017 </i>
    <i name="hartreedc">-160494.46248787 </i>
    <i name="XCdc">     91.48968001 </i>
    <i name="pawpsdc">  15271.24298219 </i>
    <i name="pawaedc"> -14866.95201571 </i>
    <i name="eentropy">     -0.00638807 </i>
    <i name="bandstr">   -901.22698665 </i>
    <i name="atom">  12245.18164884 </i>
    <i name="e_fr_energy">   -109.32515365 </i>
    <i name="e_wo_entrp">   -109.31876558 </i>
    <i name="e_0_energy">   -109.32302429 </i>
   </energy>
  </scstep>
  <scstep>
   <time name="dav">    7.47    7.47</time>
   <time name="total">    7.97    7.95</time>
   <energy>
    <i name="e_fr_energy">   -109.32559732 </i>
    <i name="e_wo_entrp">   -109.31934238 </i>
    <i name="e_0_energy">   -109.32351234 </i>
   </energy>
  </scstep>
  <scstep>
   <time name="dav">    7.71    7.71</time>
   <time name="total">    8.22    8.19</time>
   <energy>
    <i name="e_fr_energy">   -109.32522533 </i>
    <i name="e_wo_entrp">   -109.31880364 </i>
    <i name="e_0_energy">   -109.32308477 </i>
   </energy>
  </scstep>
  <scstep>
   <time name="dav">    5.82    5.82</time>
   <time name="total">    5.87    5.86</time>
   <energy>
    <i name="alphaZ">    271.64501344 </i>
    <i name="ewald"> 148273.76340017 </i>
    <i name="hartreedc">-160494.37833085 </i>
    <i name="XCdc">     91.48932628 </i>
    <i name="pawpsdc">  15270.97668830 </i>
    <i name="pawaedc"> -14866.68484682 </i>
    <i name="eentropy">     -0.00634778 </i>
    <i name="bandstr">   -901.31178264 </i>
    <i name="atom">  12245.18164884 </i>
    <i name="e_fr_energy">   -109.32523106 </i>
    <i name="e_wo_entrp">   -109.31888328 </i>
    <i name="e_0_energy">   -109.32311513 </i>
   </energy>
  </scstep>
  <structure>
   <crystal>
    <varray name="basis" >
     <v>       5.54371716       0.00000000       0.00000000 </v>
     <v>       2.77185858       4.80099990       0.00000000 </v>
     <v>       0.00000000       0.00000000      36.78963917 </v>
    </varray>
    <i name="volume">    979.17042988 </i>
    <varray name="rec_basis" >
     <v>       0.18038438      -0.10414497       0.00000000 </v>
     <v>       0.00000000       0.20828994       0.00000000 </v>
     <v>       0.00000000       0.00000000       0.02718157 </v>
    </varray>
   </crystal>
   <varray name="positions" >
    <v>       0.00000000       0.00000000       0.40772349 </v>
    <v>       0.50000000       0.00000000       0.40772349 </v>
    <v>       0.00000000       0.50000000       0.40772349 </v>
    <v>       0.50000000       0.50000000       0.40772349 </v>
    <v>       0.16666667       0.16666667       0.46924116 </v>
    <v>       0.66666667       0.16666667       0.46924116 </v>
    <v>       0.16666667       0.66666667       0.46924116 </v>
    <v>       0.66666667       0.66666667       0.46924116 </v>
    <v>       0.84033443       0.33129390       0.53233789 </v>
    <v>       0.33588631       0.33262839       0.53203318 </v>
    <v>       0.83825640       0.83148559       0.53268276 </v>
    <v>       0.33617433       0.83350626       0.53223639 </v>
    <v>       0.01017541      -0.00106030       0.59844117 </v>
    <v>       0.51615915      -0.00344227       0.59687319 </v>
    <v>       0.01017209       0.50230147       0.59766100 </v>
    <v>       0.50933402       0.49992637       0.59439655 </v>
    <v>       0.20833631       0.17026095       0.66711508 </v>
    <v>       0.20076019       0.16743455       0.63470217 </v>
   </varray>
  </structure>
  <varray name="forces" >
   <v>       0.01585347       0.01512294      -0.40959270 </v>
   <v>      -0.03640922       0.01483564      -0.41153096 </v>
   <v>      -0.01008926      -0.02722507      -0.41348039 </v>
   <v>       0.00198494       0.00164772      -0.44694507 </v>
   <v>       0.00527180      -0.01475379       0.47949046 </v>
   <v>       0.03153027       0.00481205       0.43379209 </v>
   <v>       0.04344129      -0.00856657       0.37566327 </v>
   <v>       0.01590200      -0.01008491       0.45077937 </v>
   <v>      -0.12918238       0.00340812      -0.07330197 </v>
   <v>       0.12137096      -0.04762011      -0.09069325 </v>
   <v>       0.01998024       0.08996732       0.07587934 </v>
   <v>       0.04204451      -0.01726249      -0.10203511 </v>
   <v>      -0.09590673      -0.03595124       0.06194805 </v>
   <v>       0.20873510      -0.13826594       0.07312176 </v>
   <v>      -0.06525092       0.17285091       0.10083822 </v>
   <v>       0.11791037      -0.03277980      -0.09664804 </v>
   <v>      -0.15765887      -0.02763059      -0.09587729 </v>
   <v>      -0.12952756       0.05749579       0.08859222 </v>
  </varray>
  <varray name="stress" >
   <v>     -11.48407541      -0.28474368      -1.57778319 </v>
   <v>      -0.28474368     -11.44802863       0.09445137 </v>
   <v>      -1.57778305       0.09445150       4.79584994 </v>
  </varray>
  <energy>
   <i name="e_fr_energy">   -109.32523106 </i>
   <i name="e_wo_entrp">   -109.31888328 </i>
   <i name="e_0_energy">   -109.32311513 </i>
  </energy>
  <time name="totalsc">   50.52   49.84</time>
 </calculation>
 <calculation>
  <scstep>
   <time name="dav">    6.97    6.97</time>
   <time name="total">    7.47    7.45</time>
   <energy>
    <i name="alphaZ">    271.64501344 </i>
    <i name="ewald"> 148267.29396273 </i>
    <i name="hartreedc">-160487.86884349 </i>
    <i name="XCdc">     91.48449904 </i>
    <i name="pawpsdc">  15270.89495481 </i>
    <i name="pawaedc"> -14866.60320299 </i>
    <i name="eentropy">     -0.00628304 </i>
    <i name="bandstr">   -901.34932555 </i>
    <i name="atom">  12245.18164884 </i>
    <i name="e_fr_energy">   -109.32757620 </i>
    <i name="e_wo_entrp">   -109.32129316 </i>
    <i name="e_0_energy">   -109.32548185 </i>
   </energy>
  </scstep>
  <scstep>
   <time name="dav">    6.99    6.99</time>
   <time name="total">    7.49    7.46</time>
   <energy>
    <i name="e_fr_energy">   -109.32814299 </i>
    <i name="e_wo_entrp">   -109.32189993 </i>
    <i name="e_0_energy">   -109.32606197 </i>
   </energy>
  </scstep>
  <scstep>
   <time name="dav">    7.73    7.73</time>
   <time name="total">    8.23    8.21</time>
   <energy>
    <i name="e_fr_energy">   -109.32827596 </i>
    <i name="e_wo_entrp">   -109.32186341 </i>
    <i name="e_0_energy">   -109.32613845 </i>
   </energy>
  </scstep>
  <scstep>
   <time name="dav">    7.73    7.73</time>
   <time name="total">    8.23    8.20</time>
   <energy>
    <i name="e_fr_energy">   -109.32819922 </i>
    <i name="e_wo_entrp">   -109.32197183 </i>
    <i name="e_0_energy">   -109.32612342 </i>
   </energy>
  </scstep>
  <scstep>
   <time name="dav">    7.01    7.01</time>
   <time name="total">    7.52    7.49</time>
   <energy>
    <i name="e_fr_energy">   -109.32811903 </i>
    <i name="e_wo_entrp">   -109.32192156 </i>
    <i name="e_0_energy">   -109.32605321 </i>
   </energy>
  </scstep>
  <scstep>
   <time name="dav">    7.29    7.29</time>
   <time name="total">    7.80    7.78</time>
   <energy>
    <i name="e_fr_energy">   -109.32811712 </i>
    <i name="e_wo_entrp">   -109.32173040 </i>
    <i name="e_0_energy">   -109.32598822 </i>
   </energy>
  </scstep>
  <scstep>
   <time name="dav">    5.45    5.45</time>
   <time name="total">    5.51    5.49</time>
   <energy>
    <i name="alphaZ">    271.64501344 </i>
    <i name="ewald"> 148267.29396273 </i>
    <i name="hartreedc">-160487.63376441 </i>
    <i name="XCdc">     91.48289060 </i>
    <i name="pawpsdc">  15269.38805797 </i>
    <i name="pawaedc"> -14865.09346096 </i>
    <i name="eentropy">     -0.00625277 </i>
    <i name="bandstr">   -901.58620574 </i>
    <i name="atom">  12245.18164884 </i>
    <i name="e_fr_energy">   -109.32811029 </i>
    <i name="e_wo_entrp">   -109.32185752 </i>
    <i name="e_0_energy">   -109.32602603 </i>
   </energy>
  </scstep>
  <structure>
   <crystal>
    <varray name="basis" >
     <v>       5.54371716       0.00000000       0.00000000 </v>
     <v>       2.77185858       4.80099990       0.00000000 </v>
     <v>       0.00000000       0.00000000      36.78963917 </v>
    </varray>
    <i name="volume">    979.17042988 </i>
    <varray name="rec_basis" >
     <v>       0.18038438      -0.10414497       0.00000000 </v>
     <v>       0.00000000       0.20828994       0.00000000 </v>
     <v>       0.00000000       0.00000000       0.02718157 </v>
    </varray>
   </crystal>
   <varray name="positions" >
    <v>       0.00000000       0.00000000       0.40772349 </v>
    <v>       0.50000000       0.00000000       0.40772349 </v>
    <v>       0.00000000       0.50000000       0.40772349 </v>
    <v>       0.50000000       0.50000000       0.40772349 </v>
    <v>       0.16666667       0.16666667       0.46924116 </v>
    <v>       0.66666667       0.16666667       0.46924116 </v>
    <v>       0.16666667       0.66666667       0.46924116 </v>
    <v>       0.66666667       0.66666667       0.46924116 </v>
    <v>       0.84017920       0.33127465       0.53232842 </v>
    <v>       0.33616083       0.33253261       0.53204106 </v>
    <v>       0.83821202       0.83164808       0.53272458 </v>
    <v>       0.33628066       0.83348758       0.53223148 </v>
    <v>       0.01015851      -0.00113113       0.59843429 </v>
    <v>       0.51676260      -0.00368848       0.59692128 </v>
    <v>       0.01004953       0.50258879       0.59769207 </v>
    <v>       0.50965807       0.49990174       0.59436716 </v>
    <v>       0.20745624       0.17027239       0.66712412 </v>
    <v>       0.20040157       0.16751664       0.63470162 </v>
   </varray>
  </structure>
  <varray name="forces" >
   <v>       0.01474514       0.01493528      -0.40920601 </v>
   <v>      -0.03671744       0.01489765      -0.41194231 </v>
   <v>      -0.01058981      -0.02694622      -0.41336051 </v>
   <v>       0.00116383       0.00160637      -0.44747846 </v>
   <v>       0.00490595      -0.01370586       0.48173462 </v>
   <v>       0.03057245       0.00194433       0.43190209 </v>
   <v>       0.03967299      -0.00786629       0.38030550 </v>
   <v>       0.01842891      -0.00899041       0.45255262 </v>
   <v>      -0.10246548       0.00556188      -0.07362737 </v>
   <v>       0.09673805      -0.04069010      -0.08586277 </v>
   <v>       0.02258852       0.07192628       0.06093888 </v>
   <v>       0.03919901      -0.00895414      -0.09815552 </v>
   <v>      -0.06875646      -0.03149959       0.06185716 </v>
   <v>       0.16889494      -0.10890967       0.08176384 </v>
   <v>      -0.04865012       0.14099015       0.09587470 </v>
   <v>       0.10364684      -0.02989449      -0.08819336 </v>
   <v>      -0.14724943      -0.02831227      -0.11625414 </v>
   <v>      -0.12612789       0.05390711       0.09715104 </v>
  </varray>
  <varray name="stress" >
   <v>     -11.51915843      -0.27290625      -1.54851361 </v>
   <v>      -0.27290619     -11.47483606       0.08109181 </v>
   <v>      -1.54851378       0.08109185       4.75719068 </v>
  </varray>
  <energy>
   <i name="e_fr_energy">   -109.32811029 </i>
   <i name="e_wo_entrp">   -109.32185752 </i>
   <i name="e_0_energy">   -109.32602603 </i>
  </energy>
  <time name="totalsc">   73.26   72.51</time>
 </calculation>
 <calculation>
  <scstep>
   <time name="dav">    6.97    6.97</time>
   <time name="total">    7.47    7.45</time>
   <energy>
    <i name="alphaZ">    271.64501344 </i>
    <i name="ewald"> 148254.36756126 </i>
    <i name="hartreedc">-160474.78775157 </i>
    <i name="XCdc">     91.47356335 </i>
    <i name="pawpsdc">  15269.33990408 </i>
    <i name="pawaedc"> -14865.04534522 </i>
    <i name="eentropy">     -0.00604345 </i>
    <i name="bandstr">   -901.49910528 </i>
    <i name="atom">  12245.18164884 </i>
    <i name="e_fr_energy">   -109.33055455 </i>
    <i name="e_wo_entrp">   -109.32451110 </i>
    <i name="e_0_energy">   -109.32854007 </i>
   </energy>
  </scstep>
  <scstep>
   <time name="dav">    7.01    7.01</time>
   <time name="total">    7.51    7.49</time>
   <energy>
    <i name="e_fr_energy">   -109.33284304 </i>
    <i name="e_wo_entrp">   -109.32671229 </i>
    <i name="e_0_energy">   -109.33079945 </i>
   </energy>
  </scstep>
  <scstep>
   <time name="dav">    7.86    7.86</time>
   <time name="total">    8.37    8.35</time>
   <energy>
    <i name="e_fr_energy">   -109.33376450 </i>
    <i name="e_wo_entrp">   -109.32796697 </i>
    <i name="e_0_energy">   -109.33183199 </i>
   </energy>
  </scstep>
  <scstep>
   <time name="dav">    7.74    7.75</time>
   <time name="total">    8.25    8.22</time>
   <energy>
    <i name="e_fr_energy">   -109.33276583 </i>
    <i name="e_wo_entrp">   -109.32667134 </i>
    <i name="e_0_energy">   -109.33073433 </i>
   </energy>
  </scstep>
  <scstep>
   <time name="dav">    7.58    7.58</time>
   <time name="total">    8.08    8.06</time>
   <energy>
    <i name="e_fr_energy">   -109.33275760 </i>
    <i name="e_wo_entrp">   -109.32677655 </i>
    <i name="e_0_energy">   -109.33076391 </i>
   </energy>
  </scstep>
  <scstep>
   <time name="dav">    7.48    7.48</time>
   <time name="total">    7.99    7.96</time>
   <energy>
    <i name="e_fr_energy">   -109.33271212 </i>
    <i name="e_wo_entrp">   -109.32649999 </i>
    <i name="e_0_energy">   -109.33064141 </i>
   </energy>
  </scstep>
  <scstep>
   <time name="dav">    7.39    7.39</time>
   <time name="total">    7.89    7.87</time>
   <energy>
    <i name="e_fr_energy">   -109.33268421 </i>
    <i name="e_wo_entrp">   -109.32670551 </i>
    <i name="e_0_energy">   -109.33069131 </i>
   </energy>
  </scstep>
  <scstep>
   <time name="dav">    5.03    5.03</time>
   <time name="total">    5.08    5.06</time>
   <energy>
    <i name="alphaZ">    271.64501344 </i>
    <i name="ewald"> 148254.36756126 </i>
    <i name="hartreedc">-160474.58722548 </i>
    <i name="XCdc">     91.47186682 </i>
    <i name="pawpsdc">  15266.86444858 </i>
    <i name="pawaedc"> -14862.56571292 </i>
    <i name="eentropy">     -0.00607925 </i>
    <i name="bandstr">   -901.70420147 </i>
    <i name="atom">  12245.18164884 </i>
    <i name="e_fr_energy">   -109.33268018 </i>
    <i name="e_wo_entrp">   -109.32660093 </i>
    <i name="e_0_energy">   -109.33065376 </i>
   </energy>
  </scstep>
  <structure>
   <crystal>
    <varray name="basis" >
     <v>       5.54371716       0.00000000       0.00000000 </v>
     <v>       2.77185858       4.80099990       0.00000000 </v>
     <v>       0.00000000       0.00000000      36.78963917 </v>
    </varray>
    <i name="volume">    979.17042988 </i>
    <varray name="rec_basis" >
     <v>       0.18038438      -0.10414497       0.00000000 </v>
     <v>       0.00000000       0.20828994       0.00000000 </v>
     <v>       0.00000000       0.00000000       0.02718157 </v>
    </varray>
   </crystal>
   <varray name="positions" >
    <v>       0.00000000       0.00000000       0.40772349 </v>
    <v>       0.50000000       0.00000000       0.40772349 </v>
    <v>       0.00000000       0.50000000       0.40772349 </v>
    <v>       0.50000000       0.50000000       0.40772349 </v>
    <v>       0.16666667       0.16666667       0.46924116 </v>
    <v>       0.66666667       0.16666667       0.46924116 </v>
    <v>       0.16666667       0.66666667       0.46924116 </v>
    <v>       0.66666667       0.66666667       0.46924116 </v>
    <v>       0.83986873       0.33123613       0.53230947 </v>
    <v>       0.33670986       0.33234105       0.53205681 </v>
    <v>       0.83812326       0.83197306       0.53280821 </v>
    <v>       0.33649333       0.83345020       0.53222167 </v>
    <v>       0.01012472      -0.00127279       0.59842054 </v>
    <v>       0.51796949      -0.00418092       0.59701746 </v>
    <v>       0.00980441       0.50316342       0.59775419 </v>
    <v>       0.51030617       0.49985247       0.59430839 </v>
    <v>       0.20569608       0.17029528       0.66714219 </v>
    <v>       0.19968434       0.16768083       0.63470052 </v>
   </varray>
  </structure>
  <varray name="forces" >
   <v>       0.01389440       0.01456921      -0.41054115 </v>
   <v>      -0.03581007       0.01483076      -0.41353103 </v>
   <v>      -0.01034881      -0.02624975      -0.41319921 </v>
   <v>       0.00105883       0.00152804      -0.44799864 </v>
   <v>       0.00564922      -0.01169247       0.48713145 </v>
   <v>       0.02992077      -0.00397239       0.42838061 </v>
   <v>       0.03343425      -0.00648797       0.38938601 </v>
   <v>       0.02501641      -0.00671491       0.45600486 </v>
   <v>      -0.04549996       0.01048065      -0.07225118 </v>
   <v>       0.04584986      -0.02501353      -0.07667025 </v>
   <v>       0.02868224       0.03367471       0.02651643 </v>
   <v>       0.03308538       0.00727316      -0.08952912 </v>
   <v>      -0.01147401      -0.02134323       0.06371074 </v>
   <v>       0.08483221      -0.04809766       0.09640348 </v>
   <v>      -0.01450616       0.07351183       0.08477966 </v>
   <v>       0.07215045      -0.02371708      -0.06945860 </v>
   <v>      -0.13427514      -0.02964433      -0.15606537 </v>
   <v>      -0.12165990       0.04706496       0.11693132 </v>
  </varray>
  <varray name="stress" >
   <v>     -11.58510044      -0.25216589      -1.47449788 </v>
   <v>      -0.25216610     -11.52624214       0.05505977 </v>
   <v>      -1.47449797       0.05505966       4.63342573 </v>
  </varray>
  <energy>
   <i name="e_fr_energy">   -109.33268018 </i>
   <i name="e_wo_entrp">   -109.32660093 </i>
   <i name="e_0_energy">   -109.33065376 </i>
  </energy>
  <time name="totalsc">   81.66   80.88</time>
 </calculation>
 <calculation>
  <scstep>
   <time name="dav">    6.97    6.97</time>
   <time name="total">    7.48    7.45</time>
   <energy>
    <i name="alphaZ">    271.64501344 </i>
    <i name="ewald"> 148228.56515628 </i>
    <i name="hartreedc">-160449.01385211 </i>
    <i name="XCdc">     91.45389372 </i>
    <i name="pawpsdc">  15266.78657184 </i>
    <i name="pawaedc"> -14862.48771402 </i>
    <i name="eentropy">     -0.00556481 </i>
    <i name="bandstr">   -901.45387456 </i>
    <i name="atom">  12245.18164884 </i>
    <i name="e_fr_energy">   -109.32872137 </i>
    <i name="e_wo_entrp">   -109.32315657 </i>
    <i name="e_0_energy">   -109.32686644 </i>
   </energy>
  </scstep>
  <scstep>
   <time name="dav">    7.03    7.03</time>
   <time name="total">    7.53    7.51</time>
   <energy>
    <i name="e_fr_energy">   -109.33804679 </i>
    <i name="e_wo_entrp">   -109.33228806 </i>
    <i name="e_0_energy">   -109.33612721 </i>
   </energy>
  </scstep>
  <scstep>
   <time name="dav">    7.91    7.91</time>
   <time name="total">    8.41    8.39</time>
   <energy>
    <i name="e_fr_energy">   -109.34261576 </i>
    <i name="e_wo_entrp">   -109.33769268 </i>
    <i name="e_0_energy">   -109.34097473 </i>
   </energy>
  </scstep>
  <scstep>
   <time name="dav">    7.77    7.77</time>
   <time name="total">    8.28    8.25</time>
   <energy>
    <i name="e_fr_energy">   -109.33751607 </i>
    <i name="e_wo_entrp">   -109.33193530 </i>
    <i name="e_0_energy">   -109.33565581 </i>
   </energy>
  </scstep>
  <scstep>
   <time name="dav">    7.58    7.58</time>
   <time name="total">    8.09    8.06</time>
   <energy>
    <i name="e_fr_energy">   -109.33744730 </i>
    <i name="e_wo_entrp">   -109.33189275 </i>
    <i name="e_0_energy">   -109.33559578 </i>
   </energy>
  </scstep>
  <scstep>
   <time name="dav">    7.46    7.46</time>
   <time name="total">    7.97    7.94</time>
   <energy>
    <i name="e_fr_energy">   -109.33730282 </i>
    <i name="e_wo_entrp">   -109.33147622 </i>
    <i name="e_0_energy">   -109.33536062 </i>
   </energy>
  </scstep>
  <scstep>
   <time name="dav">    7.38    7.38</time>
   <time name="total">    7.89    7.86</time>
   <energy>
    <i name="e_fr_energy">   -109.33722292 </i>
    <i name="e_wo_entrp">   -109.33177807 </i>
    <i name="e_0_energy">   -109.33540797 </i>
   </energy>
  </scstep>
  <scstep>
   <time name="dav">    7.43    7.43</time>
   <time name="total">    7.93    7.91</time>
   <energy>
    <i name="e_fr_energy">   -109.33720892 </i>
    <i name="e_wo_entrp">   -109.33154362 </i>
    <i name="e_0_energy">   -109.33532048 </i>
   </energy>
  </scstep>
  <scstep>
   <time name="dav">    5.08    5.08</time>
   <time name="total">    5.14    5.12</time>
   <energy>
    <i name="alphaZ">    271.64501344 </i>
    <i name="ewald"> 148228.56515628 </i>
    <i name="hartreedc">-160448.74606503 </i>
    <i name="XCdc">     91.45075065 </i>
    <i name="pawpsdc">  15262.09156497 </i>
    <i name="pawaedc"> -14857.78786844 </i>
    <i name="eentropy">     -0.00560548 </i>
    <i name="bandstr">   -901.73179781 </i>
    <i name="atom">  12245.18164884 </i>
    <i name="e_fr_energy">   -109.33720257 </i>
    <i name="e_wo_entrp">   -109.33159709 </i>
    <i name="e_0_energy">   -109.33533408 </i>
   </energy>
  </scstep>
  <structure>
   <crystal>
    <varray name="basis" >
     <v>       5.54371716       0.00000000       0.00000000 </v>
     <v>       2.77185858       4.80099990       0.00000000 </v>
     <v>       0.00000000       0.00000000      36.78963917 </v>
    </varray>
    <i name="volume">    979.17042988 </i>
    <varray name="rec_basis" >
     <v>       0.18038438      -0.10414497       0.00000000 </v>
     <v>       0.00000000       0.20828994       0.00000000 </v>
     <v>       0.00000000       0.00000000       0.02718157 </v>
    </varray>
   </crystal>
   <varray name="positions" >
    <v>       0.00000000       0.00000000       0.40772349 </v>
    <v>       0.50000000       0.00000000       0.40772349 </v>
    <v>       0.00000000       0.50000000       0.40772349 </v>
    <v>       0.50000000       0.50000000       0.40772349 </v>
    <v>       0.16666667       0.16666667       0.46924116 </v>
    <v>       0.66666667       0.16666667       0.46924116 </v>
    <v>       0.16666667       0.66666667       0.46924116 </v>
    <v>       0.66666667       0.66666667       0.46924116 </v>
    <v>       0.83924781       0.33115910       0.53227159 </v>
    <v>       0.33780791       0.33195793       0.53208832 </v>
    <v>       0.83794575       0.83262302       0.53297546 </v>
    <v>       0.33691865       0.83337545       0.53220204 </v>
    <v>       0.01005714      -0.00155611       0.59839304 </v>
    <v>       0.52038327      -0.00516578       0.59720983 </v>
    <v>       0.00931417       0.50431267       0.59787844 </v>
    <v>       0.51160237       0.49975394       0.59419086 </v>
    <v>       0.20217577       0.17034104       0.66717835 </v>
    <v>       0.19824988       0.16800921       0.63469832 </v>
   </varray>
  </structure>
  <varray name="forces" >
   <v>       0.01215089       0.01429805      -0.41196840 </v>
   <v>      -0.03459155       0.01485659      -0.41102667 </v>
   <v>      -0.01044413      -0.02538309      -0.41131808 </v>
   <v>       0.00064235       0.00135977      -0.45063147 </v>
   <v>       0.00685757      -0.00765132       0.49698212 </v>
   <v>       0.02812647      -0.01570359       0.42249177 </v>
   <v>       0.02049425      -0.00361499       0.40993306 </v>
   <v>       0.03768070      -0.00214237       0.46324843 </v>
   <v>       0.06857821       0.01972506      -0.07540617 </v>
   <v>      -0.05654395       0.00490911      -0.06174652 </v>
   <v>       0.03959537      -0.04256103      -0.04307506 </v>
   <v>       0.02118544       0.04091767      -0.07602933 </v>
   <v>       0.10399549      -0.00045513       0.06792286 </v>
   <v>      -0.08329128       0.07292410       0.12581428 </v>
   <v>       0.05352307      -0.06224806       0.06356827 </v>
   <v>       0.00917944      -0.01118757      -0.02885464 </v>
   <v>      -0.10357868      -0.03227914      -0.24254227 </v>
   <v>      -0.11355967       0.03423591       0.16263783 </v>
  </varray>
  <varray name="stress" >
   <v>     -11.70814406      -0.22230104      -1.32799401 </v>
   <v>      -0.22230110     -11.62583796       0.00649092 </v>
   <v>      -1.32799411       0.00649080       4.28584233 </v>
  </varray>
  <energy>
   <i name="e_fr_energy">   -109.33720257 </i>
   <i name="e_wo_entrp">   -109.33159709 </i>
   <i name="e_0_energy">   -109.33533408 </i>
  </energy>
  <time name="totalsc">   89.75   88.96</time>
 </calculation>
 <calculation>
  <scstep>
   <time name="dav">    6.97    6.97</time>
   <time name="total">    7.47    7.45</time>
   <energy>
    <i name="alphaZ">    271.64501344 </i>
    <i name="ewald"> 148222.21616037 </i>
    <i name="hartreedc">-160441.81344430 </i>
    <i name="XCdc">     91.46981997 </i>
    <i name="pawpsdc">  15261.99746250 </i>
    <i name="pawaedc"> -14857.69379970 </i>
    <i name="eentropy">     -0.00554856 </i>
    <i name="bandstr">   -902.33507670 </i>
    <i name="atom">  12245.18164884 </i>
    <i name="e_fr_energy">   -109.33776414 </i>
    <i name="e_wo_entrp">   -109.33221558 </i>
    <i name="e_0_energy">   -109.33591462 </i>
   </energy>
  </scstep>
  <scstep>
   <time name="dav">    7.23    7.23</time>
   <time name="total">    7.73    7.70</time>
   <energy>
    <i name="e_fr_energy">   -109.33916737 </i>
    <i name="e_wo_entrp">   -109.33355238 </i>
    <i name="e_0_energy">   -109.33729571 </i>
   </energy>
  </scstep>
  <scstep>
   <time name="dav">    7.98    7.98</time>
   <time name="total">    8.49    8.46</time>
   <energy>
    <i name="e_fr_energy">   -109.33979729 </i>
    <i name="e_wo_entrp">   -109.33410146 </i>
    <i name="e_0_energy">   -109.33789868 </i>
   </energy>
  </scstep>
  <scstep>
   <time name="dav">    8.05    8.05</time>
   <time name="total">    8.56    8.54</time>
   <energy>
    <i name="e_fr_energy">   -109.33931451 </i>
    <i name="e_wo_entrp">   -109.33390037 </i>
    <i name="e_0_energy">   -109.33750980 </i>
   </energy>
  </scstep>
  <scstep>
   <time name="dav">    7.52    7.52</time>
   <time name="total">    8.03    8.00</time>
   <energy>
    <i name="e_fr_energy">   -109.33901010 </i>
    <i name="e_wo_entrp">   -109.33338345 </i>
    <i name="e_0_energy">   -109.33713455 </i>
   </energy>
  </scstep>
  <scstep>
   <time name="dav">    7.67    7.67</time>
   <time name="total">    8.17    8.15</time>
   <energy>
    <i name="e_fr_energy">   -109.33894939 </i>
    <i name="e_wo_entrp">   -109.33330380 </i>
    <i name="e_0_energy">   -109.33706753 </i>
   </energy>
  </scstep>
  <scstep>
   <time name="dav">    7.31    7.31</time>
   <time name="total">    7.81    7.79</time>
   <energy>
    <i name="e_fr_energy">   -109.33893002 </i>
    <i name="e_wo_entrp">   -109.33337080 </i>
    <i name="e_0_energy">   -109.33707694 </i>
   </energy>
  </scstep>
  <scstep>
   <time name="dav">    4.98    4.98</time>
   <time name="total">    5.03    5.01</time>
   <energy>
    <i name="alphaZ">    271.64501344 </i>
    <i name="ewald"> 148222.21616037 </i>
    <i name="hartreedc">-160443.34044158 </i>
    <i name="XCdc">     91.48658322 </i>
    <i name="pawpsdc">  15269.79167701 </i>
    <i name="pawaedc"> -14865.48201191 </i>
    <i name="eentropy">     -0.00563521 </i>
    <i name="bandstr">   -900.83192425 </i>
    <i name="atom">  12245.18164884 </i>
    <i name="e_fr_energy">   -109.33893006 </i>
    <i name="e_wo_entrp">   -109.33329486 </i>
    <i name="e_0_energy">   -109.33705166 </i>
   </energy>
  </scstep>
  <structure>
   <crystal>
    <varray name="basis" >
     <v>       5.54371716       0.00000000       0.00000000 </v>
     <v>       2.77185858       4.80099990       0.00000000 </v>
     <v>       0.00000000       0.00000000      36.78963917 </v>
    </varray>
    <i name="volume">    979.17042988 </i>
    <varray name="rec_basis" >
     <v>       0.18038438      -0.10414497       0.00000000 </v>
     <v>       0.00000000       0.20828994       0.00000000 </v>
     <v>       0.00000000       0.00000000       0.02718157 </v>
    </varray>
   </crystal>
   <varray name="positions" >
    <v>       0.00000000       0.00000000       0.40772349 </v>
    <v>       0.50000000       0.00000000       0.40772349 </v>
    <v>       0.00000000       0.50000000       0.40772349 </v>
    <v>       0.50000000       0.50000000       0.40772349 </v>
    <v>       0.16666667       0.16666667       0.46924116 </v>
    <v>       0.66666667       0.16666667       0.46924116 </v>
    <v>       0.16666667       0.66666667       0.46924116 </v>
    <v>       0.66666667       0.66666667       0.46924116 </v>
    <v>       0.83928525       0.33121257       0.53222763 </v>
    <v>       0.33787170       0.33188882       0.53206649 </v>
    <v>       0.83810533       0.83261720       0.53299313 </v>
    <v>       0.33700738       0.83350562       0.53216193 </v>
    <v>       0.01036643      -0.00162190       0.59841868 </v>
    <v>       0.52053946      -0.00512664       0.59731241 </v>
    <v>       0.00948168       0.50434914       0.59793640 </v>
    <v>       0.51194457       0.49969141       0.59415070 </v>
    <v>       0.20111418       0.17023536       0.66707275 </v>
    <v>       0.19750998       0.16820665       0.63477412 </v>
   </varray>
  </structure>
  <varray name="forces" >
   <v>       0.01197151       0.01416372      -0.41290118 </v>
   <v>      -0.03459978       0.01481878      -0.41130693 </v>
   <v>      -0.01057023      -0.02537691      -0.41124043 </v>
   <v>       0.00006436       0.00140118      -0.45183733 </v>
   <v>       0.00789239      -0.00693355       0.48999504 </v>
   <v>       0.02766274      -0.01818646       0.41777659 </v>
   <v>       0.01824700      -0.00264614       0.40751089 </v>
   <v>       0.04039948      -0.00045231       0.45705882 </v>
   <v>       0.07115112       0.01848398      -0.05725555 </v>
   <v>      -0.05399224       0.00827935      -0.04265796 </v>
   <v>       0.03539602      -0.04161701      -0.03521688 </v>
   <v>       0.01965087       0.03636684      -0.05416686 </v>
   <v>       0.09157224      -0.00495734       0.04443992 </v>
   <v>      -0.07847703       0.07227454       0.09922023 </v>
   <v>       0.05683067      -0.05517249       0.03876595 </v>
   <v>       0.00304907      -0.00875596      -0.03043233 </v>
   <v>      -0.08704505      -0.02560888       0.31907714 </v>
   <v>      -0.11920313       0.02391866      -0.36682913 </v>
  </varray>
  <varray name="stress" >
   <v>     -11.72676923      -0.21105042      -1.26088923 </v>
   <v>      -0.21105027     -11.64704317       0.00930427 </v>
   <v>      -1.26088921       0.00930432       5.42238652 </v>
  </varray>
  <energy>
   <i name="e_fr_energy">   -109.33893006 </i>
   <i name="e_wo_entrp">   -109.33329486 </i>
   <i name="e_0_energy">   -109.33705166 </i>
  </energy>
  <time name="totalsc">   82.31   81.54</time>
 </calculation>
 <calculation>
  <scstep>
   <time name="dav">    6.97    6.97</time>
   <time name="total">    7.48    7.45</time>
   <energy>
    <i name="alphaZ">    271.64501344 </i>
    <i name="ewald"> 148222.70757374 </i>
    <i name="hartreedc">-160443.95185988 </i>
    <i name="XCdc">     91.48530441 </i>
    <i name="pawpsdc">  15269.94002170 </i>
    <i name="pawaedc"> -14865.63051063 </i>
    <i name="eentropy">     -0.00557469 </i>
    <i name="bandstr">   -900.71055530 </i>
    <i name="atom">  12245.18164884 </i>
    <i name="e_fr_energy">   -109.33893837 </i>
    <i name="e_wo_entrp">   -109.33336368 </i>
    <i name="e_0_energy">   -109.33708014 </i>
   </energy>
  </scstep>
  <scstep>
   <time name="dav">    7.96    7.96</time>
   <time name="total">    8.46    8.43</time>
   <energy>
    <i name="e_fr_energy">   -109.33940066 </i>
    <i name="e_wo_entrp">   -109.33363722 </i>
    <i name="e_0_energy">   -109.33747951 </i>
   </energy>
  </scstep>
  <scstep>
   <time name="dav">    7.67    7.67</time>
   <time name="total">    8.17    8.14</time>
   <energy>
    <i name="e_fr_energy">   -109.33893386 </i>
    <i name="e_wo_entrp">   -109.33330005 </i>
    <i name="e_0_energy">   -109.33705592 </i>
   </energy>
  </scstep>
  <scstep>
   <time name="dav">    5.26    5.26</time>
   <time name="total">    5.32    5.30</time>
   <energy>
    <i name="alphaZ">    271.64501344 </i>
    <i name="ewald"> 148222.70757374 </i>
    <i name="hartreedc">-160443.96190463 </i>
    <i name="XCdc">     91.48439718 </i>
    <i name="pawpsdc">  15269.81801209 </i>
    <i name="pawaedc"> -14865.50909386 </i>
    <i name="eentropy">     -0.00556601 </i>
    <i name="bandstr">   -900.69902229 </i>
    <i name="atom">  12245.18164884 </i>
    <i name="e_fr_energy">   -109.33894149 </i>
    <i name="e_wo_entrp">   -109.33337548 </i>
    <i name="e_0_energy">   -109.33708615 </i>
   </energy>
  </scstep>
  <structure>
   <crystal>
    <varray name="basis" >
     <v>       5.54371716       0.00000000       0.00000000 </v>
     <v>       2.77185858       4.80099990       0.00000000 </v>
     <v>       0.00000000       0.00000000      36.78963917 </v>
    </varray>
    <i name="volume">    979.17042988 </i>
    <varray name="rec_basis" >
     <v>       0.18038438      -0.10414497       0.00000000 </v>
     <v>       0.00000000       0.20828994       0.00000000 </v>
     <v>       0.00000000       0.00000000       0.02718157 </v>
    </varray>
   </crystal>
   <varray name="positions" >
    <v>       0.00000000       0.00000000       0.40772349 </v>
    <v>       0.50000000       0.00000000       0.40772349 </v>
    <v>       0.00000000       0.50000000       0.40772349 </v>
    <v>       0.50000000       0.50000000       0.40772349 </v>
    <v>       0.16666667       0.16666667       0.46924116 </v>
    <v>       0.66666667       0.16666667       0.46924116 </v>
    <v>       0.16666667       0.66666667       0.46924116 </v>
    <v>       0.66666667       0.66666667       0.46924116 </v>
    <v>       0.83928235       0.33120843       0.53223104 </v>
    <v>       0.33786676       0.33189418       0.53206818 </v>
    <v>       0.83809297       0.83261765       0.53299176 </v>
    <v>       0.33700050       0.83349554       0.53216504 </v>
    <v>       0.01034247      -0.00161680       0.59841669 </v>
    <v>       0.52052736      -0.00512967       0.59730446 </v>
    <v>       0.00946871       0.50434631       0.59793191 </v>
    <v>       0.51191807       0.49969625       0.59415381 </v>
    <v>       0.20119640       0.17024355       0.66708093 </v>
    <v>       0.19756729       0.16819136       0.63476825 </v>
   </varray>
  </structure>
  <varray name="forces" >
   <v>       0.01183912       0.01414895      -0.41235270 </v>
   <v>      -0.03476073       0.01488949      -0.41149237 </v>
   <v>      -0.01062674      -0.02543698      -0.41158298 </v>
   <v>      -0.00007855       0.00137097      -0.45227858 </v>
   <v>       0.00764616      -0.00696650       0.49091476 </v>
   <v>       0.02763456      -0.01787336       0.41862713 </v>
   <v>       0.01837495      -0.00275136       0.40826568 </v>
   <v>       0.03995829      -0.00068115       0.45824733 </v>
   <v>       0.07091892       0.01853247      -0.05995761 </v>
   <v>      -0.05428457       0.00779250      -0.04535503 </v>
   <v>       0.03595601      -0.04167070      -0.03586986 </v>
   <v>       0.01987380       0.03707912      -0.05700195 </v>
   <v>       0.09354730      -0.00436930       0.04694361 </v>
   <v>      -0.07914485       0.07271591       0.10214309 </v>
   <v>       0.05686743      -0.05627956       0.04128221 </v>
   <v>       0.00378649      -0.00909016      -0.03017787 </v>
   <v>      -0.08826653      -0.02601548       0.28048602 </v>
   <v>      -0.11924107       0.02460515      -0.33084089 </v>
  </varray>
  <varray name="stress" >
   <v>     -11.75638682      -0.21348200      -1.26746023 </v>
   <v>      -0.21348188     -11.67653887       0.00926770 </v>
   <v>      -1.26746024       0.00926758       5.25969066 </v>
  </varray>
  <energy>
   <i name="e_fr_energy">   -109.33894149 </i>
   <i name="e_wo_entrp">   -109.33337548 </i>
   <i name="e_0_energy">   -109.33708615 </i>
  </energy>
  <time name="totalsc">   50.38   49.71</time>
 </calculation>
 <calculation>
  <scstep>
   <time name="dav">    6.97    6.97</time>
   <time name="total">    7.47    7.44</time>
   <energy>
    <i name="alphaZ">    271.64501344 </i>
    <i name="ewald"> 148216.60707057 </i>
    <i name="hartreedc">-160437.80686634 </i>
    <i name="XCdc">     91.48457194 </i>
    <i name="pawpsdc">  15269.70679302 </i>
    <i name="pawaedc"> -14865.39807720 </i>
    <i name="eentropy">     -0.00560251 </i>
    <i name="bandstr">   -900.75460301 </i>
    <i name="atom">  12245.18164884 </i>
    <i name="e_fr_energy">   -109.34005124 </i>
    <i name="e_wo_entrp">   -109.33444873 </i>
    <i name="e_0_energy">   -109.33818374 </i>
   </energy>
  </scstep>
  <scstep>
   <time name="dav">    7.29    7.29</time>
   <time name="total">    7.79    7.76</time>
   <energy>
    <i name="e_fr_energy">   -109.34044624 </i>
    <i name="e_wo_entrp">   -109.33484989 </i>
    <i name="e_0_energy">   -109.33858079 </i>
   </energy>
  </scstep>
  <scstep>
   <time name="dav">    7.85    7.85</time>
   <time name="total">    8.35    8.33</time>
   <energy>
    <i name="e_fr_energy">   -109.34063661 </i>
    <i name="e_wo_entrp">   -109.33496754 </i>
    <i name="e_0_energy">   -109.33874692 </i>
   </energy>
  </scstep>
  <scstep>
   <time name="dav">    7.68    7.68</time>
   <time name="total">    8.18    8.16</time>
   <energy>
    <i name="e_fr_energy">   -109.34041974 </i>
    <i name="e_wo_entrp">   -109.33487468 </i>
    <i name="e_0_energy">   -109.33857139 </i>
   </energy>
  </scstep>
  <scstep>
   <time name="dav">    6.27    6.27</time>
   <time name="total">    6.78    6.76</time>
   <energy>
    <i name="e_fr_energy">   -109.34040354 </i>
    <i name="e_wo_entrp">   -109.33477496 </i>
    <i name="e_0_energy">   -109.33852735 </i>
   </energy>
  </scstep>
  <scstep>
   <time name="dav">    5.57    5.57</time>
   <time name="total">    5.63    5.61</time>
   <energy>
    <i name="alphaZ">    271.64501344 </i>
    <i name="ewald"> 148216.60707057 </i>
    <i name="hartreedc">-160437.77244714 </i>
    <i name="XCdc">     91.48536640 </i>
    <i name="pawpsdc">  15269.65426835 </i>
    <i name="pawaedc"> -14865.34456002 </i>
    <i name="eentropy">     -0.00555702 </i>
    <i name="bandstr">   -900.79120253 </i>
    <i name="atom">  12245.18164884 </i>
    <i name="e_fr_energy">   -109.34039909 </i>
    <i name="e_wo_entrp">   -109.33484208 </i>
    <i name="e_0_energy">   -109.33854676 </i>
   </energy>
  </scstep>
  <structure>
   <crystal>
    <varray name="basis" >
     <v>       5.54371716       0.00000000       0.00000000 </v>
     <v>       2.77185858       4.80099990       0.00000000 </v>
     <v>       0.00000000       0.00000000      36.78963917 </v>
    </varray>
    <i name="volume">    979.17042988 </i>
    <varray name="rec_basis" >
     <v>       0.18038438      -0.10414497       0.00000000 </v>
     <v>       0.00000000       0.20828994       0.00000000 </v>
     <v>       0.00000000       0.00000000       0.02718157 </v>
    </varray>
   </crystal>
   <varray name="positions" >
    <v>       0.00000000       0.00000000       0.40772349 </v>
    <v>       0.50000000       0.00000000       0.40772349 </v>
    <v>       0.00000000       0.50000000       0.40772349 </v>
    <v>       0.50000000       0.50000000       0.40772349 </v>
    <v>       0.16666667       0.16666667       0.46924116 </v>
    <v>       0.66666667       0.16666667       0.46924116 </v>
    <v>       0.16666667       0.66666667       0.46924116 </v>
    <v>       0.66666667       0.66666667       0.46924116 </v>
    <v>       0.83936171       0.33125644       0.53220022 </v>
    <v>       0.33783878       0.33186919       0.53205050 </v>
    <v>       0.83823235       0.83256613       0.53299501 </v>
    <v>       0.33704271       0.83360303       0.53213657 </v>
    <v>       0.01059214      -0.00165435       0.59843649 </v>
    <v>       0.52048194      -0.00502547       0.59737062 </v>
    <v>       0.00964167       0.50429859       0.59796678 </v>
    <v>       0.51209598       0.49965480       0.59412941 </v>
    <v>       0.20059876       0.17016106       0.66707158 </v>
    <v>       0.19706744       0.16831746       0.63475524 </v>
   </varray>
  </structure>
  <varray name="forces" >
   <v>       0.01164896       0.01405409      -0.41302527 </v>
   <v>      -0.03490492       0.01481368      -0.41065494 </v>
   <v>      -0.01085771      -0.02544980      -0.41098414 </v>
   <v>      -0.00055866       0.00137984      -0.45311266 </v>
   <v>       0.00833362      -0.00672775       0.48293014 </v>
   <v>       0.02719416      -0.01926604       0.41550102 </v>
   <v>       0.01723088      -0.00211527       0.40532981 </v>
   <v>       0.04134650       0.00055441       0.45247490 </v>
   <v>       0.06447989       0.01699813      -0.04778263 </v>
   <v>      -0.04486430       0.00789642      -0.03360961 </v>
   <v>       0.03157656      -0.03511783      -0.02823342 </v>
   <v>       0.01982121       0.03113193      -0.04319568 </v>
   <v>       0.07578311      -0.00891450       0.03300141 </v>
   <v>      -0.06015766       0.06148899       0.08139306 </v>
   <v>       0.05413425      -0.03917777       0.02666451 </v>
   <v>       0.00333977      -0.00825525      -0.03073780 </v>
   <v>      -0.08497293      -0.02413136       0.28277588 </v>
   <v>      -0.11857274       0.02083806      -0.30873457 </v>
  </varray>
  <varray name="stress" >
   <v>     -11.72495385      -0.21813645      -1.25838184 </v>
   <v>      -0.21813636     -11.64756420       0.01017776 </v>
   <v>      -1.25838187       0.01017773       5.30027241 </v>
  </varray>
  <energy>
   <i name="e_fr_energy">   -109.34039909 </i>
   <i name="e_wo_entrp">   -109.33484208 </i>
   <i name="e_0_energy">   -109.33854676 </i>
  </energy>
  <time name="totalsc">   65.19   64.47</time>
 </calculation>
 <calculation>
  <scstep>
   <time name="dav">    6.97    6.97</time>
   <time name="total">    7.47    7.44</time>
   <energy>
    <i name="alphaZ">    271.64501344 </i>
    <i name="ewald"> 148198.28981852 </i>
    <i name="hartreedc">-160419.33635351 </i>
    <i name="XCdc">     91.48672881 </i>
    <i name="pawpsdc">  15269.65768697 </i>
    <i name="pawaedc"> -14865.34774146 </i>
    <i name="eentropy">     -0.00561042 </i>
    <i name="bandstr">   -900.91181463 </i>
    <i name="atom">  12245.18164884 </i>
    <i name="e_fr_energy">   -109.34062342 </i>
    <i name="e_wo_entrp">   -109.33501301 </i>
    <i name="e_0_energy">   -109.33875328 </i>
   </energy>
  </scstep>
  <scstep>
   <time name="dav">    7.35    7.35</time>
   <time name="total">    7.85    7.83</time>
   <energy>
    <i name="e_fr_energy">   -109.34513763 </i>
    <i name="e_wo_entrp">   -109.33970084 </i>
    <i name="e_0_energy">   -109.34332536 </i>
   </energy>
  </scstep>
  <scstep>
   <time name="dav">    7.78    7.78</time>
   <time name="total">    8.29    8.27</time>
   <energy>
    <i name="e_fr_energy">   -109.34438442 </i>
    <i name="e_wo_entrp">   -109.33865655 </i>
    <i name="e_0_energy">   -109.34247513 </i>
   </energy>
  </scstep>
  <scstep>
   <time name="dav">    7.60    7.60</time>
   <time name="total">    8.11    8.08</time>
   <energy>
    <i name="e_fr_energy">   -109.34382651 </i>
    <i name="e_wo_entrp">   -109.33838102 </i>
    <i name="e_0_energy">   -109.34201135 </i>
   </energy>
  </scstep>
  <scstep>
   <time name="dav">    7.65    7.65</time>
   <time name="total">    8.15    8.13</time>
   <energy>
    <i name="e_fr_energy">   -109.34370838 </i>
    <i name="e_wo_entrp">   -109.33801717 </i>
    <i name="e_0_energy">   -109.34181131 </i>
   </energy>
  </scstep>
  <scstep>
   <time name="dav">    7.47    7.47</time>
   <time name="total">    7.98    7.95</time>
   <energy>
    <i name="e_fr_energy">   -109.34366791 </i>
    <i name="e_wo_entrp">   -109.33820777 </i>
    <i name="e_0_energy">   -109.34184786 </i>
   </energy>
  </scstep>
  <scstep>
   <time name="dav">    7.41    7.41</time>
   <time name="total">    7.92    7.89</time>
   <energy>
    <i name="e_fr_energy">   -109.34362430 </i>
    <i name="e_wo_entrp">   -109.33793036 </i>
    <i name="e_0_energy">   -109.34172632 </i>
   </energy>
  </scstep>
  <scstep>
   <time name="dav">    5.43    5.43</time>
   <time name="total">    5.49    5.47</time>
   <energy>
    <i name="alphaZ">    271.64501344 </i>
    <i name="ewald"> 148198.28981852 </i>
    <i name="hartreedc">-160419.00922221 </i>
    <i name="XCdc">     91.48962662 </i>
    <i name="pawpsdc">  15270.71068528 </i>
    <i name="pawaedc"> -14866.39653929 </i>
    <i name="eentropy">     -0.00558276 </i>
    <i name="bandstr">   -901.24906727 </i>
    <i name="atom">  12245.18164884 </i>
    <i name="e_fr_energy">   -109.34361882 </i>
    <i name="e_wo_entrp">   -109.33803606 </i>
    <i name="e_0_energy">   -109.34175790 </i>
   </energy>
  </scstep>
  <structure>
   <crystal>
    <varray name="basis" >
     <v>       5.54371716       0.00000000       0.00000000 </v>
     <v>       2.77185858       4.80099990       0.00000000 </v>
     <v>       0.00000000       0.00000000      36.78963917 </v>
    </varray>
    <i name="volume">    979.17042988 </i>
    <varray name="rec_basis" >
     <v>       0.18038438      -0.10414497       0.00000000 </v>
     <v>       0.00000000       0.20828994       0.00000000 </v>
     <v>       0.00000000       0.00000000       0.02718157 </v>
    </varray>
   </crystal>
   <varray name="positions" >
    <v>       0.00000000       0.00000000       0.40772349 </v>
    <v>       0.50000000       0.00000000       0.40772349 </v>
    <v>       0.00000000       0.50000000       0.40772349 </v>
    <v>       0.50000000       0.50000000       0.40772349 </v>
    <v>       0.16666667       0.16666667       0.46924116 </v>
    <v>       0.66666667       0.16666667       0.46924116 </v>
    <v>       0.16666667       0.66666667       0.46924116 </v>
    <v>       0.66666667       0.66666667       0.46924116 </v>
    <v>       0.83959976       0.33140046       0.53210778 </v>
    <v>       0.33775486       0.33179423       0.53199747 </v>
    <v>       0.83865049       0.83241157       0.53300475 </v>
    <v>       0.33716933       0.83392549       0.53205116 </v>
    <v>       0.01134116      -0.00176700       0.59849588 </v>
    <v>       0.52034565      -0.00471288       0.59756909 </v>
    <v>       0.01016056       0.50415544       0.59807141 </v>
    <v>       0.51262972       0.49953044       0.59405621 </v>
    <v>       0.19880583       0.16991358       0.66704352 </v>
    <v>       0.19556790       0.16869576       0.63471619 </v>
   </varray>
  </structure>
  <varray name="forces" >
   <v>       0.01132958       0.01382226      -0.41167611 </v>
   <v>      -0.03476825       0.01448946      -0.40862109 </v>
   <v>      -0.01122666      -0.02531696      -0.40949649 </v>
   <v>      -0.00149682       0.00151993      -0.45050282 </v>
   <v>       0.01088681      -0.00589284       0.46293081 </v>
   <v>       0.02657373      -0.02257311       0.40603271 </v>
   <v>       0.01485999      -0.00043046       0.39485428 </v>
   <v>       0.04531950       0.00379956       0.43686601 </v>
   <v>       0.04398669       0.01230419      -0.01103573 </v>
   <v>      -0.01548157       0.00939002      -0.00106480 </v>
   <v>       0.01931236      -0.01577791      -0.00727132 </v>
   <v>       0.01837043       0.01224576      -0.00236485 </v>
   <v>       0.02416236      -0.02147793      -0.01072839 </v>
   <v>      -0.00498158       0.02857553       0.01432216 </v>
   <v>       0.04610697       0.01003796      -0.02049854 </v>
   <v>       0.00113367      -0.00553904      -0.03292534 </v>
   <v>      -0.07529266      -0.01908252       0.30451666 </v>
   <v>      -0.11879456       0.00990613      -0.25333714 </v>
  </varray>
  <varray name="stress" >
   <v>     -11.73730873      -0.20863357      -1.20406623 </v>
   <v>      -0.20863342     -11.66298378       0.00058081 </v>
   <v>      -1.20406619       0.00058092       5.37369946 </v>
  </varray>
  <energy>
   <i name="e_fr_energy">   -109.34361882 </i>
   <i name="e_wo_entrp">   -109.33803606 </i>
   <i name="e_0_energy">   -109.34175790 </i>
  </energy>
  <time name="totalsc">   82.28   81.50</time>
 </calculation>
 <calculation>
  <scstep>
   <time name="dav">    6.97    6.97</time>
   <time name="total">    7.47    7.45</time>
   <energy>
    <i name="alphaZ">    271.64501344 </i>
    <i name="ewald"> 148161.58414419 </i>
    <i name="hartreedc">-160382.14706382 </i>
    <i name="XCdc">     91.49275637 </i>
    <i name="pawpsdc">  15270.79691358 </i>
    <i name="pawaedc"> -14866.48250925 </i>
    <i name="eentropy">     -0.00555964 </i>
    <i name="bandstr">   -901.39819716 </i>
    <i name="atom">  12245.18164884 </i>
    <i name="e_fr_energy">   -109.33285345 </i>
    <i name="e_wo_entrp">   -109.32729381 </i>
    <i name="e_0_energy">   -109.33100024 </i>
   </energy>
  </scstep>
  <scstep>
   <time name="dav">    7.33    7.34</time>
   <time name="total">    7.84    7.81</time>
   <energy>
    <i name="e_fr_energy">   -109.34897935 </i>
    <i name="e_wo_entrp">   -109.34348800 </i>
    <i name="e_0_energy">   -109.34714890 </i>
   </energy>
  </scstep>
  <scstep>
   <time name="dav">    7.81    7.81</time>
   <time name="total">    8.31    8.28</time>
   <energy>
    <i name="e_fr_energy">   -109.34991426 </i>
    <i name="e_wo_entrp">   -109.34415119 </i>
    <i name="e_0_energy">   -109.34799323 </i>
   </energy>
  </scstep>
  <scstep>
   <time name="dav">    7.60    7.60</time>
   <time name="total">    8.11    8.08</time>
   <energy>
    <i name="e_fr_energy">   -109.34605501 </i>
    <i name="e_wo_entrp">   -109.34098337 </i>
    <i name="e_0_energy">   -109.34436446 </i>
   </energy>
  </scstep>
  <scstep>
   <time name="dav">    7.57    7.57</time>
   <time name="total">    8.09    8.06</time>
   <energy>
    <i name="e_fr_energy">   -109.34529936 </i>
    <i name="e_wo_entrp">   -109.33935878 </i>
    <i name="e_0_energy">   -109.34331917 </i>
   </energy>
  </scstep>
  <scstep>
   <time name="dav">    7.47    7.47</time>
   <time name="total">    7.98    7.95</time>
   <energy>
    <i name="e_fr_energy">   -109.34516945 </i>
    <i name="e_wo_entrp">   -109.33984595 </i>
    <i name="e_0_energy">   -109.34339495 </i>
   </energy>
  </scstep>
  <scstep>
   <time name="dav">    7.44    7.44</time>
   <time name="total">    7.94    7.92</time>
   <energy>
    <i name="e_fr_energy">   -109.34498954 </i>
    <i name="e_wo_entrp">   -109.33921491 </i>
    <i name="e_0_energy">   -109.34306467 </i>
   </energy>
  </scstep>
  <scstep>
   <time name="dav">    7.65    7.65</time>
   <time name="total">    8.15    8.13</time>
   <energy>
    <i name="e_fr_energy">   -109.34493408 </i>
    <i name="e_wo_entrp">   -109.33931900 </i>
    <i name="e_0_energy">   -109.34306239 </i>
   </energy>
  </scstep>
  <scstep>
   <time name="dav">    5.29    5.29</time>
   <time name="total">    5.34    5.33</time>
   <energy>
    <i name="alphaZ">    271.64501344 </i>
    <i name="ewald"> 148161.58414419 </i>
    <i name="hartreedc">-160381.27342466 </i>
    <i name="XCdc">     91.49844379 </i>
    <i name="pawpsdc">  15273.54489786 </i>
    <i name="pawaedc"> -14869.22473582 </i>
    <i name="eentropy">     -0.00559422 </i>
    <i name="bandstr">   -902.29532185 </i>
    <i name="atom">  12245.18164884 </i>
    <i name="e_fr_energy">   -109.34492842 </i>
    <i name="e_wo_entrp">   -109.33933421 </i>
    <i name="e_0_energy">   -109.34306368 </i>
   </energy>
  </scstep>
  <structure>
   <crystal>
    <varray name="basis" >
     <v>       5.54371716       0.00000000       0.00000000 </v>
     <v>       2.77185858       4.80099990       0.00000000 </v>
     <v>       0.00000000       0.00000000      36.78963917 </v>
    </varray>
    <i name="volume">    979.17042988 </i>
    <varray name="rec_basis" >
     <v>       0.18038438      -0.10414497       0.00000000 </v>
     <v>       0.00000000       0.20828994       0.00000000 </v>
     <v>       0.00000000       0.00000000       0.02718157 </v>
    </varray>
   </crystal>
   <varray name="positions" >
    <v>       0.00000000       0.00000000       0.40772349 </v>
    <v>       0.50000000       0.00000000       0.40772349 </v>
    <v>       0.00000000       0.50000000       0.40772349 </v>
    <v>       0.50000000       0.50000000       0.40772349 </v>
    <v>       0.16666667       0.16666667       0.46924116 </v>
    <v>       0.66666667       0.16666667       0.46924116 </v>
    <v>       0.16666667       0.66666667       0.46924116 </v>
    <v>       0.66666667       0.66666667       0.46924116 </v>
    <v>       0.84007587       0.33168849       0.53192290 </v>
    <v>       0.33758703       0.33164430       0.53189140 </v>
    <v>       0.83948678       0.83210244       0.53302424 </v>
    <v>       0.33742258       0.83457042       0.53188036 </v>
    <v>       0.01283918      -0.00199230       0.59861465 </v>
    <v>       0.52007309      -0.00408771       0.59796603 </v>
    <v>       0.01119834       0.50386912       0.59828065 </v>
    <v>       0.51369719       0.49928173       0.59390981 </v>
    <v>       0.19521996       0.16941862       0.66698741 </v>
    <v>       0.19256882       0.16945237       0.63463809 </v>
   </varray>
  </structure>
  <varray name="forces" >
   <v>       0.01111153       0.01364967      -0.41227275 </v>
   <v>      -0.03476781       0.01414466      -0.40488685 </v>
   <v>      -0.01187714      -0.02544937      -0.40771229 </v>
   <v>      -0.00337250       0.00171636      -0.45332314 </v>
   <v>       0.01626833      -0.00419630       0.41979202 </v>
   <v>       0.02497676      -0.02985897       0.38786927 </v>
   <v>       0.00948360       0.00321433       0.37601745 </v>
   <v>       0.05382486       0.01092839       0.40479206 </v>
   <v>       0.00369330       0.00293905       0.06368789 </v>
   <v>       0.04271408       0.01204489       0.06616742 </v>
   <v>      -0.00416591       0.02276700       0.03652445 </v>
   <v>       0.01566978      -0.02471417       0.08053503 </v>
   <v>      -0.08420010      -0.05069380      -0.10276069 </v>
   <v>       0.10601811      -0.03682818      -0.11381149 </v>
   <v>       0.03141793       0.11236914      -0.11495396 </v>
   <v>      -0.00253103      -0.00018736      -0.03597529 </v>
   <v>      -0.05932338      -0.00958684       0.33998901 </v>
   <v>      -0.11494039      -0.01225850      -0.12967815 </v>
  </varray>
  <varray name="stress" >
   <v>     -11.70209900      -0.19115129      -1.09479526 </v>
   <v>      -0.19115138     -11.63628150      -0.01233336 </v>
   <v>      -1.09479540      -0.01233330       5.54551111 </v>
  </varray>
  <energy>
   <i name="e_fr_energy">   -109.34492842 </i>
   <i name="e_wo_entrp">   -109.33933421 </i>
   <i name="e_0_energy">   -109.34306368 </i>
  </energy>
  <time name="totalsc">   90.26   89.46</time>
 </calculation>
 <calculation>
  <scstep>
   <time name="dav">    6.97    6.97</time>
   <time name="total">    7.47    7.44</time>
   <energy>
    <i name="alphaZ">    271.64501344 </i>
    <i name="ewald"> 148173.37845383 </i>
    <i name="hartreedc">-160393.09943632 </i>
    <i name="XCdc">     91.49702216 </i>
    <i name="pawpsdc">  15273.69103296 </i>
    <i name="pawaedc"> -14869.37074077 </i>
    <i name="eentropy">     -0.00559599 </i>
    <i name="bandstr">   -902.26145930 </i>
    <i name="atom">  12245.18164884 </i>
    <i name="e_fr_energy">   -109.34406116 </i>
    <i name="e_wo_entrp">   -109.33846517 </i>
    <i name="e_0_energy">   -109.34219583 </i>
   </energy>
  </scstep>
  <scstep>
   <time name="dav">    7.42    7.42</time>
   <time name="total">    7.92    7.89</time>
   <energy>
    <i name="e_fr_energy">   -109.34662386 </i>
    <i name="e_wo_entrp">   -109.34094815 </i>
    <i name="e_0_energy">   -109.34473196 </i>
   </energy>
  </scstep>
  <scstep>
   <time name="dav">    7.71    7.71</time>
   <time name="total">    8.21    8.18</time>
   <energy>
    <i name="e_fr_energy">   -109.34541433 </i>
    <i name="e_wo_entrp">   -109.33986750 </i>
    <i name="e_0_energy">   -109.34356539 </i>
   </energy>
  </scstep>
  <scstep>
   <time name="dav">    7.39    7.39</time>
   <time name="total">    7.90    7.87</time>
   <energy>
    <i name="e_fr_energy">   -109.34532717 </i>
    <i name="e_wo_entrp">   -109.33966849 </i>
    <i name="e_0_energy">   -109.34344094 </i>
   </energy>
  </scstep>
  <scstep>
   <time name="dav">    7.40    7.40</time>
   <time name="total">    7.91    7.88</time>
   <energy>
    <i name="e_fr_energy">   -109.34528448 </i>
    <i name="e_wo_entrp">   -109.33970255 </i>
    <i name="e_0_energy">   -109.34342384 </i>
   </energy>
  </scstep>
  <scstep>
   <time name="dav">    7.43    7.43</time>
   <time name="total">    7.93    7.91</time>
   <energy>
    <i name="e_fr_energy">   -109.34527814 </i>
    <i name="e_wo_entrp">   -109.33963715 </i>
    <i name="e_0_energy">   -109.34339781 </i>
   </energy>
  </scstep>
  <scstep>
   <time name="dav">    7.23    7.23</time>
   <time name="total">    7.74    7.71</time>
   <energy>
    <i name="e_fr_energy">   -109.34525706 </i>
    <i name="e_wo_entrp">   -109.33966109 </i>
    <i name="e_0_energy">   -109.34339174 </i>
   </energy>
  </scstep>
  <scstep>
   <time name="dav">    4.80    4.80</time>
   <time name="total">    4.86    4.84</time>
   <energy>
    <i name="alphaZ">    271.64501344 </i>
    <i name="ewald"> 148173.37845383 </i>
    <i name="hartreedc">-160393.22959393 </i>
    <i name="XCdc">     91.49486428 </i>
    <i name="pawpsdc">  15273.05257664 </i>
    <i name="pawaedc"> -14868.73379082 </i>
    <i name="eentropy">     -0.00561874 </i>
    <i name="bandstr">   -902.12880998 </i>
    <i name="atom">  12245.18164884 </i>
    <i name="e_fr_energy">   -109.34525644 </i>
    <i name="e_wo_entrp">   -109.33963769 </i>
    <i name="e_0_energy">   -109.34338352 </i>
   </energy>
  </scstep>
  <structure>
   <crystal>
    <varray name="basis" >
     <v>       5.54371716       0.00000000       0.00000000 </v>
     <v>       2.77185858       4.80099990       0.00000000 </v>
     <v>       0.00000000       0.00000000      36.78963917 </v>
    </varray>
    <i name="volume">    979.17042988 </i>
    <varray name="rec_basis" >
     <v>       0.18038438      -0.10414497       0.00000000 </v>
     <v>       0.00000000       0.20828994       0.00000000 </v>
     <v>       0.00000000       0.00000000       0.02718157 </v>
    </varray>
   </crystal>
   <varray name="positions" >
    <v>       0.00000000       0.00000000       0.40772349 </v>
    <v>       0.50000000       0.00000000       0.40772349 </v>
    <v>       0.00000000       0.50000000       0.40772349 </v>
    <v>       0.50000000       0.50000000       0.40772349 </v>
    <v>       0.16666667       0.16666667       0.46924116 </v>
    <v>       0.66666667       0.16666667       0.46924116 </v>
    <v>       0.16666667       0.66666667       0.46924116 </v>
    <v>       0.66666667       0.66666667       0.46924116 </v>
    <v>       0.83992302       0.33159602       0.53198226 </v>
    <v>       0.33764091       0.33169244       0.53192545 </v>
    <v>       0.83921830       0.83220169       0.53301798 </v>
    <v>       0.33734128       0.83436337       0.53193519 </v>
    <v>       0.01235826      -0.00191997       0.59857652 </v>
    <v>       0.52016060      -0.00428841       0.59783860 </v>
    <v>       0.01086517       0.50396104       0.59821348 </v>
    <v>       0.51335449       0.49936157       0.59395681 </v>
    <v>       0.19637116       0.16957752       0.66700543 </v>
    <v>       0.19353164       0.16920947       0.63466316 </v>
   </varray>
  </structure>
  <varray name="forces" >
   <v>       0.01149694       0.01370970      -0.41054836 </v>
   <v>      -0.03459494       0.01446824      -0.40600404 </v>
   <v>      -0.01123881      -0.02552138      -0.40817046 </v>
   <v>      -0.00261191       0.00164183      -0.45300647 </v>
   <v>       0.01475491      -0.00467297       0.43283890 </v>
   <v>       0.02587391      -0.02743017       0.39290521 </v>
   <v>       0.01151244       0.00208514       0.38148213 </v>
   <v>       0.05131371       0.00857372       0.41464158 </v>
   <v>       0.01677976       0.00568442       0.04011252 </v>
   <v>       0.02437723       0.01090694       0.04485329 </v>
   <v>       0.00350857       0.01072490       0.02364200 </v>
   <v>       0.01683922      -0.01262222       0.05468257 </v>
   <v>      -0.04820920      -0.04043524      -0.07172780 </v>
   <v>       0.07092309      -0.01604035      -0.07279105 </v>
   <v>       0.03616781       0.07874439      -0.08385601 </v>
   <v>      -0.00098516      -0.00195465      -0.03579040 </v>
   <v>      -0.06819370      -0.01309101       0.32471080 </v>
   <v>      -0.11771386      -0.00477130      -0.16797440 </v>
  </varray>
  <varray name="stress" >
   <v>     -11.69489853      -0.20582272      -1.13890119 </v>
   <v>      -0.20582274     -11.62840167      -0.00401604 </v>
   <v>      -1.13890092      -0.00401613       5.50956715 </v>
  </varray>
  <energy>
   <i name="e_fr_energy">   -109.34525644 </i>
   <i name="e_wo_entrp">   -109.33963769 </i>
   <i name="e_0_energy">   -109.34338352 </i>
  </energy>
  <time name="totalsc">   80.93   80.15</time>
 </calculation>
 <calculation>
  <scstep>
   <time name="dav">    6.97    6.97</time>
   <time name="total">    7.47    7.45</time>
   <energy>
    <i name="alphaZ">    271.64501344 </i>
    <i name="ewald"> 148169.99263238 </i>
    <i name="hartreedc">-160390.42477376 </i>
    <i name="XCdc">     91.47379403 </i>
    <i name="pawpsdc">  15273.01150758 </i>
    <i name="pawaedc"> -14868.69290184 </i>
    <i name="eentropy">     -0.00553184 </i>
    <i name="bandstr">   -901.52699173 </i>
    <i name="atom">  12245.18164884 </i>
    <i name="e_fr_energy">   -109.34560289 </i>
    <i name="e_wo_entrp">   -109.34007105 </i>
    <i name="e_0_energy">   -109.34375894 </i>
   </energy>
  </scstep>
  <scstep>
   <time name="dav">    7.39    7.39</time>
   <time name="total">    7.89    7.87</time>
   <energy>
    <i name="e_fr_energy">   -109.34619877 </i>
    <i name="e_wo_entrp">   -109.34061971 </i>
    <i name="e_0_energy">   -109.34433908 </i>
   </energy>
  </scstep>
  <scstep>
   <time name="dav">    8.08    8.09</time>
   <time name="total">    8.59    8.56</time>
   <energy>
    <i name="e_fr_energy">   -109.34664503 </i>
    <i name="e_wo_entrp">   -109.34133143 </i>
    <i name="e_0_energy">   -109.34487383 </i>
   </energy>
  </scstep>
  <scstep>
   <time name="dav">    8.46    8.46</time>
   <time name="total">    8.97    8.94</time>
   <energy>
    <i name="e_fr_energy">   -109.34632426 </i>
    <i name="e_wo_entrp">   -109.34082221 </i>
    <i name="e_0_energy">   -109.34449024 </i>
   </energy>
  </scstep>
  <scstep>
   <time name="dav">    7.74    7.74</time>
   <time name="total">    8.25    8.22</time>
   <energy>
    <i name="e_fr_energy">   -109.34608807 </i>
    <i name="e_wo_entrp">   -109.34037030 </i>
    <i name="e_0_energy">   -109.34418215 </i>
   </energy>
  </scstep>
  <scstep>
   <time name="dav">    7.54    7.54</time>
   <time name="total">    8.04    8.02</time>
   <energy>
    <i name="e_fr_energy">   -109.34604950 </i>
    <i name="e_wo_entrp">   -109.34063878 </i>
    <i name="e_0_energy">   -109.34424593 </i>
   </energy>
  </scstep>
  <scstep>
   <time name="dav">    5.70    5.70</time>
   <time name="total">    6.20    6.18</time>
   <energy>
    <i name="e_fr_energy">   -109.34603847 </i>
    <i name="e_wo_entrp">   -109.34051946 </i>
    <i name="e_0_energy">   -109.34419880 </i>
   </energy>
  </scstep>
  <scstep>
   <time name="dav">    4.59    4.59</time>
   <time name="total">    4.64    4.62</time>
   <energy>
    <i name="alphaZ">    271.64501344 </i>
    <i name="ewald"> 148169.99263238 </i>
    <i name="hartreedc">-160388.75560718 </i>
    <i name="XCdc">     91.45771532 </i>
    <i name="pawpsdc">  15264.69450624 </i>
    <i name="pawaedc"> -14860.38048348 </i>
    <i name="eentropy">     -0.00550254 </i>
    <i name="bandstr">   -903.17596298 </i>
    <i name="atom">  12245.18164884 </i>
    <i name="e_fr_energy">   -109.34603995 </i>
    <i name="e_wo_entrp">   -109.34053741 </i>
    <i name="e_0_energy">   -109.34420577 </i>
   </energy>
  </scstep>
  <structure>
   <crystal>
    <varray name="basis" >
     <v>       5.54371716       0.00000000       0.00000000 </v>
     <v>       2.77185858       4.80099990       0.00000000 </v>
     <v>       0.00000000       0.00000000      36.78963917 </v>
    </varray>
    <i name="volume">    979.17042988 </i>
    <varray name="rec_basis" >
     <v>       0.18038438      -0.10414497       0.00000000 </v>
     <v>       0.00000000       0.20828994       0.00000000 </v>
     <v>       0.00000000       0.00000000       0.02718157 </v>
    </varray>
   </crystal>
   <varray name="positions" >
    <v>       0.00000000       0.00000000       0.40772349 </v>
    <v>       0.50000000       0.00000000       0.40772349 </v>
    <v>       0.00000000       0.50000000       0.40772349 </v>
    <v>       0.50000000       0.50000000       0.40772349 </v>
    <v>       0.16666667       0.16666667       0.46924116 </v>
    <v>       0.66666667       0.16666667       0.46924116 </v>
    <v>       0.16666667       0.66666667       0.46924116 </v>
    <v>       0.66666667       0.66666667       0.46924116 </v>
    <v>       0.84000108       0.33163933       0.53197950 </v>
    <v>       0.33766915       0.33170898       0.53193190 </v>
    <v>       0.83929097       0.83220264       0.53302853 </v>
    <v>       0.33742417       0.83438888       0.53193913 </v>
    <v>       0.01243947      -0.00205530       0.59856139 </v>
    <v>       0.52033053      -0.00427441       0.59784942 </v>
    <v>       0.01094079       0.50415590       0.59820245 </v>
    <v>       0.51345596       0.49933250       0.59392977 </v>
    <v>       0.19588344       0.16949373       0.66711957 </v>
    <v>       0.19296688       0.16926770       0.63459397 </v>
   </varray>
  </structure>
  <varray name="forces" >
   <v>       0.01101049       0.01347709      -0.41135270 </v>
   <v>      -0.03466198       0.01426142      -0.40649344 </v>
   <v>      -0.01152055      -0.02524876      -0.40859922 </v>
   <v>      -0.00311182       0.00168188      -0.45156794 </v>
   <v>       0.01561596      -0.00481796       0.43275793 </v>
   <v>       0.02566477      -0.02776739       0.39401418 </v>
   <v>       0.01116806       0.00254067       0.38306122 </v>
   <v>       0.05157978       0.00920013       0.41400548 </v>
   <v>       0.01426754       0.00321512       0.03741482 </v>
   <v>       0.02654211       0.00948822       0.03973459 </v>
   <v>       0.00357251       0.01361257       0.01469342 </v>
   <v>       0.01551396      -0.01212383       0.05034848 </v>
   <v>      -0.03503166      -0.02772763      -0.06114308 </v>
   <v>       0.05583825      -0.00940139      -0.06090881 </v>
   <v>       0.03091455       0.06025940      -0.07078643 </v>
   <v>       0.00240161      -0.00088680      -0.02714575 </v>
   <v>      -0.07130323      -0.01186296      -0.22123896 </v>
   <v>      -0.10846035      -0.00789978       0.35320621 </v>
  </varray>
  <varray name="stress" >
   <v>     -11.69402589      -0.20157089      -1.13793679 </v>
   <v>      -0.20157089     -11.62833710      -0.00913364 </v>
   <v>      -1.13793686      -0.00913364       4.40087559 </v>
  </varray>
  <energy>
   <i name="e_fr_energy">   -109.34603995 </i>
   <i name="e_wo_entrp">   -109.34053741 </i>
   <i name="e_0_energy">   -109.34420577 </i>
  </energy>
  <time name="totalsc">   81.05   80.28</time>
 </calculation>
 <calculation>
  <scstep>
   <time name="dav">    6.97    6.97</time>
   <time name="total">    7.47    7.45</time>
   <energy>
    <i name="alphaZ">    271.64501344 </i>
    <i name="ewald"> 148170.93233657 </i>
    <i name="hartreedc">-160389.48155172 </i>
    <i name="XCdc">     91.46333896 </i>
    <i name="pawpsdc">  15264.56352120 </i>
    <i name="pawaedc"> -14860.24919055 </i>
    <i name="eentropy">     -0.00554100 </i>
    <i name="bandstr">   -903.39573017 </i>
    <i name="atom">  12245.18164884 </i>
    <i name="e_fr_energy">   -109.34615441 </i>
    <i name="e_wo_entrp">   -109.34061341 </i>
    <i name="e_0_energy">   -109.34430741 </i>
   </energy>
  </scstep>
  <scstep>
   <time name="dav">    7.52    7.52</time>
   <time name="total">    8.02    7.99</time>
   <energy>
    <i name="e_fr_energy">   -109.34647450 </i>
    <i name="e_wo_entrp">   -109.34103555 </i>
    <i name="e_0_energy">   -109.34466152 </i>
   </energy>
  </scstep>
  <scstep>
   <time name="dav">    7.77    7.77</time>
   <time name="total">    8.27    8.25</time>
   <energy>
    <i name="e_fr_energy">   -109.34620245 </i>
    <i name="e_wo_entrp">   -109.34067064 </i>
    <i name="e_0_energy">   -109.34435852 </i>
   </energy>
  </scstep>
  <scstep>
   <time name="dav">    5.36    5.36</time>
   <time name="total">    5.42    5.40</time>
   <energy>
    <i name="alphaZ">    271.64501344 </i>
    <i name="ewald"> 148170.93233657 </i>
    <i name="hartreedc">-160389.62663462 </i>
    <i name="XCdc">     91.46645718 </i>
    <i name="pawpsdc">  15265.66187043 </i>
    <i name="pawaedc"> -14861.34575734 </i>
    <i name="eentropy">     -0.00555452 </i>
    <i name="bandstr">   -903.25558416 </i>
    <i name="atom">  12245.18164884 </i>
    <i name="e_fr_energy">   -109.34620417 </i>
    <i name="e_wo_entrp">   -109.34064965 </i>
    <i name="e_0_energy">   -109.34435266 </i>
   </energy>
  </scstep>
  <structure>
   <crystal>
    <varray name="basis" >
     <v>       5.54371716       0.00000000       0.00000000 </v>
     <v>       2.77185858       4.80099990       0.00000000 </v>
     <v>       0.00000000       0.00000000      36.78963917 </v>
    </varray>
    <i name="volume">    979.17042988 </i>
    <varray name="rec_basis" >
     <v>       0.18038438      -0.10414497       0.00000000 </v>
     <v>       0.00000000       0.20828994       0.00000000 </v>
     <v>       0.00000000       0.00000000       0.02718157 </v>
    </varray>
   </crystal>
   <varray name="positions" >
    <v>       0.00000000       0.00000000       0.40772349 </v>
    <v>       0.50000000       0.00000000       0.40772349 </v>
    <v>       0.00000000       0.50000000       0.40772349 </v>
    <v>       0.50000000       0.50000000       0.40772349 </v>
    <v>       0.16666667       0.16666667       0.46924116 </v>
    <v>       0.66666667       0.16666667       0.46924116 </v>
    <v>       0.16666667       0.66666667       0.46924116 </v>
    <v>       0.66666667       0.66666667       0.46924116 </v>
    <v>       0.83997936       0.33162728       0.53198027 </v>
    <v>       0.33766130       0.33170438       0.53193011 </v>
    <v>       0.83927076       0.83220237       0.53302559 </v>
    <v>       0.33740111       0.83438179       0.53193803 </v>
    <v>       0.01241688      -0.00201766       0.59856560 </v>
    <v>       0.52028326      -0.00427830       0.59784641 </v>
    <v>       0.01091976       0.50410170       0.59820552 </v>
    <v>       0.51342774       0.49934059       0.59393729 </v>
    <v>       0.19601910       0.16951704       0.66708782 </v>
    <v>       0.19312397       0.16925150       0.63461322 </v>
   </varray>
  </structure>
  <varray name="forces" >
   <v>       0.01104138       0.01364629      -0.41228289 </v>
   <v>      -0.03516525       0.01421236      -0.40492794 </v>
   <v>      -0.01195255      -0.02553001      -0.40724527 </v>
   <v>      -0.00316652       0.00164289      -0.45332566 </v>
   <v>       0.01505974      -0.00490168       0.43268516 </v>
   <v>       0.02518626      -0.02816896       0.39429802 </v>
   <v>       0.01048989       0.00249757       0.38347552 </v>
   <v>       0.05144468       0.00919710       0.41406037 </v>
   <v>       0.01560070       0.00459325       0.03823825 </v>
   <v>       0.02560385       0.00962511       0.04283974 </v>
   <v>       0.00343386       0.01259272       0.01847861 </v>
   <v>       0.01693081      -0.01212390       0.05204535 </v>
   <v>      -0.03961000      -0.03235144      -0.06521520 </v>
   <v>       0.06090523      -0.01151175      -0.06434225 </v>
   <v>       0.03273622       0.06704339      -0.07517108 </v>
   <v>       0.00154972      -0.00128188      -0.03130905 </v>
   <v>      -0.06957761      -0.01210482      -0.08560398 </v>
   <v>      -0.11051042      -0.00707623       0.22330229 </v>
  </varray>
  <varray name="stress" >
   <v>     -11.64549324      -0.20347533      -1.14059308 </v>
   <v>      -0.20347515     -11.57816081      -0.00881733 </v>
   <v>      -1.14059314      -0.00881732       4.79705411 </v>
  </varray>
  <energy>
   <i name="e_fr_energy">   -109.34620417 </i>
   <i name="e_wo_entrp">   -109.34064965 </i>
   <i name="e_0_energy">   -109.34435266 </i>
  </energy>
  <time name="totalsc">   50.14   49.47</time>
 </calculation>
 <calculation>
  <scstep>
   <time name="dav">    6.97    6.97</time>
   <time name="total">    7.47    7.45</time>
   <energy>
    <i name="alphaZ">    271.64501344 </i>
    <i name="ewald"> 148174.63652132 </i>
    <i name="hartreedc">-160393.50839807 </i>
    <i name="XCdc">     91.46479117 </i>
    <i name="pawpsdc">  15266.11325741 </i>
    <i name="pawaedc"> -14861.79710388 </i>
    <i name="eentropy">     -0.00541423 </i>
    <i name="bandstr">   -903.07744541 </i>
    <i name="atom">  12245.18164884 </i>
    <i name="e_fr_energy">   -109.34712942 </i>
    <i name="e_wo_entrp">   -109.34171519 </i>
    <i name="e_0_energy">   -109.34532468 </i>
   </energy>
  </scstep>
  <scstep>
   <time name="dav">    7.49    7.49</time>
   <time name="total">    7.99    7.97</time>
   <energy>
    <i name="e_fr_energy">   -109.34807884 </i>
    <i name="e_wo_entrp">   -109.34248261 </i>
    <i name="e_0_energy">   -109.34621343 </i>
   </energy>
  </scstep>
  <scstep>
   <time name="dav">    7.74    7.74</time>
   <time name="total">    8.24    8.22</time>
   <energy>
    <i name="e_fr_energy">   -109.34742086 </i>
    <i name="e_wo_entrp">   -109.34195304 </i>
    <i name="e_0_energy">   -109.34559825 </i>
   </energy>
  </scstep>
  <scstep>
   <time name="dav">    7.52    7.52</time>
   <time name="total">    8.03    8.00</time>
   <energy>
    <i name="e_fr_energy">   -109.34740070 </i>
    <i name="e_wo_entrp">   -109.34200078 </i>
    <i name="e_0_energy">   -109.34560073 </i>
   </energy>
  </scstep>
  <scstep>
   <time name="dav">    7.27    7.27</time>
   <time name="total">    7.78    7.75</time>
   <energy>
    <i name="e_fr_energy">   -109.34738715 </i>
    <i name="e_wo_entrp">   -109.34191610 </i>
    <i name="e_0_energy">   -109.34556347 </i>
   </energy>
  </scstep>
  <scstep>
   <time name="dav">    5.48    5.48</time>
   <time name="total">    5.53    5.52</time>
   <energy>
    <i name="alphaZ">    271.64501344 </i>
    <i name="ewald"> 148174.63652132 </i>
    <i name="hartreedc">-160393.64070529 </i>
    <i name="XCdc">     91.46300784 </i>
    <i name="pawpsdc">  15265.97452381 </i>
    <i name="pawaedc"> -14861.65955199 </i>
    <i name="eentropy">     -0.00546411 </i>
    <i name="bandstr">   -902.94238386 </i>
    <i name="atom">  12245.18164884 </i>
    <i name="e_fr_energy">   -109.34739001 </i>
    <i name="e_wo_entrp">   -109.34192590 </i>
    <i name="e_0_energy">   -109.34556864 </i>
   </energy>
  </scstep>
  <structure>
   <crystal>
    <varray name="basis" >
     <v>       5.54371716       0.00000000       0.00000000 </v>
     <v>       2.77185858       4.80099990       0.00000000 </v>
     <v>       0.00000000       0.00000000      36.78963917 </v>
    </varray>
    <i name="volume">    979.17042988 </i>
    <varray name="rec_basis" >
     <v>       0.18038438      -0.10414497       0.00000000 </v>
     <v>       0.00000000       0.20828994       0.00000000 </v>
     <v>       0.00000000       0.00000000       0.02718157 </v>
    </varray>
   </crystal>
   <varray name="positions" >
    <v>       0.00000000       0.00000000       0.40772349 </v>
    <v>       0.50000000       0.00000000       0.40772349 </v>
    <v>       0.00000000       0.50000000       0.40772349 </v>
    <v>       0.50000000       0.50000000       0.40772349 </v>
    <v>       0.16666667       0.16666667       0.46924116 </v>
    <v>       0.66666667       0.16666667       0.46924116 </v>
    <v>       0.16666667       0.66666667       0.46924116 </v>
    <v>       0.66666667       0.66666667       0.46924116 </v>
    <v>       0.84005327       0.33166395       0.53199200 </v>
    <v>       0.33772345       0.33173934       0.53194863 </v>
    <v>       0.83930293       0.83223643       0.53303796 </v>
    <v>       0.33750306       0.83436391       0.53195834 </v>
    <v>       0.01241445      -0.00218016       0.59853440 </v>
    <v>       0.52053490      -0.00430105       0.59783016 </v>
    <v>       0.01094866       0.50439015       0.59817318 </v>
    <v>       0.51349028       0.49932077       0.59391116 </v>
    <v>       0.19559956       0.16943752       0.66712249 </v>
    <v>       0.19255989       0.16926552       0.63465175 </v>
   </varray>
  </structure>
  <varray name="forces" >
   <v>       0.01109027       0.01346086      -0.40945167 </v>
   <v>      -0.03467148       0.01446154      -0.40503985 </v>
   <v>      -0.01127663      -0.02537654      -0.40772816 </v>
   <v>      -0.00324918       0.00161671      -0.45084333 </v>
   <v>       0.01678964      -0.00506202       0.43739710 </v>
   <v>       0.02593740      -0.02720839       0.39724562 </v>
   <v>       0.01177711       0.00267915       0.38784443 </v>
   <v>       0.05129895       0.00923727       0.41637317 </v>
   <v>       0.01647495       0.00071038       0.02825443 </v>
   <v>       0.02383533       0.00720930       0.02891621 </v>
   <v>       0.00595256       0.01365161       0.00541777 </v>
   <v>       0.01493637      -0.00729354       0.03942524 </v>
   <v>      -0.01150472      -0.01111341      -0.04791075 </v>
   <v>       0.02437761       0.00675429      -0.04096844 </v>
   <v>       0.02650002       0.02664856      -0.05309559 </v>
   <v>       0.00683074      -0.00000878      -0.01997758 </v>
   <v>      -0.07309970      -0.01173822      -0.07888495 </v>
   <v>      -0.10199926      -0.00862879       0.17302636 </v>
  </varray>
  <varray name="stress" >
   <v>     -11.74728859      -0.19309754      -1.11919512 </v>
   <v>      -0.19309752     -11.68896865      -0.00728461 </v>
   <v>      -1.11919512      -0.00728470       4.60699483 </v>
  </varray>
  <energy>
   <i name="e_fr_energy">   -109.34739001 </i>
   <i name="e_wo_entrp">   -109.34192590 </i>
   <i name="e_0_energy">   -109.34556864 </i>
  </energy>
  <time name="totalsc">   66.04   65.31</time>
 </calculation>
 <calculation>
  <scstep>
   <time name="dav">    6.97    6.97</time>
   <time name="total">    7.47    7.45</time>
   <energy>
    <i name="alphaZ">    271.64501344 </i>
    <i name="ewald"> 148185.78638104 </i>
    <i name="hartreedc">-160404.89925225 </i>
    <i name="XCdc">     91.45638120 </i>
    <i name="pawpsdc">  15265.83994663 </i>
    <i name="pawaedc"> -14861.52554754 </i>
    <i name="eentropy">     -0.00520632 </i>
    <i name="bandstr">   -902.82608828 </i>
    <i name="atom">  12245.18164884 </i>
    <i name="e_fr_energy">   -109.34672324 </i>
    <i name="e_wo_entrp">   -109.34151692 </i>
    <i name="e_0_energy">   -109.34498780 </i>
   </energy>
  </scstep>
  <scstep>
   <time name="dav">    7.46    7.46</time>
   <time name="total">    7.96    7.93</time>
   <energy>
    <i name="e_fr_energy">   -109.35186708 </i>
    <i name="e_wo_entrp">   -109.34683754 </i>
    <i name="e_0_energy">   -109.35019057 </i>
   </energy>
  </scstep>
  <scstep>
   <time name="dav">    7.82    7.82</time>
   <time name="total">    8.33    8.30</time>
   <energy>
    <i name="e_fr_energy">   -109.34989799 </i>
    <i name="e_wo_entrp">   -109.34491194 </i>
    <i name="e_0_energy">   -109.34823598 </i>
   </energy>
  </scstep>
  <scstep>
   <time name="dav">    7.59    7.59</time>
   <time name="total">    8.09    8.07</time>
   <energy>
    <i name="e_fr_energy">   -109.34922234 </i>
    <i name="e_wo_entrp">   -109.34366062 </i>
    <i name="e_0_energy">   -109.34736843 </i>
   </energy>
  </scstep>
  <scstep>
   <time name="dav">    7.58    7.58</time>
   <time name="total">    8.08    8.06</time>
   <energy>
    <i name="e_fr_energy">   -109.34904707 </i>
    <i name="e_wo_entrp">   -109.34412403 </i>
    <i name="e_0_energy">   -109.34740606 </i>
   </energy>
  </scstep>
  <scstep>
   <time name="dav">    7.74    7.74</time>
   <time name="total">    8.25    8.22</time>
   <energy>
    <i name="e_fr_energy">   -109.34906781 </i>
    <i name="e_wo_entrp">   -109.34370471 </i>
    <i name="e_0_energy">   -109.34728011 </i>
   </energy>
  </scstep>
  <scstep>
   <time name="dav">    7.57    7.57</time>
   <time name="total">    8.07    8.05</time>
   <energy>
    <i name="e_fr_energy">   -109.34899151 </i>
    <i name="e_wo_entrp">   -109.34385832 </i>
    <i name="e_0_energy">   -109.34728045 </i>
   </energy>
  </scstep>
  <scstep>
   <time name="dav">    5.71    5.71</time>
   <time name="total">    5.77    5.75</time>
   <energy>
    <i name="alphaZ">    271.64501344 </i>
    <i name="ewald"> 148185.78638104 </i>
    <i name="hartreedc">-160405.27624174 </i>
    <i name="XCdc">     91.45160156 </i>
    <i name="pawpsdc">  15263.21293260 </i>
    <i name="pawaedc"> -14858.90446688 </i>
    <i name="eentropy">     -0.00520370 </i>
    <i name="bandstr">   -902.44065145 </i>
    <i name="atom">  12245.18164884 </i>
    <i name="e_fr_energy">   -109.34898629 </i>
    <i name="e_wo_entrp">   -109.34378259 </i>
    <i name="e_0_energy">   -109.34725173 </i>
   </energy>
  </scstep>
  <structure>
   <crystal>
    <varray name="basis" >
     <v>       5.54371716       0.00000000       0.00000000 </v>
     <v>       2.77185858       4.80099990       0.00000000 </v>
     <v>       0.00000000       0.00000000      36.78963917 </v>
    </varray>
    <i name="volume">    979.17042988 </i>
    <varray name="rec_basis" >
     <v>       0.18038438      -0.10414497       0.00000000 </v>
     <v>       0.00000000       0.20828994       0.00000000 </v>
     <v>       0.00000000       0.00000000       0.02718157 </v>
    </varray>
   </crystal>
   <varray name="positions" >
    <v>       0.00000000       0.00000000       0.40772349 </v>
    <v>       0.50000000       0.00000000       0.40772349 </v>
    <v>       0.00000000       0.50000000       0.40772349 </v>
    <v>       0.50000000       0.50000000       0.40772349 </v>
    <v>       0.16666667       0.16666667       0.46924116 </v>
    <v>       0.66666667       0.16666667       0.46924116 </v>
    <v>       0.16666667       0.66666667       0.46924116 </v>
    <v>       0.66666667       0.66666667       0.46924116 </v>
    <v>       0.84027498       0.33177396       0.53202718 </v>
    <v>       0.33790992       0.33184422       0.53200421 </v>
    <v>       0.83939942       0.83233861       0.53307507 </v>
    <v>       0.33780892       0.83431027       0.53201924 </v>
    <v>       0.01240716      -0.00266765       0.59844080 </v>
    <v>       0.52128983      -0.00436927       0.59778143 </v>
    <v>       0.01103538       0.50525549       0.59807617 </v>
    <v>       0.51367791       0.49926131       0.59383275 </v>
    <v>       0.19434093       0.16919899       0.66722651 </v>
    <v>       0.19086765       0.16930758       0.63476734 </v>
   </varray>
  </structure>
  <varray name="forces" >
   <v>       0.01144948       0.01355724      -0.41279786 </v>
   <v>      -0.03599261       0.01459468      -0.40750507 </v>
   <v>      -0.01173780      -0.02608677      -0.41069450 </v>
   <v>      -0.00437357       0.00175302      -0.45491454 </v>
   <v>       0.01974756      -0.00601693       0.45275132 </v>
   <v>       0.02618841      -0.02684286       0.41004166 </v>
   <v>       0.01172692       0.00397556       0.40424267 </v>
   <v>       0.05072257       0.00987394       0.42536182 </v>
   <v>       0.01932718      -0.00861172       0.00382456 </v>
   <v>       0.01564207      -0.00049836      -0.00326249 </v>
   <v>       0.01248625       0.01537005      -0.02785808 </v>
   <v>       0.01015454       0.00693872       0.00690055 </v>
   <v>       0.06739482       0.04889720       0.00052783 </v>
   <v>      -0.07929201       0.05667455       0.02921930 </v>
   <v>       0.00611045      -0.08707450       0.01390697 </v>
   <v>       0.02194340       0.00383388       0.00726200 </v>
   <v>      -0.06625813      -0.00750890      -0.11388928 </v>
   <v>      -0.07523954      -0.01282879       0.07688315 </v>
  </varray>
  <varray name="stress" >
   <v>     -11.74823555      -0.15218549      -1.04732291 </v>
   <v>      -0.15218554     -11.71216187      -0.00498153 </v>
   <v>      -1.04732288      -0.00498165       4.50695742 </v>
  </varray>
  <energy>
   <i name="e_fr_energy">   -109.34898629 </i>
   <i name="e_wo_entrp">   -109.34378259 </i>
   <i name="e_0_energy">   -109.34725173 </i>
  </energy>
  <time name="totalsc">   83.06   82.29</time>
 </calculation>
 <calculation>
  <scstep>
   <time name="dav">    6.97    6.97</time>
   <time name="total">    7.47    7.45</time>
   <energy>
    <i name="alphaZ">    271.64501344 </i>
    <i name="ewald"> 148189.21797270 </i>
    <i name="hartreedc">-160408.38546337 </i>
    <i name="XCdc">     91.46582248 </i>
    <i name="pawpsdc">  15263.13842295 </i>
    <i name="pawaedc"> -14858.83029952 </i>
    <i name="eentropy">     -0.00524345 </i>
    <i name="bandstr">   -902.77704945 </i>
    <i name="atom">  12245.18164884 </i>
    <i name="e_fr_energy">   -109.34917538 </i>
    <i name="e_wo_entrp">   -109.34393193 </i>
    <i name="e_0_energy">   -109.34742756 </i>
   </energy>
  </scstep>
  <scstep>
   <time name="dav">    7.45    7.45</time>
   <time name="total">    7.95    7.93</time>
   <energy>
    <i name="e_fr_energy">   -109.34986826 </i>
    <i name="e_wo_entrp">   -109.34464635 </i>
    <i name="e_0_energy">   -109.34812762 </i>
   </energy>
  </scstep>
  <scstep>
   <time name="dav">    7.78    7.78</time>
   <time name="total">    8.28    8.26</time>
   <energy>
    <i name="e_fr_energy">   -109.34955788 </i>
    <i name="e_wo_entrp">   -109.34438685 </i>
    <i name="e_0_energy">   -109.34783420 </i>
   </energy>
  </scstep>
  <scstep>
   <time name="dav">    7.47    7.47</time>
   <time name="total">    7.98    7.96</time>
   <energy>
    <i name="e_fr_energy">   -109.34948731 </i>
    <i name="e_wo_entrp">   -109.34414611 </i>
    <i name="e_0_energy">   -109.34770691 </i>
   </energy>
  </scstep>
  <scstep>
   <time name="dav">    7.48    7.48</time>
   <time name="total">    7.98    7.96</time>
   <energy>
    <i name="e_fr_energy">   -109.34948006 </i>
    <i name="e_wo_entrp">   -109.34438580 </i>
    <i name="e_0_energy">   -109.34778198 </i>
   </energy>
  </scstep>
  <scstep>
   <time name="dav">    6.41    6.41</time>
   <time name="total">    6.91    6.89</time>
   <energy>
    <i name="e_fr_energy">   -109.34945917 </i>
    <i name="e_wo_entrp">   -109.34415978 </i>
    <i name="e_0_energy">   -109.34769271 </i>
   </energy>
  </scstep>
  <scstep>
   <time name="dav">    5.14    5.14</time>
   <time name="total">    5.19    5.18</time>
   <energy>
    <i name="alphaZ">    271.64501344 </i>
    <i name="ewald"> 148189.21797270 </i>
    <i name="hartreedc">-160409.43367454 </i>
    <i name="XCdc">     91.47469711 </i>
    <i name="pawpsdc">  15267.85184100 </i>
    <i name="pawaedc"> -14863.54055774 </i>
    <i name="eentropy">     -0.00523788 </i>
    <i name="bandstr">   -901.74115752 </i>
    <i name="atom">  12245.18164884 </i>
    <i name="e_fr_energy">   -109.34945457 </i>
    <i name="e_wo_entrp">   -109.34421669 </i>
    <i name="e_0_energy">   -109.34770861 </i>
   </energy>
  </scstep>
  <structure>
   <crystal>
    <varray name="basis" >
     <v>       5.54371716       0.00000000       0.00000000 </v>
     <v>       2.77185858       4.80099990       0.00000000 </v>
     <v>       0.00000000       0.00000000      36.78963917 </v>
    </varray>
    <i name="volume">    979.17042988 </i>
    <varray name="rec_basis" >
     <v>       0.18038438      -0.10414497       0.00000000 </v>
     <v>       0.00000000       0.20828994       0.00000000 </v>
     <v>       0.00000000       0.00000000       0.02718157 </v>
    </varray>
   </crystal>
   <varray name="positions" >
    <v>       0.00000000       0.00000000       0.40772349 </v>
    <v>       0.50000000       0.00000000       0.40772349 </v>
    <v>       0.00000000       0.50000000       0.40772349 </v>
    <v>       0.50000000       0.50000000       0.40772349 </v>
    <v>       0.16666667       0.16666667       0.46924116 </v>
    <v>       0.66666667       0.16666667       0.46924116 </v>
    <v>       0.16666667       0.66666667       0.46924116 </v>
    <v>       0.66666667       0.66666667       0.46924116 </v>
    <v>       0.84040195       0.33175581       0.53203523 </v>
    <v>       0.33800008       0.33185976       0.53201175 </v>
    <v>       0.83942900       0.83242129       0.53306584 </v>
    <v>       0.33788310       0.83433080       0.53203333 </v>
    <v>       0.01255040      -0.00254146       0.59842534 </v>
    <v>       0.52100376      -0.00413936       0.59778947 </v>
    <v>       0.01125797       0.50503031       0.59806756 </v>
    <v>       0.51378229       0.49926763       0.59382359 </v>
    <v>       0.19390057       0.16912684       0.66718072 </v>
    <v>       0.19033247       0.16926002       0.63482954 </v>
   </varray>
  </structure>
  <varray name="forces" >
   <v>       0.01109574       0.01340934      -0.41427873 </v>
   <v>      -0.03604890       0.01446687      -0.40704604 </v>
   <v>      -0.01190241      -0.02591767      -0.41136538 </v>
   <v>      -0.00464021       0.00172326      -0.45244007 </v>
   <v>       0.02070914      -0.00632556       0.45581700 </v>
   <v>       0.02670040      -0.02520265       0.41040094 </v>
   <v>       0.01327018       0.00361556       0.40675142 </v>
   <v>       0.04950216       0.00911391       0.42571131 </v>
   <v>       0.01759785      -0.00421694      -0.00372602 </v>
   <v>       0.01521700       0.00101568      -0.00849536 </v>
   <v>       0.01139042       0.01159081      -0.02041594 </v>
   <v>       0.01149004       0.00489511      -0.00129144 </v>
   <v>       0.04350675       0.03544568      -0.00106493 </v>
   <v>      -0.05674859       0.04064404       0.02468100 </v>
   <v>       0.00264621      -0.05938600       0.01072537 </v>
   <v>       0.02081651       0.00537860       0.01236153 </v>
   <v>      -0.06199189      -0.00735253       0.21353370 </v>
   <v>      -0.07261040      -0.01289751      -0.23985837 </v>
  </varray>
  <varray name="stress" >
   <v>     -11.79410308      -0.14690265      -1.02339172 </v>
   <v>      -0.14690257     -11.76317533      -0.00436348 </v>
   <v>      -1.02339172      -0.00436373       5.09870952 </v>
  </varray>
  <energy>
   <i name="e_fr_energy">   -109.34945457 </i>
   <i name="e_wo_entrp">   -109.34421669 </i>
   <i name="e_0_energy">   -109.34770861 </i>
  </energy>
  <time name="totalsc">   72.74   71.98</time>
 </calculation>
 <calculation>
  <scstep>
   <time name="dav">    6.97    6.97</time>
   <time name="total">    7.48    7.45</time>
   <energy>
    <i name="alphaZ">    271.64501344 </i>
    <i name="ewald"> 148188.66608361 </i>
    <i name="hartreedc">-160408.91257043 </i>
    <i name="XCdc">     91.47281665 </i>
    <i name="pawpsdc">  15267.96228825 </i>
    <i name="pawaedc"> -14863.65162718 </i>
    <i name="eentropy">     -0.00525308 </i>
    <i name="bandstr">   -901.70786455 </i>
    <i name="atom">  12245.18164884 </i>
    <i name="e_fr_energy">   -109.34946445 </i>
    <i name="e_wo_entrp">   -109.34421137 </i>
    <i name="e_0_energy">   -109.34771342 </i>
   </energy>
  </scstep>
  <scstep>
   <time name="dav">    7.43    7.43</time>
   <time name="total">    7.94    7.91</time>
   <energy>
    <i name="e_fr_energy">   -109.34957313 </i>
    <i name="e_wo_entrp">   -109.34431979 </i>
    <i name="e_0_energy">   -109.34782202 </i>
   </energy>
  </scstep>
  <scstep>
   <time name="dav">    6.01    6.01</time>
   <time name="total">    6.52    6.49</time>
   <energy>
    <i name="e_fr_energy">   -109.34947803 </i>
    <i name="e_wo_entrp">   -109.34425589 </i>
    <i name="e_0_energy">   -109.34773732 </i>
   </energy>
  </scstep>
  <scstep>
   <time name="dav">    4.96    4.96</time>
   <time name="total">    5.01    4.99</time>
   <energy>
    <i name="alphaZ">    271.64501344 </i>
    <i name="ewald"> 148188.66608361 </i>
    <i name="hartreedc">-160408.87093051 </i>
    <i name="XCdc">     91.47225767 </i>
    <i name="pawpsdc">  15267.70764791 </i>
    <i name="pawaedc"> -14863.39807311 </i>
    <i name="eentropy">     -0.00525720 </i>
    <i name="bandstr">   -901.74786439 </i>
    <i name="atom">  12245.18164884 </i>
    <i name="e_fr_energy">   -109.34947373 </i>
    <i name="e_wo_entrp">   -109.34421654 </i>
    <i name="e_0_energy">   -109.34772133 </i>
   </energy>
  </scstep>
  <structure>
   <crystal>
    <varray name="basis" >
     <v>       5.54371716       0.00000000       0.00000000 </v>
     <v>       2.77185858       4.80099990       0.00000000 </v>
     <v>       0.00000000       0.00000000      36.78963917 </v>
    </varray>
    <i name="volume">    979.17042988 </i>
    <varray name="rec_basis" >
     <v>       0.18038438      -0.10414497       0.00000000 </v>
     <v>       0.00000000       0.20828994       0.00000000 </v>
     <v>       0.00000000       0.00000000       0.02718157 </v>
    </varray>
   </crystal>
   <varray name="positions" >
    <v>       0.00000000       0.00000000       0.40772349 </v>
    <v>       0.50000000       0.00000000       0.40772349 </v>
    <v>       0.00000000       0.50000000       0.40772349 </v>
    <v>       0.50000000       0.50000000       0.40772349 </v>
    <v>       0.16666667       0.16666667       0.46924116 </v>
    <v>       0.66666667       0.16666667       0.46924116 </v>
    <v>       0.16666667       0.66666667       0.46924116 </v>
    <v>       0.66666667       0.66666667       0.46924116 </v>
    <v>       0.84038155       0.33175872       0.53203394 </v>
    <v>       0.33798560       0.33185726       0.53201054 </v>
    <v>       0.83942425       0.83240801       0.53306732 </v>
    <v>       0.33787118       0.83432750       0.53203107 </v>
    <v>       0.01252739      -0.00256173       0.59842782 </v>
    <v>       0.52104971      -0.00417629       0.59778818 </v>
    <v>       0.01122222       0.50506648       0.59806894 </v>
    <v>       0.51376552       0.49926662       0.59382506 </v>
    <v>       0.19397131       0.16913843       0.66718807 </v>
    <v>       0.19041844       0.16926766       0.63481955 </v>
   </varray>
  </structure>
  <varray name="forces" >
   <v>       0.01120923       0.01345156      -0.41367985 </v>
   <v>      -0.03633912       0.01456911      -0.40774577 </v>
   <v>      -0.01194503      -0.02616836      -0.41115722 </v>
   <v>      -0.00472678       0.00169935      -0.45425349 </v>
   <v>       0.02046814      -0.00630170       0.45443659 </v>
   <v>       0.02647106      -0.02553545       0.40976970 </v>
   <v>       0.01288379       0.00361820       0.40551983 </v>
   <v>       0.04959000       0.00920327       0.42509496 </v>
   <v>       0.01845303      -0.00520706      -0.00144062 </v>
   <v>       0.01546186       0.00077139      -0.00690327 </v>
   <v>       0.01182007       0.01254477      -0.02093600 </v>
   <v>       0.01143998       0.00538025       0.00108260 </v>
   <v>       0.04796466       0.03793051      -0.00055031 </v>
   <v>      -0.06121577       0.04381644       0.02577178 </v>
   <v>       0.00338574      -0.06454489       0.01145759 </v>
   <v>       0.02104984       0.00506777       0.01132487 </v>
   <v>      -0.06271272      -0.00738734       0.16652016 </v>
   <v>      -0.07325797      -0.01290781      -0.19431153 </v>
  </varray>
  <varray name="stress" >
   <v>     -11.79364166      -0.14681619      -1.02558116 </v>
   <v>      -0.14681621     -11.76189320      -0.00444582 </v>
   <v>      -1.02558115      -0.00444583       5.05975799 </v>
  </varray>
  <energy>
   <i name="e_fr_energy">   -109.34947373 </i>
   <i name="e_wo_entrp">   -109.34421654 </i>
   <i name="e_0_energy">   -109.34772133 </i>
  </energy>
  <time name="totalsc">   47.89   47.21</time>
 </calculation>
 <calculation>
  <scstep>
   <time name="dav">    6.97    6.97</time>
   <time name="total">    7.48    7.45</time>
   <energy>
    <i name="alphaZ">    271.64501344 </i>
    <i name="ewald"> 148188.80868309 </i>
    <i name="hartreedc">-160409.04589754 </i>
    <i name="XCdc">     91.47286540 </i>
    <i name="pawpsdc">  15267.58114384 </i>
    <i name="pawaedc"> -14863.27127717 </i>
    <i name="eentropy">     -0.00526157 </i>
    <i name="bandstr">   -901.71674898 </i>
    <i name="atom">  12245.18164884 </i>
    <i name="e_fr_energy">   -109.34983064 </i>
    <i name="e_wo_entrp">   -109.34456907 </i>
    <i name="e_0_energy">   -109.34807678 </i>
   </energy>
  </scstep>
  <scstep>
   <time name="dav">    7.16    7.16</time>
   <time name="total">    7.66    7.64</time>
   <energy>
    <i name="e_fr_energy">   -109.34990358 </i>
    <i name="e_wo_entrp">   -109.34459704 </i>
    <i name="e_0_energy">   -109.34813473 </i>
   </energy>
  </scstep>
  <scstep>
   <time name="dav">    6.54    6.54</time>
   <time name="total">    7.04    7.02</time>
   <energy>
    <i name="e_fr_energy">   -109.34994765 </i>
    <i name="e_wo_entrp">   -109.34475636 </i>
    <i name="e_0_energy">   -109.34821722 </i>
   </energy>
  </scstep>
  <scstep>
   <time name="dav">    5.68    5.68</time>
   <time name="total">    6.18    6.16</time>
   <energy>
    <i name="e_fr_energy">   -109.34991610 </i>
    <i name="e_wo_entrp">   -109.34467682 </i>
    <i name="e_0_energy">   -109.34816967 </i>
   </energy>
  </scstep>
  <scstep>
   <time name="dav">    4.97    4.97</time>
   <time name="total">    5.47    5.44</time>
   <energy>
    <i name="e_fr_energy">   -109.34990219 </i>
    <i name="e_wo_entrp">   -109.34459172 </i>
    <i name="e_0_energy">   -109.34813203 </i>
   </energy>
  </scstep>
  <scstep>
   <time name="dav">    4.96    4.96</time>
   <time name="total">    5.01    4.99</time>
   <energy>
    <i name="alphaZ">    271.64501344 </i>
    <i name="ewald"> 148188.80868309 </i>
    <i name="hartreedc">-160408.99460916 </i>
    <i name="XCdc">     91.47280250 </i>
    <i name="pawpsdc">  15267.42453036 </i>
    <i name="pawaedc"> -14863.11470024 </i>
    <i name="eentropy">     -0.00524571 </i>
    <i name="bandstr">   -901.76802437 </i>
    <i name="atom">  12245.18164884 </i>
    <i name="e_fr_energy">   -109.34990124 </i>
    <i name="e_wo_entrp">   -109.34465553 </i>
    <i name="e_0_energy">   -109.34815267 </i>
   </energy>
  </scstep>
  <structure>
   <crystal>
    <varray name="basis" >
     <v>       5.54371716       0.00000000       0.00000000 </v>
     <v>       2.77185858       4.80099990       0.00000000 </v>
     <v>       0.00000000       0.00000000      36.78963917 </v>
    </varray>
    <i name="volume">    979.17042988 </i>
    <varray name="rec_basis" >
     <v>       0.18038438      -0.10414497       0.00000000 </v>
     <v>       0.00000000       0.20828994       0.00000000 </v>
     <v>       0.00000000       0.00000000       0.02718157 </v>
    </varray>
   </crystal>
   <varray name="positions" >
    <v>       0.00000000       0.00000000       0.40772349 </v>
    <v>       0.50000000       0.00000000       0.40772349 </v>
    <v>       0.00000000       0.50000000       0.40772349 </v>
    <v>       0.50000000       0.50000000       0.40772349 </v>
    <v>       0.16666667       0.16666667       0.46924116 </v>
    <v>       0.66666667       0.16666667       0.46924116 </v>
    <v>       0.16666667       0.66666667       0.46924116 </v>
    <v>       0.66666667       0.66666667       0.46924116 </v>
    <v>       0.84045388       0.33174567       0.53203707 </v>
    <v>       0.33803676       0.33186451       0.53201270 </v>
    <v>       0.83944071       0.83245558       0.53306059 </v>
    <v>       0.33790957       0.83434172       0.53203705 </v>
    <v>       0.01261071      -0.00246913       0.59842134 </v>
    <v>       0.52085157      -0.00403449       0.59779508 </v>
    <v>       0.01135182       0.50490459       0.59806697 </v>
    <v>       0.51382543       0.49927463       0.59382284 </v>
    <v>       0.19373517       0.16910070       0.66719224 </v>
    <v>       0.19013626       0.16923424       0.63481831 </v>
   </varray>
  </structure>
  <varray name="forces" >
   <v>       0.01125983       0.01346574      -0.41363907 </v>
   <v>      -0.03623603       0.01459880      -0.40727750 </v>
   <v>      -0.01183854      -0.02609664      -0.41088799 </v>
   <v>      -0.00463043       0.00173772      -0.45345966 </v>
   <v>       0.02125381      -0.00636151       0.45514581 </v>
   <v>       0.02698433      -0.02460602       0.40977242 </v>
   <v>       0.01393080       0.00345618       0.40652808 </v>
   <v>       0.04922983       0.00884538       0.42521346 </v>
   <v>       0.01675906      -0.00211351      -0.00559390 </v>
   <v>       0.01479716       0.00193790      -0.00950479 </v>
   <v>       0.01077377       0.00966740      -0.01528267 </v>
   <v>       0.01185036       0.00380639      -0.00366162 </v>
   <v>       0.02983777       0.02691247      -0.00083230 </v>
   <v>      -0.04173094       0.03109884       0.02194909 </v>
   <v>       0.00208799      -0.04183365       0.00892855 </v>
   <v>       0.01921428       0.00588951       0.01439679 </v>
   <v>      -0.06318338      -0.00722672       0.14831603 </v>
   <v>      -0.07035967      -0.01317828      -0.17011075 </v>
  </varray>
  <varray name="stress" >
   <v>     -11.77348731      -0.14732642      -1.02206227 </v>
   <v>      -0.14732633     -11.74196944      -0.00559693 </v>
   <v>      -1.02206227      -0.00559697       5.02625097 </v>
  </varray>
  <energy>
   <i name="e_fr_energy">   -109.34990124 </i>
   <i name="e_wo_entrp">   -109.34465553 </i>
   <i name="e_0_energy">   -109.34815267 </i>
  </energy>
  <time name="totalsc">   59.79   59.07</time>
 </calculation>
 <calculation>
  <scstep>
   <time name="dav">    6.97    6.97</time>
   <time name="total">    7.47    7.45</time>
   <energy>
    <i name="alphaZ">    271.64501344 </i>
    <i name="ewald"> 148189.24799860 </i>
    <i name="hartreedc">-160409.41106449 </i>
    <i name="XCdc">     91.47609425 </i>
    <i name="pawpsdc">  15267.41440642 </i>
    <i name="pawaedc"> -14863.10445508 </i>
    <i name="eentropy">     -0.00535162 </i>
    <i name="bandstr">   -901.79446641 </i>
    <i name="atom">  12245.18164884 </i>
    <i name="e_fr_energy">   -109.35017606 </i>
    <i name="e_wo_entrp">   -109.34482444 </i>
    <i name="e_0_energy">   -109.34839219 </i>
   </energy>
  </scstep>
  <scstep>
   <time name="dav">    7.15    7.15</time>
   <time name="total">    7.65    7.63</time>
   <energy>
    <i name="e_fr_energy">   -109.35079506 </i>
    <i name="e_wo_entrp">   -109.34545949 </i>
    <i name="e_0_energy">   -109.34901654 </i>
   </energy>
  </scstep>
  <scstep>
   <time name="dav">    7.67    7.67</time>
   <time name="total">    8.17    8.14</time>
   <energy>
    <i name="e_fr_energy">   -109.35081981 </i>
    <i name="e_wo_entrp">   -109.34550377 </i>
    <i name="e_0_energy">   -109.34904780 </i>
   </energy>
  </scstep>
  <scstep>
   <time name="dav">    7.79    7.79</time>
   <time name="total">    8.29    8.27</time>
   <energy>
    <i name="e_fr_energy">   -109.35112376 </i>
    <i name="e_wo_entrp">   -109.34569700 </i>
    <i name="e_0_energy">   -109.34931484 </i>
   </energy>
  </scstep>
  <scstep>
   <time name="dav">    7.72    7.72</time>
   <time name="total">    8.22    8.20</time>
   <energy>
    <i name="e_fr_energy">   -109.35077982 </i>
    <i name="e_wo_entrp">   -109.34541621 </i>
    <i name="e_0_energy">   -109.34899195 </i>
   </energy>
  </scstep>
  <scstep>
   <time name="dav">    7.28    7.28</time>
   <time name="total">    7.79    7.77</time>
   <energy>
    <i name="e_fr_energy">   -109.35078272 </i>
    <i name="e_wo_entrp">   -109.34546796 </i>
    <i name="e_0_energy">   -109.34901113 </i>
   </energy>
  </scstep>
  <scstep>
   <time name="dav">    5.11    5.11</time>
   <time name="total">    5.16    5.15</time>
   <energy>
    <i name="alphaZ">    271.64501344 </i>
    <i name="ewald"> 148189.24799860 </i>
    <i name="hartreedc">-160409.15725810 </i>
    <i name="XCdc">     91.47569107 </i>
    <i name="pawpsdc">  15267.99744781 </i>
    <i name="pawaedc"> -14863.68737021 </i>
    <i name="eentropy">     -0.00536477 </i>
    <i name="bandstr">   -902.04858068 </i>
    <i name="atom">  12245.18164884 </i>
    <i name="e_fr_energy">   -109.35077400 </i>
    <i name="e_wo_entrp">   -109.34540922 </i>
    <i name="e_0_energy">   -109.34898574 </i>
   </energy>
  </scstep>
  <structure>
   <crystal>
    <varray name="basis" >
     <v>       5.54371716       0.00000000       0.00000000 </v>
     <v>       2.77185858       4.80099990       0.00000000 </v>
     <v>       0.00000000       0.00000000      36.78963917 </v>
    </varray>
    <i name="volume">    979.17042988 </i>
    <varray name="rec_basis" >
     <v>       0.18038438      -0.10414497       0.00000000 </v>
     <v>       0.00000000       0.20828994       0.00000000 </v>
     <v>       0.00000000       0.00000000       0.02718157 </v>
    </varray>
   </crystal>
   <varray name="positions" >
    <v>       0.00000000       0.00000000       0.40772349 </v>
    <v>       0.50000000       0.00000000       0.40772349 </v>
    <v>       0.00000000       0.50000000       0.40772349 </v>
    <v>       0.50000000       0.50000000       0.40772349 </v>
    <v>       0.16666667       0.16666667       0.46924116 </v>
    <v>       0.66666667       0.16666667       0.46924116 </v>
    <v>       0.16666667       0.66666667       0.46924116 </v>
    <v>       0.66666667       0.66666667       0.46924116 </v>
    <v>       0.84067088       0.33170650       0.53204647 </v>
    <v>       0.33819023       0.33188627       0.53201920 </v>
    <v>       0.83949009       0.83259829       0.53304040 </v>
    <v>       0.33802473       0.83438438       0.53205500 </v>
    <v>       0.01286065      -0.00219135       0.59840191 </v>
    <v>       0.52025714      -0.00360910       0.59781580 </v>
    <v>       0.01174062       0.50441892       0.59806106 </v>
    <v>       0.51400515       0.49929865       0.59381618 </v>
    <v>       0.19302673       0.16898752       0.66720474 </v>
    <v>       0.18928974       0.16913397       0.63481461 </v>
   </varray>
  </structure>
  <varray name="forces" >
   <v>       0.01091120       0.01327720      -0.41329722 </v>
   <v>      -0.03707269       0.01467222      -0.40725881 </v>
   <v>      -0.01215829      -0.02630950      -0.41073188 </v>
   <v>      -0.00549709       0.00173565      -0.45319433 </v>
   <v>       0.02250502      -0.00684360       0.45666438 </v>
   <v>       0.02792281      -0.02223160       0.40830343 </v>
   <v>       0.01613406       0.00300631       0.40724875 </v>
   <v>       0.04734013       0.00750431       0.42505290 </v>
   <v>       0.01281409       0.00606826      -0.01395592 </v>
   <v>       0.01427937       0.00588525      -0.01432121 </v>
   <v>       0.00907431       0.00279543       0.00162667 </v>
   <v>       0.01322721      -0.00111945      -0.01325894 </v>
   <v>      -0.02088316      -0.00396532      -0.00412875 </v>
   <v>       0.01182982      -0.00347177       0.01125674 </v>
   <v>      -0.00079886       0.02160521       0.00066691 </v>
   <v>       0.01423847       0.00804958       0.01898826 </v>
   <v>      -0.06157137      -0.00633691       0.10891069 </v>
   <v>      -0.06229504      -0.01432129      -0.10857165 </v>
  </varray>
  <varray name="stress" >
   <v>     -11.73765300      -0.13364839      -0.99253912 </v>
   <v>      -0.13364832     -11.71179792      -0.00697689 </v>
   <v>      -0.99253908      -0.00697698       5.04330861 </v>
  </varray>
  <energy>
   <i name="e_fr_energy">   -109.35077400 </i>
   <i name="e_wo_entrp">   -109.34540922 </i>
   <i name="e_0_energy">   -109.34898574 </i>
  </energy>
  <time name="totalsc">   73.72   72.97</time>
 </calculation>
 <calculation>
  <scstep>
   <time name="dav">    6.97    6.97</time>
   <time name="total">    7.48    7.45</time>
   <energy>
    <i name="alphaZ">    271.64501344 </i>
    <i name="ewald"> 148190.17830016 </i>
    <i name="hartreedc">-160410.08378029 </i>
    <i name="XCdc">     91.48270380 </i>
    <i name="pawpsdc">  15268.03928819 </i>
    <i name="pawaedc"> -14863.72895576 </i>
    <i name="eentropy">     -0.00549919 </i>
    <i name="bandstr">   -902.05702370 </i>
    <i name="atom">  12245.18164884 </i>
    <i name="e_fr_energy">   -109.34830450 </i>
    <i name="e_wo_entrp">   -109.34280530 </i>
    <i name="e_0_energy">   -109.34647143 </i>
   </energy>
  </scstep>
  <scstep>
   <time name="dav">    7.19    7.19</time>
   <time name="total">    7.69    7.66</time>
   <energy>
    <i name="e_fr_energy">   -109.35084456 </i>
    <i name="e_wo_entrp">   -109.34539196 </i>
    <i name="e_0_energy">   -109.34902702 </i>
   </energy>
  </scstep>
  <scstep>
   <time name="dav">    7.94    7.94</time>
   <time name="total">    8.44    8.42</time>
   <energy>
    <i name="e_fr_energy">   -109.35327262 </i>
    <i name="e_wo_entrp">   -109.34765887 </i>
    <i name="e_0_energy">   -109.35140137 </i>
   </energy>
  </scstep>
  <scstep>
   <time name="dav">    7.88    7.88</time>
   <time name="total">    8.38    8.36</time>
   <energy>
    <i name="e_fr_energy">   -109.35071535 </i>
    <i name="e_wo_entrp">   -109.34522830 </i>
    <i name="e_0_energy">   -109.34888633 </i>
   </energy>
  </scstep>
  <scstep>
   <time name="dav">    7.56    7.56</time>
   <time name="total">    8.06    8.03</time>
   <energy>
    <i name="e_fr_energy">   -109.35080743 </i>
    <i name="e_wo_entrp">   -109.34511751 </i>
    <i name="e_0_energy">   -109.34891079 </i>
   </energy>
  </scstep>
  <scstep>
   <time name="dav">    7.51    7.51</time>
   <time name="total">    8.02    8.00</time>
   <energy>
    <i name="e_fr_energy">   -109.35075210 </i>
    <i name="e_wo_entrp">   -109.34542854 </i>
    <i name="e_0_energy">   -109.34897758 </i>
   </energy>
  </scstep>
  <scstep>
   <time name="dav">    7.41    7.41</time>
   <time name="total">    7.92    7.89</time>
   <energy>
    <i name="e_fr_energy">   -109.35070291 </i>
    <i name="e_wo_entrp">   -109.34516955 </i>
    <i name="e_0_energy">   -109.34885845 </i>
   </energy>
  </scstep>
  <scstep>
   <time name="dav">    4.87    4.87</time>
   <time name="total">    4.92    4.90</time>
   <energy>
    <i name="alphaZ">    271.64501344 </i>
    <i name="ewald"> 148190.17830016 </i>
    <i name="hartreedc">-160409.57541988 </i>
    <i name="XCdc">     91.48201175 </i>
    <i name="pawpsdc">  15269.67091577 </i>
    <i name="pawaedc"> -14865.36153036 </i>
    <i name="eentropy">     -0.00548701 </i>
    <i name="bandstr">   -902.56615715 </i>
    <i name="atom">  12245.18164884 </i>
    <i name="e_fr_energy">   -109.35070442 </i>
    <i name="e_wo_entrp">   -109.34521742 </i>
    <i name="e_0_energy">   -109.34887542 </i>
   </energy>
  </scstep>
  <structure>
   <crystal>
    <varray name="basis" >
     <v>       5.54371716       0.00000000       0.00000000 </v>
     <v>       2.77185858       4.80099990       0.00000000 </v>
     <v>       0.00000000       0.00000000      36.78963917 </v>
    </varray>
    <i name="volume">    979.17042988 </i>
    <varray name="rec_basis" >
     <v>       0.18038438      -0.10414497       0.00000000 </v>
     <v>       0.00000000       0.20828994       0.00000000 </v>
     <v>       0.00000000       0.00000000       0.02718157 </v>
    </varray>
   </crystal>
   <varray name="positions" >
    <v>       0.00000000       0.00000000       0.40772349 </v>
    <v>       0.50000000       0.00000000       0.40772349 </v>
    <v>       0.00000000       0.50000000       0.40772349 </v>
    <v>       0.50000000       0.50000000       0.40772349 </v>
    <v>       0.16666667       0.16666667       0.46924116 </v>
    <v>       0.66666667       0.16666667       0.46924116 </v>
    <v>       0.16666667       0.66666667       0.46924116 </v>
    <v>       0.66666667       0.66666667       0.46924116 </v>
    <v>       0.84110488       0.33162816       0.53206526 </v>
    <v>       0.33849719       0.33192979       0.53203218 </v>
    <v>       0.83958885       0.83288372       0.53300001 </v>
    <v>       0.33825506       0.83446971       0.53209091 </v>
    <v>       0.01336053      -0.00163577       0.59836303 </v>
    <v>       0.51906829      -0.00275832       0.59785722 </v>
    <v>       0.01251822       0.50344756       0.59804923 </v>
    <v>       0.51436460       0.49934670       0.59380285 </v>
    <v>       0.19160985       0.16876115       0.66722974 </v>
    <v>       0.18759668       0.16893343       0.63480721 </v>
   </varray>
  </structure>
  <varray name="forces" >
   <v>       0.01082069       0.01341454      -0.41302440 </v>
   <v>      -0.03812209       0.01492508      -0.40640665 </v>
   <v>      -0.01256670      -0.02683349      -0.40996960 </v>
   <v>      -0.00621660       0.00165415      -0.45350609 </v>
   <v>       0.02589473      -0.00750351       0.45938194 </v>
   <v>       0.02991424      -0.01741384       0.40643248 </v>
   <v>       0.02092277       0.00191665       0.41014348 </v>
   <v>       0.04431335       0.00514002       0.42499765 </v>
   <v>       0.00506038       0.02264585      -0.03248500 </v>
   <v>       0.01250705       0.01316068      -0.02518047 </v>
   <v>       0.00513248      -0.01147394       0.03544208 </v>
   <v>       0.01631945      -0.01040856      -0.03419577 </v>
   <v>      -0.12454876      -0.06737910      -0.01174740 </v>
   <v>       0.12020751      -0.07300149      -0.01068751 </v>
   <v>      -0.00601871       0.14950606      -0.01606554 </v>
   <v>       0.00368989       0.01237812       0.03046611 </v>
   <v>      -0.06176887      -0.00476532       0.03428565 </v>
   <v>      -0.04554083      -0.01596190       0.01211902 </v>
  </varray>
  <varray name="stress" >
   <v>     -11.69774742      -0.11027439      -0.93242257 </v>
   <v>      -0.11027417     -11.68222194      -0.00866682 </v>
   <v>      -0.93242249      -0.00866684       4.96172804 </v>
  </varray>
  <energy>
   <i name="e_fr_energy">   -109.35070442 </i>
   <i name="e_wo_entrp">   -109.34521742 </i>
   <i name="e_0_energy">   -109.34887542 </i>
  </energy>
  <time name="totalsc">   81.93   81.15</time>
 </calculation>
 <calculation>
  <scstep>
   <time name="dav">    6.97    6.97</time>
   <time name="total">    7.47    7.45</time>
   <energy>
    <i name="alphaZ">    271.64501344 </i>
    <i name="ewald"> 148189.67156009 </i>
    <i name="hartreedc">-160409.05090405 </i>
    <i name="XCdc">     91.47780397 </i>
    <i name="pawpsdc">  15269.70678284 </i>
    <i name="pawaedc"> -14865.39726044 </i>
    <i name="eentropy">     -0.00543579 </i>
    <i name="bandstr">   -902.57957677 </i>
    <i name="atom">  12245.18164884 </i>
    <i name="e_fr_energy">   -109.35036786 </i>
    <i name="e_wo_entrp">   -109.34493207 </i>
    <i name="e_0_energy">   -109.34855593 </i>
   </energy>
  </scstep>
  <scstep>
   <time name="dav">    7.16    7.17</time>
   <time name="total">    7.67    7.64</time>
   <energy>
    <i name="e_fr_energy">   -109.35132016 </i>
    <i name="e_wo_entrp">   -109.34599761 </i>
    <i name="e_0_energy">   -109.34954597 </i>
   </energy>
  </scstep>
  <scstep>
   <time name="dav">    7.98    7.98</time>
   <time name="total">    8.48    8.46</time>
   <energy>
    <i name="e_fr_energy">   -109.35131200 </i>
    <i name="e_wo_entrp">   -109.34582734 </i>
    <i name="e_0_energy">   -109.34948378 </i>
   </energy>
  </scstep>
  <scstep>
   <time name="dav">    7.84    7.84</time>
   <time name="total">    8.34    8.31</time>
   <energy>
    <i name="e_fr_energy">   -109.35111943 </i>
    <i name="e_wo_entrp">   -109.34570422 </i>
    <i name="e_0_energy">   -109.34931436 </i>
   </energy>
  </scstep>
  <scstep>
   <time name="dav">    7.43    7.43</time>
   <time name="total">    7.94    7.91</time>
   <energy>
    <i name="e_fr_energy">   -109.35106048 </i>
    <i name="e_wo_entrp">   -109.34574242 </i>
    <i name="e_0_energy">   -109.34928780 </i>
   </energy>
  </scstep>
  <scstep>
   <time name="dav">    7.30    7.31</time>
   <time name="total">    7.81    7.79</time>
   <energy>
    <i name="e_fr_energy">   -109.35105902 </i>
    <i name="e_wo_entrp">   -109.34552415 </i>
    <i name="e_0_energy">   -109.34921406 </i>
   </energy>
  </scstep>
  <scstep>
   <time name="dav">    5.26    5.26</time>
   <time name="total">    5.76    5.73</time>
   <energy>
    <i name="e_fr_energy">   -109.35104511 </i>
    <i name="e_wo_entrp">   -109.34563383 </i>
    <i name="e_0_energy">   -109.34924135 </i>
   </energy>
  </scstep>
  <scstep>
   <time name="dav">    4.63    4.63</time>
   <time name="total">    4.69    4.67</time>
   <energy>
    <i name="alphaZ">    271.64501344 </i>
    <i name="ewald"> 148189.67156009 </i>
    <i name="hartreedc">-160409.21732723 </i>
    <i name="XCdc">     91.47778218 </i>
    <i name="pawpsdc">  15268.81664133 </i>
    <i name="pawaedc"> -14864.50637050 </i>
    <i name="eentropy">     -0.00542729 </i>
    <i name="bandstr">   -902.41456454 </i>
    <i name="atom">  12245.18164884 </i>
    <i name="e_fr_energy">   -109.35104366 </i>
    <i name="e_wo_entrp">   -109.34561638 </i>
    <i name="e_0_energy">   -109.34923457 </i>
   </energy>
  </scstep>
  <structure>
   <crystal>
    <varray name="basis" >
     <v>       5.54371716       0.00000000       0.00000000 </v>
     <v>       2.77185858       4.80099990       0.00000000 </v>
     <v>       0.00000000       0.00000000      36.78963917 </v>
    </varray>
    <i name="volume">    979.17042988 </i>
    <varray name="rec_basis" >
     <v>       0.18038438      -0.10414497       0.00000000 </v>
     <v>       0.00000000       0.20828994       0.00000000 </v>
     <v>       0.00000000       0.00000000       0.02718157 </v>
    </varray>
   </crystal>
   <varray name="positions" >
    <v>       0.00000000       0.00000000       0.40772349 </v>
    <v>       0.50000000       0.00000000       0.40772349 </v>
    <v>       0.00000000       0.50000000       0.40772349 </v>
    <v>       0.50000000       0.50000000       0.40772349 </v>
    <v>       0.16666667       0.16666667       0.46924116 </v>
    <v>       0.66666667       0.16666667       0.46924116 </v>
    <v>       0.16666667       0.66666667       0.46924116 </v>
    <v>       0.66666667       0.66666667       0.46924116 </v>
    <v>       0.84087247       0.33167011       0.53205520 </v>
    <v>       0.33833281       0.33190649       0.53202523 </v>
    <v>       0.83953596       0.83273087       0.53302164 </v>
    <v>       0.33813171       0.83442402       0.53207168 </v>
    <v>       0.01309284      -0.00193329       0.59838385 </v>
    <v>       0.51970493      -0.00321392       0.59783504 </v>
    <v>       0.01210181       0.50396773       0.59805556 </v>
    <v>       0.51417211       0.49932097       0.59380998 </v>
    <v>       0.19236860       0.16888237       0.66721635 </v>
    <v>       0.18850333       0.16904082       0.63481118 </v>
   </varray>
  </structure>
  <varray name="forces" >
   <v>       0.01114153       0.01346369      -0.41341976 </v>
   <v>      -0.03731636       0.01488112      -0.40688367 </v>
   <v>      -0.01211180      -0.02657033      -0.41089332 </v>
   <v>      -0.00552753       0.00172289      -0.45354075 </v>
   <v>       0.02427323      -0.00711519       0.45827564 </v>
   <v>       0.02914018      -0.01989454       0.40764524 </v>
   <v>       0.01864111       0.00258508       0.40906793 </v>
   <v>       0.04611663       0.00641746       0.42521612 </v>
   <v>       0.00931434       0.01389912      -0.02260682 </v>
   <v>       0.01369739       0.00914909      -0.01910426 </v>
   <v>       0.00717244      -0.00380899       0.01761470 </v>
   <v>       0.01507523      -0.00542886      -0.02276556 </v>
   <v>      -0.06873297      -0.03330923      -0.00704602 </v>
   <v>       0.06316174      -0.03656416       0.00043630 </v>
   <v>      -0.00338424       0.08165215      -0.00723617 </v>
   <v>       0.00947550       0.01008237       0.02407610 </v>
   <v>      -0.06447385      -0.00607227       0.07153781 </v>
   <v>      -0.05566256      -0.01508939      -0.05037350 </v>
  </varray>
  <varray name="stress" >
   <v>     -11.71547755      -0.12853507      -0.96994005 </v>
   <v>      -0.12853512     -11.69358217      -0.00847356 </v>
   <v>      -0.96994022      -0.00847367       5.01667916 </v>
  </varray>
  <energy>
   <i name="e_fr_energy">   -109.35104366 </i>
   <i name="e_wo_entrp">   -109.34561638 </i>
   <i name="e_0_energy">   -109.34923457 </i>
  </energy>
  <time name="totalsc">   79.14   78.37</time>
 </calculation>
 <calculation>
  <scstep>
   <time name="dav">    6.97    6.97</time>
   <time name="total">    7.47    7.45</time>
   <energy>
    <i name="alphaZ">    271.64501344 </i>
    <i name="ewald"> 148188.42135822 </i>
    <i name="hartreedc">-160408.11330289 </i>
    <i name="XCdc">     91.47225171 </i>
    <i name="pawpsdc">  15268.81162244 </i>
    <i name="pawaedc"> -14864.50144869 </i>
    <i name="eentropy">     -0.00539708 </i>
    <i name="bandstr">   -902.26304103 </i>
    <i name="atom">  12245.18164884 </i>
    <i name="e_fr_energy">   -109.35129504 </i>
    <i name="e_wo_entrp">   -109.34589795 </i>
    <i name="e_0_energy">   -109.34949601 </i>
   </energy>
  </scstep>
  <scstep>
   <time name="dav">    7.33    7.33</time>
   <time name="total">    7.83    7.81</time>
   <energy>
    <i name="e_fr_energy">   -109.35141145 </i>
    <i name="e_wo_entrp">   -109.34595369 </i>
    <i name="e_0_energy">   -109.34959220 </i>
   </energy>
  </scstep>
  <scstep>
   <time name="dav">    7.04    7.04</time>
   <time name="total">    7.54    7.52</time>
   <energy>
    <i name="e_fr_energy">   -109.35139144 </i>
    <i name="e_wo_entrp">   -109.34600968 </i>
    <i name="e_0_energy">   -109.34959752 </i>
   </energy>
  </scstep>
  <scstep>
   <time name="dav">    5.20    5.20</time>
   <time name="total">    5.70    5.67</time>
   <energy>
    <i name="e_fr_energy">   -109.35135639 </i>
    <i name="e_wo_entrp">   -109.34598915 </i>
    <i name="e_0_energy">   -109.34956731 </i>
   </energy>
  </scstep>
  <scstep>
   <time name="dav">    5.25    5.25</time>
   <time name="total">    5.31    5.29</time>
   <energy>
    <i name="alphaZ">    271.64501344 </i>
    <i name="ewald"> 148188.42135822 </i>
    <i name="hartreedc">-160407.82981750 </i>
    <i name="XCdc">     91.46944381 </i>
    <i name="pawpsdc">  15267.52402569 </i>
    <i name="pawaedc"> -14863.21464507 </i>
    <i name="eentropy">     -0.00544957 </i>
    <i name="bandstr">   -902.54293352 </i>
    <i name="atom">  12245.18164884 </i>
    <i name="e_fr_energy">   -109.35135566 </i>
    <i name="e_wo_entrp">   -109.34590609 </i>
    <i name="e_0_energy">   -109.34953914 </i>
   </energy>
  </scstep>
  <structure>
   <crystal>
    <varray name="basis" >
     <v>       5.54371716       0.00000000       0.00000000 </v>
     <v>       2.77185858       4.80099990       0.00000000 </v>
     <v>       0.00000000       0.00000000      36.78963917 </v>
    </varray>
    <i name="volume">    979.17042988 </i>
    <varray name="rec_basis" >
     <v>       0.18038438      -0.10414497       0.00000000 </v>
     <v>       0.00000000       0.20828994       0.00000000 </v>
     <v>       0.00000000       0.00000000       0.02718157 </v>
    </varray>
   </crystal>
   <varray name="positions" >
    <v>       0.00000000       0.00000000       0.40772349 </v>
    <v>       0.50000000       0.00000000       0.40772349 </v>
    <v>       0.00000000       0.50000000       0.40772349 </v>
    <v>       0.50000000       0.50000000       0.40772349 </v>
    <v>       0.16666667       0.16666667       0.46924116 </v>
    <v>       0.66666667       0.16666667       0.46924116 </v>
    <v>       0.16666667       0.66666667       0.46924116 </v>
    <v>       0.66666667       0.66666667       0.46924116 </v>
    <v>       0.84091082       0.33169556       0.53204998 </v>
    <v>       0.33837485       0.33193108       0.53202058 </v>
    <v>       0.83956274       0.83274566       0.53302359 </v>
    <v>       0.33818690       0.83441859       0.53206782 </v>
    <v>       0.01303565      -0.00196394       0.59837853 </v>
    <v>       0.51977444      -0.00322771       0.59783859 </v>
    <v>       0.01206547       0.50407508       0.59805242 </v>
    <v>       0.51420901       0.49934807       0.59381610 </v>
    <v>       0.19213058       0.16884977       0.66723984 </v>
    <v>       0.18827040       0.16898965       0.63479548 </v>
   </varray>
  </structure>
  <varray name="forces" >
   <v>       0.01096584       0.01340067      -0.41334015 </v>
   <v>      -0.03728097       0.01484036      -0.40712313 </v>
   <v>      -0.01216090      -0.02643516      -0.41033718 </v>
   <v>      -0.00567325       0.00169679      -0.45346729 </v>
   <v>       0.02484949      -0.00714238       0.45671005 </v>
   <v>       0.02953569      -0.02045932       0.40666167 </v>
   <v>       0.01837679       0.00310089       0.40801343 </v>
   <v>       0.04685756       0.00674336       0.42339390 </v>
   <v>       0.00842668       0.01259970      -0.01919232 </v>
   <v>       0.01261609       0.00830431      -0.01509648 </v>
   <v>       0.00774779      -0.00316478       0.01486128 </v>
   <v>       0.01360748      -0.00391735      -0.01981861 </v>
   <v>      -0.05880403      -0.02827000      -0.00480508 </v>
   <v>       0.05282323      -0.02925017       0.00393804 </v>
   <v>      -0.00199672       0.06925725      -0.00357311 </v>
   <v>       0.00695684       0.00943089       0.02109547 </v>
   <v>      -0.06495083      -0.00577960      -0.04182645 </v>
   <v>      -0.05189678      -0.01495546       0.05390594 </v>
  </varray>
  <varray name="stress" >
   <v>     -11.71856729      -0.12336233      -0.95922339 </v>
   <v>      -0.12336235     -11.69759170      -0.00777226 </v>
   <v>      -0.95922332      -0.00777216       4.78178100 </v>
  </varray>
  <energy>
   <i name="e_fr_energy">   -109.35135566 </i>
   <i name="e_wo_entrp">   -109.34590609 </i>
   <i name="e_0_energy">   -109.34953914 </i>
  </energy>
  <time name="totalsc">   54.85   54.14</time>
 </calculation>
 <calculation>
  <scstep>
   <time name="dav">    6.97    6.97</time>
   <time name="total">    7.47    7.45</time>
   <energy>
    <i name="alphaZ">    271.64501344 </i>
    <i name="ewald"> 148186.91529902 </i>
    <i name="hartreedc">-160406.47103963 </i>
    <i name="XCdc">     91.46227651 </i>
    <i name="pawpsdc">  15267.07494048 </i>
    <i name="pawaedc"> -14862.76531187 </i>
    <i name="eentropy">     -0.00535820 </i>
    <i name="bandstr">   -902.38886191 </i>
    <i name="atom">  12245.18164884 </i>
    <i name="e_fr_energy">   -109.35139331 </i>
    <i name="e_wo_entrp">   -109.34603512 </i>
    <i name="e_0_energy">   -109.34960725 </i>
   </energy>
  </scstep>
  <scstep>
   <time name="dav">    7.21    7.22</time>
   <time name="total">    7.72    7.69</time>
   <energy>
    <i name="e_fr_energy">   -109.35149334 </i>
    <i name="e_wo_entrp">   -109.34602991 </i>
    <i name="e_0_energy">   -109.34967220 </i>
   </energy>
  </scstep>
  <scstep>
   <time name="dav">    7.00    7.00</time>
   <time name="total">    7.50    7.47</time>
   <energy>
    <i name="e_fr_energy">   -109.35153763 </i>
    <i name="e_wo_entrp">   -109.34627172 </i>
    <i name="e_0_energy">   -109.34978233 </i>
   </energy>
  </scstep>
  <scstep>
   <time name="dav">    5.76    5.76</time>
   <time name="total">    6.27    6.24</time>
   <energy>
    <i name="e_fr_energy">   -109.35149798 </i>
    <i name="e_wo_entrp">   -109.34618760 </i>
    <i name="e_0_energy">   -109.34972785 </i>
   </energy>
  </scstep>
  <scstep>
   <time name="dav">    5.61    5.61</time>
   <time name="total">    6.12    6.09</time>
   <energy>
    <i name="e_fr_energy">   -109.35147854 </i>
    <i name="e_wo_entrp">   -109.34605040 </i>
    <i name="e_0_energy">   -109.34966916 </i>
   </energy>
  </scstep>
  <scstep>
   <time name="dav">    4.98    4.98</time>
   <time name="total">    5.04    5.02</time>
   <energy>
    <i name="alphaZ">    271.64501344 </i>
    <i name="ewald"> 148186.91529902 </i>
    <i name="hartreedc">-160406.02989286 </i>
    <i name="XCdc">     91.45818051 </i>
    <i name="pawpsdc">  15264.57174835 </i>
    <i name="pawaedc"> -14860.26254806 </i>
    <i name="eentropy">     -0.00537217 </i>
    <i name="bandstr">   -902.82555350 </i>
    <i name="atom">  12245.18164884 </i>
    <i name="e_fr_energy">   -109.35147643 </i>
    <i name="e_wo_entrp">   -109.34610426 </i>
    <i name="e_0_energy">   -109.34968571 </i>
   </energy>
  </scstep>
  <structure>
   <crystal>
    <varray name="basis" >
     <v>       5.54371716       0.00000000       0.00000000 </v>
     <v>       2.77185858       4.80099990       0.00000000 </v>
     <v>       0.00000000       0.00000000      36.78963917 </v>
    </varray>
    <i name="volume">    979.17042988 </i>
    <varray name="rec_basis" >
     <v>       0.18038438      -0.10414497       0.00000000 </v>
     <v>       0.00000000       0.20828994       0.00000000 </v>
     <v>       0.00000000       0.00000000       0.02718157 </v>
    </varray>
   </crystal>
   <varray name="positions" >
    <v>       0.00000000       0.00000000       0.40772349 </v>
    <v>       0.50000000       0.00000000       0.40772349 </v>
    <v>       0.00000000       0.50000000       0.40772349 </v>
    <v>       0.50000000       0.50000000       0.40772349 </v>
    <v>       0.16666667       0.16666667       0.46924116 </v>
    <v>       0.66666667       0.16666667       0.46924116 </v>
    <v>       0.16666667       0.66666667       0.46924116 </v>
    <v>       0.66666667       0.66666667       0.46924116 </v>
    <v>       0.84095707       0.33172625       0.53204368 </v>
    <v>       0.33842555       0.33196073       0.53201496 </v>
    <v>       0.83959503       0.83276350       0.53302594 </v>
    <v>       0.33825347       0.83441204       0.53206317 </v>
    <v>       0.01296666      -0.00200092       0.59837212 </v>
    <v>       0.51985828      -0.00324434       0.59784286 </v>
    <v>       0.01202165       0.50420456       0.59804863 </v>
    <v>       0.51425352       0.49938077       0.59382347 </v>
    <v>       0.19184350       0.16881045       0.66726818 </v>
    <v>       0.18798947       0.16892793       0.63477654 </v>
   </varray>
  </structure>
  <varray name="forces" >
   <v>       0.01058216       0.01323705      -0.41467409 </v>
   <v>      -0.03720910       0.01472077      -0.40800455 </v>
   <v>      -0.01224096      -0.02632411      -0.41325444 </v>
   <v>      -0.00596515       0.00161266      -0.45274555 </v>
   <v>       0.02516467      -0.00727204       0.45689435 </v>
   <v>       0.03011039      -0.02079519       0.40657112 </v>
   <v>       0.01827591       0.00365448       0.40870483 </v>
   <v>       0.04725191       0.00686775       0.42294992 </v>
   <v>       0.00756229       0.01134454      -0.01707403 </v>
   <v>       0.01210633       0.00717629      -0.01144448 </v>
   <v>       0.00849131      -0.00221001       0.01164056 </v>
   <v>       0.01282336      -0.00236005      -0.01700965 </v>
   <v>      -0.04908529      -0.02313013      -0.00229370 </v>
   <v>       0.04216726      -0.02164747       0.00780106 </v>
   <v>      -0.00069472       0.05676859      -0.00016300 </v>
   <v>       0.00448967       0.00881037       0.01868611 </v>
   <v>      -0.06667826      -0.00568724      -0.18456857 </v>
   <v>      -0.04715178      -0.01476626       0.18798412 </v>
  </varray>
  <varray name="stress" >
   <v>     -11.72072729      -0.11991603      -0.95251456 </v>
   <v>      -0.11991602     -11.70284675      -0.00670570 </v>
   <v>      -0.95251453      -0.00670582       4.46450680 </v>
  </varray>
  <energy>
   <i name="e_fr_energy">   -109.35147643 </i>
   <i name="e_wo_entrp">   -109.34610426 </i>
   <i name="e_0_energy">   -109.34968571 </i>
  </energy>
  <time name="totalsc">   61.11   60.38</time>
 </calculation>
 <calculation>
  <scstep>
   <time name="dav">    6.97    6.97</time>
   <time name="total">    7.47    7.45</time>
   <energy>
    <i name="alphaZ">    271.64501344 </i>
    <i name="ewald"> 148186.69913180 </i>
    <i name="hartreedc">-160405.76524362 </i>
    <i name="XCdc">     91.45745511 </i>
    <i name="pawpsdc">  15264.40859223 </i>
    <i name="pawaedc"> -14860.09914845 </i>
    <i name="eentropy">     -0.00536265 </i>
    <i name="bandstr">   -902.87370310 </i>
    <i name="atom">  12245.18164884 </i>
    <i name="e_fr_energy">   -109.35161639 </i>
    <i name="e_wo_entrp">   -109.34625374 </i>
    <i name="e_0_energy">   -109.34982884 </i>
   </energy>
  </scstep>
  <scstep>
   <time name="dav">    7.26    7.26</time>
   <time name="total">    7.77    7.74</time>
   <energy>
    <i name="e_fr_energy">   -109.35163267 </i>
    <i name="e_wo_entrp">   -109.34626106 </i>
    <i name="e_0_energy">   -109.34984213 </i>
   </energy>
  </scstep>
  <scstep>
   <time name="dav">    5.13    5.13</time>
   <time name="total">    5.63    5.61</time>
   <energy>
    <i name="e_fr_energy">   -109.35164537 </i>
    <i name="e_wo_entrp">   -109.34629191 </i>
    <i name="e_0_energy">   -109.34986088 </i>
   </energy>
  </scstep>
  <scstep>
   <time name="dav">    4.98    4.98</time>
   <time name="total">    5.49    5.47</time>
   <energy>
    <i name="e_fr_energy">   -109.35163006 </i>
    <i name="e_wo_entrp">   -109.34625780 </i>
    <i name="e_0_energy">   -109.34983931 </i>
   </energy>
  </scstep>
  <scstep>
   <time name="dav">    4.63    4.63</time>
   <time name="total">    4.69    4.67</time>
   <energy>
    <i name="alphaZ">    271.64501344 </i>
    <i name="ewald"> 148186.69913180 </i>
    <i name="hartreedc">-160405.76977846 </i>
    <i name="XCdc">     91.45727961 </i>
    <i name="pawpsdc">  15264.21458138 </i>
    <i name="pawaedc"> -14859.90450730 </i>
    <i name="eentropy">     -0.00535454 </i>
    <i name="bandstr">   -902.86964538 </i>
    <i name="atom">  12245.18164884 </i>
    <i name="e_fr_energy">   -109.35163061 </i>
    <i name="e_wo_entrp">   -109.34627607 </i>
    <i name="e_0_energy">   -109.34984576 </i>
   </energy>
  </scstep>
  <structure>
   <crystal>
    <varray name="basis" >
     <v>       5.54371716       0.00000000       0.00000000 </v>
     <v>       2.77185858       4.80099990       0.00000000 </v>
     <v>       0.00000000       0.00000000      36.78963917 </v>
    </varray>
    <i name="volume">    979.17042988 </i>
    <varray name="rec_basis" >
     <v>       0.18038438      -0.10414497       0.00000000 </v>
     <v>       0.00000000       0.20828994       0.00000000 </v>
     <v>       0.00000000       0.00000000       0.02718157 </v>
    </varray>
   </crystal>
   <varray name="positions" >
    <v>       0.00000000       0.00000000       0.40772349 </v>
    <v>       0.50000000       0.00000000       0.40772349 </v>
    <v>       0.00000000       0.50000000       0.40772349 </v>
    <v>       0.50000000       0.50000000       0.40772349 </v>
    <v>       0.16666667       0.16666667       0.46924116 </v>
    <v>       0.66666667       0.16666667       0.46924116 </v>
    <v>       0.16666667       0.66666667       0.46924116 </v>
    <v>       0.66666667       0.66666667       0.46924116 </v>
    <v>       0.84097291       0.33174093       0.53204070 </v>
    <v>       0.33844522       0.33197346       0.53201250 </v>
    <v>       0.83960913       0.83276862       0.53302731 </v>
    <v>       0.33828054       0.83440894       0.53206075 </v>
    <v>       0.01293156      -0.00202227       0.59836986 </v>
    <v>       0.51990472      -0.00325830       0.59784469 </v>
    <v>       0.01199574       0.50426994       0.59804735 </v>
    <v>       0.51426824       0.49939514       0.59382689 </v>
    <v>       0.19172599       0.16879506       0.66726835 </v>
    <v>       0.18788233       0.16890152       0.63477969 </v>
   </varray>
  </structure>
  <varray name="forces" >
   <v>       0.01071572       0.01330880      -0.41415141 </v>
   <v>      -0.03726575       0.01478628      -0.40722788 </v>
   <v>      -0.01220759      -0.02637269      -0.41194367 </v>
   <v>      -0.00593496       0.00163871      -0.45395658 </v>
   <v>       0.02562456      -0.00720931       0.45617168 </v>
   <v>       0.03020656      -0.02116766       0.40685432 </v>
   <v>       0.01804866       0.00388442       0.40889913 </v>
   <v>       0.04780109       0.00715418       0.42246567 </v>
   <v>       0.00750677       0.01031985      -0.01550034 </v>
   <v>       0.01117003       0.00648811      -0.00974372 </v>
   <v>       0.00868916      -0.00175408       0.01043618 </v>
   <v>       0.01205021      -0.00117237      -0.01574346 </v>
   <v>      -0.04246493      -0.01964968      -0.00147483 </v>
   <v>       0.03532136      -0.01716954       0.00893968 </v>
   <v>      -0.00017847       0.04865222       0.00135866 </v>
   <v>       0.00322092       0.00838549       0.01641443 </v>
   <v>      -0.06606899      -0.00566478      -0.18101372 </v>
   <v>      -0.04623436      -0.01445795       0.17921586 </v>
  </varray>
  <varray name="stress" >
   <v>     -11.72318696      -0.11766293      -0.94517102 </v>
   <v>      -0.11766281     -11.70642358      -0.00623413 </v>
   <v>      -0.94517081      -0.00623398       4.45938668 </v>
  </varray>
  <energy>
   <i name="e_fr_energy">   -109.35163061 </i>
   <i name="e_wo_entrp">   -109.34627607 </i>
   <i name="e_0_energy">   -109.34984576 </i>
  </energy>
  <time name="totalsc">   52.01   51.31</time>
 </calculation>
 <calculation>
  <scstep>
   <time name="dav">    6.97    6.97</time>
   <time name="total">    7.47    7.45</time>
   <energy>
    <i name="alphaZ">    271.64501344 </i>
    <i name="ewald"> 148186.05191042 </i>
    <i name="hartreedc">-160405.09487846 </i>
    <i name="XCdc">     91.45569946 </i>
    <i name="pawpsdc">  15264.17425028 </i>
    <i name="pawaedc"> -14859.86409481 </i>
    <i name="eentropy">     -0.00535898 </i>
    <i name="bandstr">   -902.89612309 </i>
    <i name="atom">  12245.18164884 </i>
    <i name="e_fr_energy">   -109.35193290 </i>
    <i name="e_wo_entrp">   -109.34657392 </i>
    <i name="e_0_energy">   -109.35014657 </i>
   </energy>
  </scstep>
  <scstep>
   <time name="dav">    7.23    7.23</time>
   <time name="total">    7.73    7.71</time>
   <energy>
    <i name="e_fr_energy">   -109.35205134 </i>
    <i name="e_wo_entrp">   -109.34677136 </i>
    <i name="e_0_energy">   -109.35029135 </i>
   </energy>
  </scstep>
  <scstep>
   <time name="dav">    7.73    7.73</time>
   <time name="total">    8.24    8.21</time>
   <energy>
    <i name="e_fr_energy">   -109.35212646 </i>
    <i name="e_wo_entrp">   -109.34672890 </i>
    <i name="e_0_energy">   -109.35032727 </i>
   </energy>
  </scstep>
  <scstep>
   <time name="dav">    5.77    5.77</time>
   <time name="total">    6.28    6.25</time>
   <energy>
    <i name="e_fr_energy">   -109.35204950 </i>
    <i name="e_wo_entrp">   -109.34661396 </i>
    <i name="e_0_energy">   -109.35023765 </i>
   </energy>
  </scstep>
  <scstep>
   <time name="dav">    5.30    5.30</time>
   <time name="total">    5.80    5.78</time>
   <energy>
    <i name="e_fr_energy">   -109.35205288 </i>
    <i name="e_wo_entrp">   -109.34676099 </i>
    <i name="e_0_energy">   -109.35028892 </i>
   </energy>
  </scstep>
  <scstep>
   <time name="dav">    5.14    5.14</time>
   <time name="total">    5.20    5.18</time>
   <energy>
    <i name="alphaZ">    271.64501344 </i>
    <i name="ewald"> 148186.05191042 </i>
    <i name="hartreedc">-160405.16994197 </i>
    <i name="XCdc">     91.45575387 </i>
    <i name="pawpsdc">  15263.88518180 </i>
    <i name="pawaedc"> -14859.57395562 </i>
    <i name="eentropy">     -0.00535228 </i>
    <i name="bandstr">   -902.82230147 </i>
    <i name="atom">  12245.18164884 </i>
    <i name="e_fr_energy">   -109.35204297 </i>
    <i name="e_wo_entrp">   -109.34669069 </i>
    <i name="e_0_energy">   -109.35025888 </i>
   </energy>
  </scstep>
  <structure>
   <crystal>
    <varray name="basis" >
     <v>       5.54371716       0.00000000       0.00000000 </v>
     <v>       2.77185858       4.80099990       0.00000000 </v>
     <v>       0.00000000       0.00000000      36.78963917 </v>
    </varray>
    <i name="volume">    979.17042988 </i>
    <varray name="rec_basis" >
     <v>       0.18038438      -0.10414497       0.00000000 </v>
     <v>       0.00000000       0.20828994       0.00000000 </v>
     <v>       0.00000000       0.00000000       0.02718157 </v>
    </varray>
   </crystal>
   <varray name="positions" >
    <v>       0.00000000       0.00000000       0.40772349 </v>
    <v>       0.50000000       0.00000000       0.40772349 </v>
    <v>       0.00000000       0.50000000       0.40772349 </v>
    <v>       0.50000000       0.50000000       0.40772349 </v>
    <v>       0.16666667       0.16666667       0.46924116 </v>
    <v>       0.66666667       0.16666667       0.46924116 </v>
    <v>       0.16666667       0.66666667       0.46924116 </v>
    <v>       0.66666667       0.66666667       0.46924116 </v>
    <v>       0.84102045       0.33178498       0.53203178 </v>
    <v>       0.33850423       0.33201162       0.53200513 </v>
    <v>       0.83965143       0.83278400       0.53303144 </v>
    <v>       0.33836177       0.83439961       0.53205348 </v>
    <v>       0.01282623      -0.00208632       0.59836306 </v>
    <v>       0.52004403      -0.00330017       0.59785018 </v>
    <v>       0.01191800       0.50446610       0.59804351 </v>
    <v>       0.51431240       0.49943825       0.59383714 </v>
    <v>       0.19137347       0.16874891       0.66726888 </v>
    <v>       0.18756089       0.16882229       0.63478913 </v>
   </varray>
  </structure>
  <varray name="forces" >
   <v>       0.01060025       0.01322777      -0.41255367 </v>
   <v>      -0.03740751       0.01478406      -0.40618757 </v>
   <v>      -0.01224449      -0.02645212      -0.41066305 </v>
   <v>      -0.00612577       0.00157233      -0.45402140 </v>
   <v>       0.02643287      -0.00725813       0.45348064 </v>
   <v>       0.03077319      -0.02202313       0.40515528 </v>
   <v>       0.01765352       0.00457903       0.40739040 </v>
   <v>       0.04882683       0.00756736       0.41928747 </v>
   <v>       0.00711152       0.00817825      -0.01159658 </v>
   <v>       0.00995451       0.00481190      -0.00475192 </v>
   <v>       0.00954384      -0.00030521       0.00658042 </v>
   <v>       0.01081513       0.00139027      -0.01196642 </v>
   <v>      -0.02551383      -0.01040988       0.00183063 </v>
   <v>       0.01611468      -0.00423609       0.01380414 </v>
   <v>       0.00145903       0.02633136       0.00631350 </v>
   <v>       0.00029281       0.00749167       0.01148475 </v>
   <v>      -0.06556549      -0.00573583      -0.15803822 </v>
   <v>      -0.04272108      -0.01351360       0.14445158 </v>
  </varray>
  <varray name="stress" >
   <v>     -11.74086541      -0.11282155      -0.92952340 </v>
   <v>      -0.11282145     -11.72685243      -0.00544513 </v>
   <v>      -0.92952344      -0.00544515       4.47588482 </v>
  </varray>
  <energy>
   <i name="e_fr_energy">   -109.35204297 </i>
   <i name="e_wo_entrp">   -109.34669069 </i>
   <i name="e_0_energy">   -109.35025888 </i>
  </energy>
  <time name="totalsc">   61.67   60.94</time>
 </calculation>
 <calculation>
  <scstep>
   <time name="dav">    6.97    6.97</time>
   <time name="total">    7.48    7.45</time>
   <energy>
    <i name="alphaZ">    271.64501344 </i>
    <i name="ewald"> 148184.76324101 </i>
    <i name="hartreedc">-160403.92435040 </i>
    <i name="XCdc">     91.45263061 </i>
    <i name="pawpsdc">  15263.86448925 </i>
    <i name="pawaedc"> -14859.55324381 </i>
    <i name="eentropy">     -0.00528144 </i>
    <i name="bandstr">   -902.77632578 </i>
    <i name="atom">  12245.18164884 </i>
    <i name="e_fr_energy">   -109.35217827 </i>
    <i name="e_wo_entrp">   -109.34689683 </i>
    <i name="e_0_energy">   -109.35041779 </i>
   </energy>
  </scstep>
  <scstep>
   <time name="dav">    7.14    7.14</time>
   <time name="total">    7.65    7.63</time>
   <energy>
    <i name="e_fr_energy">   -109.35263142 </i>
    <i name="e_wo_entrp">   -109.34732093 </i>
    <i name="e_0_energy">   -109.35086125 </i>
   </energy>
  </scstep>
  <scstep>
   <time name="dav">    7.60    7.61</time>
   <time name="total">    8.11    8.08</time>
   <energy>
    <i name="e_fr_energy">   -109.35263262 </i>
    <i name="e_wo_entrp">   -109.34736459 </i>
    <i name="e_0_energy">   -109.35087661 </i>
   </energy>
  </scstep>
  <scstep>
   <time name="dav">    7.41    7.41</time>
   <time name="total">    7.91    7.89</time>
   <energy>
    <i name="e_fr_energy">   -109.35263799 </i>
    <i name="e_wo_entrp">   -109.34732866 </i>
    <i name="e_0_energy">   -109.35086821 </i>
   </energy>
  </scstep>
  <scstep>
   <time name="dav">    6.65    6.65</time>
   <time name="total">    7.15    7.13</time>
   <energy>
    <i name="e_fr_energy">   -109.35277539 </i>
    <i name="e_wo_entrp">   -109.34743313 </i>
    <i name="e_0_energy">   -109.35099464 </i>
   </energy>
  </scstep>
  <scstep>
   <time name="dav">    6.45    6.45</time>
   <time name="total">    6.95    6.93</time>
   <energy>
    <i name="e_fr_energy">   -109.35262027 </i>
    <i name="e_wo_entrp">   -109.34737589 </i>
    <i name="e_0_energy">   -109.35087215 </i>
   </energy>
  </scstep>
  <scstep>
   <time name="dav">    5.21    5.21</time>
   <time name="total">    5.27    5.25</time>
   <energy>
    <i name="alphaZ">    271.64501344 </i>
    <i name="ewald"> 148184.76324101 </i>
    <i name="hartreedc">-160404.15175036 </i>
    <i name="XCdc">     91.45356238 </i>
    <i name="pawpsdc">  15263.43394834 </i>
    <i name="pawaedc"> -14859.12097806 </i>
    <i name="eentropy">     -0.00532237 </i>
    <i name="bandstr">   -902.55197596 </i>
    <i name="atom">  12245.18164884 </i>
    <i name="e_fr_energy">   -109.35261274 </i>
    <i name="e_wo_entrp">   -109.34729037 </i>
    <i name="e_0_energy">   -109.35083862 </i>
   </energy>
  </scstep>
  <structure>
   <crystal>
    <varray name="basis" >
     <v>       5.54371716       0.00000000       0.00000000 </v>
     <v>       2.77185858       4.80099990       0.00000000 </v>
     <v>       0.00000000       0.00000000      36.78963917 </v>
    </varray>
    <i name="volume">    979.17042988 </i>
    <varray name="rec_basis" >
     <v>       0.18038438      -0.10414497       0.00000000 </v>
     <v>       0.00000000       0.20828994       0.00000000 </v>
     <v>       0.00000000       0.00000000       0.02718157 </v>
    </varray>
   </crystal>
   <varray name="positions" >
    <v>       0.00000000       0.00000000       0.40772349 </v>
    <v>       0.50000000       0.00000000       0.40772349 </v>
    <v>       0.00000000       0.50000000       0.40772349 </v>
    <v>       0.50000000       0.50000000       0.40772349 </v>
    <v>       0.16666667       0.16666667       0.46924116 </v>
    <v>       0.66666667       0.16666667       0.46924116 </v>
    <v>       0.16666667       0.66666667       0.46924116 </v>
    <v>       0.66666667       0.66666667       0.46924116 </v>
    <v>       0.84111553       0.33187307       0.53201393 </v>
    <v>       0.33862225       0.33208795       0.53199037 </v>
    <v>       0.83973604       0.83281475       0.53303969 </v>
    <v>       0.33852421       0.83438096       0.53203896 </v>
    <v>       0.01261558      -0.00221443       0.59834947 </v>
    <v>       0.52032265      -0.00338390       0.59786115 </v>
    <v>       0.01176251       0.50485843       0.59803584 </v>
    <v>       0.51440074       0.49952449       0.59385763 </v>
    <v>       0.19066842       0.16865659       0.66726994 </v>
    <v>       0.18691803       0.16866383       0.63480801 </v>
   </varray>
  </structure>
  <varray name="forces" >
   <v>       0.00957796       0.01279760      -0.41367084 </v>
   <v>      -0.03748375       0.01432914      -0.40652064 </v>
   <v>      -0.01278057      -0.02602965      -0.41147435 </v>
   <v>      -0.00687716       0.00141049      -0.45259972 </v>
   <v>       0.02742667      -0.00744189       0.45132323 </v>
   <v>       0.03152082      -0.02381735       0.40434418 </v>
   <v>       0.01641893       0.00597378       0.40703596 </v>
   <v>       0.05049728       0.00836580       0.41590576 </v>
   <v>       0.00595099       0.00378659      -0.00218269 </v>
   <v>       0.00738597       0.00172348       0.00677979 </v>
   <v>       0.01124003       0.00258689      -0.00116820 </v>
   <v>       0.00784178       0.00626501      -0.00264465 </v>
   <v>       0.00728360       0.00747420       0.00531286 </v>
   <v>      -0.02054155       0.02027513       0.02229602 </v>
   <v>       0.00437217      -0.01616960       0.01460706 </v>
   <v>      -0.00573471       0.00568768       0.00338684 </v>
   <v>      -0.05966547      -0.00537565      -0.11706156 </v>
   <v>      -0.03643300      -0.01184166       0.07633096 </v>
  </varray>
  <varray name="stress" >
   <v>     -11.76740637      -0.09780514      -0.89030639 </v>
   <v>      -0.09780487     -11.76114504      -0.00118163 </v>
   <v>      -0.89030631      -0.00118173       4.48235683 </v>
  </varray>
  <energy>
   <i name="e_fr_energy">   -109.35261274 </i>
   <i name="e_wo_entrp">   -109.34729037 </i>
   <i name="e_0_energy">   -109.35083862 </i>
  </energy>
  <time name="totalsc">   71.54   70.79</time>
 </calculation>
 <calculation>
  <scstep>
   <time name="dav">    6.97    6.97</time>
   <time name="total">    7.47    7.44</time>
   <energy>
    <i name="alphaZ">    271.64501344 </i>
    <i name="ewald"> 148182.20907824 </i>
    <i name="hartreedc">-160401.63688619 </i>
    <i name="XCdc">     91.44757375 </i>
    <i name="pawpsdc">  15263.41195634 </i>
    <i name="pawaedc"> -14859.09899167 </i>
    <i name="eentropy">     -0.00516901 </i>
    <i name="bandstr">   -902.50524494 </i>
    <i name="atom">  12245.18164884 </i>
    <i name="e_fr_energy">   -109.35102118 </i>
    <i name="e_wo_entrp">   -109.34585217 </i>
    <i name="e_0_energy">   -109.34929818 </i>
   </energy>
  </scstep>
  <scstep>
   <time name="dav">    7.17    7.17</time>
   <time name="total">    7.67    7.65</time>
   <energy>
    <i name="e_fr_energy">   -109.35288731 </i>
    <i name="e_wo_entrp">   -109.34764378 </i>
    <i name="e_0_energy">   -109.35113946 </i>
   </energy>
  </scstep>
  <scstep>
   <time name="dav">    7.99    8.00</time>
   <time name="total">    8.50    8.47</time>
   <energy>
    <i name="e_fr_energy">   -109.35486989 </i>
    <i name="e_wo_entrp">   -109.34996732 </i>
    <i name="e_0_energy">   -109.35323570 </i>
   </energy>
  </scstep>
  <scstep>
   <time name="dav">    7.96    7.96</time>
   <time name="total">    8.47    8.45</time>
   <energy>
    <i name="e_fr_energy">   -109.35279142 </i>
    <i name="e_wo_entrp">   -109.34767342 </i>
    <i name="e_0_energy">   -109.35108542 </i>
   </energy>
  </scstep>
  <scstep>
   <time name="dav">    7.66    7.66</time>
   <time name="total">    8.17    8.14</time>
   <energy>
    <i name="e_fr_energy">   -109.35279420 </i>
    <i name="e_wo_entrp">   -109.34756053 </i>
    <i name="e_0_energy">   -109.35104964 </i>
   </energy>
  </scstep>
  <scstep>
   <time name="dav">    7.54    7.54</time>
   <time name="total">    8.04    8.02</time>
   <energy>
    <i name="e_fr_energy">   -109.35278071 </i>
    <i name="e_wo_entrp">   -109.34766775 </i>
    <i name="e_0_energy">   -109.35107639 </i>
   </energy>
  </scstep>
  <scstep>
   <time name="dav">    6.95    6.95</time>
   <time name="total">    7.46    7.43</time>
   <energy>
    <i name="e_fr_energy">   -109.35276002 </i>
    <i name="e_wo_entrp">   -109.34755483 </i>
    <i name="e_0_energy">   -109.35102496 </i>
   </energy>
  </scstep>
  <scstep>
   <time name="dav">    4.74    4.74</time>
   <time name="total">    4.80    4.78</time>
   <energy>
    <i name="alphaZ">    271.64501344 </i>
    <i name="ewald"> 148182.20907824 </i>
    <i name="hartreedc">-160402.14730869 </i>
    <i name="XCdc">     91.44882649 </i>
    <i name="pawpsdc">  15262.27836075 </i>
    <i name="pawaedc"> -14857.96251152 </i>
    <i name="eentropy">     -0.00517747 </i>
    <i name="bandstr">   -902.00068947 </i>
    <i name="atom">  12245.18164884 </i>
    <i name="e_fr_energy">   -109.35275938 </i>
    <i name="e_wo_entrp">   -109.34758191 </i>
    <i name="e_0_energy">   -109.35103355 </i>
   </energy>
  </scstep>
  <structure>
   <crystal>
    <varray name="basis" >
     <v>       5.54371716       0.00000000       0.00000000 </v>
     <v>       2.77185858       4.80099990       0.00000000 </v>
     <v>       0.00000000       0.00000000      36.78963917 </v>
    </varray>
    <i name="volume">    979.17042988 </i>
    <varray name="rec_basis" >
     <v>       0.18038438      -0.10414497       0.00000000 </v>
     <v>       0.00000000       0.20828994       0.00000000 </v>
     <v>       0.00000000       0.00000000       0.02718157 </v>
    </varray>
   </crystal>
   <varray name="positions" >
    <v>       0.00000000       0.00000000       0.40772349 </v>
    <v>       0.50000000       0.00000000       0.40772349 </v>
    <v>       0.00000000       0.50000000       0.40772349 </v>
    <v>       0.50000000       0.50000000       0.40772349 </v>
    <v>       0.16666667       0.16666667       0.46924116 </v>
    <v>       0.66666667       0.16666667       0.46924116 </v>
    <v>       0.16666667       0.66666667       0.46924116 </v>
    <v>       0.66666667       0.66666667       0.46924116 </v>
    <v>       0.84130569       0.33204925       0.53197824 </v>
    <v>       0.33885828       0.33224062       0.53196086 </v>
    <v>       0.83990526       0.83287625       0.53305620 </v>
    <v>       0.33884911       0.83434366       0.53200992 </v>
    <v>       0.01219429      -0.00247064       0.59832228 </v>
    <v>       0.52087990      -0.00355138       0.59788308 </v>
    <v>       0.01145155       0.50564307       0.59802049 </v>
    <v>       0.51457741       0.49969695       0.59389863 </v>
    <v>       0.18925832       0.16847196       0.66727206 </v>
    <v>       0.18563229       0.16834691       0.63484577 </v>
   </varray>
  </structure>
  <varray name="forces" >
   <v>       0.00888947       0.01248746      -0.41349968 </v>
   <v>      -0.03782843       0.01411325      -0.40588750 </v>
   <v>      -0.01315804      -0.02591633      -0.41085126 </v>
   <v>      -0.00781134       0.00121661      -0.45413412 </v>
   <v>       0.03029282      -0.00759585       0.44595789 </v>
   <v>       0.03355551      -0.02694089       0.40277745 </v>
   <v>       0.01477353       0.00870643       0.40613369 </v>
   <v>       0.05416380       0.00994066       0.40898979 </v>
   <v>       0.00402554      -0.00565860       0.01483766 </v>
   <v>       0.00117607      -0.00505615       0.02771507 </v>
   <v>       0.01440839       0.00832969      -0.01702832 </v>
   <v>       0.00148656       0.01707344       0.01378568 </v>
   <v>       0.07613433       0.04471958       0.01492764 </v>
   <v>      -0.09507512       0.06987515       0.03891908 </v>
   <v>       0.01033564      -0.10393953       0.03259791 </v>
   <v>      -0.01821794       0.00180850      -0.01537660 </v>
   <v>      -0.05194362      -0.00455857      -0.03276412 </v>
   <v>      -0.02520717      -0.00860486      -0.05710026 </v>
  </varray>
  <varray name="stress" >
   <v>     -11.80100758      -0.07102312      -0.81218970 </v>
   <v>      -0.07102301     -11.80918694       0.00781101 </v>
   <v>      -0.81218968       0.00781115       4.49743066 </v>
  </varray>
  <energy>
   <i name="e_fr_energy">   -109.35275938 </i>
   <i name="e_wo_entrp">   -109.34758191 </i>
   <i name="e_0_energy">   -109.35103355 </i>
  </energy>
  <time name="totalsc">   81.60   80.82</time>
 </calculation>
 <calculation>
  <scstep>
   <time name="dav">    6.97    6.97</time>
   <time name="total">    7.47    7.44</time>
   <energy>
    <i name="alphaZ">    271.64501344 </i>
    <i name="ewald"> 148183.20563346 </i>
    <i name="hartreedc">-160403.12833843 </i>
    <i name="XCdc">     91.45135484 </i>
    <i name="pawpsdc">  15262.25427366 </i>
    <i name="pawaedc"> -14857.93876916 </i>
    <i name="eentropy">     -0.00523667 </i>
    <i name="bandstr">   -902.01818030 </i>
    <i name="atom">  12245.18164884 </i>
    <i name="e_fr_energy">   -109.35260031 </i>
    <i name="e_wo_entrp">   -109.34736364 </i>
    <i name="e_0_energy">   -109.35085475 </i>
   </energy>
  </scstep>
  <scstep>
   <time name="dav">    7.26    7.26</time>
   <time name="total">    7.76    7.74</time>
   <energy>
    <i name="e_fr_energy">   -109.35324256 </i>
    <i name="e_wo_entrp">   -109.34800981 </i>
    <i name="e_0_energy">   -109.35149831 </i>
   </energy>
  </scstep>
  <scstep>
   <time name="dav">    7.75    7.75</time>
   <time name="total">    8.25    8.23</time>
   <energy>
    <i name="e_fr_energy">   -109.35287398 </i>
    <i name="e_wo_entrp">   -109.34769036 </i>
    <i name="e_0_energy">   -109.35114611 </i>
   </energy>
  </scstep>
  <scstep>
   <time name="dav">    7.19    7.19</time>
   <time name="total">    7.69    7.67</time>
   <energy>
    <i name="e_fr_energy">   -109.35288754 </i>
    <i name="e_wo_entrp">   -109.34757022 </i>
    <i name="e_0_energy">   -109.35111510 </i>
   </energy>
  </scstep>
  <scstep>
   <time name="dav">    6.21    6.21</time>
   <time name="total">    6.72    6.70</time>
   <energy>
    <i name="e_fr_energy">   -109.35287273 </i>
    <i name="e_wo_entrp">   -109.34773986 </i>
    <i name="e_0_energy">   -109.35116178 </i>
   </energy>
  </scstep>
  <scstep>
   <time name="dav">    5.55    5.55</time>
   <time name="total">    6.05    6.03</time>
   <energy>
    <i name="e_fr_energy">   -109.35286086 </i>
    <i name="e_wo_entrp">   -109.34760277 </i>
    <i name="e_0_energy">   -109.35110816 </i>
   </energy>
  </scstep>
  <scstep>
   <time name="dav">    4.87    4.87</time>
   <time name="total">    4.92    4.91</time>
   <energy>
    <i name="alphaZ">    271.64501344 </i>
    <i name="ewald"> 148183.20563346 </i>
    <i name="hartreedc">-160403.04084356 </i>
    <i name="XCdc">     91.45128994 </i>
    <i name="pawpsdc">  15262.55474955 </i>
    <i name="pawaedc"> -14858.24037153 </i>
    <i name="eentropy">     -0.00521398 </i>
    <i name="bandstr">   -902.10476483 </i>
    <i name="atom">  12245.18164884 </i>
    <i name="e_fr_energy">   -109.35285867 </i>
    <i name="e_wo_entrp">   -109.34764468 </i>
    <i name="e_0_energy">   -109.35112067 </i>
   </energy>
  </scstep>
  <structure>
   <crystal>
    <varray name="basis" >
     <v>       5.54371716       0.00000000       0.00000000 </v>
     <v>       2.77185858       4.80099990       0.00000000 </v>
     <v>       0.00000000       0.00000000      36.78963917 </v>
    </varray>
    <i name="volume">    979.17042988 </i>
    <varray name="rec_basis" >
     <v>       0.18038438      -0.10414497       0.00000000 </v>
     <v>       0.00000000       0.20828994       0.00000000 </v>
     <v>       0.00000000       0.00000000       0.02718157 </v>
    </varray>
   </crystal>
   <varray name="positions" >
    <v>       0.00000000       0.00000000       0.40772349 </v>
    <v>       0.50000000       0.00000000       0.40772349 </v>
    <v>       0.00000000       0.50000000       0.40772349 </v>
    <v>       0.50000000       0.50000000       0.40772349 </v>
    <v>       0.16666667       0.16666667       0.46924116 </v>
    <v>       0.66666667       0.16666667       0.46924116 </v>
    <v>       0.16666667       0.66666667       0.46924116 </v>
    <v>       0.66666667       0.66666667       0.46924116 </v>
    <v>       0.84123122       0.33198026       0.53199222 </v>
    <v>       0.33876585       0.33218083       0.53197241 </v>
    <v>       0.83983899       0.83285217       0.53304973 </v>
    <v>       0.33872188       0.83435827       0.53202130 </v>
    <v>       0.01235927      -0.00237030       0.59833293 </v>
    <v>       0.52066167      -0.00348579       0.59787449 </v>
    <v>       0.01157333       0.50533579       0.59802650 </v>
    <v>       0.51450822       0.49962941       0.59388257 </v>
    <v>       0.18981053       0.16854426       0.66727123 </v>
    <v>       0.18613580       0.16847102       0.63483098 </v>
   </varray>
  </structure>
  <varray name="forces" >
   <v>       0.00942754       0.01268725      -0.41365353 </v>
   <v>      -0.03740909       0.01432256      -0.40642472 </v>
   <v>      -0.01268625      -0.02590425      -0.41161093 </v>
   <v>      -0.00720099       0.00135980      -0.45335697 </v>
   <v>       0.02942038      -0.00744574       0.44800878 </v>
   <v>       0.03299922      -0.02558587       0.40316763 </v>
   <v>       0.01570917       0.00768023       0.40633881 </v>
   <v>       0.05293684       0.00939179       0.41157554 </v>
   <v>       0.00483588      -0.00205880       0.00822585 </v>
   <v>       0.00370514      -0.00240178       0.01936028 </v>
   <v>       0.01329464       0.00611793      -0.01076864 </v>
   <v>       0.00400716       0.01290066       0.00745910 </v>
   <v>       0.04973806       0.03023552       0.01163424 </v>
   <v>      -0.06552026       0.05026310       0.03231897 </v>
   <v>       0.00817806      -0.06964642       0.02574104 </v>
   <v>      -0.01339106       0.00317609      -0.00815449 </v>
   <v>      -0.05754994      -0.00516884      -0.06373636 </v>
   <v>      -0.03049451      -0.00992324      -0.00612460 </v>
  </varray>
  <varray name="stress" >
   <v>     -11.78942925      -0.08444565      -0.84146617 </v>
   <v>      -0.08444577     -11.79165917       0.00422088 </v>
   <v>      -0.84146610       0.00422076       4.49704431 </v>
  </varray>
  <energy>
   <i name="e_fr_energy">   -109.35285867 </i>
   <i name="e_wo_entrp">   -109.34764468 </i>
   <i name="e_0_energy">   -109.35112067 </i>
  </energy>
  <time name="totalsc">   69.86   69.11</time>
 </calculation>
 <calculation>
  <scstep>
   <time name="dav">    6.97    6.97</time>
   <time name="total">    7.47    7.45</time>
   <energy>
    <i name="alphaZ">    271.64501344 </i>
    <i name="ewald"> 148182.91198141 </i>
    <i name="hartreedc">-160402.69118801 </i>
    <i name="XCdc">     91.45349421 </i>
    <i name="pawpsdc">  15262.57857397 </i>
    <i name="pawaedc"> -14858.26399383 </i>
    <i name="eentropy">     -0.00523665 </i>
    <i name="bandstr">   -902.16331290 </i>
    <i name="atom">  12245.18164884 </i>
    <i name="e_fr_energy">   -109.35301951 </i>
    <i name="e_wo_entrp">   -109.34778286 </i>
    <i name="e_0_energy">   -109.35127396 </i>
   </energy>
  </scstep>
  <scstep>
   <time name="dav">    7.33    7.34</time>
   <time name="total">    7.84    7.82</time>
   <energy>
    <i name="e_fr_energy">   -109.35308534 </i>
    <i name="e_wo_entrp">   -109.34786771 </i>
    <i name="e_0_energy">   -109.35134613 </i>
   </energy>
  </scstep>
  <scstep>
   <time name="dav">    5.71    5.71</time>
   <time name="total">    6.21    6.19</time>
   <energy>
    <i name="e_fr_energy">   -109.35306440 </i>
    <i name="e_wo_entrp">   -109.34781256 </i>
    <i name="e_0_energy">   -109.35131379 </i>
   </energy>
  </scstep>
  <scstep>
   <time name="dav">    4.86    4.86</time>
   <time name="total">    5.36    5.33</time>
   <energy>
    <i name="e_fr_energy">   -109.35305257 </i>
    <i name="e_wo_entrp">   -109.34782103 </i>
    <i name="e_0_energy">   -109.35130872 </i>
   </energy>
  </scstep>
  <scstep>
   <time name="dav">    4.60    4.60</time>
   <time name="total">    4.65    4.64</time>
   <energy>
    <i name="alphaZ">    271.64501344 </i>
    <i name="ewald"> 148182.91198141 </i>
    <i name="hartreedc">-160402.77107590 </i>
    <i name="XCdc">     91.45479011 </i>
    <i name="pawpsdc">  15263.04700003 </i>
    <i name="pawaedc"> -14858.73165929 </i>
    <i name="eentropy">     -0.00524635 </i>
    <i name="bandstr">   -902.08550369 </i>
    <i name="atom">  12245.18164884 </i>
    <i name="e_fr_energy">   -109.35305139 </i>
    <i name="e_wo_entrp">   -109.34780504 </i>
    <i name="e_0_energy">   -109.35130261 </i>
   </energy>
  </scstep>
  <structure>
   <crystal>
    <varray name="basis" >
     <v>       5.54371716       0.00000000       0.00000000 </v>
     <v>       2.77185858       4.80099990       0.00000000 </v>
     <v>       0.00000000       0.00000000      36.78963917 </v>
    </varray>
    <i name="volume">    979.17042988 </i>
    <varray name="rec_basis" >
     <v>       0.18038438      -0.10414497       0.00000000 </v>
     <v>       0.00000000       0.20828994       0.00000000 </v>
     <v>       0.00000000       0.00000000       0.02718157 </v>
    </varray>
   </crystal>
   <varray name="positions" >
    <v>       0.00000000       0.00000000       0.40772349 </v>
    <v>       0.50000000       0.00000000       0.40772349 </v>
    <v>       0.00000000       0.50000000       0.40772349 </v>
    <v>       0.50000000       0.50000000       0.40772349 </v>
    <v>       0.16666667       0.16666667       0.46924116 </v>
    <v>       0.66666667       0.16666667       0.46924116 </v>
    <v>       0.16666667       0.66666667       0.46924116 </v>
    <v>       0.66666667       0.66666667       0.46924116 </v>
    <v>       0.84125699       0.33199277       0.53199076 </v>
    <v>       0.33879442       0.33219065       0.53197392 </v>
    <v>       0.83986821       0.83286781       0.53304890 </v>
    <v>       0.33874629       0.83437617       0.53202028 </v>
    <v>       0.01236735      -0.00234357       0.59833298 </v>
    <v>       0.52057696      -0.00341802       0.59788343 </v>
    <v>       0.01161436       0.50529177       0.59803065 </v>
    <v>       0.51450243       0.49965022       0.59388452 </v>
    <v>       0.18960532       0.16851907       0.66725771 </v>
    <v>       0.18598438       0.16842605       0.63483307 </v>
   </varray>
  </structure>
  <varray name="forces" >
   <v>       0.00916415       0.01262927      -0.41263713 </v>
   <v>      -0.03758980       0.01428149      -0.40583557 </v>
   <v>      -0.01288027      -0.02593475      -0.41104785 </v>
   <v>      -0.00747417       0.00130637      -0.45276316 </v>
   <v>       0.02979451      -0.00731139       0.44715276 </v>
   <v>       0.03302307      -0.02557018       0.40252181 </v>
   <v>       0.01574659       0.00766111       0.40582286 </v>
   <v>       0.05303427       0.00943950       0.41065020 </v>
   <v>       0.00407433      -0.00157893       0.00889349 </v>
   <v>       0.00324541      -0.00228409       0.01874093 </v>
   <v>       0.01193409       0.00584880      -0.00868695 </v>
   <v>       0.00375009       0.01219007       0.00796592 </v>
   <v>       0.04298423       0.02692674       0.00860961 </v>
   <v>      -0.05869176       0.04503620       0.02882846 </v>
   <v>       0.00635387      -0.06143842       0.02243197 </v>
   <v>      -0.01254820       0.00325393      -0.00799562 </v>
   <v>      -0.05412893      -0.00492855      -0.01604855 </v>
   <v>      -0.02979148      -0.00952715      -0.04660317 </v>
  </varray>
  <varray name="stress" >
   <v>     -11.78363733      -0.08165009      -0.83392069 </v>
   <v>      -0.08165006     -11.78684040       0.00415135 </v>
   <v>      -0.83392067       0.00415127       4.60453863 </v>
  </varray>
  <energy>
   <i name="e_fr_energy">   -109.35305139 </i>
   <i name="e_wo_entrp">   -109.34780504 </i>
   <i name="e_0_energy">   -109.35130261 </i>
  </energy>
  <time name="totalsc">   52.49   51.79</time>
 </calculation>
 <calculation>
  <scstep>
   <time name="dav">    6.97    6.97</time>
   <time name="total">    7.48    7.45</time>
   <energy>
    <i name="alphaZ">    271.64501344 </i>
    <i name="ewald"> 148182.03311448 </i>
    <i name="hartreedc">-160401.77862661 </i>
    <i name="XCdc">     91.46182965 </i>
    <i name="pawpsdc">  15263.32343592 </i>
    <i name="pawaedc"> -14859.00794811 </i>
    <i name="eentropy">     -0.00525160 </i>
    <i name="bandstr">   -902.20632611 </i>
    <i name="atom">  12245.18164884 </i>
    <i name="e_fr_energy">   -109.35311008 </i>
    <i name="e_wo_entrp">   -109.34785848 </i>
    <i name="e_0_energy">   -109.35135955 </i>
   </energy>
  </scstep>
  <scstep>
   <time name="dav">    7.18    7.18</time>
   <time name="total">    7.69    7.67</time>
   <energy>
    <i name="e_fr_energy">   -109.35341380 </i>
    <i name="e_wo_entrp">   -109.34810580 </i>
    <i name="e_0_energy">   -109.35164447 </i>
   </energy>
  </scstep>
  <scstep>
   <time name="dav">    7.66    7.66</time>
   <time name="total">    8.17    8.14</time>
   <energy>
    <i name="e_fr_energy">   -109.35344819 </i>
    <i name="e_wo_entrp">   -109.34824549 </i>
    <i name="e_0_energy">   -109.35171395 </i>
   </energy>
  </scstep>
  <scstep>
   <time name="dav">    6.50    6.50</time>
   <time name="total">    7.00    6.97</time>
   <energy>
    <i name="e_fr_energy">   -109.35345502 </i>
    <i name="e_wo_entrp">   -109.34825336 </i>
    <i name="e_0_energy">   -109.35172114 </i>
   </energy>
  </scstep>
  <scstep>
   <time name="dav">    6.01    6.01</time>
   <time name="total">    6.51    6.49</time>
   <energy>
    <i name="e_fr_energy">   -109.35341302 </i>
    <i name="e_wo_entrp">   -109.34804583 </i>
    <i name="e_0_energy">   -109.35162396 </i>
   </energy>
  </scstep>
  <scstep>
   <time name="dav">    5.77    5.77</time>
   <time name="total">    6.27    6.24</time>
   <energy>
    <i name="e_fr_energy">   -109.35339748 </i>
    <i name="e_wo_entrp">   -109.34814749 </i>
    <i name="e_0_energy">   -109.35164748 </i>
   </energy>
  </scstep>
  <scstep>
   <time name="dav">    5.05    5.05</time>
   <time name="total">    5.11    5.09</time>
   <energy>
    <i name="alphaZ">    271.64501344 </i>
    <i name="ewald"> 148182.03311448 </i>
    <i name="hartreedc">-160402.16381566 </i>
    <i name="XCdc">     91.46672610 </i>
    <i name="pawpsdc">  15265.94373057 </i>
    <i name="pawaedc"> -14861.62598848 </i>
    <i name="eentropy">     -0.00527710 </i>
    <i name="bandstr">   -901.82854659 </i>
    <i name="atom">  12245.18164884 </i>
    <i name="e_fr_energy">   -109.35339439 </i>
    <i name="e_wo_entrp">   -109.34811729 </i>
    <i name="e_0_energy">   -109.35163536 </i>
   </energy>
  </scstep>
  <structure>
   <crystal>
    <varray name="basis" >
     <v>       5.54371716       0.00000000       0.00000000 </v>
     <v>       2.77185858       4.80099990       0.00000000 </v>
     <v>       0.00000000       0.00000000      36.78963917 </v>
    </varray>
    <i name="volume">    979.17042988 </i>
    <varray name="rec_basis" >
     <v>       0.18038438      -0.10414497       0.00000000 </v>
     <v>       0.00000000       0.20828994       0.00000000 </v>
     <v>       0.00000000       0.00000000       0.02718157 </v>
    </varray>
   </crystal>
   <varray name="positions" >
    <v>       0.00000000       0.00000000       0.40772349 </v>
    <v>       0.50000000       0.00000000       0.40772349 </v>
    <v>       0.00000000       0.50000000       0.40772349 </v>
    <v>       0.50000000       0.50000000       0.40772349 </v>
    <v>       0.16666667       0.16666667       0.46924116 </v>
    <v>       0.66666667       0.16666667       0.46924116 </v>
    <v>       0.16666667       0.66666667       0.46924116 </v>
    <v>       0.66666667       0.66666667       0.46924116 </v>
    <v>       0.84133430       0.33203029       0.53198641 </v>
    <v>       0.33888016       0.33222011       0.53197842 </v>
    <v>       0.83995586       0.83291473       0.53304642 </v>
    <v>       0.33881953       0.83442990       0.53201723 </v>
    <v>       0.01239157      -0.00226337       0.59833313 </v>
    <v>       0.52032281      -0.00321471       0.59791023 </v>
    <v>       0.01173747       0.50515969       0.59804311 </v>
    <v>       0.51448504       0.49971263       0.59389036 </v>
    <v>       0.18898969       0.16844350       0.66721713 </v>
    <v>       0.18553010       0.16829114       0.63483934 </v>
   </varray>
  </structure>
  <varray name="forces" >
   <v>       0.00895810       0.01254796      -0.41430818 </v>
   <v>      -0.03776917       0.01416776      -0.40573307 </v>
   <v>      -0.01309743      -0.02607443      -0.41086701 </v>
   <v>      -0.00791411       0.00111100      -0.45315697 </v>
   <v>       0.03106737      -0.00698689       0.44732531 </v>
   <v>       0.03318953      -0.02529303       0.40301995 </v>
   <v>       0.01624857       0.00737828       0.40661520 </v>
   <v>       0.05327823       0.00935472       0.40946008 </v>
   <v>       0.00297275       0.00042698       0.01179015 </v>
   <v>       0.00273460      -0.00194751       0.01972408 </v>
   <v>       0.00920239       0.00528429      -0.00206354 </v>
   <v>       0.00449800       0.01047843       0.01032508 </v>
   <v>       0.02431627       0.01769518      -0.00088636 </v>
   <v>      -0.03994394       0.03068494       0.01834046 </v>
   <v>       0.00171699      -0.03895709       0.01276435 </v>
   <v>      -0.01078275       0.00347841      -0.00979589 </v>
   <v>      -0.04954023      -0.00486689       0.13357627 </v>
   <v>      -0.02913518      -0.00848212      -0.17612991 </v>
  </varray>
  <varray name="stress" >
   <v>     -11.78007230      -0.07286941      -0.80666517 </v>
   <v>      -0.07286934     -11.78601273       0.00575980 </v>
   <v>      -0.80666528       0.00575990       4.90642393 </v>
  </varray>
  <energy>
   <i name="e_fr_energy">   -109.35339439 </i>
   <i name="e_wo_entrp">   -109.34811729 </i>
   <i name="e_0_energy">   -109.35163536 </i>
  </energy>
  <time name="totalsc">   69.21   68.46</time>
 </calculation>
 <calculation>
  <scstep>
   <time name="dav">    6.97    6.97</time>
   <time name="total">    7.48    7.45</time>
   <energy>
    <i name="alphaZ">    271.64501344 </i>
    <i name="ewald"> 148181.59623042 </i>
    <i name="hartreedc">-160401.65670110 </i>
    <i name="XCdc">     91.47038609 </i>
    <i name="pawpsdc">  15266.02923776 </i>
    <i name="pawaedc"> -14861.71163183 </i>
    <i name="eentropy">     -0.00527697 </i>
    <i name="bandstr">   -901.90226631 </i>
    <i name="atom">  12245.18164884 </i>
    <i name="e_fr_energy">   -109.35335964 </i>
    <i name="e_wo_entrp">   -109.34808267 </i>
    <i name="e_0_energy">   -109.35160065 </i>
   </energy>
  </scstep>
  <scstep>
   <time name="dav">    7.16    7.16</time>
   <time name="total">    7.66    7.63</time>
   <energy>
    <i name="e_fr_energy">   -109.35347256 </i>
    <i name="e_wo_entrp">   -109.34814823 </i>
    <i name="e_0_energy">   -109.35169778 </i>
   </energy>
  </scstep>
  <scstep>
   <time name="dav">    6.61    6.61</time>
   <time name="total">    7.11    7.09</time>
   <energy>
    <i name="e_fr_energy">   -109.35346831 </i>
    <i name="e_wo_entrp">   -109.34820464 </i>
    <i name="e_0_energy">   -109.35171375 </i>
   </energy>
  </scstep>
  <scstep>
   <time name="dav">    5.36    5.36</time>
   <time name="total">    5.87    5.84</time>
   <energy>
    <i name="e_fr_energy">   -109.35343346 </i>
    <i name="e_wo_entrp">   -109.34817024 </i>
    <i name="e_0_energy">   -109.35167905 </i>
   </energy>
  </scstep>
  <scstep>
   <time name="dav">    4.78    4.78</time>
   <time name="total">    4.84    4.82</time>
   <energy>
    <i name="alphaZ">    271.64501344 </i>
    <i name="ewald"> 148181.59623042 </i>
    <i name="hartreedc">-160401.79248880 </i>
    <i name="XCdc">     91.47247318 </i>
    <i name="pawpsdc">  15266.94649897 </i>
    <i name="pawaedc"> -14862.62799491 </i>
    <i name="eentropy">     -0.00533159 </i>
    <i name="bandstr">   -901.76948404 </i>
    <i name="atom">  12245.18164884 </i>
    <i name="e_fr_energy">   -109.35343447 </i>
    <i name="e_wo_entrp">   -109.34810288 </i>
    <i name="e_0_energy">   -109.35165727 </i>
   </energy>
  </scstep>
  <structure>
   <crystal>
    <varray name="basis" >
     <v>       5.54371716       0.00000000       0.00000000 </v>
     <v>       2.77185858       4.80099990       0.00000000 </v>
     <v>       0.00000000       0.00000000      36.78963917 </v>
    </varray>
    <i name="volume">    979.17042988 </i>
    <varray name="rec_basis" >
     <v>       0.18038438      -0.10414497       0.00000000 </v>
     <v>       0.00000000       0.20828994       0.00000000 </v>
     <v>       0.00000000       0.00000000       0.02718157 </v>
    </varray>
   </crystal>
   <varray name="positions" >
    <v>       0.00000000       0.00000000       0.40772349 </v>
    <v>       0.50000000       0.00000000       0.40772349 </v>
    <v>       0.00000000       0.50000000       0.40772349 </v>
    <v>       0.50000000       0.50000000       0.40772349 </v>
    <v>       0.16666667       0.16666667       0.46924116 </v>
    <v>       0.66666667       0.16666667       0.46924116 </v>
    <v>       0.16666667       0.66666667       0.46924116 </v>
    <v>       0.66666667       0.66666667       0.46924116 </v>
    <v>       0.84137283       0.33204899       0.53198424 </v>
    <v>       0.33892289       0.33223480       0.53198067 </v>
    <v>       0.83999954       0.83293812       0.53304518 </v>
    <v>       0.33885603       0.83445667       0.53201571 </v>
    <v>       0.01240364      -0.00222340       0.59833320 </v>
    <v>       0.52019614      -0.00311338       0.59792360 </v>
    <v>       0.01179883       0.50509386       0.59804932 </v>
    <v>       0.51447637       0.49974374       0.59389326 </v>
    <v>       0.18868284       0.16840584       0.66719691 </v>
    <v>       0.18530367       0.16822389       0.63484247 </v>
   </varray>
  </structure>
  <varray name="forces" >
   <v>       0.00895137       0.01258757      -0.41446692 </v>
   <v>      -0.03765115       0.01418854      -0.40478443 </v>
   <v>      -0.01305964      -0.02595092      -0.40965478 </v>
   <v>      -0.00797521       0.00112782      -0.45197523 </v>
   <v>       0.03194159      -0.00669474       0.44639446 </v>
   <v>       0.03340053      -0.02507848       0.40243161 </v>
   <v>       0.01665166       0.00732697       0.40611465 </v>
   <v>       0.05363423       0.00946657       0.40781655 </v>
   <v>       0.00208944       0.00133668       0.01281649 </v>
   <v>       0.00196336      -0.00178798       0.01924969 </v>
   <v>       0.00719716       0.00478534       0.00088839 </v>
   <v>       0.00439310       0.00948773       0.01091614 </v>
   <v>       0.01492703       0.01281866      -0.00558218 </v>
   <v>      -0.02943259       0.02241642       0.01228931 </v>
   <v>      -0.00089228      -0.02685204       0.00771573 </v>
   <v>      -0.00975598       0.00339191      -0.00994843 </v>
   <v>      -0.04741839      -0.00466226       0.20916272 </v>
   <v>      -0.02896423      -0.00790777      -0.23938377 </v>
  </varray>
  <varray name="stress" >
   <v>     -11.76912402      -0.06974291      -0.79181944 </v>
   <v>      -0.06974302     -11.77622488       0.00639549 </v>
   <v>      -0.79181948       0.00639551       5.09817389 </v>
  </varray>
  <energy>
   <i name="e_fr_energy">   -109.35343447 </i>
   <i name="e_wo_entrp">   -109.34810288 </i>
   <i name="e_0_energy">   -109.35165727 </i>
  </energy>
  <time name="totalsc">   53.94   53.24</time>
 </calculation>
 <calculation>
  <scstep>
   <time name="dav">    6.97    6.97</time>
   <time name="total">    7.47    7.45</time>
   <energy>
    <i name="alphaZ">    271.64501344 </i>
    <i name="ewald"> 148181.27785814 </i>
    <i name="hartreedc">-160401.57887468 </i>
    <i name="XCdc">     91.47272597 </i>
    <i name="pawpsdc">  15267.26867063 </i>
    <i name="pawaedc"> -14862.94999187 </i>
    <i name="eentropy">     -0.00526791 </i>
    <i name="bandstr">   -901.66529626 </i>
    <i name="atom">  12245.18164884 </i>
    <i name="e_fr_energy">   -109.35351368 </i>
    <i name="e_wo_entrp">   -109.34824577 </i>
    <i name="e_0_energy">   -109.35175771 </i>
   </energy>
  </scstep>
  <scstep>
   <time name="dav">    7.32    7.32</time>
   <time name="total">    7.82    7.80</time>
   <energy>
    <i name="e_fr_energy">   -109.35354562 </i>
    <i name="e_wo_entrp">   -109.34816128 </i>
    <i name="e_0_energy">   -109.35175084 </i>
   </energy>
  </scstep>
  <scstep>
   <time name="dav">    5.44    5.44</time>
   <time name="total">    5.94    5.92</time>
   <energy>
    <i name="e_fr_energy">   -109.35353325 </i>
    <i name="e_wo_entrp">   -109.34823448 </i>
    <i name="e_0_energy">   -109.35176699 </i>
   </energy>
  </scstep>
  <scstep>
   <time name="dav">    5.05    5.05</time>
   <time name="total">    5.56    5.53</time>
   <energy>
    <i name="e_fr_energy">   -109.35351935 </i>
    <i name="e_wo_entrp">   -109.34825954 </i>
    <i name="e_0_energy">   -109.35176608 </i>
   </energy>
  </scstep>
  <scstep>
   <time name="dav">    4.66    4.66</time>
   <time name="total">    4.71    4.69</time>
   <energy>
    <i name="alphaZ">    271.64501344 </i>
    <i name="ewald"> 148181.27785814 </i>
    <i name="hartreedc">-160401.56669574 </i>
    <i name="XCdc">     91.47281311 </i>
    <i name="pawpsdc">  15267.41344288 </i>
    <i name="pawaedc"> -14863.09490500 </i>
    <i name="eentropy">     -0.00529296 </i>
    <i name="bandstr">   -901.67740186 </i>
    <i name="atom">  12245.18164884 </i>
    <i name="e_fr_energy">   -109.35351914 </i>
    <i name="e_wo_entrp">   -109.34822618 </i>
    <i name="e_0_energy">   -109.35175482 </i>
   </energy>
  </scstep>
  <structure>
   <crystal>
    <varray name="basis" >
     <v>       5.54371716       0.00000000       0.00000000 </v>
     <v>       2.77185858       4.80099990       0.00000000 </v>
     <v>       0.00000000       0.00000000      36.78963917 </v>
    </varray>
    <i name="volume">    979.17042988 </i>
    <varray name="rec_basis" >
     <v>       0.18038438      -0.10414497       0.00000000 </v>
     <v>       0.00000000       0.20828994       0.00000000 </v>
     <v>       0.00000000       0.00000000       0.02718157 </v>
    </varray>
   </crystal>
   <varray name="positions" >
    <v>       0.00000000       0.00000000       0.40772349 </v>
    <v>       0.50000000       0.00000000       0.40772349 </v>
    <v>       0.00000000       0.50000000       0.40772349 </v>
    <v>       0.50000000       0.50000000       0.40772349 </v>
    <v>       0.16666667       0.16666667       0.46924116 </v>
    <v>       0.66666667       0.16666667       0.46924116 </v>
    <v>       0.16666667       0.66666667       0.46924116 </v>
    <v>       0.66666667       0.66666667       0.46924116 </v>
    <v>       0.84138377       0.33205444       0.53198392 </v>
    <v>       0.33893524       0.33223859       0.53198172 </v>
    <v>       0.84001237       0.83294545       0.53304486 </v>
    <v>       0.33886605       0.83446574       0.53201553 </v>
    <v>       0.01240811      -0.00221008       0.59833310 </v>
    <v>       0.52015461      -0.00308133       0.59792759 </v>
    <v>       0.01181808       0.50507096       0.59805123 </v>
    <v>       0.51447224       0.49975299       0.59389386 </v>
    <v>       0.18859073       0.16839455       0.66719589 </v>
    <v>       0.18523697       0.16820381       0.63483805 </v>
   </varray>
  </structure>
  <varray name="forces" >
   <v>       0.00885409       0.01257608      -0.41299075 </v>
   <v>      -0.03783543       0.01421942      -0.40516019 </v>
   <v>      -0.01313991      -0.02612104      -0.41018975 </v>
   <v>      -0.00808633       0.00107986      -0.45315317 </v>
   <v>       0.03209138      -0.00662220       0.44643120 </v>
   <v>       0.03338333      -0.02498169       0.40263510 </v>
   <v>       0.01671197       0.00723270       0.40639803 </v>
   <v>       0.05352579       0.00941785       0.40842067 </v>
   <v>       0.00200641       0.00129778       0.01262105 </v>
   <v>       0.00193299      -0.00172581       0.01820377 </v>
   <v>       0.00693885       0.00477468       0.00177062 </v>
   <v>       0.00429642       0.00941342       0.01078868 </v>
   <v>       0.01205616       0.01147024      -0.00620803 </v>
   <v>      -0.02678447       0.02049011       0.01105494 </v>
   <v>      -0.00146232      -0.02356373       0.00644956 </v>
   <v>      -0.00963851       0.00340509      -0.00992975 </v>
   <v>      -0.04660407      -0.00463928       0.20481383 </v>
   <v>      -0.02824635      -0.00772349      -0.23195579 </v>
  </varray>
  <varray name="stress" >
   <v>     -11.78652375      -0.06829812      -0.78866448 </v>
   <v>      -0.06829803     -11.79452719       0.00674769 </v>
   <v>      -0.78866452       0.00674790       5.04417493 </v>
  </varray>
  <energy>
   <i name="e_fr_energy">   -109.35351914 </i>
   <i name="e_wo_entrp">   -109.34822618 </i>
   <i name="e_0_energy">   -109.35175482 </i>
  </energy>
  <time name="totalsc">   52.50   51.80</time>
 </calculation>
 <calculation>
  <scstep>
   <time name="dav">    6.97    6.97</time>
   <time name="total">    7.48    7.45</time>
   <energy>
    <i name="alphaZ">    271.64501344 </i>
    <i name="ewald"> 148180.32307802 </i>
    <i name="hartreedc">-160400.63661488 </i>
    <i name="XCdc">     91.47278107 </i>
    <i name="pawpsdc">  15267.43959142 </i>
    <i name="pawaedc"> -14863.12101699 </i>
    <i name="eentropy">     -0.00530034 </i>
    <i name="bandstr">   -901.65288200 </i>
    <i name="atom">  12245.18164884 </i>
    <i name="e_fr_energy">   -109.35370141 </i>
    <i name="e_wo_entrp">   -109.34840107 </i>
    <i name="e_0_energy">   -109.35193463 </i>
   </energy>
  </scstep>
  <scstep>
   <time name="dav">    7.28    7.28</time>
   <time name="total">    7.78    7.76</time>
   <energy>
    <i name="e_fr_energy">   -109.35376530 </i>
    <i name="e_wo_entrp">   -109.34845901 </i>
    <i name="e_0_energy">   -109.35199654 </i>
   </energy>
  </scstep>
  <scstep>
   <time name="dav">    6.51    6.51</time>
   <time name="total">    7.01    6.98</time>
   <energy>
    <i name="e_fr_energy">   -109.35381983 </i>
    <i name="e_wo_entrp">   -109.34849539 </i>
    <i name="e_0_energy">   -109.35204502 </i>
   </energy>
  </scstep>
  <scstep>
   <time name="dav">    5.40    5.40</time>
   <time name="total">    5.90    5.88</time>
   <energy>
    <i name="e_fr_energy">   -109.35375508 </i>
    <i name="e_wo_entrp">   -109.34848048 </i>
    <i name="e_0_energy">   -109.35199688 </i>
   </energy>
  </scstep>
  <scstep>
   <time name="dav">    4.90    4.90</time>
   <time name="total">    4.96    4.94</time>
   <energy>
    <i name="alphaZ">    271.64501344 </i>
    <i name="ewald"> 148180.32307802 </i>
    <i name="hartreedc">-160400.54453873 </i>
    <i name="XCdc">     91.47275170 </i>
    <i name="pawpsdc">  15267.42727918 </i>
    <i name="pawaedc"> -14863.10876539 </i>
    <i name="eentropy">     -0.00533400 </i>
    <i name="bandstr">   -901.74488900 </i>
    <i name="atom">  12245.18164884 </i>
    <i name="e_fr_energy">   -109.35375594 </i>
    <i name="e_wo_entrp">   -109.34842193 </i>
    <i name="e_0_energy">   -109.35197794 </i>
   </energy>
  </scstep>
  <structure>
   <crystal>
    <varray name="basis" >
     <v>       5.54371716       0.00000000       0.00000000 </v>
     <v>       2.77185858       4.80099990       0.00000000 </v>
     <v>       0.00000000       0.00000000      36.78963917 </v>
    </varray>
    <i name="volume">    979.17042988 </i>
    <varray name="rec_basis" >
     <v>       0.18038438      -0.10414497       0.00000000 </v>
     <v>       0.00000000       0.20828994       0.00000000 </v>
     <v>       0.00000000       0.00000000       0.02718157 </v>
    </varray>
   </crystal>
   <varray name="positions" >
    <v>       0.00000000       0.00000000       0.40772349 </v>
    <v>       0.50000000       0.00000000       0.40772349 </v>
    <v>       0.00000000       0.50000000       0.40772349 </v>
    <v>       0.50000000       0.50000000       0.40772349 </v>
    <v>       0.16666667       0.16666667       0.46924116 </v>
    <v>       0.66666667       0.16666667       0.46924116 </v>
    <v>       0.16666667       0.66666667       0.46924116 </v>
    <v>       0.66666667       0.66666667       0.46924116 </v>
    <v>       0.84141657       0.33207076       0.53198295 </v>
    <v>       0.33897229       0.33224996       0.53198488 </v>
    <v>       0.84005086       0.83296744       0.53304388 </v>
    <v>       0.33889610       0.83449296       0.53201498 </v>
    <v>       0.01242152      -0.00217014       0.59833279 </v>
    <v>       0.52003002      -0.00298519       0.59793958 </v>
    <v>       0.01187583       0.50500226       0.59805693 </v>
    <v>       0.51445983       0.49978073       0.59389563 </v>
    <v>       0.18831443       0.16836068       0.66719286 </v>
    <v>       0.18503687       0.16814355       0.63482478 </v>
   </varray>
  </structure>
  <varray name="forces" >
   <v>       0.00876817       0.01254594      -0.41221811 </v>
   <v>      -0.03775381       0.01421446      -0.40507606 </v>
   <v>      -0.01310577      -0.02609083      -0.41009317 </v>
   <v>      -0.00820381       0.00104262      -0.45251648 </v>
   <v>       0.03277747      -0.00637030       0.44577625 </v>
   <v>       0.03362647      -0.02477737       0.40188848 </v>
   <v>       0.01709848       0.00716242       0.40574157 </v>
   <v>       0.05375680       0.00944990       0.40757294 </v>
   <v>       0.00105797       0.00214779       0.01387361 </v>
   <v>       0.00186967      -0.00119142       0.01745823 </v>
   <v>       0.00559084       0.00439743       0.00462680 </v>
   <v>       0.00412146       0.00810557       0.01179133 </v>
   <v>       0.00228171       0.00644664      -0.01007665 </v>
   <v>      -0.01605759       0.01259570       0.00670395 </v>
   <v>      -0.00361658      -0.01114563       0.00242289 </v>
   <v>      -0.00848864       0.00349863      -0.00994539 </v>
   <v>      -0.04629529      -0.00460485       0.18031899 </v>
   <v>      -0.02742756      -0.00742670      -0.19824919 </v>
  </varray>
  <varray name="stress" >
   <v>     -11.77656610      -0.06402256      -0.77726885 </v>
   <v>      -0.06402249     -11.78643911       0.00761123 </v>
   <v>      -0.77726898       0.00761127       5.02188532 </v>
  </varray>
  <energy>
   <i name="e_fr_energy">   -109.35375594 </i>
   <i name="e_wo_entrp">   -109.34842193 </i>
   <i name="e_0_energy">   -109.35197794 </i>
  </energy>
  <time name="totalsc">   54.13   53.42</time>
 </calculation>
 <calculation>
  <scstep>
   <time name="dav">    6.97    6.97</time>
   <time name="total">    7.47    7.45</time>
   <energy>
    <i name="alphaZ">    271.64501344 </i>
    <i name="ewald"> 148178.41503167 </i>
    <i name="hartreedc">-160398.67858487 </i>
    <i name="XCdc">     91.47259091 </i>
    <i name="pawpsdc">  15267.39832181 </i>
    <i name="pawaedc"> -14863.07970592 </i>
    <i name="eentropy">     -0.00531115 </i>
    <i name="bandstr">   -901.70291124 </i>
    <i name="atom">  12245.18164884 </i>
    <i name="e_fr_energy">   -109.35390651 </i>
    <i name="e_wo_entrp">   -109.34859535 </i>
    <i name="e_0_energy">   -109.35213612 </i>
   </energy>
  </scstep>
  <scstep>
   <time name="dav">    7.30    7.30</time>
   <time name="total">    7.80    7.78</time>
   <energy>
    <i name="e_fr_energy">   -109.35415224 </i>
    <i name="e_wo_entrp">   -109.34878849 </i>
    <i name="e_0_energy">   -109.35236432 </i>
   </energy>
  </scstep>
  <scstep>
   <time name="dav">    8.14    8.14</time>
   <time name="total">    8.65    8.62</time>
   <energy>
    <i name="e_fr_energy">   -109.35443246 </i>
    <i name="e_wo_entrp">   -109.34909736 </i>
    <i name="e_0_energy">   -109.35265409 </i>
   </energy>
  </scstep>
  <scstep>
   <time name="dav">    7.49    7.49</time>
   <time name="total">    7.99    7.97</time>
   <energy>
    <i name="e_fr_energy">   -109.35412607 </i>
    <i name="e_wo_entrp">   -109.34890879 </i>
    <i name="e_0_energy">   -109.35238697 </i>
   </energy>
  </scstep>
  <scstep>
   <time name="dav">    5.97    5.97</time>
   <time name="total">    6.02    6.01</time>
   <energy>
    <i name="alphaZ">    271.64501344 </i>
    <i name="ewald"> 148178.41503167 </i>
    <i name="hartreedc">-160398.46491131 </i>
    <i name="XCdc">     91.47228654 </i>
    <i name="pawpsdc">  15267.33292325 </i>
    <i name="pawaedc"> -14863.01419729 </i>
    <i name="eentropy">     -0.00538422 </i>
    <i name="bandstr">   -901.91653405 </i>
    <i name="atom">  12245.18164884 </i>
    <i name="e_fr_energy">   -109.35412312 </i>
    <i name="e_wo_entrp">   -109.34873890 </i>
    <i name="e_0_energy">   -109.35232838 </i>
   </energy>
  </scstep>
  <structure>
   <crystal>
    <varray name="basis" >
     <v>       5.54371716       0.00000000       0.00000000 </v>
     <v>       2.77185858       4.80099990       0.00000000 </v>
     <v>       0.00000000       0.00000000      36.78963917 </v>
    </varray>
    <i name="volume">    979.17042988 </i>
    <varray name="rec_basis" >
     <v>       0.18038438      -0.10414497       0.00000000 </v>
     <v>       0.00000000       0.20828994       0.00000000 </v>
     <v>       0.00000000       0.00000000       0.02718157 </v>
    </varray>
   </crystal>
   <varray name="positions" >
    <v>       0.00000000       0.00000000       0.40772349 </v>
    <v>       0.50000000       0.00000000       0.40772349 </v>
    <v>       0.00000000       0.50000000       0.40772349 </v>
    <v>       0.50000000       0.50000000       0.40772349 </v>
    <v>       0.16666667       0.16666667       0.46924116 </v>
    <v>       0.66666667       0.16666667       0.46924116 </v>
    <v>       0.16666667       0.66666667       0.46924116 </v>
    <v>       0.66666667       0.66666667       0.46924116 </v>
    <v>       0.84148218       0.33210340       0.53198102 </v>
    <v>       0.33904640       0.33227270       0.53199119 </v>
    <v>       0.84012784       0.83301142       0.53304193 </v>
    <v>       0.33895620       0.83454739       0.53201389 </v>
    <v>       0.01244834      -0.00209025       0.59833217 </v>
    <v>       0.51978084      -0.00279290       0.59796356 </v>
    <v>       0.01199132       0.50486485       0.59806834 </v>
    <v>       0.51443502       0.49983621       0.59389917 </v>
    <v>       0.18776181       0.16829294       0.66718678 </v>
    <v>       0.18463667       0.16802304       0.63479826 </v>
   </varray>
  </structure>
  <varray name="forces" >
   <v>       0.00866284       0.01249573      -0.41264177 </v>
   <v>      -0.03764651       0.01407877      -0.40406401 </v>
   <v>      -0.01317570      -0.02602817      -0.40896938 </v>
   <v>      -0.00837628       0.00095357      -0.45140336 </v>
   <v>       0.03416586      -0.00592316       0.44469436 </v>
   <v>       0.03383723      -0.02441717       0.40131346 </v>
   <v>       0.01773947       0.00683985       0.40540586 </v>
   <v>       0.05416810       0.00946229       0.40558666 </v>
   <v>      -0.00013437       0.00427032       0.01505472 </v>
   <v>       0.00141228      -0.00044396       0.01623527 </v>
   <v>       0.00263777       0.00344866       0.00996524 </v>
   <v>       0.00462641       0.00582667       0.01248659 </v>
   <v>      -0.01697228      -0.00337433      -0.01770597 </v>
   <v>       0.00462169      -0.00276683      -0.00197876 </v>
   <v>      -0.00793632       0.01307065      -0.00553645 </v>
   <v>      -0.00634512       0.00373566      -0.00926780 </v>
   <v>      -0.04622433      -0.00464962       0.13105941 </v>
   <v>      -0.02506074      -0.00657892      -0.13023406 </v>
  </varray>
  <varray name="stress" >
   <v>     -11.76065788      -0.05808346      -0.75686821 </v>
   <v>      -0.05808347     -11.77242627       0.00854412 </v>
   <v>      -0.75686808       0.00854417       4.95097615 </v>
  </varray>
  <energy>
   <i name="e_fr_energy">   -109.35412312 </i>
   <i name="e_wo_entrp">   -109.34873890 </i>
   <i name="e_0_energy">   -109.35232838 </i>
  </energy>
  <time name="totalsc">   58.90   58.20</time>
 </calculation>
 <calculation>
  <scstep>
   <time name="dav">    6.97    6.97</time>
   <time name="total">    7.47    7.45</time>
   <energy>
    <i name="alphaZ">    271.64501344 </i>
    <i name="ewald"> 148174.60498868 </i>
    <i name="hartreedc">-160394.67215167 </i>
    <i name="XCdc">     91.47215983 </i>
    <i name="pawpsdc">  15267.22125463 </i>
    <i name="pawaedc"> -14862.90234039 </i>
    <i name="eentropy">     -0.00536180 </i>
    <i name="bandstr">   -901.89877746 </i>
    <i name="atom">  12245.18164884 </i>
    <i name="e_fr_energy">   -109.35356589 </i>
    <i name="e_wo_entrp">   -109.34820409 </i>
    <i name="e_0_energy">   -109.35177863 </i>
   </energy>
  </scstep>
  <scstep>
   <time name="dav">    7.21    7.21</time>
   <time name="total">    7.72    7.70</time>
   <energy>
    <i name="e_fr_energy">   -109.35446172 </i>
    <i name="e_wo_entrp">   -109.34907757 </i>
    <i name="e_0_energy">   -109.35266700 </i>
   </energy>
  </scstep>
  <scstep>
   <time name="dav">    7.99    7.99</time>
   <time name="total">    8.49    8.47</time>
   <energy>
    <i name="e_fr_energy">   -109.35510208 </i>
    <i name="e_wo_entrp">   -109.34973597 </i>
    <i name="e_0_energy">   -109.35331337 </i>
   </energy>
  </scstep>
  <scstep>
   <time name="dav">    7.86    7.86</time>
   <time name="total">    8.36    8.34</time>
   <energy>
    <i name="e_fr_energy">   -109.35442537 </i>
    <i name="e_wo_entrp">   -109.34914116 </i>
    <i name="e_0_energy">   -109.35266397 </i>
   </energy>
  </scstep>
  <scstep>
   <time name="dav">    7.61    7.61</time>
   <time name="total">    8.11    8.09</time>
   <energy>
    <i name="e_fr_energy">   -109.35446613 </i>
    <i name="e_wo_entrp">   -109.34895347 </i>
    <i name="e_0_energy">   -109.35262858 </i>
   </energy>
  </scstep>
  <scstep>
   <time name="dav">    7.48    7.48</time>
   <time name="total">    7.98    7.96</time>
   <energy>
    <i name="e_fr_energy">   -109.35441464 </i>
    <i name="e_wo_entrp">   -109.34913103 </i>
    <i name="e_0_energy">   -109.35265343 </i>
   </energy>
  </scstep>
  <scstep>
   <time name="dav">    6.34    6.34</time>
   <time name="total">    6.85    6.82</time>
   <energy>
    <i name="e_fr_energy">   -109.35440368 </i>
    <i name="e_wo_entrp">   -109.34902104 </i>
    <i name="e_0_energy">   -109.35260947 </i>
   </energy>
  </scstep>
  <scstep>
   <time name="dav">    4.89    4.89</time>
   <time name="total">    4.95    4.93</time>
   <energy>
    <i name="alphaZ">    271.64501344 </i>
    <i name="ewald"> 148174.60498868 </i>
    <i name="hartreedc">-160394.14959884 </i>
    <i name="XCdc">     91.47038833 </i>
    <i name="pawpsdc">  15266.90760199 </i>
    <i name="pawaedc"> -14862.58716161 </i>
    <i name="eentropy">     -0.00534510 </i>
    <i name="bandstr">   -902.42193716 </i>
    <i name="atom">  12245.18164884 </i>
    <i name="e_fr_energy">   -109.35440142 </i>
    <i name="e_wo_entrp">   -109.34905632 </i>
    <i name="e_0_energy">   -109.35261972 </i>
   </energy>
  </scstep>
  <structure>
   <crystal>
    <varray name="basis" >
     <v>       5.54371716       0.00000000       0.00000000 </v>
     <v>       2.77185858       4.80099990       0.00000000 </v>
     <v>       0.00000000       0.00000000      36.78963917 </v>
    </varray>
    <i name="volume">    979.17042988 </i>
    <varray name="rec_basis" >
     <v>       0.18038438      -0.10414497       0.00000000 </v>
     <v>       0.00000000       0.20828994       0.00000000 </v>
     <v>       0.00000000       0.00000000       0.02718157 </v>
    </varray>
   </crystal>
   <varray name="positions" >
    <v>       0.00000000       0.00000000       0.40772349 </v>
    <v>       0.50000000       0.00000000       0.40772349 </v>
    <v>       0.00000000       0.50000000       0.40772349 </v>
    <v>       0.50000000       0.50000000       0.40772349 </v>
    <v>       0.16666667       0.16666667       0.46924116 </v>
    <v>       0.66666667       0.16666667       0.46924116 </v>
    <v>       0.16666667       0.66666667       0.46924116 </v>
    <v>       0.66666667       0.66666667       0.46924116 </v>
    <v>       0.84161340       0.33216869       0.53197716 </v>
    <v>       0.33919463       0.33231818       0.53200381 </v>
    <v>       0.84028179       0.83309939       0.53303803 </v>
    <v>       0.33907640       0.83465625       0.53201170 </v>
    <v>       0.01250198      -0.00193046       0.59833094 </v>
    <v>       0.51928248      -0.00240834       0.59801152 </v>
    <v>       0.01222231       0.50459004       0.59809117 </v>
    <v>       0.51438541       0.49994718       0.59390627 </v>
    <v>       0.18665658       0.16815746       0.66717462 </v>
    <v>       0.18383627       0.16778201       0.63474520 </v>
   </varray>
  </structure>
  <varray name="forces" >
   <v>       0.00815307       0.01242379      -0.41355598 </v>
   <v>      -0.03828504       0.01405196      -0.40506383 </v>
   <v>      -0.01367225      -0.02649075      -0.40994572 </v>
   <v>      -0.00938325       0.00059432      -0.45339597 </v>
   <v>       0.03611023      -0.00521768       0.44583623 </v>
   <v>       0.03404048      -0.02354906       0.40298989 </v>
   <v>       0.01873904       0.00624317       0.40752307 </v>
   <v>       0.05410619       0.00918730       0.40563199 </v>
   <v>      -0.00245642       0.00770511       0.01687594 </v>
   <v>       0.00041415       0.00085830       0.01288810 </v>
   <v>      -0.00252722       0.00206002       0.01961200 </v>
   <v>       0.00504029       0.00207038       0.01357730 </v>
   <v>      -0.05629343      -0.02334371      -0.03452442 </v>
   <v>       0.04325651      -0.03182918      -0.02000227 </v>
   <v>      -0.01640175       0.05949481      -0.02251803 </v>
   <v>      -0.00293768       0.00409047      -0.01084841 </v>
   <v>      -0.03974817      -0.00423309       0.03279818 </v>
   <v>      -0.01815477      -0.00411618       0.01212193 </v>
  </varray>
  <varray name="stress" >
   <v>     -11.73934565      -0.04095236      -0.71551595 </v>
   <v>      -0.04095219     -11.75906131       0.01331832 </v>
   <v>      -0.71551590       0.01331842       4.79612438 </v>
  </varray>
  <energy>
   <i name="e_fr_energy">   -109.35440142 </i>
   <i name="e_wo_entrp">   -109.34905632 </i>
   <i name="e_0_energy">   -109.35261972 </i>
  </energy>
  <time name="totalsc">   80.98   80.20</time>
 </calculation>
 <calculation>
  <scstep>
   <time name="dav">    6.97    6.97</time>
   <time name="total">    7.47    7.44</time>
   <energy>
    <i name="alphaZ">    271.64501344 </i>
    <i name="ewald"> 148174.73430144 </i>
    <i name="hartreedc">-160394.27757933 </i>
    <i name="XCdc">     91.46946140 </i>
    <i name="pawpsdc">  15266.90934061 </i>
    <i name="pawaedc"> -14862.58872922 </i>
    <i name="eentropy">     -0.00535740 </i>
    <i name="bandstr">   -902.42256374 </i>
    <i name="atom">  12245.18164884 </i>
    <i name="e_fr_energy">   -109.35446395 </i>
    <i name="e_wo_entrp">   -109.34910655 </i>
    <i name="e_0_energy">   -109.35267815 </i>
   </energy>
  </scstep>
  <scstep>
   <time name="dav">    7.23    7.23</time>
   <time name="total">    7.73    7.71</time>
   <energy>
    <i name="e_fr_energy">   -109.35453601 </i>
    <i name="e_wo_entrp">   -109.34923348 </i>
    <i name="e_0_energy">   -109.35276850 </i>
   </energy>
  </scstep>
  <scstep>
   <time name="dav">    5.52    5.52</time>
   <time name="total">    6.02    6.00</time>
   <energy>
    <i name="e_fr_energy">   -109.35447069 </i>
    <i name="e_wo_entrp">   -109.34912192 </i>
    <i name="e_0_energy">   -109.35268776 </i>
   </energy>
  </scstep>
  <scstep>
   <time name="dav">    4.85    4.85</time>
   <time name="total">    4.90    4.89</time>
   <energy>
    <i name="alphaZ">    271.64501344 </i>
    <i name="ewald"> 148174.73430144 </i>
    <i name="hartreedc">-160394.22032022 </i>
    <i name="XCdc">     91.46900958 </i>
    <i name="pawpsdc">  15266.81015811 </i>
    <i name="pawaedc"> -14862.48976587 </i>
    <i name="eentropy">     -0.00535831 </i>
    <i name="bandstr">   -902.47915858 </i>
    <i name="atom">  12245.18164884 </i>
    <i name="e_fr_energy">   -109.35447155 </i>
    <i name="e_wo_entrp">   -109.34911324 </i>
    <i name="e_0_energy">   -109.35268545 </i>
   </energy>
  </scstep>
  <structure>
   <crystal>
    <varray name="basis" >
     <v>       5.54371716       0.00000000       0.00000000 </v>
     <v>       2.77185858       4.80099990       0.00000000 </v>
     <v>       0.00000000       0.00000000      36.78963917 </v>
    </varray>
    <i name="volume">    979.17042988 </i>
    <varray name="rec_basis" >
     <v>       0.18038438      -0.10414497       0.00000000 </v>
     <v>       0.00000000       0.20828994       0.00000000 </v>
     <v>       0.00000000       0.00000000       0.02718157 </v>
    </varray>
   </crystal>
   <varray name="positions" >
    <v>       0.00000000       0.00000000       0.40772349 </v>
    <v>       0.50000000       0.00000000       0.40772349 </v>
    <v>       0.00000000       0.50000000       0.40772349 </v>
    <v>       0.50000000       0.50000000       0.40772349 </v>
    <v>       0.16666667       0.16666667       0.46924116 </v>
    <v>       0.66666667       0.16666667       0.46924116 </v>
    <v>       0.16666667       0.66666667       0.46924116 </v>
    <v>       0.66666667       0.66666667       0.46924116 </v>
    <v>       0.84161583       0.33217931       0.53197887 </v>
    <v>       0.33920327       0.33232161       0.53200603 </v>
    <v>       0.84028800       0.83310637       0.53304005 </v>
    <v>       0.33908640       0.83466447       0.53201313 </v>
    <v>       0.01247246      -0.00194164       0.59832690 </v>
    <v>       0.51930023      -0.00241379       0.59801203 </v>
    <v>       0.01219715       0.50462632       0.59808992 </v>
    <v>       0.51437845       0.49995730       0.59390544 </v>
    <v>       0.18656320       0.16814577       0.66717768 </v>
    <v>       0.18377722       0.16776423       0.63474348 </v>
   </varray>
  </structure>
  <varray name="forces" >
   <v>       0.00820463       0.01251375      -0.41441797 </v>
   <v>      -0.03805474       0.01402589      -0.40431850 </v>
   <v>      -0.01364031      -0.02622298      -0.40930011 </v>
   <v>      -0.00922753       0.00072941      -0.45255412 </v>
   <v>       0.03637870      -0.00501243       0.44571206 </v>
   <v>       0.03413436      -0.02351717       0.40316444 </v>
   <v>       0.01878773       0.00638022       0.40782303 </v>
   <v>       0.05442871       0.00939495       0.40510341 </v>
   <v>      -0.00238381       0.00750882       0.01529934 </v>
   <v>      -0.00021793       0.00096062       0.01197755 </v>
   <v>      -0.00308960       0.00178433       0.01727930 </v>
   <v>       0.00455448       0.00190560       0.01228795 </v>
   <v>      -0.05143246      -0.02093686      -0.03190771 </v>
   <v>       0.03931977      -0.02969159      -0.01842273 </v>
   <v>      -0.01607931       0.05446718      -0.02035760 </v>
   <v>      -0.00304193       0.00379536      -0.00903813 </v>
   <v>      -0.04070269      -0.00430338       0.01676601 </v>
   <v>      -0.01793809      -0.00378173       0.02490380 </v>
  </varray>
  <varray name="stress" >
   <v>     -11.73899303      -0.04259112      -0.71291263 </v>
   <v>      -0.04259126     -11.75757876       0.01299044 </v>
   <v>      -0.71291267       0.01299023       4.76382885 </v>
  </varray>
  <energy>
   <i name="e_fr_energy">   -109.35447155 </i>
   <i name="e_wo_entrp">   -109.34911324 </i>
   <i name="e_0_energy">   -109.35268545 </i>
  </energy>
  <time name="totalsc">   47.06   46.39</time>
 </calculation>
 <calculation>
  <scstep>
   <time name="dav">    6.97    6.97</time>
   <time name="total">    7.47    7.45</time>
   <energy>
    <i name="alphaZ">    271.64501344 </i>
    <i name="ewald"> 148175.12262438 </i>
    <i name="hartreedc">-160394.63920738 </i>
    <i name="XCdc">     91.46669093 </i>
    <i name="pawpsdc">  15266.76374909 </i>
    <i name="pawaedc"> -14862.44336729 </i>
    <i name="eentropy">     -0.00532256 </i>
    <i name="bandstr">   -902.44642178 </i>
    <i name="atom">  12245.18164884 </i>
    <i name="e_fr_energy">   -109.35459233 </i>
    <i name="e_wo_entrp">   -109.34926976 </i>
    <i name="e_0_energy">   -109.35281814 </i>
   </energy>
  </scstep>
  <scstep>
   <time name="dav">    7.02    7.02</time>
   <time name="total">    7.52    7.50</time>
   <energy>
    <i name="e_fr_energy">   -109.35465617 </i>
    <i name="e_wo_entrp">   -109.34936534 </i>
    <i name="e_0_energy">   -109.35289256 </i>
   </energy>
  </scstep>
  <scstep>
   <time name="dav">    6.02    6.02</time>
   <time name="total">    6.52    6.50</time>
   <energy>
    <i name="e_fr_energy">   -109.35469903 </i>
    <i name="e_wo_entrp">   -109.34933988 </i>
    <i name="e_0_energy">   -109.35291265 </i>
   </energy>
  </scstep>
  <scstep>
   <time name="dav">    5.35    5.36</time>
   <time name="total">    5.86    5.83</time>
   <energy>
    <i name="e_fr_energy">   -109.35464777 </i>
    <i name="e_wo_entrp">   -109.34930746 </i>
    <i name="e_0_energy">   -109.35286766 </i>
   </energy>
  </scstep>
  <scstep>
   <time name="dav">    4.81    4.81</time>
   <time name="total">    4.87    4.85</time>
   <energy>
    <i name="alphaZ">    271.64501344 </i>
    <i name="ewald"> 148175.12262438 </i>
    <i name="hartreedc">-160394.56924688 </i>
    <i name="XCdc">     91.46525453 </i>
    <i name="pawpsdc">  15266.22687764 </i>
    <i name="pawaedc"> -14861.90690717 </i>
    <i name="eentropy">     -0.00528460 </i>
    <i name="bandstr">   -902.51462912 </i>
    <i name="atom">  12245.18164884 </i>
    <i name="e_fr_energy">   -109.35464893 </i>
    <i name="e_wo_entrp">   -109.34936433 </i>
    <i name="e_0_energy">   -109.35288740 </i>
   </energy>
  </scstep>
  <structure>
   <crystal>
    <varray name="basis" >
     <v>       5.54371716       0.00000000       0.00000000 </v>
     <v>       2.77185858       4.80099990       0.00000000 </v>
     <v>       0.00000000       0.00000000      36.78963917 </v>
    </varray>
    <i name="volume">    979.17042988 </i>
    <varray name="rec_basis" >
     <v>       0.18038438      -0.10414497       0.00000000 </v>
     <v>       0.00000000       0.20828994       0.00000000 </v>
     <v>       0.00000000       0.00000000       0.02718157 </v>
    </varray>
   </crystal>
   <varray name="positions" >
    <v>       0.00000000       0.00000000       0.40772349 </v>
    <v>       0.50000000       0.00000000       0.40772349 </v>
    <v>       0.00000000       0.50000000       0.40772349 </v>
    <v>       0.50000000       0.50000000       0.40772349 </v>
    <v>       0.16666667       0.16666667       0.46924116 </v>
    <v>       0.66666667       0.16666667       0.46924116 </v>
    <v>       0.16666667       0.66666667       0.46924116 </v>
    <v>       0.66666667       0.66666667       0.46924116 </v>
    <v>       0.84162315       0.33221118       0.53198401 </v>
    <v>       0.33922920       0.33233189       0.53201270 </v>
    <v>       0.84030661       0.83312731       0.53304613 </v>
    <v>       0.33911638       0.83468912       0.53201743 </v>
    <v>       0.01238390      -0.00197519       0.59831477 </v>
    <v>       0.51935350      -0.00243016       0.59801358 </v>
    <v>       0.01212168       0.50473515       0.59808618 </v>
    <v>       0.51435758       0.49998766       0.59390294 </v>
    <v>       0.18628306       0.16811071       0.66718685 </v>
    <v>       0.18360007       0.16771088       0.63473831 </v>
   </varray>
  </structure>
  <varray name="forces" >
   <v>       0.00828821       0.01249154      -0.41535085 </v>
   <v>      -0.03804551       0.01397079      -0.40509246 </v>
   <v>      -0.01362494      -0.02635732      -0.40976277 </v>
   <v>      -0.00924553       0.00062318      -0.45346301 </v>
   <v>       0.03670589      -0.00479461       0.44785774 </v>
   <v>       0.03436677      -0.02352405       0.40555478 </v>
   <v>       0.01893600       0.00640661       0.41030537 </v>
   <v>       0.05469889       0.00937836       0.40674133 </v>
   <v>      -0.00137550       0.00680680       0.01252909 </v>
   <v>      -0.00099803       0.00138667       0.00971917 </v>
   <v>      -0.00286799       0.00163880       0.01278793 </v>
   <v>       0.00372989       0.00229227       0.00995519 </v>
   <v>      -0.04148063      -0.01544212      -0.02813242 </v>
   <v>       0.02834879      -0.02308153      -0.01360067 </v>
   <v>      -0.01549158       0.04232478      -0.01589372 </v>
   <v>      -0.00399576       0.00361433      -0.00766765 </v>
   <v>      -0.04106954      -0.00446711      -0.02618438 </v>
   <v>      -0.01687944      -0.00326740       0.05969733 </v>
  </varray>
  <varray name="stress" >
   <v>     -11.75559907      -0.04033894      -0.70349571 </v>
   <v>      -0.04033898     -11.77488386       0.01368088 </v>
   <v>      -0.70349578       0.01368110       4.63134133 </v>
  </varray>
  <energy>
   <i name="e_fr_energy">   -109.35464893 </i>
   <i name="e_wo_entrp">   -109.34936433 </i>
   <i name="e_0_energy">   -109.35288740 </i>
  </energy>
  <time name="totalsc">   53.22   52.53</time>
 </calculation>
 <calculation>
  <scstep>
   <time name="dav">    6.97    6.97</time>
   <time name="total">    7.47    7.45</time>
   <energy>
    <i name="alphaZ">    271.64501344 </i>
    <i name="ewald"> 148175.90100382 </i>
    <i name="hartreedc">-160395.35408027 </i>
    <i name="XCdc">     91.46062295 </i>
    <i name="pawpsdc">  15265.94169301 </i>
    <i name="pawaedc"> -14861.62190327 </i>
    <i name="eentropy">     -0.00527773 </i>
    <i name="bandstr">   -902.50336030 </i>
    <i name="atom">  12245.18164884 </i>
    <i name="e_fr_energy">   -109.35463951 </i>
    <i name="e_wo_entrp">   -109.34936178 </i>
    <i name="e_0_energy">   -109.35288027 </i>
   </energy>
  </scstep>
  <scstep>
   <time name="dav">    7.02    7.02</time>
   <time name="total">    7.52    7.50</time>
   <energy>
    <i name="e_fr_energy">   -109.35487361 </i>
    <i name="e_wo_entrp">   -109.34971139 </i>
    <i name="e_0_energy">   -109.35315287 </i>
   </energy>
  </scstep>
  <scstep>
   <time name="dav">    7.60    7.60</time>
   <time name="total">    8.11    8.08</time>
   <energy>
    <i name="e_fr_energy">   -109.35487714 </i>
    <i name="e_wo_entrp">   -109.34949912 </i>
    <i name="e_0_energy">   -109.35308447 </i>
   </energy>
  </scstep>
  <scstep>
   <time name="dav">    5.89    5.89</time>
   <time name="total">    6.40    6.37</time>
   <energy>
    <i name="e_fr_energy">   -109.35486417 </i>
    <i name="e_wo_entrp">   -109.34967442 </i>
    <i name="e_0_energy">   -109.35313425 </i>
   </energy>
  </scstep>
  <scstep>
   <time name="dav">    6.01    6.01</time>
   <time name="total">    6.51    6.48</time>
   <energy>
    <i name="e_fr_energy">   -109.35497549 </i>
    <i name="e_wo_entrp">   -109.34972286 </i>
    <i name="e_0_energy">   -109.35322461 </i>
   </energy>
  </scstep>
  <scstep>
   <time name="dav">    5.95    5.95</time>
   <time name="total">    6.46    6.43</time>
   <energy>
    <i name="e_fr_energy">   -109.35485722 </i>
    <i name="e_wo_entrp">   -109.34963274 </i>
    <i name="e_0_energy">   -109.35311573 </i>
   </energy>
  </scstep>
  <scstep>
   <time name="dav">    4.89    4.89</time>
   <time name="total">    4.95    4.93</time>
   <energy>
    <i name="alphaZ">    271.64501344 </i>
    <i name="ewald"> 148175.90100382 </i>
    <i name="hartreedc">-160395.11398571 </i>
    <i name="XCdc">     91.45743871 </i>
    <i name="pawpsdc">  15264.09136645 </i>
    <i name="pawaedc"> -14859.77274834 </i>
    <i name="eentropy">     -0.00523832 </i>
    <i name="bandstr">   -902.73935803 </i>
    <i name="atom">  12245.18164884 </i>
    <i name="e_fr_energy">   -109.35485914 </i>
    <i name="e_wo_entrp">   -109.34962082 </i>
    <i name="e_0_energy">   -109.35311303 </i>
   </energy>
  </scstep>
  <structure>
   <crystal>
    <varray name="basis" >
     <v>       5.54371716       0.00000000       0.00000000 </v>
     <v>       2.77185858       4.80099990       0.00000000 </v>
     <v>       0.00000000       0.00000000      36.78963917 </v>
    </varray>
    <i name="volume">    979.17042988 </i>
    <varray name="rec_basis" >
     <v>       0.18038438      -0.10414497       0.00000000 </v>
     <v>       0.00000000       0.20828994       0.00000000 </v>
     <v>       0.00000000       0.00000000       0.02718157 </v>
    </varray>
   </crystal>
   <varray name="positions" >
    <v>       0.00000000       0.00000000       0.40772349 </v>
    <v>       0.50000000       0.00000000       0.40772349 </v>
    <v>       0.00000000       0.50000000       0.40772349 </v>
    <v>       0.50000000       0.50000000       0.40772349 </v>
    <v>       0.16666667       0.16666667       0.46924116 </v>
    <v>       0.66666667       0.16666667       0.46924116 </v>
    <v>       0.16666667       0.66666667       0.46924116 </v>
    <v>       0.66666667       0.66666667       0.46924116 </v>
    <v>       0.84163778       0.33227492       0.53199430 </v>
    <v>       0.33928106       0.33235246       0.53202604 </v>
    <v>       0.84034385       0.83316920       0.53305828 </v>
    <v>       0.33917634       0.83473843       0.53202603 </v>
    <v>       0.01220679      -0.00204228       0.59829052 </v>
    <v>       0.51946003      -0.00246290       0.59801668 </v>
    <v>       0.01197074       0.50495281       0.59807869 </v>
    <v>       0.51431583       0.50004839       0.59389796 </v>
    <v>       0.18572279       0.16804059       0.66720519 </v>
    <v>       0.18324577       0.16760418       0.63472797 </v>
   </varray>
  </structure>
  <varray name="forces" >
   <v>       0.00809879       0.01237800      -0.41539343 </v>
   <v>      -0.03812243       0.01379290      -0.40537034 </v>
   <v>      -0.01379481      -0.02653897      -0.41035954 </v>
   <v>      -0.00948800       0.00042658      -0.45333413 </v>
   <v>       0.03716974      -0.00440155       0.45020091 </v>
   <v>       0.03465325      -0.02371348       0.40811866 </v>
   <v>       0.01886579       0.00655293       0.41325495 </v>
   <v>       0.05515596       0.00944412       0.40837120 </v>
   <v>      -0.00003030       0.00544834       0.00767180 </v>
   <v>      -0.00253690       0.00209316       0.00568242 </v>
   <v>      -0.00272630       0.00142878       0.00435576 </v>
   <v>       0.00196702       0.00285980       0.00621367 </v>
   <v>      -0.02390799      -0.00569358      -0.02083655 </v>
   <v>       0.00766139      -0.01072452      -0.00411098 </v>
   <v>      -0.01458173       0.01986741      -0.00759188 </v>
   <v>      -0.00607223       0.00321107      -0.00476716 </v>
   <v>      -0.03883089      -0.00458639      -0.11741706 </v>
   <v>      -0.01348037      -0.00184460       0.13531171 </v>
  </varray>
  <varray name="stress" >
   <v>     -11.74723616      -0.03181164      -0.68330367 </v>
   <v>      -0.03181162     -11.77041592       0.01631553 </v>
   <v>      -0.68330403       0.01631544       4.47789697 </v>
  </varray>
  <energy>
   <i name="e_fr_energy">   -109.35485914 </i>
   <i name="e_wo_entrp">   -109.34962082 </i>
   <i name="e_0_energy">   -109.35311303 </i>
  </energy>
  <time name="totalsc">   68.38   67.63</time>
 </calculation>
 <calculation>
  <scstep>
   <time name="dav">    6.97    6.97</time>
   <time name="total">    7.48    7.46</time>
   <energy>
    <i name="alphaZ">    271.64501344 </i>
    <i name="ewald"> 148177.46471609 </i>
    <i name="hartreedc">-160396.86703667 </i>
    <i name="XCdc">     91.44853384 </i>
    <i name="pawpsdc">  15264.03197928 </i>
    <i name="pawaedc"> -14859.71320211 </i>
    <i name="eentropy">     -0.00512734 </i>
    <i name="bandstr">   -902.54034699 </i>
    <i name="atom">  12245.18164884 </i>
    <i name="e_fr_energy">   -109.35382160 </i>
    <i name="e_wo_entrp">   -109.34869426 </i>
    <i name="e_0_energy">   -109.35211248 </i>
   </energy>
  </scstep>
  <scstep>
   <time name="dav">    7.15    7.15</time>
   <time name="total">    7.66    7.63</time>
   <energy>
    <i name="e_fr_energy">   -109.35483814 </i>
    <i name="e_wo_entrp">   -109.34973220 </i>
    <i name="e_0_energy">   -109.35313616 </i>
   </energy>
  </scstep>
  <scstep>
   <time name="dav">    8.05    8.05</time>
   <time name="total">    8.55    8.53</time>
   <energy>
    <i name="e_fr_energy">   -109.35541474 </i>
    <i name="e_wo_entrp">   -109.35043049 </i>
    <i name="e_0_energy">   -109.35375333 </i>
   </energy>
  </scstep>
  <scstep>
   <time name="dav">    7.96    7.96</time>
   <time name="total">    8.47    8.44</time>
   <energy>
    <i name="e_fr_energy">   -109.35476184 </i>
    <i name="e_wo_entrp">   -109.34957306 </i>
    <i name="e_0_energy">   -109.35303225 </i>
   </energy>
  </scstep>
  <scstep>
   <time name="dav">    7.65    7.65</time>
   <time name="total">    8.15    8.12</time>
   <energy>
    <i name="e_fr_energy">   -109.35476100 </i>
    <i name="e_wo_entrp">   -109.34982158 </i>
    <i name="e_0_energy">   -109.35311453 </i>
   </energy>
  </scstep>
  <scstep>
   <time name="dav">    7.33    7.33</time>
   <time name="total">    7.84    7.81</time>
   <energy>
    <i name="e_fr_energy">   -109.35472905 </i>
    <i name="e_wo_entrp">   -109.34955584 </i>
    <i name="e_0_energy">   -109.35300465 </i>
   </energy>
  </scstep>
  <scstep>
   <time name="dav">    6.08    6.09</time>
   <time name="total">    6.14    6.12</time>
   <energy>
    <i name="alphaZ">    271.64501344 </i>
    <i name="ewald"> 148177.46471609 </i>
    <i name="hartreedc">-160396.41539894 </i>
    <i name="XCdc">     91.44279527 </i>
    <i name="pawpsdc">  15260.88230757 </i>
    <i name="pawaedc"> -14856.56610009 </i>
    <i name="eentropy">     -0.00509171 </i>
    <i name="bandstr">   -902.98461260 </i>
    <i name="atom">  12245.18164884 </i>
    <i name="e_fr_energy">   -109.35472212 </i>
    <i name="e_wo_entrp">   -109.34963041 </i>
    <i name="e_0_energy">   -109.35302489 </i>
   </energy>
  </scstep>
  <structure>
   <crystal>
    <varray name="basis" >
     <v>       5.54371716       0.00000000       0.00000000 </v>
     <v>       2.77185858       4.80099990       0.00000000 </v>
     <v>       0.00000000       0.00000000      36.78963917 </v>
    </varray>
    <i name="volume">    979.17042988 </i>
    <varray name="rec_basis" >
     <v>       0.18038438      -0.10414497       0.00000000 </v>
     <v>       0.00000000       0.20828994       0.00000000 </v>
     <v>       0.00000000       0.00000000       0.02718157 </v>
    </varray>
   </crystal>
   <varray name="positions" >
    <v>       0.00000000       0.00000000       0.40772349 </v>
    <v>       0.50000000       0.00000000       0.40772349 </v>
    <v>       0.00000000       0.50000000       0.40772349 </v>
    <v>       0.50000000       0.50000000       0.40772349 </v>
    <v>       0.16666667       0.16666667       0.46924116 </v>
    <v>       0.66666667       0.16666667       0.46924116 </v>
    <v>       0.16666667       0.66666667       0.46924116 </v>
    <v>       0.66666667       0.66666667       0.46924116 </v>
    <v>       0.84166704       0.33240239       0.53201486 </v>
    <v>       0.33938478       0.33239359       0.53205272 </v>
    <v>       0.84041833       0.83325298       0.53308259 </v>
    <v>       0.33929627       0.83483705       0.53204322 </v>
    <v>       0.01185257      -0.00217647       0.59824202 </v>
    <v>       0.51967310      -0.00252837       0.59802289 </v>
    <v>       0.01166886       0.50538814       0.59806370 </v>
    <v>       0.51423234       0.50016985       0.59388799 </v>
    <v>       0.18460225       0.16790035       0.66724188 </v>
    <v>       0.18253717       0.16739079       0.63470730 </v>
   </varray>
  </structure>
  <varray name="forces" >
   <v>       0.00768850       0.01234347      -0.41651768 </v>
   <v>      -0.03844728       0.01362846      -0.40602737 </v>
   <v>      -0.01425791      -0.02678720      -0.41103514 </v>
   <v>      -0.01014396       0.00014932      -0.45365679 </v>
   <v>       0.03789263      -0.00348953       0.45566585 </v>
   <v>       0.03510691      -0.02389454       0.41429421 </v>
   <v>       0.01865307       0.00700608       0.42008529 </v>
   <v>       0.05586033       0.00966913       0.41237656 </v>
   <v>       0.00234546       0.00226154      -0.00310141 </v>
   <v>      -0.00665780       0.00350521      -0.00334626 </v>
   <v>      -0.00318173       0.00071258      -0.01388877 </v>
   <v>      -0.00265901       0.00394101      -0.00239048 </v>
   <v>       0.01408038       0.01504052      -0.00456606 </v>
   <v>      -0.03513311       0.01449514       0.01484143 </v>
   <v>      -0.01260385      -0.02716906       0.01009437 </v>
   <v>      -0.01018035       0.00207890       0.00157280 </v>
   <v>      -0.03099183      -0.00454809      -0.29660413 </v>
   <v>      -0.00737046       0.00105707       0.28220358 </v>
  </varray>
  <varray name="stress" >
   <v>     -11.75213429      -0.01795286      -0.63990318 </v>
   <v>      -0.01795285     -11.78099412       0.02117051 </v>
   <v>      -0.63990306       0.02117052       4.10439960 </v>
  </varray>
  <energy>
   <i name="e_fr_energy">   -109.35472212 </i>
   <i name="e_wo_entrp">   -109.34963041 </i>
   <i name="e_0_energy">   -109.35302489 </i>
  </energy>
  <time name="totalsc">   75.33   74.58</time>
 </calculation>
 <calculation>
  <scstep>
   <time name="dav">    6.97    6.97</time>
   <time name="total">    7.47    7.45</time>
   <energy>
    <i name="alphaZ">    271.64501344 </i>
    <i name="ewald"> 148176.40223908 </i>
    <i name="hartreedc">-160395.18709984 </i>
    <i name="XCdc">     91.44839297 </i>
    <i name="pawpsdc">  15260.74443414 </i>
    <i name="pawaedc"> -14856.42809561 </i>
    <i name="eentropy">     -0.00520491 </i>
    <i name="bandstr">   -903.15581521 </i>
    <i name="atom">  12245.18164884 </i>
    <i name="e_fr_energy">   -109.35448709 </i>
    <i name="e_wo_entrp">   -109.34928218 </i>
    <i name="e_0_energy">   -109.35275212 </i>
   </energy>
  </scstep>
  <scstep>
   <time name="dav">    7.24    7.24</time>
   <time name="total">    7.74    7.72</time>
   <energy>
    <i name="e_fr_energy">   -109.35505687 </i>
    <i name="e_wo_entrp">   -109.34992124 </i>
    <i name="e_0_energy">   -109.35334499 </i>
   </energy>
  </scstep>
  <scstep>
   <time name="dav">    7.96    7.96</time>
   <time name="total">    8.46    8.43</time>
   <energy>
    <i name="e_fr_energy">   -109.35504854 </i>
    <i name="e_wo_entrp">   -109.34980686 </i>
    <i name="e_0_energy">   -109.35330131 </i>
   </energy>
  </scstep>
  <scstep>
   <time name="dav">    7.56    7.56</time>
   <time name="total">    8.06    8.04</time>
   <energy>
    <i name="e_fr_energy">   -109.35491965 </i>
    <i name="e_wo_entrp">   -109.34974235 </i>
    <i name="e_0_energy">   -109.35319388 </i>
   </energy>
  </scstep>
  <scstep>
   <time name="dav">    6.38    6.38</time>
   <time name="total">    6.89    6.86</time>
   <energy>
    <i name="e_fr_energy">   -109.35490715 </i>
    <i name="e_wo_entrp">   -109.34970014 </i>
    <i name="e_0_energy">   -109.35317148 </i>
   </energy>
  </scstep>
  <scstep>
   <time name="dav">    5.54    5.54</time>
   <time name="total">    5.59    5.58</time>
   <energy>
    <i name="alphaZ">    271.64501344 </i>
    <i name="ewald"> 148176.40223908 </i>
    <i name="hartreedc">-160395.42478524 </i>
    <i name="XCdc">     91.45183440 </i>
    <i name="pawpsdc">  15262.44868531 </i>
    <i name="pawaedc"> -14858.13036973 </i>
    <i name="eentropy">     -0.00515836 </i>
    <i name="bandstr">   -902.92400938 </i>
    <i name="atom">  12245.18164884 </i>
    <i name="e_fr_energy">   -109.35490163 </i>
    <i name="e_wo_entrp">   -109.34974327 </i>
    <i name="e_0_energy">   -109.35318218 </i>
   </energy>
  </scstep>
  <structure>
   <crystal>
    <varray name="basis" >
     <v>       5.54371716       0.00000000       0.00000000 </v>
     <v>       2.77185858       4.80099990       0.00000000 </v>
     <v>       0.00000000       0.00000000      36.78963917 </v>
    </varray>
    <i name="volume">    979.17042988 </i>
    <varray name="rec_basis" >
     <v>       0.18038438      -0.10414497       0.00000000 </v>
     <v>       0.00000000       0.20828994       0.00000000 </v>
     <v>       0.00000000       0.00000000       0.02718157 </v>
    </varray>
   </crystal>
   <varray name="positions" >
    <v>       0.00000000       0.00000000       0.40772349 </v>
    <v>       0.50000000       0.00000000       0.40772349 </v>
    <v>       0.00000000       0.50000000       0.40772349 </v>
    <v>       0.50000000       0.50000000       0.40772349 </v>
    <v>       0.16666667       0.16666667       0.46924116 </v>
    <v>       0.66666667       0.16666667       0.46924116 </v>
    <v>       0.16666667       0.66666667       0.46924116 </v>
    <v>       0.66666667       0.66666667       0.46924116 </v>
    <v>       0.84164718       0.33231586       0.53200090 </v>
    <v>       0.33931438       0.33236567       0.53203461 </v>
    <v>       0.84036777       0.83319611       0.53306609 </v>
    <v>       0.33921486       0.83477011       0.53203155 </v>
    <v>       0.01209302      -0.00208538       0.59827494 </v>
    <v>       0.51952847      -0.00248392       0.59801868 </v>
    <v>       0.01187378       0.50509264       0.59807387 </v>
    <v>       0.51428901       0.50008740       0.59389476 </v>
    <v>       0.18536289       0.16799555       0.66721697 </v>
    <v>       0.18301817       0.16753564       0.63472133 </v>
   </varray>
  </structure>
  <varray name="forces" >
   <v>       0.00792073       0.01243338      -0.41479888 </v>
   <v>      -0.03816758       0.01385492      -0.40610440 </v>
   <v>      -0.01388764      -0.02649778      -0.41120816 </v>
   <v>      -0.00973903       0.00043184      -0.45331519 </v>
   <v>       0.03734256      -0.00403900       0.45154224 </v>
   <v>       0.03488707      -0.02366335       0.40973344 </v>
   <v>       0.01883475       0.00685930       0.41506324 </v>
   <v>       0.05530166       0.00958840       0.41016707 </v>
   <v>       0.00048998       0.00392503       0.00423727 </v>
   <v>      -0.00405891       0.00248885       0.00202099 </v>
   <v>      -0.00291350       0.00129287      -0.00169129 </v>
   <v>      -0.00013787       0.00330805       0.00348610 </v>
   <v>      -0.01084182       0.00096330      -0.01485600 </v>
   <v>      -0.00529770      -0.00298837       0.00142083 </v>
   <v>      -0.01346183       0.00509982      -0.00228592 </v>
   <v>      -0.00732262       0.00262801      -0.00163780 </v>
   <v>      -0.03627291      -0.00449540      -0.17670250 </v>
   <v>      -0.01267533      -0.00118989       0.18492898 </v>
  </varray>
  <varray name="stress" >
   <v>     -11.74823680      -0.02542032      -0.66496784 </v>
   <v>      -0.02542026     -11.77704050       0.01981263 </v>
   <v>      -0.66496792       0.01981271       4.31575256 </v>
  </varray>
  <energy>
   <i name="e_fr_energy">   -109.35490163 </i>
   <i name="e_wo_entrp">   -109.34974327 </i>
   <i name="e_0_energy">   -109.35318218 </i>
  </energy>
  <time name="totalsc">   65.18   64.45</time>
 </calculation>
 <calculation>
  <scstep>
   <time name="dav">    6.97    6.97</time>
   <time name="total">    7.47    7.45</time>
   <energy>
    <i name="alphaZ">    271.64501344 </i>
    <i name="ewald"> 148176.70217076 </i>
    <i name="hartreedc">-160395.67052777 </i>
    <i name="XCdc">     91.45243067 </i>
    <i name="pawpsdc">  15262.62068830 </i>
    <i name="pawaedc"> -14858.30255510 </i>
    <i name="eentropy">     -0.00523093 </i>
    <i name="bandstr">   -902.97858843 </i>
    <i name="atom">  12245.18164884 </i>
    <i name="e_fr_energy">   -109.35495022 </i>
    <i name="e_wo_entrp">   -109.34971928 </i>
    <i name="e_0_energy">   -109.35320657 </i>
   </energy>
  </scstep>
  <scstep>
   <time name="dav">    7.42    7.42</time>
   <time name="total">    7.93    7.91</time>
   <energy>
    <i name="e_fr_energy">   -109.35507734 </i>
    <i name="e_wo_entrp">   -109.35003832 </i>
    <i name="e_0_energy">   -109.35339767 </i>
   </energy>
  </scstep>
  <scstep>
   <time name="dav">    5.87    5.87</time>
   <time name="total">    6.37    6.35</time>
   <energy>
    <i name="e_fr_energy">   -109.35495417 </i>
    <i name="e_wo_entrp">   -109.34982579 </i>
    <i name="e_0_energy">   -109.35324471 </i>
   </energy>
  </scstep>
  <scstep>
   <time name="dav">    4.96    4.96</time>
   <time name="total">    5.02    5.00</time>
   <energy>
    <i name="alphaZ">    271.64501344 </i>
    <i name="ewald"> 148176.70217076 </i>
    <i name="hartreedc">-160395.70080377 </i>
    <i name="XCdc">     91.45275179 </i>
    <i name="pawpsdc">  15262.77824440 </i>
    <i name="pawaedc"> -14858.46016494 </i>
    <i name="eentropy">     -0.00520639 </i>
    <i name="bandstr">   -902.94860783 </i>
    <i name="atom">  12245.18164884 </i>
    <i name="e_fr_energy">   -109.35495370 </i>
    <i name="e_wo_entrp">   -109.34974731 </i>
    <i name="e_0_energy">   -109.35321823 </i>
   </energy>
  </scstep>
  <structure>
   <crystal>
    <varray name="basis" >
     <v>       5.54371716       0.00000000       0.00000000 </v>
     <v>       2.77185858       4.80099990       0.00000000 </v>
     <v>       0.00000000       0.00000000      36.78963917 </v>
    </varray>
    <i name="volume">    979.17042988 </i>
    <varray name="rec_basis" >
     <v>       0.18038438      -0.10414497       0.00000000 </v>
     <v>       0.00000000       0.20828994       0.00000000 </v>
     <v>       0.00000000       0.00000000       0.02718157 </v>
    </varray>
   </crystal>
   <varray name="positions" >
    <v>       0.00000000       0.00000000       0.40772349 </v>
    <v>       0.50000000       0.00000000       0.40772349 </v>
    <v>       0.00000000       0.50000000       0.40772349 </v>
    <v>       0.50000000       0.50000000       0.40772349 </v>
    <v>       0.16666667       0.16666667       0.46924116 </v>
    <v>       0.66666667       0.16666667       0.46924116 </v>
    <v>       0.16666667       0.66666667       0.46924116 </v>
    <v>       0.66666667       0.66666667       0.46924116 </v>
    <v>       0.84164885       0.33232500       0.53200236 </v>
    <v>       0.33932042       0.33236883       0.53203642 </v>
    <v>       0.84037216       0.83320189       0.53306767 </v>
    <v>       0.33922250       0.83477723       0.53203277 </v>
    <v>       0.01206780      -0.00209411       0.59827139 </v>
    <v>       0.51954206      -0.00248879       0.59801912 </v>
    <v>       0.01185128       0.50512240       0.59807283 </v>
    <v>       0.51428214       0.50009592       0.59389406 </v>
    <v>       0.18528347       0.16798546       0.66721537 </v>
    <v>       0.18296937       0.16752128       0.63472419 </v>
   </varray>
  </structure>
  <varray name="forces" >
   <v>       0.00801545       0.01246152      -0.41494740 </v>
   <v>      -0.03818050       0.01387281      -0.40569526 </v>
   <v>      -0.01386042      -0.02651468      -0.41029596 </v>
   <v>      -0.00967507       0.00045885      -0.45320321 </v>
   <v>       0.03758161      -0.00390108       0.45179709 </v>
   <v>       0.03491878      -0.02372714       0.40998613 </v>
   <v>       0.01882817       0.00688372       0.41527578 </v>
   <v>       0.05558004       0.00969866       0.40944158 </v>
   <v>       0.00063417       0.00392642       0.00339176 </v>
   <v>      -0.00431022       0.00272673       0.00163100 </v>
   <v>      -0.00305940       0.00107826      -0.00294635 </v>
   <v>      -0.00034461       0.00307591       0.00270041 </v>
   <v>      -0.00742198       0.00293911      -0.01287412 </v>
   <v>      -0.00939861      -0.00059831       0.00296672 </v>
   <v>      -0.01329740       0.00035598      -0.00027823 </v>
   <v>      -0.00750411       0.00252705      -0.00225339 </v>
   <v>      -0.03690260      -0.00454298      -0.16621108 </v>
   <v>      -0.01160331      -0.00072084       0.17151453 </v>
  </varray>
  <varray name="stress" >
   <v>     -11.73718054      -0.02882042      -0.66551514 </v>
   <v>      -0.02882042     -11.76103910       0.01763792 </v>
   <v>      -0.66551521       0.01763780       4.40558257 </v>
  </varray>
  <energy>
   <i name="e_fr_energy">   -109.35495370 </i>
   <i name="e_wo_entrp">   -109.34974731 </i>
   <i name="e_0_energy">   -109.35321823 </i>
  </energy>
  <time name="totalsc">   47.76   47.08</time>
 </calculation>
 <calculation>
  <scstep>
   <time name="dav">    6.97    6.97</time>
   <time name="total">    7.47    7.45</time>
   <energy>
    <i name="alphaZ">    271.64501344 </i>
    <i name="ewald"> 148177.60225553 </i>
    <i name="hartreedc">-160396.59352161 </i>
    <i name="XCdc">     91.45364226 </i>
    <i name="pawpsdc">  15262.83661704 </i>
    <i name="pawaedc"> -14858.51848050 </i>
    <i name="eentropy">     -0.00517058 </i>
    <i name="bandstr">   -902.95705946 </i>
    <i name="atom">  12245.18164884 </i>
    <i name="e_fr_energy">   -109.35505503 </i>
    <i name="e_wo_entrp">   -109.34988445 </i>
    <i name="e_0_energy">   -109.35333150 </i>
   </energy>
  </scstep>
  <scstep>
   <time name="dav">    7.35    7.35</time>
   <time name="total">    7.86    7.83</time>
   <energy>
    <i name="e_fr_energy">   -109.35512657 </i>
    <i name="e_wo_entrp">   -109.34995442 </i>
    <i name="e_0_energy">   -109.35340252 </i>
   </energy>
  </scstep>
  <scstep>
   <time name="dav">    5.88    5.88</time>
   <time name="total">    6.39    6.36</time>
   <energy>
    <i name="e_fr_energy">   -109.35510263 </i>
    <i name="e_wo_entrp">   -109.34995539 </i>
    <i name="e_0_energy">   -109.35338688 </i>
   </energy>
  </scstep>
  <scstep>
   <time name="dav">    4.92    4.92</time>
   <time name="total">    4.98    4.96</time>
   <energy>
    <i name="alphaZ">    271.64501344 </i>
    <i name="ewald"> 148177.60225553 </i>
    <i name="hartreedc">-160396.65549600 </i>
    <i name="XCdc">     91.45414778 </i>
    <i name="pawpsdc">  15263.06868966 </i>
    <i name="pawaedc"> -14858.75034516 </i>
    <i name="eentropy">     -0.00519559 </i>
    <i name="bandstr">   -902.89581251 </i>
    <i name="atom">  12245.18164884 </i>
    <i name="e_fr_energy">   -109.35509401 </i>
    <i name="e_wo_entrp">   -109.34989842 </i>
    <i name="e_0_energy">   -109.35336214 </i>
   </energy>
  </scstep>
  <structure>
   <crystal>
    <varray name="basis" >
     <v>       5.54371716       0.00000000       0.00000000 </v>
     <v>       2.77185858       4.80099990       0.00000000 </v>
     <v>       0.00000000       0.00000000      36.78963917 </v>
    </varray>
    <i name="volume">    979.17042988 </i>
    <varray name="rec_basis" >
     <v>       0.18038438      -0.10414497       0.00000000 </v>
     <v>       0.00000000       0.20828994       0.00000000 </v>
     <v>       0.00000000       0.00000000       0.02718157 </v>
    </varray>
   </crystal>
   <varray name="positions" >
    <v>       0.00000000       0.00000000       0.40772349 </v>
    <v>       0.50000000       0.00000000       0.40772349 </v>
    <v>       0.00000000       0.50000000       0.40772349 </v>
    <v>       0.50000000       0.50000000       0.40772349 </v>
    <v>       0.16666667       0.16666667       0.46924116 </v>
    <v>       0.66666667       0.16666667       0.46924116 </v>
    <v>       0.16666667       0.66666667       0.46924116 </v>
    <v>       0.66666667       0.66666667       0.46924116 </v>
    <v>       0.84165386       0.33235242       0.53200674 </v>
    <v>       0.33933855       0.33237832       0.53204187 </v>
    <v>       0.84038531       0.83321924       0.53307238 </v>
    <v>       0.33924543       0.83479858       0.53203643 </v>
    <v>       0.01199215      -0.00212030       0.59826072 </v>
    <v>       0.51958282      -0.00250338       0.59802045 </v>
    <v>       0.01178376       0.50521168       0.59806969 </v>
    <v>       0.51426150       0.50012146       0.59389196 </v>
    <v>       0.18504524       0.16795520       0.66721055 </v>
    <v>       0.18282295       0.16747821       0.63473276 </v>
   </varray>
  </structure>
  <varray name="forces" >
   <v>       0.00807923       0.01246867      -0.41561643 </v>
   <v>      -0.03815788       0.01382108      -0.40612692 </v>
   <v>      -0.01387595      -0.02650912      -0.41024530 </v>
   <v>      -0.00968922       0.00045299      -0.45348361 </v>
   <v>       0.03783494      -0.00367462       0.45318429 </v>
   <v>       0.03512329      -0.02375682       0.41159850 </v>
   <v>       0.01889096       0.00702766       0.41682861 </v>
   <v>       0.05587472       0.00979081       0.41045561 </v>
   <v>       0.00112163       0.00304757       0.00131078 </v>
   <v>      -0.00515800       0.00307888      -0.00003218 </v>
   <v>      -0.00308659       0.00091898      -0.00635128 </v>
   <v>      -0.00155332       0.00321451       0.00097941 </v>
   <v>       0.00149553       0.00778234      -0.00978375 </v>
   <v>      -0.01901336       0.00531164       0.00679182 </v>
   <v>      -0.01247108      -0.01039144       0.00353422 </v>
   <v>      -0.00833819       0.00222846      -0.00049080 </v>
   <v>      -0.03543323      -0.00440797      -0.13306720 </v>
   <v>      -0.01164347      -0.00040362       0.13051422 </v>
  </varray>
  <varray name="stress" >
   <v>     -11.72849872      -0.02559319      -0.65328870 </v>
   <v>      -0.02559318     -11.75378706       0.01906265 </v>
   <v>      -0.65328862       0.01906278       4.48647725 </v>
  </varray>
  <energy>
   <i name="e_fr_energy">   -109.35509401 </i>
   <i name="e_wo_entrp">   -109.34989842 </i>
   <i name="e_0_energy">   -109.35336214 </i>
  </energy>
  <time name="totalsc">   47.65   46.97</time>
 </calculation>
 <calculation>
  <scstep>
   <time name="dav">    6.97    6.97</time>
   <time name="total">    7.47    7.45</time>
   <energy>
    <i name="alphaZ">    271.64501344 </i>
    <i name="ewald"> 148179.40372913 </i>
    <i name="hartreedc">-160398.48818314 </i>
    <i name="XCdc">     91.45601004 </i>
    <i name="pawpsdc">  15263.16192009 </i>
    <i name="pawaedc"> -14858.84346944 </i>
    <i name="eentropy">     -0.00506943 </i>
    <i name="bandstr">   -902.86671047 </i>
    <i name="atom">  12245.18164884 </i>
    <i name="e_fr_energy">   -109.35511094 </i>
    <i name="e_wo_entrp">   -109.35004151 </i>
    <i name="e_0_energy">   -109.35342113 </i>
   </energy>
  </scstep>
  <scstep>
   <time name="dav">    7.32    7.32</time>
   <time name="total">    7.83    7.81</time>
   <energy>
    <i name="e_fr_energy">   -109.35542544 </i>
    <i name="e_wo_entrp">   -109.35013220 </i>
    <i name="e_0_energy">   -109.35366103 </i>
   </energy>
  </scstep>
  <scstep>
   <time name="dav">    7.73    7.73</time>
   <time name="total">    8.23    8.21</time>
   <energy>
    <i name="e_fr_energy">   -109.35531560 </i>
    <i name="e_wo_entrp">   -109.35017335 </i>
    <i name="e_0_energy">   -109.35360152 </i>
   </energy>
  </scstep>
  <scstep>
   <time name="dav">    6.73    6.73</time>
   <time name="total">    7.24    7.21</time>
   <energy>
    <i name="e_fr_energy">   -109.35527182 </i>
    <i name="e_wo_entrp">   -109.35026199 </i>
    <i name="e_0_energy">   -109.35360188 </i>
   </energy>
  </scstep>
  <scstep>
   <time name="dav">    5.36    5.36</time>
   <time name="total">    5.87    5.84</time>
   <energy>
    <i name="e_fr_energy">   -109.35526077 </i>
    <i name="e_wo_entrp">   -109.35010052 </i>
    <i name="e_0_energy">   -109.35354068 </i>
   </energy>
  </scstep>
  <scstep>
   <time name="dav">    5.22    5.22</time>
   <time name="total">    5.28    5.26</time>
   <energy>
    <i name="alphaZ">    271.64501344 </i>
    <i name="ewald"> 148179.40372913 </i>
    <i name="hartreedc">-160398.80179999 </i>
    <i name="XCdc">     91.45779914 </i>
    <i name="pawpsdc">  15263.95482400 </i>
    <i name="pawaedc"> -14859.63619156 </i>
    <i name="eentropy">     -0.00512984 </i>
    <i name="bandstr">   -902.55515313 </i>
    <i name="atom">  12245.18164884 </i>
    <i name="e_fr_energy">   -109.35525997 </i>
    <i name="e_wo_entrp">   -109.35013014 </i>
    <i name="e_0_energy">   -109.35355003 </i>
   </energy>
  </scstep>
  <structure>
   <crystal>
    <varray name="basis" >
     <v>       5.54371716       0.00000000       0.00000000 </v>
     <v>       2.77185858       4.80099990       0.00000000 </v>
     <v>       0.00000000       0.00000000      36.78963917 </v>
    </varray>
    <i name="volume">    979.17042988 </i>
    <varray name="rec_basis" >
     <v>       0.18038438      -0.10414497       0.00000000 </v>
     <v>       0.00000000       0.20828994       0.00000000 </v>
     <v>       0.00000000       0.00000000       0.02718157 </v>
    </varray>
   </crystal>
   <varray name="positions" >
    <v>       0.00000000       0.00000000       0.40772349 </v>
    <v>       0.50000000       0.00000000       0.40772349 </v>
    <v>       0.00000000       0.50000000       0.40772349 </v>
    <v>       0.50000000       0.50000000       0.40772349 </v>
    <v>       0.16666667       0.16666667       0.46924116 </v>
    <v>       0.66666667       0.16666667       0.46924116 </v>
    <v>       0.16666667       0.66666667       0.46924116 </v>
    <v>       0.66666667       0.66666667       0.46924116 </v>
    <v>       0.84166389       0.33240727       0.53201550 </v>
    <v>       0.33937482       0.33239730       0.53205276 </v>
    <v>       0.84041161       0.83325393       0.53308182 </v>
    <v>       0.33929128       0.83484130       0.53204375 </v>
    <v>       0.01184084      -0.00217268       0.59823939 </v>
    <v>       0.51966434      -0.00253257       0.59802311 </v>
    <v>       0.01164871       0.50539024       0.59806342 </v>
    <v>       0.51422024       0.50017255       0.59388777 </v>
    <v>       0.18456876       0.16789468       0.66720091 </v>
    <v>       0.18253011       0.16739205       0.63474990 </v>
   </varray>
  </structure>
  <varray name="forces" >
   <v>       0.00815737       0.01231382      -0.41513591 </v>
   <v>      -0.03805617       0.01365923      -0.40597353 </v>
   <v>      -0.01379657      -0.02668162      -0.40884835 </v>
   <v>      -0.00963013       0.00025208      -0.45281926 </v>
   <v>       0.03843774      -0.00338340       0.45551282 </v>
   <v>       0.03550362      -0.02367686       0.41431714 </v>
   <v>       0.01933114       0.00692873       0.41941117 </v>
   <v>       0.05622394       0.00965880       0.41166319 </v>
   <v>       0.00275735       0.00223755      -0.00366542 </v>
   <v>      -0.00611763       0.00371208      -0.00385125 </v>
   <v>      -0.00279418       0.00076498      -0.01298709 </v>
   <v>      -0.00239518       0.00379975      -0.00359544 </v>
   <v>       0.01659559       0.01616896      -0.00381002 </v>
   <v>      -0.03720666       0.01631336       0.01376458 </v>
   <v>      -0.01161845      -0.03001384       0.00993002 </v>
   <v>      -0.01029201       0.00198396       0.00138799 </v>
   <v>      -0.03501870      -0.00465898      -0.05732604 </v>
   <v>      -0.01008107       0.00062141       0.04202539 </v>
  </varray>
  <varray name="stress" >
   <v>     -11.77003032      -0.02035006      -0.63550155 </v>
   <v>      -0.02035000     -11.79705469       0.02064190 </v>
   <v>      -0.63550156       0.02064200       4.54252941 </v>
  </varray>
  <energy>
   <i name="e_fr_energy">   -109.35525997 </i>
   <i name="e_wo_entrp">   -109.35013014 </i>
   <i name="e_0_energy">   -109.35355003 </i>
  </energy>
  <time name="totalsc">   62.86   62.14</time>
 </calculation>
 <calculation>
  <scstep>
   <time name="dav">    6.97    6.97</time>
   <time name="total">    7.48    7.46</time>
   <energy>
    <i name="alphaZ">    271.64501344 </i>
    <i name="ewald"> 148183.01190011 </i>
    <i name="hartreedc">-160402.29679198 </i>
    <i name="XCdc">     91.46159970 </i>
    <i name="pawpsdc">  15263.99953119 </i>
    <i name="pawaedc"> -14859.68138648 </i>
    <i name="eentropy">     -0.00502406 </i>
    <i name="bandstr">   -902.67100360 </i>
    <i name="atom">  12245.18164884 </i>
    <i name="e_fr_energy">   -109.35451283 </i>
    <i name="e_wo_entrp">   -109.34948878 </i>
    <i name="e_0_energy">   -109.35283815 </i>
   </energy>
  </scstep>
  <scstep>
   <time name="dav">    7.30    7.30</time>
   <time name="total">    7.80    7.78</time>
   <energy>
    <i name="e_fr_energy">   -109.35551742 </i>
    <i name="e_wo_entrp">   -109.35052002 </i>
    <i name="e_0_energy">   -109.35385162 </i>
   </energy>
  </scstep>
  <scstep>
   <time name="dav">    7.86    7.86</time>
   <time name="total">    8.36    8.33</time>
   <energy>
    <i name="e_fr_energy">   -109.35540527 </i>
    <i name="e_wo_entrp">   -109.35048279 </i>
    <i name="e_0_energy">   -109.35376444 </i>
   </energy>
  </scstep>
  <scstep>
   <time name="dav">    7.60    7.61</time>
   <time name="total">    8.11    8.08</time>
   <energy>
    <i name="e_fr_energy">   -109.35517127 </i>
    <i name="e_wo_entrp">   -109.35003622 </i>
    <i name="e_0_energy">   -109.35345959 </i>
   </energy>
  </scstep>
  <scstep>
   <time name="dav">    7.28    7.28</time>
   <time name="total">    7.78    7.75</time>
   <energy>
    <i name="e_fr_energy">   -109.35515452 </i>
    <i name="e_wo_entrp">   -109.35024095 </i>
    <i name="e_0_energy">   -109.35351666 </i>
   </energy>
  </scstep>
  <scstep>
   <time name="dav">    6.55    6.55</time>
   <time name="total">    6.60    6.58</time>
   <energy>
    <i name="alphaZ">    271.64501344 </i>
    <i name="ewald"> 148183.01190011 </i>
    <i name="hartreedc">-160402.84127929 </i>
    <i name="XCdc">     91.46442054 </i>
    <i name="pawpsdc">  15265.40659003 </i>
    <i name="pawaedc"> -14861.08788959 </i>
    <i name="eentropy">     -0.00510039 </i>
    <i name="bandstr">   -902.13045256 </i>
    <i name="atom">  12245.18164884 </i>
    <i name="e_fr_energy">   -109.35514888 </i>
    <i name="e_wo_entrp">   -109.35004848 </i>
    <i name="e_0_energy">   -109.35344874 </i>
   </energy>
  </scstep>
  <structure>
   <crystal>
    <varray name="basis" >
     <v>       5.54371716       0.00000000       0.00000000 </v>
     <v>       2.77185858       4.80099990       0.00000000 </v>
     <v>       0.00000000       0.00000000      36.78963917 </v>
    </varray>
    <i name="volume">    979.17042988 </i>
    <varray name="rec_basis" >
     <v>       0.18038438      -0.10414497       0.00000000 </v>
     <v>       0.00000000       0.20828994       0.00000000 </v>
     <v>       0.00000000       0.00000000       0.02718157 </v>
    </varray>
   </crystal>
   <varray name="positions" >
    <v>       0.00000000       0.00000000       0.40772349 </v>
    <v>       0.50000000       0.00000000       0.40772349 </v>
    <v>       0.00000000       0.50000000       0.40772349 </v>
    <v>       0.50000000       0.50000000       0.40772349 </v>
    <v>       0.16666667       0.16666667       0.46924116 </v>
    <v>       0.66666667       0.16666667       0.46924116 </v>
    <v>       0.16666667       0.66666667       0.46924116 </v>
    <v>       0.66666667       0.66666667       0.46924116 </v>
    <v>       0.84168394       0.33251696       0.53203303 </v>
    <v>       0.33944735       0.33243527       0.53207454 </v>
    <v>       0.84046421       0.83332331       0.53310070 </v>
    <v>       0.33938298       0.83492672       0.53205838 </v>
    <v>       0.01153822      -0.00227743       0.59819672 </v>
    <v>       0.51982738      -0.00259095       0.59802844 </v>
    <v>       0.01137863       0.50574736       0.59805087 </v>
    <v>       0.51413771       0.50027472       0.59387939 </v>
    <v>       0.18361580       0.16777363       0.66718163 </v>
    <v>       0.18194443       0.16721975       0.63478418 </v>
   </varray>
  </structure>
  <varray name="forces" >
   <v>       0.00789203       0.01226888      -0.41413319 </v>
   <v>      -0.03815947       0.01356246      -0.40610704 </v>
   <v>      -0.01401183      -0.02686389      -0.40809785 </v>
   <v>      -0.00994555       0.00001616      -0.45203900 </v>
   <v>       0.03927685      -0.00255215       0.45901904 </v>
   <v>       0.03598418      -0.02362923       0.41829956 </v>
   <v>       0.01948413       0.00719320       0.42353031 </v>
   <v>       0.05684097       0.00980799       0.41353110 </v>
   <v>       0.00459585      -0.00072522      -0.01330521 </v>
   <v>      -0.00892442       0.00486277      -0.01205676 </v>
   <v>      -0.00288298       0.00045956      -0.02707782 </v>
   <v>      -0.00627538       0.00468378      -0.01159994 </v>
   <v>       0.04892645       0.03385901       0.01002487 </v>
   <v>      -0.07416925       0.03860151       0.02828388 </v>
   <v>      -0.00942251      -0.07060782       0.02388487 </v>
   <v>      -0.01417610       0.00095002       0.00644049 </v>
   <v>      -0.02745394      -0.00432641       0.09129874 </v>
   <v>      -0.00757903       0.00243939      -0.12989604 </v>
  </varray>
  <varray name="stress" >
   <v>     -11.78031016      -0.01021132      -0.59523098 </v>
   <v>      -0.01021115     -11.81057723       0.02480667 </v>
   <v>      -0.59523092       0.02480669       4.82024335 </v>
  </varray>
  <energy>
   <i name="e_fr_energy">   -109.35514888 </i>
   <i name="e_wo_entrp">   -109.35004848 </i>
   <i name="e_0_energy">   -109.35344874 </i>
  </energy>
  <time name="totalsc">   67.17   66.44</time>
 </calculation>
 <calculation>
  <scstep>
   <time name="dav">    6.97    6.97</time>
   <time name="total">    7.47    7.45</time>
   <energy>
    <i name="alphaZ">    271.64501344 </i>
    <i name="ewald"> 148180.58541015 </i>
    <i name="hartreedc">-160400.61492426 </i>
    <i name="XCdc">     91.46227833 </i>
    <i name="pawpsdc">  15265.54492134 </i>
    <i name="pawaedc"> -14861.22678629 </i>
    <i name="eentropy">     -0.00505966 </i>
    <i name="bandstr">   -901.92749750 </i>
    <i name="atom">  12245.18164884 </i>
    <i name="e_fr_energy">   -109.35499559 </i>
    <i name="e_wo_entrp">   -109.34993593 </i>
    <i name="e_0_energy">   -109.35330904 </i>
   </energy>
  </scstep>
  <scstep>
   <time name="dav">    7.08    7.08</time>
   <time name="total">    7.59    7.56</time>
   <energy>
    <i name="e_fr_energy">   -109.35532373 </i>
    <i name="e_wo_entrp">   -109.35010372 </i>
    <i name="e_0_energy">   -109.35358372 </i>
   </energy>
  </scstep>
  <scstep>
   <time name="dav">    7.55    7.55</time>
   <time name="total">    8.05    8.03</time>
   <energy>
    <i name="e_fr_energy">   -109.35531668 </i>
    <i name="e_wo_entrp">   -109.35035607 </i>
    <i name="e_0_energy">   -109.35366315 </i>
   </energy>
  </scstep>
  <scstep>
   <time name="dav">    6.59    6.59</time>
   <time name="total">    7.10    7.08</time>
   <energy>
    <i name="e_fr_energy">   -109.35536973 </i>
    <i name="e_wo_entrp">   -109.35024184 </i>
    <i name="e_0_energy">   -109.35366043 </i>
   </energy>
  </scstep>
  <scstep>
   <time name="dav">    6.27    6.27</time>
   <time name="total">    6.77    6.75</time>
   <energy>
    <i name="e_fr_energy">   -109.35529353 </i>
    <i name="e_wo_entrp">   -109.35016638 </i>
    <i name="e_0_energy">   -109.35358448 </i>
   </energy>
  </scstep>
  <scstep>
   <time name="dav">    5.35    5.35</time>
   <time name="total">    5.40    5.39</time>
   <energy>
    <i name="alphaZ">    271.64501344 </i>
    <i name="ewald"> 148180.58541015 </i>
    <i name="hartreedc">-160400.34783521 </i>
    <i name="XCdc">     91.46098960 </i>
    <i name="pawpsdc">  15264.66881984 </i>
    <i name="pawaedc"> -14860.35208039 </i>
    <i name="eentropy">     -0.00505325 </i>
    <i name="bandstr">   -902.19220228 </i>
    <i name="atom">  12245.18164884 </i>
    <i name="e_fr_energy">   -109.35528925 </i>
    <i name="e_wo_entrp">   -109.35023600 </i>
    <i name="e_0_energy">   -109.35360484 </i>
   </energy>
  </scstep>
  <structure>
   <crystal>
    <varray name="basis" >
     <v>       5.54371716       0.00000000       0.00000000 </v>
     <v>       2.77185858       4.80099990       0.00000000 </v>
     <v>       0.00000000       0.00000000      36.78963917 </v>
    </varray>
    <i name="volume">    979.17042988 </i>
    <varray name="rec_basis" >
     <v>       0.18038438      -0.10414497       0.00000000 </v>
     <v>       0.00000000       0.20828994       0.00000000 </v>
     <v>       0.00000000       0.00000000       0.02718157 </v>
    </varray>
   </crystal>
   <varray name="positions" >
    <v>       0.00000000       0.00000000       0.40772349 </v>
    <v>       0.50000000       0.00000000       0.40772349 </v>
    <v>       0.00000000       0.50000000       0.40772349 </v>
    <v>       0.50000000       0.50000000       0.40772349 </v>
    <v>       0.16666667       0.16666667       0.46924116 </v>
    <v>       0.66666667       0.16666667       0.46924116 </v>
    <v>       0.16666667       0.66666667       0.46924116 </v>
    <v>       0.66666667       0.66666667       0.46924116 </v>
    <v>       0.84167046       0.33244321       0.53202125 </v>
    <v>       0.33939859       0.33240975       0.53205990 </v>
    <v>       0.84042885       0.83327667       0.53308801 </v>
    <v>       0.33932133       0.83486929       0.53204854 </v>
    <v>       0.01174167      -0.00220701       0.59822540 </v>
    <v>       0.51971777      -0.00255170       0.59802486 </v>
    <v>       0.01156020       0.50550727       0.59805930 </v>
    <v>       0.51419319       0.50020603       0.59388502 </v>
    <v>       0.18425646       0.16785501       0.66719459 </v>
    <v>       0.18233817       0.16733559       0.63476113 </v>
   </varray>
  </structure>
  <varray name="forces" >
   <v>       0.00797535       0.01244502      -0.41604414 </v>
   <v>      -0.03855228       0.01375102      -0.40781147 </v>
   <v>      -0.01418145      -0.02685863      -0.40985723 </v>
   <v>      -0.01010932       0.00020548      -0.45536832 </v>
   <v>       0.03824910      -0.00313531       0.45742881 </v>
   <v>       0.03540921      -0.02384329       0.41688002 </v>
   <v>       0.01884455       0.00724684       0.42176893 </v>
   <v>       0.05617465       0.00976709       0.41431658 </v>
   <v>       0.00290714       0.00088203      -0.00566849 </v>
   <v>      -0.00760585       0.00402280      -0.00601588 </v>
   <v>      -0.00307396       0.00070691      -0.01695629 </v>
   <v>      -0.00447000       0.00418408      -0.00532064 </v>
   <v>       0.02662780       0.02119414       0.00017516 </v>
   <v>      -0.04772602       0.02256871       0.01826182 </v>
   <v>      -0.01066576      -0.04149770       0.01418601 </v>
   <v>      -0.01162516       0.00152082       0.00293755 </v>
   <v>      -0.02770904      -0.00401728      -0.00512295 </v>
   <v>      -0.01046895       0.00085729      -0.01778946 </v>
  </varray>
  <varray name="stress" >
   <v>     -11.77047662      -0.01144463      -0.61589125 </v>
   <v>      -0.01144460     -11.80032927       0.02547792 </v>
   <v>      -0.61589134       0.02547806       4.64678434 </v>
  </varray>
  <energy>
   <i name="e_fr_energy">   -109.35528925 </i>
   <i name="e_wo_entrp">   -109.35023600 </i>
   <i name="e_0_energy">   -109.35360484 </i>
  </energy>
  <time name="totalsc">   63.39   62.66</time>
 </calculation>
 <calculation>
  <scstep>
   <time name="dav">    6.96    6.96</time>
   <time name="total">    7.47    7.44</time>
   <energy>
    <i name="alphaZ">    271.64501344 </i>
    <i name="ewald"> 148180.46905819 </i>
    <i name="hartreedc">-160400.14391542 </i>
    <i name="XCdc">     91.46079998 </i>
    <i name="pawpsdc">  15264.49968673 </i>
    <i name="pawaedc"> -14860.18285224 </i>
    <i name="eentropy">     -0.00511402 </i>
    <i name="bandstr">   -902.27961159 </i>
    <i name="atom">  12245.18164884 </i>
    <i name="e_fr_energy">   -109.35528609 </i>
    <i name="e_wo_entrp">   -109.35017207 </i>
    <i name="e_0_energy">   -109.35358141 </i>
   </energy>
  </scstep>
  <scstep>
   <time name="dav">    6.20    6.20</time>
   <time name="total">    6.70    6.67</time>
   <energy>
    <i name="e_fr_energy">   -109.35533539 </i>
    <i name="e_wo_entrp">   -109.35031000 </i>
    <i name="e_0_energy">   -109.35366026 </i>
   </energy>
  </scstep>
  <scstep>
   <time name="dav">    5.47    5.47</time>
   <time name="total">    5.98    5.95</time>
   <energy>
    <i name="e_fr_energy">   -109.35529835 </i>
    <i name="e_wo_entrp">   -109.35026185 </i>
    <i name="e_0_energy">   -109.35361952 </i>
   </energy>
  </scstep>
  <scstep>
   <time name="dav">    5.08    5.09</time>
   <time name="total">    5.59    5.56</time>
   <energy>
    <i name="e_fr_energy">   -109.35528577 </i>
    <i name="e_wo_entrp">   -109.35018170 </i>
    <i name="e_0_energy">   -109.35358442 </i>
   </energy>
  </scstep>
  <scstep>
   <time name="dav">    4.52    4.52</time>
   <time name="total">    4.57    4.56</time>
   <energy>
    <i name="alphaZ">    271.64501344 </i>
    <i name="ewald"> 148180.46905819 </i>
    <i name="hartreedc">-160400.18089133 </i>
    <i name="XCdc">     91.46064031 </i>
    <i name="pawpsdc">  15264.46407496 </i>
    <i name="pawaedc"> -14860.14660232 </i>
    <i name="eentropy">     -0.00509040 </i>
    <i name="bandstr">   -902.24313748 </i>
    <i name="atom">  12245.18164884 </i>
    <i name="e_fr_energy">   -109.35528577 </i>
    <i name="e_wo_entrp">   -109.35019537 </i>
    <i name="e_0_energy">   -109.35358897 </i>
   </energy>
  </scstep>
  <structure>
   <crystal>
    <varray name="basis" >
     <v>       5.54371716       0.00000000       0.00000000 </v>
     <v>       2.77185858       4.80099990       0.00000000 </v>
     <v>       0.00000000       0.00000000      36.78963917 </v>
    </varray>
    <i name="volume">    979.17042988 </i>
    <varray name="rec_basis" >
     <v>       0.18038438      -0.10414497       0.00000000 </v>
     <v>       0.00000000       0.20828994       0.00000000 </v>
     <v>       0.00000000       0.00000000       0.02718157 </v>
    </varray>
   </crystal>
   <varray name="positions" >
    <v>       0.00000000       0.00000000       0.40772349 </v>
    <v>       0.50000000       0.00000000       0.40772349 </v>
    <v>       0.00000000       0.50000000       0.40772349 </v>
    <v>       0.50000000       0.50000000       0.40772349 </v>
    <v>       0.16666667       0.16666667       0.46924116 </v>
    <v>       0.66666667       0.16666667       0.46924116 </v>
    <v>       0.16666667       0.66666667       0.46924116 </v>
    <v>       0.66666667       0.66666667       0.46924116 </v>
    <v>       0.84166981       0.33243968       0.53202068 </v>
    <v>       0.33939625       0.33240852       0.53205920 </v>
    <v>       0.84042715       0.83327443       0.53308740 </v>
    <v>       0.33931837       0.83486654       0.53204807 </v>
    <v>       0.01175143      -0.00220363       0.59822678 </v>
    <v>       0.51971251      -0.00254982       0.59802469 </v>
    <v>       0.01156892       0.50549575       0.59805971 </v>
    <v>       0.51419586       0.50020273       0.59388530 </v>
    <v>       0.18428720       0.16785891       0.66719521 </v>
    <v>       0.18235706       0.16734114       0.63476003 </v>
   </varray>
  </structure>
  <varray name="forces" >
   <v>       0.00782019       0.01234969      -0.41553444 </v>
   <v>      -0.03828418       0.01360301      -0.40584060 </v>
   <v>      -0.01412441      -0.02687644      -0.41096712 </v>
   <v>      -0.01000691       0.00008161      -0.45329399 </v>
   <v>       0.03834934      -0.00320851       0.45673856 </v>
   <v>       0.03543843      -0.02381230       0.41529137 </v>
   <v>       0.01891322       0.00709472       0.42118769 </v>
   <v>       0.05618472       0.00973323       0.41292647 </v>
   <v>       0.00283610       0.00126495      -0.00590629 </v>
   <v>      -0.00672290       0.00374390      -0.00551878 </v>
   <v>      -0.00284617       0.00102468      -0.01667622 </v>
   <v>      -0.00347820       0.00430683      -0.00453529 </v>
   <v>       0.02494473       0.02081113      -0.00057804 </v>
   <v>      -0.04689859       0.02218409       0.01845117 </v>
   <v>      -0.01112539      -0.04048798       0.01358410 </v>
   <v>      -0.01154926       0.00160836       0.00309115 </v>
   <v>      -0.02936684      -0.00429461      -0.01241005 </v>
   <v>      -0.01008388       0.00087362      -0.01000973 </v>
  </varray>
  <varray name="stress" >
   <v>     -11.76470497      -0.01477703      -0.62058377 </v>
   <v>      -0.01477711     -11.79480994       0.02379246 </v>
   <v>      -0.62058389       0.02379252       4.64299146 </v>
  </varray>
  <energy>
   <i name="e_fr_energy">   -109.35528577 </i>
   <i name="e_wo_entrp">   -109.35019537 </i>
   <i name="e_0_energy">   -109.35358897 </i>
  </energy>
  <time name="totalsc">   51.27   50.56</time>
 </calculation>
 <calculation>
  <scstep>
   <time name="dav">    6.97    6.97</time>
   <time name="total">    7.47    7.45</time>
   <energy>
    <i name="alphaZ">    271.64501344 </i>
    <i name="ewald"> 148180.51808749 </i>
    <i name="hartreedc">-160400.20731166 </i>
    <i name="XCdc">     91.46102049 </i>
    <i name="pawpsdc">  15264.44746206 </i>
    <i name="pawaedc"> -14860.12999802 </i>
    <i name="eentropy">     -0.00509884 </i>
    <i name="bandstr">   -902.26613145 </i>
    <i name="atom">  12245.18164884 </i>
    <i name="e_fr_energy">   -109.35530764 </i>
    <i name="e_wo_entrp">   -109.35020880 </i>
    <i name="e_0_energy">   -109.35360803 </i>
   </energy>
  </scstep>
  <scstep>
   <time name="dav">    4.90    4.90</time>
   <time name="total">    4.95    4.94</time>
   <energy>
    <i name="alphaZ">    271.64501344 </i>
    <i name="ewald"> 148180.51808749 </i>
    <i name="hartreedc">-160400.22690952 </i>
    <i name="XCdc">     91.46105039 </i>
    <i name="pawpsdc">  15264.47423994 </i>
    <i name="pawaedc"> -14860.15663076 </i>
    <i name="eentropy">     -0.00508397 </i>
    <i name="bandstr">   -902.24672720 </i>
    <i name="atom">  12245.18164884 </i>
    <i name="e_fr_energy">   -109.35531135 </i>
    <i name="e_wo_entrp">   -109.35022738 </i>
    <i name="e_0_energy">   -109.35361670 </i>
   </energy>
  </scstep>
  <structure>
   <crystal>
    <varray name="basis" >
     <v>       5.54371716       0.00000000       0.00000000 </v>
     <v>       2.77185858       4.80099990       0.00000000 </v>
     <v>       0.00000000       0.00000000      36.78963917 </v>
    </varray>
    <i name="volume">    979.17042988 </i>
    <varray name="rec_basis" >
     <v>       0.18038438      -0.10414497       0.00000000 </v>
     <v>       0.00000000       0.20828994       0.00000000 </v>
     <v>       0.00000000       0.00000000       0.02718157 </v>
    </varray>
   </crystal>
   <varray name="positions" >
    <v>       0.00000000       0.00000000       0.40772349 </v>
    <v>       0.50000000       0.00000000       0.40772349 </v>
    <v>       0.00000000       0.50000000       0.40772349 </v>
    <v>       0.50000000       0.50000000       0.40772349 </v>
    <v>       0.16666667       0.16666667       0.46924116 </v>
    <v>       0.66666667       0.16666667       0.46924116 </v>
    <v>       0.16666667       0.66666667       0.46924116 </v>
    <v>       0.66666667       0.66666667       0.46924116 </v>
    <v>       0.84167148       0.33244345       0.53202069 </v>
    <v>       0.33939350       0.33241186       0.53205935 </v>
    <v>       0.84042676       0.83327696       0.53308658 </v>
    <v>       0.33931771       0.83487152       0.53204811 </v>
    <v>       0.01175003      -0.00219370       0.59822556 </v>
    <v>       0.51968519      -0.00253778       0.59802631 </v>
    <v>       0.01156805       0.50548064       0.59806046 </v>
    <v>       0.51418695       0.50020652       0.59388531 </v>
    <v>       0.18424681       0.16785296       0.66719369 </v>
    <v>       0.18233540       0.16733697       0.63476016 </v>
   </varray>
  </structure>
  <varray name="forces" >
   <v>       0.00763657       0.01246692      -0.41473053 </v>
   <v>      -0.03842534       0.01375096      -0.40528601 </v>
   <v>      -0.01426384      -0.02665703      -0.41015303 </v>
   <v>      -0.01015820       0.00027870      -0.45274569 </v>
   <v>       0.03823846      -0.00299850       0.45606490 </v>
   <v>       0.03532329      -0.02352549       0.41489402 </v>
   <v>       0.01887845       0.00726729       0.42066526 </v>
   <v>       0.05599359       0.00989684       0.41236795 </v>
   <v>       0.00184529       0.00090981      -0.00688010 </v>
   <v>      -0.00677919       0.00347979      -0.00661702 </v>
   <v>      -0.00345022       0.00085818      -0.01569983 </v>
   <v>      -0.00412476       0.00364359      -0.00562573 </v>
   <v>       0.02310557       0.01921649       0.00102094 </v>
   <v>      -0.04357869       0.02039837       0.01647293 </v>
   <v>      -0.01031830      -0.03740180       0.01271930 </v>
   <v>      -0.01096088       0.00127968       0.00401650 </v>
   <v>      -0.02924925      -0.00407328      -0.00573018 </v>
   <v>      -0.00971256       0.00120951      -0.01475370 </v>
  </varray>
  <varray name="stress" >
   <v>     -11.76979228      -0.01613989      -0.61940291 </v>
   <v>      -0.01613999     -11.79891139       0.02332728 </v>
   <v>      -0.61940306       0.02332731       4.64299035 </v>
  </varray>
  <energy>
   <i name="e_fr_energy">   -109.35531135 </i>
   <i name="e_wo_entrp">   -109.35022738 </i>
   <i name="e_0_energy">   -109.35361670 </i>
  </energy>
  <time name="totalsc">   33.39   32.76</time>
 </calculation>
 <calculation>
  <scstep>
   <time name="dav">    6.97    6.97</time>
   <time name="total">    7.48    7.45</time>
   <energy>
    <i name="alphaZ">    271.64501344 </i>
    <i name="ewald"> 148180.66526347 </i>
    <i name="hartreedc">-160400.34774729 </i>
    <i name="XCdc">     91.46219869 </i>
    <i name="pawpsdc">  15264.47498985 </i>
    <i name="pawaedc"> -14860.15743342 </i>
    <i name="eentropy">     -0.00509191 </i>
    <i name="bandstr">   -902.27420405 </i>
    <i name="atom">  12245.18164884 </i>
    <i name="e_fr_energy">   -109.35536237 </i>
    <i name="e_wo_entrp">   -109.35027046 </i>
    <i name="e_0_energy">   -109.35366507 </i>
   </energy>
  </scstep>
  <scstep>
   <time name="dav">    7.42    7.42</time>
   <time name="total">    7.92    7.89</time>
   <energy>
    <i name="e_fr_energy">   -109.35542858 </i>
    <i name="e_wo_entrp">   -109.35026426 </i>
    <i name="e_0_energy">   -109.35370714 </i>
   </energy>
  </scstep>
  <scstep>
   <time name="dav">    5.37    5.37</time>
   <time name="total">    5.87    5.85</time>
   <energy>
    <i name="e_fr_energy">   -109.35537210 </i>
    <i name="e_wo_entrp">   -109.35025314 </i>
    <i name="e_0_energy">   -109.35366578 </i>
   </energy>
  </scstep>
  <scstep>
   <time name="dav">    4.80    4.80</time>
   <time name="total">    4.86    4.84</time>
   <energy>
    <i name="alphaZ">    271.64501344 </i>
    <i name="ewald"> 148180.66526347 </i>
    <i name="hartreedc">-160400.38172837 </i>
    <i name="XCdc">     91.46259273 </i>
    <i name="pawpsdc">  15264.68159781 </i>
    <i name="pawaedc"> -14860.36384572 </i>
    <i name="eentropy">     -0.00507420 </i>
    <i name="bandstr">   -902.24084142 </i>
    <i name="atom">  12245.18164884 </i>
    <i name="e_fr_energy">   -109.35537341 </i>
    <i name="e_wo_entrp">   -109.35029921 </i>
    <i name="e_0_energy">   -109.35368201 </i>
   </energy>
  </scstep>
  <structure>
   <crystal>
    <varray name="basis" >
     <v>       5.54371716       0.00000000       0.00000000 </v>
     <v>       2.77185858       4.80099990       0.00000000 </v>
     <v>       0.00000000       0.00000000      36.78963917 </v>
    </varray>
    <i name="volume">    979.17042988 </i>
    <varray name="rec_basis" >
     <v>       0.18038438      -0.10414497       0.00000000 </v>
     <v>       0.00000000       0.20828994       0.00000000 </v>
     <v>       0.00000000       0.00000000       0.02718157 </v>
    </varray>
   </crystal>
   <varray name="positions" >
    <v>       0.00000000       0.00000000       0.40772349 </v>
    <v>       0.50000000       0.00000000       0.40772349 </v>
    <v>       0.00000000       0.50000000       0.40772349 </v>
    <v>       0.50000000       0.50000000       0.40772349 </v>
    <v>       0.16666667       0.16666667       0.46924116 </v>
    <v>       0.66666667       0.16666667       0.46924116 </v>
    <v>       0.16666667       0.66666667       0.46924116 </v>
    <v>       0.66666667       0.66666667       0.46924116 </v>
    <v>       0.84167649       0.33245479       0.53202070 </v>
    <v>       0.33938527       0.33242188       0.53205981 </v>
    <v>       0.84042559       0.83328454       0.53308412 </v>
    <v>       0.33931571       0.83488647       0.53204822 </v>
    <v>       0.01174584      -0.00216392       0.59822192 </v>
    <v>       0.51960322      -0.00250167       0.59803119 </v>
    <v>       0.01156544       0.50543529       0.59806269 </v>
    <v>       0.51416025       0.50021787       0.59388537 </v>
    <v>       0.18412565       0.16783511       0.66718912 </v>
    <v>       0.18227042       0.16732443       0.63476057 </v>
   </varray>
  </structure>
  <varray name="forces" >
   <v>       0.00786852       0.01248877      -0.41573593 </v>
   <v>      -0.03837841       0.01373469      -0.40606180 </v>
   <v>      -0.01415821      -0.02680258      -0.41101185 </v>
   <v>      -0.01004178       0.00022755      -0.45376447 </v>
   <v>       0.03843884      -0.00297728       0.45725699 </v>
   <v>       0.03545532      -0.02325656       0.41600981 </v>
   <v>       0.01923368       0.00717536       0.42162018 </v>
   <v>       0.05589140       0.00979141       0.41332431 </v>
   <v>       0.00089705       0.00120203      -0.00651584 </v>
   <v>      -0.00584790       0.00353637      -0.00604630 </v>
   <v>      -0.00372670       0.00122428      -0.01348018 </v>
   <v>      -0.00393298       0.00296363      -0.00526101 </v>
   <v>       0.01738998       0.01610791      -0.00151847 </v>
   <v>      -0.03803376       0.01733322       0.01425668 </v>
   <v>      -0.01032384      -0.03090252       0.01055340 </v>
   <v>      -0.01123598       0.00113705       0.00279781 </v>
   <v>      -0.02928255      -0.00412788       0.00930521 </v>
   <v>      -0.01021266       0.00114455      -0.02572852 </v>
  </varray>
  <varray name="stress" >
   <v>     -11.76242115      -0.01491649      -0.61399254 </v>
   <v>      -0.01491653     -11.79267239       0.02411112 </v>
   <v>      -0.61399264       0.02411109       4.68182311 </v>
  </varray>
  <energy>
   <i name="e_fr_energy">   -109.35537341 </i>
   <i name="e_wo_entrp">   -109.35029921 </i>
   <i name="e_0_energy">   -109.35368201 </i>
  </energy>
  <time name="totalsc">   45.73   45.11</time>
  <eigenvalues>
   <array>
    <dimension dim="1">band</dimension>
    <dimension dim="2">kpoint</dimension>
    <dimension dim="3">spin</dimension>
    <field>eigene</field>
    <field>occ</field>
    <set>
     <set comment="spin 1">
      <set comment="kpoint 1">
       <r>  -23.8837    1.0000 </r>
       <r>  -12.5144    1.0000 </r>
       <r>  -11.0503    1.0000 </r>
       <r>   -9.7032    1.0000 </r>
       <r>   -8.7637    1.0000 </r>
       <r>   -8.6653    1.0000 </r>
       <r>   -8.4652    1.0000 </r>
       <r>   -8.4579    1.0000 </r>
       <r>   -8.3990    1.0000 </r>
       <r>   -8.2899    1.0000 </r>
       <r>   -8.2868    1.0000 </r>
       <r>   -8.2112    1.0000 </r>
       <r>   -8.1522    1.0000 </r>
       <r>   -8.1463    1.0000 </r>
       <r>   -8.1330    1.0000 </r>
       <r>   -7.7541    1.0000 </r>
       <r>   -7.7064    1.0000 </r>
       <r>   -7.7042    1.0000 </r>
       <r>   -7.5733    1.0000 </r>
       <r>   -7.5496    1.0000 </r>
       <r>   -7.5486    1.0000 </r>
       <r>   -7.2270    1.0000 </r>
       <r>   -7.2232    1.0000 </r>
       <r>   -6.9111    1.0000 </r>
       <r>   -6.5386    1.0000 </r>
       <r>   -6.5348    1.0000 </r>
       <r>   -6.1055    1.0000 </r>
       <r>   -5.6901    1.0000 </r>
       <r>   -5.6604    1.0000 </r>
       <r>   -5.6421    1.0000 </r>
       <r>   -5.6079    1.0000 </r>
       <r>   -5.6001    1.0000 </r>
       <r>   -5.5789    1.0000 </r>
       <r>   -5.3876    1.0000 </r>
       <r>   -5.2638    1.0000 </r>
       <r>   -5.2607    1.0000 </r>
       <r>   -5.1529    1.0000 </r>
       <r>   -5.0948    1.0000 </r>
       <r>   -5.0819    1.0000 </r>
       <r>   -4.9019    1.0000 </r>
       <r>   -4.9002    1.0000 </r>
       <r>   -4.8601    1.0000 </r>
       <r>   -4.8396    1.0000 </r>
       <r>   -4.8233    1.0000 </r>
       <r>   -4.7333    1.0000 </r>
       <r>   -4.7330    1.0000 </r>
       <r>   -4.5006    1.0000 </r>
       <r>   -4.3152    1.0000 </r>
       <r>   -4.3129    1.0000 </r>
       <r>   -4.2252    1.0000 </r>
       <r>   -3.9544    1.0000 </r>
       <r>   -3.9431    1.0000 </r>
       <r>   -3.7909    1.0000 </r>
       <r>   -3.7869    1.0000 </r>
       <r>   -3.7671    1.0000 </r>
       <r>   -3.4428    1.0000 </r>
       <r>   -3.2442    1.0000 </r>
       <r>   -3.1457    1.0000 </r>
       <r>   -3.0367    1.0000 </r>
       <r>   -3.0302    1.0000 </r>
       <r>   -2.8091    1.0000 </r>
       <r>   -2.8014    1.0000 </r>
       <r>   -2.7541    1.0000 </r>
       <r>   -2.5776    1.0000 </r>
       <r>   -2.5561    1.0000 </r>
       <r>   -2.4532    1.0000 </r>
       <r>   -2.3561    1.0000 </r>
       <r>   -2.3300    1.0000 </r>
       <r>   -2.1260    1.0000 </r>
       <r>   -1.9904    1.0008 </r>
       <r>   -1.9759    1.0015 </r>
       <r>   -1.8983    1.0201 </r>
       <r>   -1.8958    1.0213 </r>
       <r>   -1.8916    1.0232 </r>
       <r>   -1.7973    0.9433 </r>
       <r>   -1.7621    0.7439 </r>
       <r>   -1.5244   -0.0062 </r>
       <r>   -1.5151   -0.0045 </r>
       <r>   -1.5042   -0.0030 </r>
       <r>   -1.4838   -0.0013 </r>
       <r>   -1.3999   -0.0000 </r>
       <r>   -1.3581   -0.0000 </r>
       <r>   -1.3560   -0.0000 </r>
       <r>   -1.2917   -0.0000 </r>
       <r>   -1.2669   -0.0000 </r>
       <r>   -1.2603   -0.0000 </r>
       <r>   -1.0820   -0.0000 </r>
       <r>   -1.0782   -0.0000 </r>
       <r>   -1.0775   -0.0000 </r>
       <r>   -0.9174   -0.0000 </r>
       <r>   -0.8892   -0.0000 </r>
       <r>   -0.8464   -0.0000 </r>
       <r>   -0.1769   -0.0000 </r>
       <r>    0.5326   -0.0000 </r>
       <r>    0.5374   -0.0000 </r>
       <r>    0.9286   -0.0000 </r>
       <r>    0.9833    0.0000 </r>
       <r>    1.0354    0.0000 </r>
       <r>    1.2506    0.0000 </r>
       <r>    1.3376    0.0000 </r>
       <r>    1.3405    0.0000 </r>
       <r>    1.8712    0.0000 </r>
      </set>
      <set comment="kpoint 2">
       <r>  -23.8837    1.0000 </r>
       <r>  -12.4463    1.0000 </r>
       <r>  -10.8798    1.0000 </r>
       <r>   -9.5465    1.0000 </r>
       <r>   -8.6229    1.0000 </r>
       <r>   -8.5529    1.0000 </r>
       <r>   -8.4241    1.0000 </r>
       <r>   -8.3585    1.0000 </r>
       <r>   -8.3202    1.0000 </r>
       <r>   -8.2395    1.0000 </r>
       <r>   -8.1731    1.0000 </r>
       <r>   -8.1227    1.0000 </r>
       <r>   -8.0604    1.0000 </r>
       <r>   -8.0260    1.0000 </r>
       <r>   -8.0094    1.0000 </r>
       <r>   -7.6605    1.0000 </r>
       <r>   -7.6403    1.0000 </r>
       <r>   -7.6166    1.0000 </r>
       <r>   -7.4952    1.0000 </r>
       <r>   -7.4149    1.0000 </r>
       <r>   -7.4047    1.0000 </r>
       <r>   -7.1731    1.0000 </r>
       <r>   -7.1274    1.0000 </r>
       <r>   -6.8516    1.0000 </r>
       <r>   -6.5119    1.0000 </r>
       <r>   -6.4988    1.0000 </r>
       <r>   -6.1067    1.0000 </r>
       <r>   -5.7336    1.0000 </r>
       <r>   -5.7119    1.0000 </r>
       <r>   -5.6663    1.0000 </r>
       <r>   -5.5612    1.0000 </r>
       <r>   -5.5379    1.0000 </r>
       <r>   -5.5133    1.0000 </r>
       <r>   -5.5010    1.0000 </r>
       <r>   -5.3576    1.0000 </r>
       <r>   -5.2998    1.0000 </r>
       <r>   -5.1332    1.0000 </r>
       <r>   -5.0782    1.0000 </r>
       <r>   -4.9864    1.0000 </r>
       <r>   -4.9656    1.0000 </r>
       <r>   -4.8863    1.0000 </r>
       <r>   -4.8710    1.0000 </r>
       <r>   -4.8304    1.0000 </r>
       <r>   -4.7964    1.0000 </r>
       <r>   -4.7694    1.0000 </r>
       <r>   -4.6093    1.0000 </r>
       <r>   -4.5994    1.0000 </r>
       <r>   -4.5057    1.0000 </r>
       <r>   -4.4504    1.0000 </r>
       <r>   -4.3850    1.0000 </r>
       <r>   -4.1773    1.0000 </r>
       <r>   -4.1050    1.0000 </r>
       <r>   -3.8733    1.0000 </r>
       <r>   -3.8350    1.0000 </r>
       <r>   -3.7045    1.0000 </r>
       <r>   -3.6510    1.0000 </r>
       <r>   -3.3593    1.0000 </r>
       <r>   -3.2685    1.0000 </r>
       <r>   -3.0559    1.0000 </r>
       <r>   -2.9981    1.0000 </r>
       <r>   -2.9229    1.0000 </r>
       <r>   -2.8649    1.0000 </r>
       <r>   -2.8165    1.0000 </r>
       <r>   -2.7879    1.0000 </r>
       <r>   -2.7205    1.0000 </r>
       <r>   -2.7071    1.0000 </r>
       <r>   -2.5811    1.0000 </r>
       <r>   -2.5041    1.0000 </r>
       <r>   -2.3735    1.0000 </r>
       <r>   -2.3387    1.0000 </r>
       <r>   -2.3011    1.0000 </r>
       <r>   -2.0423    1.0001 </r>
       <r>   -2.0200    1.0002 </r>
       <r>   -1.9748    1.0016 </r>
       <r>   -1.9694    1.0020 </r>
       <r>   -1.9171    1.0125 </r>
       <r>   -1.8018    0.9599 </r>
       <r>   -1.7766    0.8399 </r>
       <r>   -1.7427    0.5917 </r>
       <r>   -1.7386    0.5572 </r>
       <r>   -1.7088    0.3109 </r>
       <r>   -1.6387   -0.0164 </r>
       <r>   -1.5989   -0.0340 </r>
       <r>   -1.5357   -0.0091 </r>
       <r>   -1.5278   -0.0070 </r>
       <r>   -1.4686   -0.0006 </r>
       <r>   -1.3691   -0.0000 </r>
       <r>   -1.3650   -0.0000 </r>
       <r>   -1.2955   -0.0000 </r>
       <r>   -0.8717   -0.0000 </r>
       <r>   -0.6553   -0.0000 </r>
       <r>   -0.2886   -0.0000 </r>
       <r>   -0.2396   -0.0000 </r>
       <r>   -0.1072   -0.0000 </r>
       <r>    0.4189   -0.0000 </r>
       <r>    0.5069   -0.0000 </r>
       <r>    0.8757   -0.0000 </r>
       <r>    0.8974   -0.0000 </r>
       <r>    1.6846    0.0000 </r>
       <r>    1.9056    0.0000 </r>
       <r>    2.1954    0.0000 </r>
       <r>    2.6109    0.0000 </r>
      </set>
      <set comment="kpoint 3">
       <r>  -23.8837    1.0000 </r>
       <r>  -12.4469    1.0000 </r>
       <r>  -10.8801    1.0000 </r>
       <r>   -9.5470    1.0000 </r>
       <r>   -8.6238    1.0000 </r>
       <r>   -8.5544    1.0000 </r>
       <r>   -8.4390    1.0000 </r>
       <r>   -8.3539    1.0000 </r>
       <r>   -8.3196    1.0000 </r>
       <r>   -8.2323    1.0000 </r>
       <r>   -8.1706    1.0000 </r>
       <r>   -8.1269    1.0000 </r>
       <r>   -8.0611    1.0000 </r>
       <r>   -8.0220    1.0000 </r>
       <r>   -8.0116    1.0000 </r>
       <r>   -7.6625    1.0000 </r>
       <r>   -7.6420    1.0000 </r>
       <r>   -7.6174    1.0000 </r>
       <r>   -7.4910    1.0000 </r>
       <r>   -7.4183    1.0000 </r>
       <r>   -7.4047    1.0000 </r>
       <r>   -7.1716    1.0000 </r>
       <r>   -7.1301    1.0000 </r>
       <r>   -6.8512    1.0000 </r>
       <r>   -6.5079    1.0000 </r>
       <r>   -6.5031    1.0000 </r>
       <r>   -6.1089    1.0000 </r>
       <r>   -5.7467    1.0000 </r>
       <r>   -5.7177    1.0000 </r>
       <r>   -5.6495    1.0000 </r>
       <r>   -5.5565    1.0000 </r>
       <r>   -5.5346    1.0000 </r>
       <r>   -5.5107    1.0000 </r>
       <r>   -5.4921    1.0000 </r>
       <r>   -5.3481    1.0000 </r>
       <r>   -5.2915    1.0000 </r>
       <r>   -5.1342    1.0000 </r>
       <r>   -5.0854    1.0000 </r>
       <r>   -4.9809    1.0000 </r>
       <r>   -4.9674    1.0000 </r>
       <r>   -4.8725    1.0000 </r>
       <r>   -4.8641    1.0000 </r>
       <r>   -4.8355    1.0000 </r>
       <r>   -4.8203    1.0000 </r>
       <r>   -4.7755    1.0000 </r>
       <r>   -4.6093    1.0000 </r>
       <r>   -4.5982    1.0000 </r>
       <r>   -4.5000    1.0000 </r>
       <r>   -4.4458    1.0000 </r>
       <r>   -4.3847    1.0000 </r>
       <r>   -4.1736    1.0000 </r>
       <r>   -4.0950    1.0000 </r>
       <r>   -3.8885    1.0000 </r>
       <r>   -3.8073    1.0000 </r>
       <r>   -3.7132    1.0000 </r>
       <r>   -3.6646    1.0000 </r>
       <r>   -3.3390    1.0000 </r>
       <r>   -3.2793    1.0000 </r>
       <r>   -3.0647    1.0000 </r>
       <r>   -2.9953    1.0000 </r>
       <r>   -2.9267    1.0000 </r>
       <r>   -2.8741    1.0000 </r>
       <r>   -2.8212    1.0000 </r>
       <r>   -2.7761    1.0000 </r>
       <r>   -2.7188    1.0000 </r>
       <r>   -2.7137    1.0000 </r>
       <r>   -2.5810    1.0000 </r>
       <r>   -2.5029    1.0000 </r>
       <r>   -2.3788    1.0000 </r>
       <r>   -2.3243    1.0000 </r>
       <r>   -2.3104    1.0000 </r>
       <r>   -2.0442    1.0000 </r>
       <r>   -2.0278    1.0001 </r>
       <r>   -1.9775    1.0014 </r>
       <r>   -1.9654    1.0023 </r>
       <r>   -1.9122    1.0143 </r>
       <r>   -1.7815    0.8686 </r>
       <r>   -1.7740    0.8243 </r>
       <r>   -1.7385    0.5563 </r>
       <r>   -1.7238    0.4326 </r>
       <r>   -1.6956    0.2144 </r>
       <r>   -1.6499    0.0051 </r>
       <r>   -1.5970   -0.0335 </r>
       <r>   -1.5336   -0.0085 </r>
       <r>   -1.5253   -0.0064 </r>
       <r>   -1.4772   -0.0009 </r>
       <r>   -1.3882   -0.0000 </r>
       <r>   -1.3853   -0.0000 </r>
       <r>   -1.2953   -0.0000 </r>
       <r>   -0.8530   -0.0000 </r>
       <r>   -0.6539   -0.0000 </r>
       <r>   -0.2763   -0.0000 </r>
       <r>   -0.2406   -0.0000 </r>
       <r>   -0.1018   -0.0000 </r>
       <r>    0.4003   -0.0000 </r>
       <r>    0.4906   -0.0000 </r>
       <r>    0.8599   -0.0000 </r>
       <r>    0.8768   -0.0000 </r>
       <r>    1.6750    0.0000 </r>
       <r>    1.9030    0.0000 </r>
       <r>    2.1897    0.0000 </r>
       <r>    2.6096    0.0000 </r>
      </set>
      <set comment="kpoint 4">
       <r>  -23.8837    1.0000 </r>
       <r>  -12.4465    1.0000 </r>
       <r>  -10.8800    1.0000 </r>
       <r>   -9.5468    1.0000 </r>
       <r>   -8.6232    1.0000 </r>
       <r>   -8.5536    1.0000 </r>
       <r>   -8.4311    1.0000 </r>
       <r>   -8.3572    1.0000 </r>
       <r>   -8.3197    1.0000 </r>
       <r>   -8.2361    1.0000 </r>
       <r>   -8.1719    1.0000 </r>
       <r>   -8.1242    1.0000 </r>
       <r>   -8.0608    1.0000 </r>
       <r>   -8.0244    1.0000 </r>
       <r>   -8.0103    1.0000 </r>
       <r>   -7.6615    1.0000 </r>
       <r>   -7.6410    1.0000 </r>
       <r>   -7.6173    1.0000 </r>
       <r>   -7.4933    1.0000 </r>
       <r>   -7.4165    1.0000 </r>
       <r>   -7.4045    1.0000 </r>
       <r>   -7.1728    1.0000 </r>
       <r>   -7.1285    1.0000 </r>
       <r>   -6.8513    1.0000 </r>
       <r>   -6.5106    1.0000 </r>
       <r>   -6.5001    1.0000 </r>
       <r>   -6.1074    1.0000 </r>
       <r>   -5.7288    1.0000 </r>
       <r>   -5.7245    1.0000 </r>
       <r>   -5.6572    1.0000 </r>
       <r>   -5.5590    1.0000 </r>
       <r>   -5.5442    1.0000 </r>
       <r>   -5.5128    1.0000 </r>
       <r>   -5.4909    1.0000 </r>
       <r>   -5.3536    1.0000 </r>
       <r>   -5.2974    1.0000 </r>
       <r>   -5.1338    1.0000 </r>
       <r>   -5.0831    1.0000 </r>
       <r>   -4.9823    1.0000 </r>
       <r>   -4.9656    1.0000 </r>
       <r>   -4.8864    1.0000 </r>
       <r>   -4.8645    1.0000 </r>
       <r>   -4.8354    1.0000 </r>
       <r>   -4.8004    1.0000 </r>
       <r>   -4.7722    1.0000 </r>
       <r>   -4.6104    1.0000 </r>
       <r>   -4.5979    1.0000 </r>
       <r>   -4.5022    1.0000 </r>
       <r>   -4.4489    1.0000 </r>
       <r>   -4.3850    1.0000 </r>
       <r>   -4.1749    1.0000 </r>
       <r>   -4.1010    1.0000 </r>
       <r>   -3.8786    1.0000 </r>
       <r>   -3.8224    1.0000 </r>
       <r>   -3.7111    1.0000 </r>
       <r>   -3.6561    1.0000 </r>
       <r>   -3.3506    1.0000 </r>
       <r>   -3.2720    1.0000 </r>
       <r>   -3.0595    1.0000 </r>
       <r>   -2.9985    1.0000 </r>
       <r>   -2.9243    1.0000 </r>
       <r>   -2.8685    1.0000 </r>
       <r>   -2.8195    1.0000 </r>
       <r>   -2.7825    1.0000 </r>
       <r>   -2.7204    1.0000 </r>
       <r>   -2.7087    1.0000 </r>
       <r>   -2.5811    1.0000 </r>
       <r>   -2.5032    1.0000 </r>
       <r>   -2.3794    1.0000 </r>
       <r>   -2.3318    1.0000 </r>
       <r>   -2.3039    1.0000 </r>
       <r>   -2.0423    1.0001 </r>
       <r>   -2.0230    1.0002 </r>
       <r>   -1.9786    1.0013 </r>
       <r>   -1.9676    1.0021 </r>
       <r>   -1.9135    1.0138 </r>
       <r>   -1.7932    0.9263 </r>
       <r>   -1.7735    0.8212 </r>
       <r>   -1.7411    0.5778 </r>
       <r>   -1.7308    0.4915 </r>
       <r>   -1.7016    0.2567 </r>
       <r>   -1.6437   -0.0081 </r>
       <r>   -1.5985   -0.0339 </r>
       <r>   -1.5365   -0.0093 </r>
       <r>   -1.5234   -0.0060 </r>
       <r>   -1.4728   -0.0008 </r>
       <r>   -1.3812   -0.0000 </r>
       <r>   -1.3742   -0.0000 </r>
       <r>   -1.2954   -0.0000 </r>
       <r>   -0.8618   -0.0000 </r>
       <r>   -0.6540   -0.0000 </r>
       <r>   -0.2831   -0.0000 </r>
       <r>   -0.2405   -0.0000 </r>
       <r>   -0.1041   -0.0000 </r>
       <r>    0.4090   -0.0000 </r>
       <r>    0.4995   -0.0000 </r>
       <r>    0.8597   -0.0000 </r>
       <r>    0.8959   -0.0000 </r>
       <r>    1.6807    0.0000 </r>
       <r>    1.9038    0.0000 </r>
       <r>    2.1922    0.0000 </r>
       <r>    2.6095    0.0000 </r>
      </set>
      <set comment="kpoint 5">
       <r>  -23.8835    1.0000 </r>
       <r>  -12.2887    1.0000 </r>
       <r>  -10.3918    1.0000 </r>
       <r>   -9.1325    1.0000 </r>
       <r>   -8.5278    1.0000 </r>
       <r>   -8.3941    1.0000 </r>
       <r>   -8.2675    1.0000 </r>
       <r>   -8.1300    1.0000 </r>
       <r>   -8.0961    1.0000 </r>
       <r>   -7.9928    1.0000 </r>
       <r>   -7.8950    1.0000 </r>
       <r>   -7.8476    1.0000 </r>
       <r>   -7.7409    1.0000 </r>
       <r>   -7.6962    1.0000 </r>
       <r>   -7.6803    1.0000 </r>
       <r>   -7.4716    1.0000 </r>
       <r>   -7.3788    1.0000 </r>
       <r>   -7.3517    1.0000 </r>
       <r>   -7.2865    1.0000 </r>
       <r>   -7.0612    1.0000 </r>
       <r>   -7.0388    1.0000 </r>
       <r>   -6.9773    1.0000 </r>
       <r>   -6.8024    1.0000 </r>
       <r>   -6.6772    1.0000 </r>
       <r>   -6.4402    1.0000 </r>
       <r>   -6.3910    1.0000 </r>
       <r>   -6.1772    1.0000 </r>
       <r>   -5.9598    1.0000 </r>
       <r>   -5.8554    1.0000 </r>
       <r>   -5.8170    1.0000 </r>
       <r>   -5.7178    1.0000 </r>
       <r>   -5.6505    1.0000 </r>
       <r>   -5.5957    1.0000 </r>
       <r>   -5.3956    1.0000 </r>
       <r>   -5.3664    1.0000 </r>
       <r>   -5.3010    1.0000 </r>
       <r>   -5.1882    1.0000 </r>
       <r>   -5.1354    1.0000 </r>
       <r>   -5.0027    1.0000 </r>
       <r>   -4.9790    1.0000 </r>
       <r>   -4.9352    1.0000 </r>
       <r>   -4.8977    1.0000 </r>
       <r>   -4.8336    1.0000 </r>
       <r>   -4.8080    1.0000 </r>
       <r>   -4.7742    1.0000 </r>
       <r>   -4.7550    1.0000 </r>
       <r>   -4.7050    1.0000 </r>
       <r>   -4.6427    1.0000 </r>
       <r>   -4.5824    1.0000 </r>
       <r>   -4.5408    1.0000 </r>
       <r>   -4.3851    1.0000 </r>
       <r>   -4.2732    1.0000 </r>
       <r>   -4.2594    1.0000 </r>
       <r>   -3.9023    1.0000 </r>
       <r>   -3.8767    1.0000 </r>
       <r>   -3.8004    1.0000 </r>
       <r>   -3.7764    1.0000 </r>
       <r>   -3.6803    1.0000 </r>
       <r>   -3.5808    1.0000 </r>
       <r>   -3.5196    1.0000 </r>
       <r>   -3.4610    1.0000 </r>
       <r>   -3.4152    1.0000 </r>
       <r>   -3.4031    1.0000 </r>
       <r>   -3.2555    1.0000 </r>
       <r>   -3.1311    1.0000 </r>
       <r>   -3.1085    1.0000 </r>
       <r>   -3.0315    1.0000 </r>
       <r>   -2.9414    1.0000 </r>
       <r>   -2.8642    1.0000 </r>
       <r>   -2.6498    1.0000 </r>
       <r>   -2.6361    1.0000 </r>
       <r>   -2.5726    1.0000 </r>
       <r>   -2.5206    1.0000 </r>
       <r>   -2.5068    1.0000 </r>
       <r>   -2.4012    1.0000 </r>
       <r>   -2.3766    1.0000 </r>
       <r>   -2.2962    1.0000 </r>
       <r>   -2.2396    1.0000 </r>
       <r>   -2.2027    1.0000 </r>
       <r>   -2.1370    1.0000 </r>
       <r>   -2.0744    1.0000 </r>
       <r>   -2.0239    1.0001 </r>
       <r>   -1.9272    1.0093 </r>
       <r>   -1.7771    0.8434 </r>
       <r>   -1.7675    0.7816 </r>
       <r>   -1.7348    0.5255 </r>
       <r>   -1.6337   -0.0230 </r>
       <r>   -1.4650   -0.0005 </r>
       <r>   -1.4097   -0.0000 </r>
       <r>   -1.0964   -0.0000 </r>
       <r>   -0.8242   -0.0000 </r>
       <r>    0.0512   -0.0000 </r>
       <r>    0.1559   -0.0000 </r>
       <r>    0.3947   -0.0000 </r>
       <r>    0.4950   -0.0000 </r>
       <r>    0.8477   -0.0000 </r>
       <r>    1.1821    0.0000 </r>
       <r>    1.1905    0.0000 </r>
       <r>    1.5347    0.0000 </r>
       <r>    2.4507    0.0000 </r>
       <r>    2.6006    0.0000 </r>
       <r>    3.1869    0.0000 </r>
      </set>
      <set comment="kpoint 6">
       <r>  -23.8835    1.0000 </r>
       <r>  -12.2906    1.0000 </r>
       <r>  -10.3936    1.0000 </r>
       <r>   -9.1338    1.0000 </r>
       <r>   -8.5472    1.0000 </r>
       <r>   -8.3990    1.0000 </r>
       <r>   -8.2573    1.0000 </r>
       <r>   -8.1324    1.0000 </r>
       <r>   -8.1005    1.0000 </r>
       <r>   -7.9942    1.0000 </r>
       <r>   -7.8938    1.0000 </r>
       <r>   -7.8466    1.0000 </r>
       <r>   -7.7472    1.0000 </r>
       <r>   -7.6957    1.0000 </r>
       <r>   -7.6831    1.0000 </r>
       <r>   -7.4750    1.0000 </r>
       <r>   -7.3845    1.0000 </r>
       <r>   -7.3556    1.0000 </r>
       <r>   -7.2831    1.0000 </r>
       <r>   -7.0667    1.0000 </r>
       <r>   -7.0391    1.0000 </r>
       <r>   -6.9804    1.0000 </r>
       <r>   -6.8045    1.0000 </r>
       <r>   -6.6742    1.0000 </r>
       <r>   -6.4300    1.0000 </r>
       <r>   -6.3972    1.0000 </r>
       <r>   -6.1724    1.0000 </r>
       <r>   -5.9300    1.0000 </r>
       <r>   -5.8837    1.0000 </r>
       <r>   -5.8204    1.0000 </r>
       <r>   -5.7206    1.0000 </r>
       <r>   -5.6282    1.0000 </r>
       <r>   -5.5830    1.0000 </r>
       <r>   -5.3568    1.0000 </r>
       <r>   -5.3340    1.0000 </r>
       <r>   -5.2819    1.0000 </r>
       <r>   -5.1800    1.0000 </r>
       <r>   -5.1220    1.0000 </r>
       <r>   -5.0241    1.0000 </r>
       <r>   -5.0007    1.0000 </r>
       <r>   -4.9382    1.0000 </r>
       <r>   -4.9119    1.0000 </r>
       <r>   -4.8414    1.0000 </r>
       <r>   -4.8027    1.0000 </r>
       <r>   -4.7755    1.0000 </r>
       <r>   -4.7608    1.0000 </r>
       <r>   -4.7269    1.0000 </r>
       <r>   -4.6557    1.0000 </r>
       <r>   -4.5689    1.0000 </r>
       <r>   -4.5199    1.0000 </r>
       <r>   -4.3771    1.0000 </r>
       <r>   -4.2587    1.0000 </r>
       <r>   -4.2244    1.0000 </r>
       <r>   -3.9097    1.0000 </r>
       <r>   -3.8815    1.0000 </r>
       <r>   -3.8051    1.0000 </r>
       <r>   -3.7511    1.0000 </r>
       <r>   -3.6838    1.0000 </r>
       <r>   -3.5699    1.0000 </r>
       <r>   -3.5268    1.0000 </r>
       <r>   -3.4793    1.0000 </r>
       <r>   -3.4210    1.0000 </r>
       <r>   -3.4135    1.0000 </r>
       <r>   -3.2506    1.0000 </r>
       <r>   -3.1184    1.0000 </r>
       <r>   -3.1049    1.0000 </r>
       <r>   -3.0249    1.0000 </r>
       <r>   -2.9576    1.0000 </r>
       <r>   -2.8769    1.0000 </r>
       <r>   -2.6470    1.0000 </r>
       <r>   -2.6370    1.0000 </r>
       <r>   -2.5834    1.0000 </r>
       <r>   -2.5192    1.0000 </r>
       <r>   -2.5082    1.0000 </r>
       <r>   -2.4020    1.0000 </r>
       <r>   -2.3672    1.0000 </r>
       <r>   -2.2871    1.0000 </r>
       <r>   -2.2311    1.0000 </r>
       <r>   -2.2106    1.0000 </r>
       <r>   -2.1211    1.0000 </r>
       <r>   -2.0649    1.0000 </r>
       <r>   -2.0241    1.0001 </r>
       <r>   -1.9266    1.0094 </r>
       <r>   -1.7691    0.7924 </r>
       <r>   -1.7481    0.6362 </r>
       <r>   -1.7202    0.4023 </r>
       <r>   -1.6239   -0.0315 </r>
       <r>   -1.4950   -0.0020 </r>
       <r>   -1.4424   -0.0002 </r>
       <r>   -1.1271   -0.0000 </r>
       <r>   -0.8469   -0.0000 </r>
       <r>    0.0468   -0.0000 </r>
       <r>    0.1584   -0.0000 </r>
       <r>    0.3839   -0.0000 </r>
       <r>    0.4779   -0.0000 </r>
       <r>    0.8224   -0.0000 </r>
       <r>    1.1632    0.0000 </r>
       <r>    1.1766    0.0000 </r>
       <r>    1.5257    0.0000 </r>
       <r>    2.4287    0.0000 </r>
       <r>    2.6053    0.0000 </r>
       <r>    3.1963    0.0000 </r>
      </set>
      <set comment="kpoint 7">
       <r>  -23.8835    1.0000 </r>
       <r>  -12.2895    1.0000 </r>
       <r>  -10.3927    1.0000 </r>
       <r>   -9.1332    1.0000 </r>
       <r>   -8.5374    1.0000 </r>
       <r>   -8.3962    1.0000 </r>
       <r>   -8.2628    1.0000 </r>
       <r>   -8.1313    1.0000 </r>
       <r>   -8.0983    1.0000 </r>
       <r>   -7.9930    1.0000 </r>
       <r>   -7.8949    1.0000 </r>
       <r>   -7.8466    1.0000 </r>
       <r>   -7.7441    1.0000 </r>
       <r>   -7.6965    1.0000 </r>
       <r>   -7.6810    1.0000 </r>
       <r>   -7.4730    1.0000 </r>
       <r>   -7.3823    1.0000 </r>
       <r>   -7.3538    1.0000 </r>
       <r>   -7.2849    1.0000 </r>
       <r>   -7.0637    1.0000 </r>
       <r>   -7.0388    1.0000 </r>
       <r>   -6.9790    1.0000 </r>
       <r>   -6.8038    1.0000 </r>
       <r>   -6.6754    1.0000 </r>
       <r>   -6.4356    1.0000 </r>
       <r>   -6.3934    1.0000 </r>
       <r>   -6.1741    1.0000 </r>
       <r>   -5.9437    1.0000 </r>
       <r>   -5.8694    1.0000 </r>
       <r>   -5.8178    1.0000 </r>
       <r>   -5.7189    1.0000 </r>
       <r>   -5.6412    1.0000 </r>
       <r>   -5.5920    1.0000 </r>
       <r>   -5.3862    1.0000 </r>
       <r>   -5.3408    1.0000 </r>
       <r>   -5.2927    1.0000 </r>
       <r>   -5.1876    1.0000 </r>
       <r>   -5.1311    1.0000 </r>
       <r>   -5.0249    1.0000 </r>
       <r>   -4.9811    1.0000 </r>
       <r>   -4.9346    1.0000 </r>
       <r>   -4.9094    1.0000 </r>
       <r>   -4.8435    1.0000 </r>
       <r>   -4.8033    1.0000 </r>
       <r>   -4.7772    1.0000 </r>
       <r>   -4.7529    1.0000 </r>
       <r>   -4.7080    1.0000 </r>
       <r>   -4.6441    1.0000 </r>
       <r>   -4.5744    1.0000 </r>
       <r>   -4.5312    1.0000 </r>
       <r>   -4.3806    1.0000 </r>
       <r>   -4.2604    1.0000 </r>
       <r>   -4.2491    1.0000 </r>
       <r>   -3.9086    1.0000 </r>
       <r>   -3.8779    1.0000 </r>
       <r>   -3.8015    1.0000 </r>
       <r>   -3.7658    1.0000 </r>
       <r>   -3.6800    1.0000 </r>
       <r>   -3.5762    1.0000 </r>
       <r>   -3.5229    1.0000 </r>
       <r>   -3.4676    1.0000 </r>
       <r>   -3.4210    1.0000 </r>
       <r>   -3.4054    1.0000 </r>
       <r>   -3.2520    1.0000 </r>
       <r>   -3.1264    1.0000 </r>
       <r>   -3.1054    1.0000 </r>
       <r>   -3.0296    1.0000 </r>
       <r>   -2.9468    1.0000 </r>
       <r>   -2.8711    1.0000 </r>
       <r>   -2.6534    1.0000 </r>
       <r>   -2.6324    1.0000 </r>
       <r>   -2.5773    1.0000 </r>
       <r>   -2.5204    1.0000 </r>
       <r>   -2.5069    1.0000 </r>
       <r>   -2.4029    1.0000 </r>
       <r>   -2.3723    1.0000 </r>
       <r>   -2.2919    1.0000 </r>
       <r>   -2.2354    1.0000 </r>
       <r>   -2.2064    1.0000 </r>
       <r>   -2.1291    1.0000 </r>
       <r>   -2.0692    1.0000 </r>
       <r>   -2.0243    1.0001 </r>
       <r>   -1.9270    1.0093 </r>
       <r>   -1.7736    0.8217 </r>
       <r>   -1.7565    0.7020 </r>
       <r>   -1.7264    0.4542 </r>
       <r>   -1.6305   -0.0264 </r>
       <r>   -1.4809   -0.0011 </r>
       <r>   -1.4270   -0.0001 </r>
       <r>   -1.1094   -0.0000 </r>
       <r>   -0.8356   -0.0000 </r>
       <r>    0.0496   -0.0000 </r>
       <r>    0.1577   -0.0000 </r>
       <r>    0.3892   -0.0000 </r>
       <r>    0.4873   -0.0000 </r>
       <r>    0.8357   -0.0000 </r>
       <r>    1.1724    0.0000 </r>
       <r>    1.1854    0.0000 </r>
       <r>    1.5291    0.0000 </r>
       <r>    2.4409    0.0000 </r>
       <r>    2.6020    0.0000 </r>
       <r>    3.1903    0.0000 </r>
      </set>
      <set comment="kpoint 8">
       <r>  -23.8835    1.0000 </r>
       <r>  -12.1572    1.0000 </r>
       <r>   -9.6773    1.0000 </r>
       <r>   -8.9568    1.0000 </r>
       <r>   -8.6795    1.0000 </r>
       <r>   -8.3375    1.0000 </r>
       <r>   -8.1227    1.0000 </r>
       <r>   -7.9699    1.0000 </r>
       <r>   -7.9049    1.0000 </r>
       <r>   -7.5756    1.0000 </r>
       <r>   -7.4766    1.0000 </r>
       <r>   -7.4565    1.0000 </r>
       <r>   -7.4379    1.0000 </r>
       <r>   -7.3664    1.0000 </r>
       <r>   -7.3593    1.0000 </r>
       <r>   -7.2128    1.0000 </r>
       <r>   -7.0025    1.0000 </r>
       <r>   -6.9728    1.0000 </r>
       <r>   -6.9242    1.0000 </r>
       <r>   -6.8124    1.0000 </r>
       <r>   -6.7502    1.0000 </r>
       <r>   -6.6669    1.0000 </r>
       <r>   -6.4562    1.0000 </r>
       <r>   -6.3869    1.0000 </r>
       <r>   -6.3814    1.0000 </r>
       <r>   -6.2270    1.0000 </r>
       <r>   -6.1951    1.0000 </r>
       <r>   -6.1412    1.0000 </r>
       <r>   -6.0161    1.0000 </r>
       <r>   -5.9928    1.0000 </r>
       <r>   -5.9745    1.0000 </r>
       <r>   -5.8198    1.0000 </r>
       <r>   -5.6593    1.0000 </r>
       <r>   -5.6202    1.0000 </r>
       <r>   -5.6130    1.0000 </r>
       <r>   -5.4860    1.0000 </r>
       <r>   -5.3947    1.0000 </r>
       <r>   -5.3311    1.0000 </r>
       <r>   -5.3254    1.0000 </r>
       <r>   -5.2108    1.0000 </r>
       <r>   -5.0949    1.0000 </r>
       <r>   -5.0375    1.0000 </r>
       <r>   -4.9219    1.0000 </r>
       <r>   -4.8199    1.0000 </r>
       <r>   -4.7264    1.0000 </r>
       <r>   -4.7111    1.0000 </r>
       <r>   -4.6885    1.0000 </r>
       <r>   -4.6243    1.0000 </r>
       <r>   -4.5961    1.0000 </r>
       <r>   -4.5253    1.0000 </r>
       <r>   -4.5010    1.0000 </r>
       <r>   -4.4648    1.0000 </r>
       <r>   -4.4288    1.0000 </r>
       <r>   -4.3810    1.0000 </r>
       <r>   -4.3290    1.0000 </r>
       <r>   -4.1849    1.0000 </r>
       <r>   -4.1630    1.0000 </r>
       <r>   -4.0041    1.0000 </r>
       <r>   -3.9485    1.0000 </r>
       <r>   -3.8862    1.0000 </r>
       <r>   -3.8164    1.0000 </r>
       <r>   -3.8022    1.0000 </r>
       <r>   -3.7219    1.0000 </r>
       <r>   -3.4932    1.0000 </r>
       <r>   -3.4471    1.0000 </r>
       <r>   -3.3697    1.0000 </r>
       <r>   -3.3152    1.0000 </r>
       <r>   -3.2940    1.0000 </r>
       <r>   -3.1780    1.0000 </r>
       <r>   -3.1404    1.0000 </r>
       <r>   -3.0978    1.0000 </r>
       <r>   -3.0123    1.0000 </r>
       <r>   -2.9348    1.0000 </r>
       <r>   -2.9202    1.0000 </r>
       <r>   -2.8600    1.0000 </r>
       <r>   -2.8418    1.0000 </r>
       <r>   -2.7995    1.0000 </r>
       <r>   -2.6092    1.0000 </r>
       <r>   -2.4230    1.0000 </r>
       <r>   -2.2359    1.0000 </r>
       <r>   -2.1772    1.0000 </r>
       <r>   -2.1432    1.0000 </r>
       <r>   -1.9376    1.0066 </r>
       <r>   -1.7600    0.7283 </r>
       <r>   -1.7508    0.6576 </r>
       <r>   -1.7384    0.5558 </r>
       <r>   -1.6737    0.0888 </r>
       <r>   -1.4886   -0.0016 </r>
       <r>   -1.3973   -0.0000 </r>
       <r>   -1.3513   -0.0000 </r>
       <r>   -0.4047   -0.0000 </r>
       <r>    0.2776   -0.0000 </r>
       <r>    0.3025   -0.0000 </r>
       <r>    0.4876   -0.0000 </r>
       <r>    0.5548   -0.0000 </r>
       <r>    0.8378   -0.0000 </r>
       <r>    1.3799    0.0000 </r>
       <r>    1.5214    0.0000 </r>
       <r>    1.9349    0.0000 </r>
       <r>    2.5739    0.0000 </r>
       <r>    2.9355    0.0000 </r>
       <r>    3.2696    0.0000 </r>
      </set>
      <set comment="kpoint 9">
       <r>  -23.8835    1.0000 </r>
       <r>  -12.1606    1.0000 </r>
       <r>   -9.6827    1.0000 </r>
       <r>   -8.9700    1.0000 </r>
       <r>   -8.6763    1.0000 </r>
       <r>   -8.3340    1.0000 </r>
       <r>   -8.1233    1.0000 </r>
       <r>   -7.9792    1.0000 </r>
       <r>   -7.9087    1.0000 </r>
       <r>   -7.5863    1.0000 </r>
       <r>   -7.4857    1.0000 </r>
       <r>   -7.4682    1.0000 </r>
       <r>   -7.4523    1.0000 </r>
       <r>   -7.3823    1.0000 </r>
       <r>   -7.3728    1.0000 </r>
       <r>   -7.2313    1.0000 </r>
       <r>   -7.0054    1.0000 </r>
       <r>   -6.9616    1.0000 </r>
       <r>   -6.9133    1.0000 </r>
       <r>   -6.8176    1.0000 </r>
       <r>   -6.7490    1.0000 </r>
       <r>   -6.6695    1.0000 </r>
       <r>   -6.4369    1.0000 </r>
       <r>   -6.3862    1.0000 </r>
       <r>   -6.3761    1.0000 </r>
       <r>   -6.2241    1.0000 </r>
       <r>   -6.1749    1.0000 </r>
       <r>   -6.1335    1.0000 </r>
       <r>   -6.0200    1.0000 </r>
       <r>   -6.0010    1.0000 </r>
       <r>   -5.9691    1.0000 </r>
       <r>   -5.8074    1.0000 </r>
       <r>   -5.6409    1.0000 </r>
       <r>   -5.5962    1.0000 </r>
       <r>   -5.5832    1.0000 </r>
       <r>   -5.4659    1.0000 </r>
       <r>   -5.3804    1.0000 </r>
       <r>   -5.3196    1.0000 </r>
       <r>   -5.3018    1.0000 </r>
       <r>   -5.1988    1.0000 </r>
       <r>   -5.0904    1.0000 </r>
       <r>   -5.0248    1.0000 </r>
       <r>   -4.9404    1.0000 </r>
       <r>   -4.8425    1.0000 </r>
       <r>   -4.7147    1.0000 </r>
       <r>   -4.7081    1.0000 </r>
       <r>   -4.6776    1.0000 </r>
       <r>   -4.6000    1.0000 </r>
       <r>   -4.5723    1.0000 </r>
       <r>   -4.5586    1.0000 </r>
       <r>   -4.5012    1.0000 </r>
       <r>   -4.4916    1.0000 </r>
       <r>   -4.4318    1.0000 </r>
       <r>   -4.3753    1.0000 </r>
       <r>   -4.3256    1.0000 </r>
       <r>   -4.1675    1.0000 </r>
       <r>   -4.1541    1.0000 </r>
       <r>   -4.0113    1.0000 </r>
       <r>   -3.9534    1.0000 </r>
       <r>   -3.8847    1.0000 </r>
       <r>   -3.8148    1.0000 </r>
       <r>   -3.8061    1.0000 </r>
       <r>   -3.7136    1.0000 </r>
       <r>   -3.5028    1.0000 </r>
       <r>   -3.4434    1.0000 </r>
       <r>   -3.3694    1.0000 </r>
       <r>   -3.3223    1.0000 </r>
       <r>   -3.2838    1.0000 </r>
       <r>   -3.1783    1.0000 </r>
       <r>   -3.1385    1.0000 </r>
       <r>   -3.0808    1.0000 </r>
       <r>   -3.0076    1.0000 </r>
       <r>   -2.9409    1.0000 </r>
       <r>   -2.9325    1.0000 </r>
       <r>   -2.8760    1.0000 </r>
       <r>   -2.8299    1.0000 </r>
       <r>   -2.7998    1.0000 </r>
       <r>   -2.6061    1.0000 </r>
       <r>   -2.4329    1.0000 </r>
       <r>   -2.2547    1.0000 </r>
       <r>   -2.1631    1.0000 </r>
       <r>   -2.1387    1.0000 </r>
       <r>   -1.9484    1.0045 </r>
       <r>   -1.7471    0.6274 </r>
       <r>   -1.7411    0.5782 </r>
       <r>   -1.7271    0.4599 </r>
       <r>   -1.6530    0.0131 </r>
       <r>   -1.5104   -0.0038 </r>
       <r>   -1.4340   -0.0001 </r>
       <r>   -1.3853   -0.0000 </r>
       <r>   -0.4486   -0.0000 </r>
       <r>    0.2590   -0.0000 </r>
       <r>    0.2970   -0.0000 </r>
       <r>    0.4744   -0.0000 </r>
       <r>    0.5434   -0.0000 </r>
       <r>    0.8200   -0.0000 </r>
       <r>    1.3760    0.0000 </r>
       <r>    1.5172    0.0000 </r>
       <r>    1.9159    0.0000 </r>
       <r>    2.5381    0.0000 </r>
       <r>    2.9488    0.0000 </r>
       <r>    3.2566    0.0000 </r>
      </set>
      <set comment="kpoint 10">
       <r>  -23.8835    1.0000 </r>
       <r>  -12.1585    1.0000 </r>
       <r>   -9.6801    1.0000 </r>
       <r>   -8.9635    1.0000 </r>
       <r>   -8.6781    1.0000 </r>
       <r>   -8.3357    1.0000 </r>
       <r>   -8.1232    1.0000 </r>
       <r>   -7.9740    1.0000 </r>
       <r>   -7.9061    1.0000 </r>
       <r>   -7.5810    1.0000 </r>
       <r>   -7.4818    1.0000 </r>
       <r>   -7.4630    1.0000 </r>
       <r>   -7.4445    1.0000 </r>
       <r>   -7.3763    1.0000 </r>
       <r>   -7.3632    1.0000 </r>
       <r>   -7.2221    1.0000 </r>
       <r>   -7.0037    1.0000 </r>
       <r>   -6.9675    1.0000 </r>
       <r>   -6.9182    1.0000 </r>
       <r>   -6.8151    1.0000 </r>
       <r>   -6.7499    1.0000 </r>
       <r>   -6.6685    1.0000 </r>
       <r>   -6.4449    1.0000 </r>
       <r>   -6.3851    1.0000 </r>
       <r>   -6.3808    1.0000 </r>
       <r>   -6.2253    1.0000 </r>
       <r>   -6.1854    1.0000 </r>
       <r>   -6.1376    1.0000 </r>
       <r>   -6.0182    1.0000 </r>
       <r>   -5.9969    1.0000 </r>
       <r>   -5.9709    1.0000 </r>
       <r>   -5.8141    1.0000 </r>
       <r>   -5.6455    1.0000 </r>
       <r>   -5.6139    1.0000 </r>
       <r>   -5.5991    1.0000 </r>
       <r>   -5.4800    1.0000 </r>
       <r>   -5.3885    1.0000 </r>
       <r>   -5.3261    1.0000 </r>
       <r>   -5.3150    1.0000 </r>
       <r>   -5.2066    1.0000 </r>
       <r>   -5.0955    1.0000 </r>
       <r>   -5.0354    1.0000 </r>
       <r>   -4.9325    1.0000 </r>
       <r>   -4.8300    1.0000 </r>
       <r>   -4.7227    1.0000 </r>
       <r>   -4.7116    1.0000 </r>
       <r>   -4.6850    1.0000 </r>
       <r>   -4.6057    1.0000 </r>
       <r>   -4.5880    1.0000 </r>
       <r>   -4.5354    1.0000 </r>
       <r>   -4.5020    1.0000 </r>
       <r>   -4.4713    1.0000 </r>
       <r>   -4.4298    1.0000 </r>
       <r>   -4.3767    1.0000 </r>
       <r>   -4.3275    1.0000 </r>
       <r>   -4.1757    1.0000 </r>
       <r>   -4.1567    1.0000 </r>
       <r>   -4.0082    1.0000 </r>
       <r>   -3.9504    1.0000 </r>
       <r>   -3.8839    1.0000 </r>
       <r>   -3.8167    1.0000 </r>
       <r>   -3.8018    1.0000 </r>
       <r>   -3.7172    1.0000 </r>
       <r>   -3.4976    1.0000 </r>
       <r>   -3.4441    1.0000 </r>
       <r>   -3.3697    1.0000 </r>
       <r>   -3.3179    1.0000 </r>
       <r>   -3.2894    1.0000 </r>
       <r>   -3.1780    1.0000 </r>
       <r>   -3.1395    1.0000 </r>
       <r>   -3.0901    1.0000 </r>
       <r>   -3.0105    1.0000 </r>
       <r>   -2.9393    1.0000 </r>
       <r>   -2.9249    1.0000 </r>
       <r>   -2.8675    1.0000 </r>
       <r>   -2.8370    1.0000 </r>
       <r>   -2.7995    1.0000 </r>
       <r>   -2.6076    1.0000 </r>
       <r>   -2.4293    1.0000 </r>
       <r>   -2.2457    1.0000 </r>
       <r>   -2.1712    1.0000 </r>
       <r>   -2.1402    1.0000 </r>
       <r>   -1.9424    1.0056 </r>
       <r>   -1.7561    0.6989 </r>
       <r>   -1.7442    0.6039 </r>
       <r>   -1.7312    0.4948 </r>
       <r>   -1.6651    0.0520 </r>
       <r>   -1.4992   -0.0024 </r>
       <r>   -1.4166   -0.0000 </r>
       <r>   -1.3674   -0.0000 </r>
       <r>   -0.4248   -0.0000 </r>
       <r>    0.2693   -0.0000 </r>
       <r>    0.3011   -0.0000 </r>
       <r>    0.4814   -0.0000 </r>
       <r>    0.5499   -0.0000 </r>
       <r>    0.8289   -0.0000 </r>
       <r>    1.3783    0.0000 </r>
       <r>    1.5184    0.0000 </r>
       <r>    1.9248    0.0000 </r>
       <r>    2.5576    0.0000 </r>
       <r>    2.9411    0.0000 </r>
       <r>    3.2630    0.0000 </r>
      </set>
      <set comment="kpoint 11">
       <r>  -23.8837    1.0000 </r>
       <r>  -12.3340    1.0000 </r>
       <r>  -10.5498    1.0000 </r>
       <r>   -9.2580    1.0000 </r>
       <r>   -8.4994    1.0000 </r>
       <r>   -8.3391    1.0000 </r>
       <r>   -8.2855    1.0000 </r>
       <r>   -8.2385    1.0000 </r>
       <r>   -8.2041    1.0000 </r>
       <r>   -8.1466    1.0000 </r>
       <r>   -7.9816    1.0000 </r>
       <r>   -7.9274    1.0000 </r>
       <r>   -7.8911    1.0000 </r>
       <r>   -7.7893    1.0000 </r>
       <r>   -7.7471    1.0000 </r>
       <r>   -7.5074    1.0000 </r>
       <r>   -7.4790    1.0000 </r>
       <r>   -7.4404    1.0000 </r>
       <r>   -7.3124    1.0000 </r>
       <r>   -7.2908    1.0000 </r>
       <r>   -7.0586    1.0000 </r>
       <r>   -7.0529    1.0000 </r>
       <r>   -6.9349    1.0000 </r>
       <r>   -6.7288    1.0000 </r>
       <r>   -6.4511    1.0000 </r>
       <r>   -6.4388    1.0000 </r>
       <r>   -6.1465    1.0000 </r>
       <r>   -5.8873    1.0000 </r>
       <r>   -5.8317    1.0000 </r>
       <r>   -5.7312    1.0000 </r>
       <r>   -5.6793    1.0000 </r>
       <r>   -5.5859    1.0000 </r>
       <r>   -5.5469    1.0000 </r>
       <r>   -5.4141    1.0000 </r>
       <r>   -5.3524    1.0000 </r>
       <r>   -5.3266    1.0000 </r>
       <r>   -5.1490    1.0000 </r>
       <r>   -5.0967    1.0000 </r>
       <r>   -4.9652    1.0000 </r>
       <r>   -4.9410    1.0000 </r>
       <r>   -4.9234    1.0000 </r>
       <r>   -4.8756    1.0000 </r>
       <r>   -4.8490    1.0000 </r>
       <r>   -4.7988    1.0000 </r>
       <r>   -4.7316    1.0000 </r>
       <r>   -4.7162    1.0000 </r>
       <r>   -4.7016    1.0000 </r>
       <r>   -4.6800    1.0000 </r>
       <r>   -4.5518    1.0000 </r>
       <r>   -4.4839    1.0000 </r>
       <r>   -4.3528    1.0000 </r>
       <r>   -4.2940    1.0000 </r>
       <r>   -4.2071    1.0000 </r>
       <r>   -3.8540    1.0000 </r>
       <r>   -3.8177    1.0000 </r>
       <r>   -3.7357    1.0000 </r>
       <r>   -3.5622    1.0000 </r>
       <r>   -3.5126    1.0000 </r>
       <r>   -3.4421    1.0000 </r>
       <r>   -3.4053    1.0000 </r>
       <r>   -3.3223    1.0000 </r>
       <r>   -3.1953    1.0000 </r>
       <r>   -3.1687    1.0000 </r>
       <r>   -3.1142    1.0000 </r>
       <r>   -3.0246    1.0000 </r>
       <r>   -2.9928    1.0000 </r>
       <r>   -2.9288    1.0000 </r>
       <r>   -2.8701    1.0000 </r>
       <r>   -2.7294    1.0000 </r>
       <r>   -2.6648    1.0000 </r>
       <r>   -2.5495    1.0000 </r>
       <r>   -2.4526    1.0000 </r>
       <r>   -2.3719    1.0000 </r>
       <r>   -2.3524    1.0000 </r>
       <r>   -2.3223    1.0000 </r>
       <r>   -2.2141    1.0000 </r>
       <r>   -2.1456    1.0000 </r>
       <r>   -2.0999    1.0000 </r>
       <r>   -2.0365    1.0001 </r>
       <r>   -1.9389    1.0063 </r>
       <r>   -1.8686    1.0329 </r>
       <r>   -1.8354    1.0285 </r>
       <r>   -1.8203    1.0088 </r>
       <r>   -1.7916    0.9191 </r>
       <r>   -1.6060   -0.0353 </r>
       <r>   -1.5838   -0.0285 </r>
       <r>   -1.5333   -0.0084 </r>
       <r>   -1.3166   -0.0000 </r>
       <r>   -1.1984   -0.0000 </r>
       <r>   -1.0792   -0.0000 </r>
       <r>   -0.9055   -0.0000 </r>
       <r>   -0.8541   -0.0000 </r>
       <r>   -0.2971   -0.0000 </r>
       <r>   -0.0532   -0.0000 </r>
       <r>    0.3010   -0.0000 </r>
       <r>    1.0403    0.0000 </r>
       <r>    1.4688    0.0000 </r>
       <r>    1.6634    0.0000 </r>
       <r>    1.8847    0.0000 </r>
       <r>    2.0637    0.0000 </r>
       <r>    2.4480    0.0000 </r>
       <r>    2.5298    0.0000 </r>
      </set>
      <set comment="kpoint 12">
       <r>  -23.8838    1.0000 </r>
       <r>  -12.3345    1.0000 </r>
       <r>  -10.5503    1.0000 </r>
       <r>   -9.2586    1.0000 </r>
       <r>   -8.5006    1.0000 </r>
       <r>   -8.3415    1.0000 </r>
       <r>   -8.2913    1.0000 </r>
       <r>   -8.2400    1.0000 </r>
       <r>   -8.2036    1.0000 </r>
       <r>   -8.1471    1.0000 </r>
       <r>   -7.9798    1.0000 </r>
       <r>   -7.9266    1.0000 </r>
       <r>   -7.8887    1.0000 </r>
       <r>   -7.7902    1.0000 </r>
       <r>   -7.7494    1.0000 </r>
       <r>   -7.5088    1.0000 </r>
       <r>   -7.4811    1.0000 </r>
       <r>   -7.4405    1.0000 </r>
       <r>   -7.3138    1.0000 </r>
       <r>   -7.2896    1.0000 </r>
       <r>   -7.0585    1.0000 </r>
       <r>   -7.0541    1.0000 </r>
       <r>   -6.9368    1.0000 </r>
       <r>   -6.7277    1.0000 </r>
       <r>   -6.4491    1.0000 </r>
       <r>   -6.4399    1.0000 </r>
       <r>   -6.1451    1.0000 </r>
       <r>   -5.8842    1.0000 </r>
       <r>   -5.8267    1.0000 </r>
       <r>   -5.7368    1.0000 </r>
       <r>   -5.6850    1.0000 </r>
       <r>   -5.5867    1.0000 </r>
       <r>   -5.5459    1.0000 </r>
       <r>   -5.4218    1.0000 </r>
       <r>   -5.3320    1.0000 </r>
       <r>   -5.3099    1.0000 </r>
       <r>   -5.1448    1.0000 </r>
       <r>   -5.0953    1.0000 </r>
       <r>   -4.9639    1.0000 </r>
       <r>   -4.9451    1.0000 </r>
       <r>   -4.9304    1.0000 </r>
       <r>   -4.8780    1.0000 </r>
       <r>   -4.8536    1.0000 </r>
       <r>   -4.7968    1.0000 </r>
       <r>   -4.7304    1.0000 </r>
       <r>   -4.7099    1.0000 </r>
       <r>   -4.6988    1.0000 </r>
       <r>   -4.6760    1.0000 </r>
       <r>   -4.5494    1.0000 </r>
       <r>   -4.4851    1.0000 </r>
       <r>   -4.3529    1.0000 </r>
       <r>   -4.2836    1.0000 </r>
       <r>   -4.1955    1.0000 </r>
       <r>   -3.8568    1.0000 </r>
       <r>   -3.8258    1.0000 </r>
       <r>   -3.7427    1.0000 </r>
       <r>   -3.5498    1.0000 </r>
       <r>   -3.5096    1.0000 </r>
       <r>   -3.4439    1.0000 </r>
       <r>   -3.4039    1.0000 </r>
       <r>   -3.3228    1.0000 </r>
       <r>   -3.1990    1.0000 </r>
       <r>   -3.1727    1.0000 </r>
       <r>   -3.1164    1.0000 </r>
       <r>   -3.0365    1.0000 </r>
       <r>   -2.9926    1.0000 </r>
       <r>   -2.9304    1.0000 </r>
       <r>   -2.8727    1.0000 </r>
       <r>   -2.7206    1.0000 </r>
       <r>   -2.6686    1.0000 </r>
       <r>   -2.5547    1.0000 </r>
       <r>   -2.4551    1.0000 </r>
       <r>   -2.3674    1.0000 </r>
       <r>   -2.3489    1.0000 </r>
       <r>   -2.3160    1.0000 </r>
       <r>   -2.2122    1.0000 </r>
       <r>   -2.1435    1.0000 </r>
       <r>   -2.0994    1.0000 </r>
       <r>   -2.0343    1.0001 </r>
       <r>   -1.9380    1.0065 </r>
       <r>   -1.8606    1.0349 </r>
       <r>   -1.8358    1.0288 </r>
       <r>   -1.8074    0.9779 </r>
       <r>   -1.7900    0.9118 </r>
       <r>   -1.6156   -0.0348 </r>
       <r>   -1.6025   -0.0348 </r>
       <r>   -1.5421   -0.0110 </r>
       <r>   -1.3239   -0.0000 </r>
       <r>   -1.1976   -0.0000 </r>
       <r>   -1.0806   -0.0000 </r>
       <r>   -0.9032   -0.0000 </r>
       <r>   -0.8578   -0.0000 </r>
       <r>   -0.2933   -0.0000 </r>
       <r>   -0.0516   -0.0000 </r>
       <r>    0.2952   -0.0000 </r>
       <r>    1.0445    0.0000 </r>
       <r>    1.4622    0.0000 </r>
       <r>    1.6653    0.0000 </r>
       <r>    1.8790    0.0000 </r>
       <r>    2.0365    0.0000 </r>
       <r>    2.4442    0.0000 </r>
       <r>    2.5127    0.0000 </r>
      </set>
      <set comment="kpoint 13">
       <r>  -23.8838    1.0000 </r>
       <r>  -12.3332    1.0000 </r>
       <r>  -10.5493    1.0000 </r>
       <r>   -9.2574    1.0000 </r>
       <r>   -8.4974    1.0000 </r>
       <r>   -8.3353    1.0000 </r>
       <r>   -8.2805    1.0000 </r>
       <r>   -8.2367    1.0000 </r>
       <r>   -8.2053    1.0000 </r>
       <r>   -8.1475    1.0000 </r>
       <r>   -7.9833    1.0000 </r>
       <r>   -7.9273    1.0000 </r>
       <r>   -7.8936    1.0000 </r>
       <r>   -7.7882    1.0000 </r>
       <r>   -7.7451    1.0000 </r>
       <r>   -7.5056    1.0000 </r>
       <r>   -7.4763    1.0000 </r>
       <r>   -7.4416    1.0000 </r>
       <r>   -7.3112    1.0000 </r>
       <r>   -7.2921    1.0000 </r>
       <r>   -7.0578    1.0000 </r>
       <r>   -7.0526    1.0000 </r>
       <r>   -6.9327    1.0000 </r>
       <r>   -6.7297    1.0000 </r>
       <r>   -6.4518    1.0000 </r>
       <r>   -6.4385    1.0000 </r>
       <r>   -6.1469    1.0000 </r>
       <r>   -5.8855    1.0000 </r>
       <r>   -5.8327    1.0000 </r>
       <r>   -5.7235    1.0000 </r>
       <r>   -5.6789    1.0000 </r>
       <r>   -5.5928    1.0000 </r>
       <r>   -5.5494    1.0000 </r>
       <r>   -5.4151    1.0000 </r>
       <r>   -5.3718    1.0000 </r>
       <r>   -5.3415    1.0000 </r>
       <r>   -5.1554    1.0000 </r>
       <r>   -5.0982    1.0000 </r>
       <r>   -4.9674    1.0000 </r>
       <r>   -4.9414    1.0000 </r>
       <r>   -4.9173    1.0000 </r>
       <r>   -4.8729    1.0000 </r>
       <r>   -4.8429    1.0000 </r>
       <r>   -4.7968    1.0000 </r>
       <r>   -4.7378    1.0000 </r>
       <r>   -4.7164    1.0000 </r>
       <r>   -4.7014    1.0000 </r>
       <r>   -4.6824    1.0000 </r>
       <r>   -4.5542    1.0000 </r>
       <r>   -4.4824    1.0000 </r>
       <r>   -4.3529    1.0000 </r>
       <r>   -4.3052    1.0000 </r>
       <r>   -4.2189    1.0000 </r>
       <r>   -3.8505    1.0000 </r>
       <r>   -3.8108    1.0000 </r>
       <r>   -3.7280    1.0000 </r>
       <r>   -3.5807    1.0000 </r>
       <r>   -3.5084    1.0000 </r>
       <r>   -3.4440    1.0000 </r>
       <r>   -3.4057    1.0000 </r>
       <r>   -3.3194    1.0000 </r>
       <r>   -3.1912    1.0000 </r>
       <r>   -3.1656    1.0000 </r>
       <r>   -3.1104    1.0000 </r>
       <r>   -3.0139    1.0000 </r>
       <r>   -2.9910    1.0000 </r>
       <r>   -2.9277    1.0000 </r>
       <r>   -2.8653    1.0000 </r>
       <r>   -2.7390    1.0000 </r>
       <r>   -2.6630    1.0000 </r>
       <r>   -2.5404    1.0000 </r>
       <r>   -2.4489    1.0000 </r>
       <r>   -2.3761    1.0000 </r>
       <r>   -2.3556    1.0000 </r>
       <r>   -2.3286    1.0000 </r>
       <r>   -2.2182    1.0000 </r>
       <r>   -2.1480    1.0000 </r>
       <r>   -2.1002    1.0000 </r>
       <r>   -2.0405    1.0001 </r>
       <r>   -1.9389    1.0063 </r>
       <r>   -1.8771    1.0297 </r>
       <r>   -1.8358    1.0288 </r>
       <r>   -1.8311    1.0244 </r>
       <r>   -1.7904    0.9133 </r>
       <r>   -1.5903   -0.0312 </r>
       <r>   -1.5724   -0.0233 </r>
       <r>   -1.5266   -0.0067 </r>
       <r>   -1.3096   -0.0000 </r>
       <r>   -1.1986   -0.0000 </r>
       <r>   -1.0775   -0.0000 </r>
       <r>   -0.9070   -0.0000 </r>
       <r>   -0.8509   -0.0000 </r>
       <r>   -0.3017   -0.0000 </r>
       <r>   -0.0559   -0.0000 </r>
       <r>    0.3077   -0.0000 </r>
       <r>    1.0361    0.0000 </r>
       <r>    1.4793    0.0000 </r>
       <r>    1.6605    0.0000 </r>
       <r>    1.8907    0.0000 </r>
       <r>    2.0911    0.0000 </r>
       <r>    2.4511    0.0000 </r>
       <r>    2.5494    0.0000 </r>
      </set>
      <set comment="kpoint 14">
       <r>  -23.8835    1.0000 </r>
       <r>  -12.1878    1.0000 </r>
       <r>   -9.9377    1.0000 </r>
       <r>   -8.8184    1.0000 </r>
       <r>   -8.5422    1.0000 </r>
       <r>   -8.2847    1.0000 </r>
       <r>   -8.2065    1.0000 </r>
       <r>   -8.0498    1.0000 </r>
       <r>   -7.9434    1.0000 </r>
       <r>   -7.8162    1.0000 </r>
       <r>   -7.6860    1.0000 </r>
       <r>   -7.5839    1.0000 </r>
       <r>   -7.4631    1.0000 </r>
       <r>   -7.4293    1.0000 </r>
       <r>   -7.3932    1.0000 </r>
       <r>   -7.2751    1.0000 </r>
       <r>   -7.1599    1.0000 </r>
       <r>   -7.0748    1.0000 </r>
       <r>   -7.0142    1.0000 </r>
       <r>   -6.9704    1.0000 </r>
       <r>   -6.8207    1.0000 </r>
       <r>   -6.6614    1.0000 </r>
       <r>   -6.5977    1.0000 </r>
       <r>   -6.4520    1.0000 </r>
       <r>   -6.3433    1.0000 </r>
       <r>   -6.2880    1.0000 </r>
       <r>   -6.2297    1.0000 </r>
       <r>   -6.1276    1.0000 </r>
       <r>   -6.0854    1.0000 </r>
       <r>   -5.9598    1.0000 </r>
       <r>   -5.8515    1.0000 </r>
       <r>   -5.8036    1.0000 </r>
       <r>   -5.6578    1.0000 </r>
       <r>   -5.5253    1.0000 </r>
       <r>   -5.4744    1.0000 </r>
       <r>   -5.4608    1.0000 </r>
       <r>   -5.3614    1.0000 </r>
       <r>   -5.2579    1.0000 </r>
       <r>   -5.1752    1.0000 </r>
       <r>   -5.1238    1.0000 </r>
       <r>   -5.1127    1.0000 </r>
       <r>   -5.0568    1.0000 </r>
       <r>   -4.9709    1.0000 </r>
       <r>   -4.8822    1.0000 </r>
       <r>   -4.8264    1.0000 </r>
       <r>   -4.7919    1.0000 </r>
       <r>   -4.7321    1.0000 </r>
       <r>   -4.6020    1.0000 </r>
       <r>   -4.5485    1.0000 </r>
       <r>   -4.4978    1.0000 </r>
       <r>   -4.4357    1.0000 </r>
       <r>   -4.3400    1.0000 </r>
       <r>   -4.2853    1.0000 </r>
       <r>   -4.2362    1.0000 </r>
       <r>   -4.1708    1.0000 </r>
       <r>   -4.0628    1.0000 </r>
       <r>   -4.0175    1.0000 </r>
       <r>   -3.9657    1.0000 </r>
       <r>   -3.9183    1.0000 </r>
       <r>   -3.8606    1.0000 </r>
       <r>   -3.7961    1.0000 </r>
       <r>   -3.7543    1.0000 </r>
       <r>   -3.6740    1.0000 </r>
       <r>   -3.5019    1.0000 </r>
       <r>   -3.3664    1.0000 </r>
       <r>   -3.3123    1.0000 </r>
       <r>   -3.2418    1.0000 </r>
       <r>   -3.1801    1.0000 </r>
       <r>   -3.0701    1.0000 </r>
       <r>   -3.0094    1.0000 </r>
       <r>   -2.8834    1.0000 </r>
       <r>   -2.8238    1.0000 </r>
       <r>   -2.8027    1.0000 </r>
       <r>   -2.7478    1.0000 </r>
       <r>   -2.5692    1.0000 </r>
       <r>   -2.5100    1.0000 </r>
       <r>   -2.4153    1.0000 </r>
       <r>   -2.3072    1.0000 </r>
       <r>   -2.2061    1.0000 </r>
       <r>   -2.1093    1.0000 </r>
       <r>   -2.0713    1.0000 </r>
       <r>   -1.9854    1.0010 </r>
       <r>   -1.9218    1.0109 </r>
       <r>   -1.9027    1.0182 </r>
       <r>   -1.8540    1.0355 </r>
       <r>   -1.7946    0.9321 </r>
       <r>   -1.7389    0.5599 </r>
       <r>   -1.5875   -0.0301 </r>
       <r>   -1.5688   -0.0217 </r>
       <r>   -1.0945   -0.0000 </r>
       <r>   -0.8877   -0.0000 </r>
       <r>   -0.7683   -0.0000 </r>
       <r>   -0.4063   -0.0000 </r>
       <r>    0.0251   -0.0000 </r>
       <r>    0.8493   -0.0000 </r>
       <r>    1.2424    0.0000 </r>
       <r>    1.6463    0.0000 </r>
       <r>    1.7678    0.0000 </r>
       <r>    2.1224    0.0000 </r>
       <r>    2.4430    0.0000 </r>
       <r>    2.9021    0.0000 </r>
       <r>    3.3637    0.0000 </r>
      </set>
      <set comment="kpoint 15">
       <r>  -23.8835    1.0000 </r>
       <r>  -12.1897    1.0000 </r>
       <r>   -9.9403    1.0000 </r>
       <r>   -8.8188    1.0000 </r>
       <r>   -8.5601    1.0000 </r>
       <r>   -8.2819    1.0000 </r>
       <r>   -8.2019    1.0000 </r>
       <r>   -8.0504    1.0000 </r>
       <r>   -7.9434    1.0000 </r>
       <r>   -7.8171    1.0000 </r>
       <r>   -7.6920    1.0000 </r>
       <r>   -7.5933    1.0000 </r>
       <r>   -7.4710    1.0000 </r>
       <r>   -7.4380    1.0000 </r>
       <r>   -7.3961    1.0000 </r>
       <r>   -7.2788    1.0000 </r>
       <r>   -7.1677    1.0000 </r>
       <r>   -7.0747    1.0000 </r>
       <r>   -7.0108    1.0000 </r>
       <r>   -6.9718    1.0000 </r>
       <r>   -6.8290    1.0000 </r>
       <r>   -6.6637    1.0000 </r>
       <r>   -6.5982    1.0000 </r>
       <r>   -6.4433    1.0000 </r>
       <r>   -6.3347    1.0000 </r>
       <r>   -6.2845    1.0000 </r>
       <r>   -6.2089    1.0000 </r>
       <r>   -6.1172    1.0000 </r>
       <r>   -6.0885    1.0000 </r>
       <r>   -5.9647    1.0000 </r>
       <r>   -5.8595    1.0000 </r>
       <r>   -5.8004    1.0000 </r>
       <r>   -5.6593    1.0000 </r>
       <r>   -5.5132    1.0000 </r>
       <r>   -5.4589    1.0000 </r>
       <r>   -5.4421    1.0000 </r>
       <r>   -5.3507    1.0000 </r>
       <r>   -5.2429    1.0000 </r>
       <r>   -5.1512    1.0000 </r>
       <r>   -5.1177    1.0000 </r>
       <r>   -5.0970    1.0000 </r>
       <r>   -5.0475    1.0000 </r>
       <r>   -4.9946    1.0000 </r>
       <r>   -4.9027    1.0000 </r>
       <r>   -4.8334    1.0000 </r>
       <r>   -4.7878    1.0000 </r>
       <r>   -4.7196    1.0000 </r>
       <r>   -4.5963    1.0000 </r>
       <r>   -4.5553    1.0000 </r>
       <r>   -4.4901    1.0000 </r>
       <r>   -4.4245    1.0000 </r>
       <r>   -4.3357    1.0000 </r>
       <r>   -4.2841    1.0000 </r>
       <r>   -4.2282    1.0000 </r>
       <r>   -4.1738    1.0000 </r>
       <r>   -4.0672    1.0000 </r>
       <r>   -4.0200    1.0000 </r>
       <r>   -3.9595    1.0000 </r>
       <r>   -3.9199    1.0000 </r>
       <r>   -3.8508    1.0000 </r>
       <r>   -3.8015    1.0000 </r>
       <r>   -3.7528    1.0000 </r>
       <r>   -3.6743    1.0000 </r>
       <r>   -3.5026    1.0000 </r>
       <r>   -3.3759    1.0000 </r>
       <r>   -3.3259    1.0000 </r>
       <r>   -3.2483    1.0000 </r>
       <r>   -3.1718    1.0000 </r>
       <r>   -3.0699    1.0000 </r>
       <r>   -3.0106    1.0000 </r>
       <r>   -2.8688    1.0000 </r>
       <r>   -2.8375    1.0000 </r>
       <r>   -2.7985    1.0000 </r>
       <r>   -2.7464    1.0000 </r>
       <r>   -2.5759    1.0000 </r>
       <r>   -2.5138    1.0000 </r>
       <r>   -2.4104    1.0000 </r>
       <r>   -2.3116    1.0000 </r>
       <r>   -2.2014    1.0000 </r>
       <r>   -2.1009    1.0000 </r>
       <r>   -2.0672    1.0000 </r>
       <r>   -1.9852    1.0010 </r>
       <r>   -1.9150    1.0132 </r>
       <r>   -1.8968    1.0208 </r>
       <r>   -1.8512    1.0353 </r>
       <r>   -1.7875    0.8998 </r>
       <r>   -1.7327    0.5071 </r>
       <r>   -1.6142   -0.0351 </r>
       <r>   -1.5996   -0.0342 </r>
       <r>   -1.1092   -0.0000 </r>
       <r>   -0.8937   -0.0000 </r>
       <r>   -0.7785   -0.0000 </r>
       <r>   -0.4282   -0.0000 </r>
       <r>    0.0339   -0.0000 </r>
       <r>    0.8204   -0.0000 </r>
       <r>    1.2270    0.0000 </r>
       <r>    1.6433    0.0000 </r>
       <r>    1.7707    0.0000 </r>
       <r>    2.1279    0.0000 </r>
       <r>    2.4204    0.0000 </r>
       <r>    2.8933    0.0000 </r>
       <r>    3.3579    0.0000 </r>
      </set>
      <set comment="kpoint 16">
       <r>  -23.8835    1.0000 </r>
       <r>  -12.1877    1.0000 </r>
       <r>   -9.9379    1.0000 </r>
       <r>   -8.8185    1.0000 </r>
       <r>   -8.5508    1.0000 </r>
       <r>   -8.2813    1.0000 </r>
       <r>   -8.2029    1.0000 </r>
       <r>   -8.0442    1.0000 </r>
       <r>   -7.9389    1.0000 </r>
       <r>   -7.8172    1.0000 </r>
       <r>   -7.6867    1.0000 </r>
       <r>   -7.5991    1.0000 </r>
       <r>   -7.4650    1.0000 </r>
       <r>   -7.4257    1.0000 </r>
       <r>   -7.3932    1.0000 </r>
       <r>   -7.2724    1.0000 </r>
       <r>   -7.1588    1.0000 </r>
       <r>   -7.0719    1.0000 </r>
       <r>   -7.0143    1.0000 </r>
       <r>   -6.9710    1.0000 </r>
       <r>   -6.8244    1.0000 </r>
       <r>   -6.6657    1.0000 </r>
       <r>   -6.5918    1.0000 </r>
       <r>   -6.4499    1.0000 </r>
       <r>   -6.3377    1.0000 </r>
       <r>   -6.2919    1.0000 </r>
       <r>   -6.2203    1.0000 </r>
       <r>   -6.1212    1.0000 </r>
       <r>   -6.0938    1.0000 </r>
       <r>   -5.9736    1.0000 </r>
       <r>   -5.8475    1.0000 </r>
       <r>   -5.7970    1.0000 </r>
       <r>   -5.6447    1.0000 </r>
       <r>   -5.5151    1.0000 </r>
       <r>   -5.4641    1.0000 </r>
       <r>   -5.4431    1.0000 </r>
       <r>   -5.3607    1.0000 </r>
       <r>   -5.2723    1.0000 </r>
       <r>   -5.1874    1.0000 </r>
       <r>   -5.1431    1.0000 </r>
       <r>   -5.1180    1.0000 </r>
       <r>   -5.0702    1.0000 </r>
       <r>   -4.9884    1.0000 </r>
       <r>   -4.9018    1.0000 </r>
       <r>   -4.8494    1.0000 </r>
       <r>   -4.7826    1.0000 </r>
       <r>   -4.7212    1.0000 </r>
       <r>   -4.6156    1.0000 </r>
       <r>   -4.5296    1.0000 </r>
       <r>   -4.4816    1.0000 </r>
       <r>   -4.4354    1.0000 </r>
       <r>   -4.3446    1.0000 </r>
       <r>   -4.2840    1.0000 </r>
       <r>   -4.2371    1.0000 </r>
       <r>   -4.1757    1.0000 </r>
       <r>   -4.0649    1.0000 </r>
       <r>   -4.0080    1.0000 </r>
       <r>   -3.9704    1.0000 </r>
       <r>   -3.9162    1.0000 </r>
       <r>   -3.8506    1.0000 </r>
       <r>   -3.7945    1.0000 </r>
       <r>   -3.7561    1.0000 </r>
       <r>   -3.6681    1.0000 </r>
       <r>   -3.5033    1.0000 </r>
       <r>   -3.3584    1.0000 </r>
       <r>   -3.3059    1.0000 </r>
       <r>   -3.2412    1.0000 </r>
       <r>   -3.1640    1.0000 </r>
       <r>   -3.0532    1.0000 </r>
       <r>   -2.9957    1.0000 </r>
       <r>   -2.8979    1.0000 </r>
       <r>   -2.8379    1.0000 </r>
       <r>   -2.8007    1.0000 </r>
       <r>   -2.7426    1.0000 </r>
       <r>   -2.5794    1.0000 </r>
       <r>   -2.5237    1.0000 </r>
       <r>   -2.4084    1.0000 </r>
       <r>   -2.3056    1.0000 </r>
       <r>   -2.2017    1.0000 </r>
       <r>   -2.1088    1.0000 </r>
       <r>   -2.0660    1.0000 </r>
       <r>   -1.9916    1.0007 </r>
       <r>   -1.9221    1.0108 </r>
       <r>   -1.9005    1.0191 </r>
       <r>   -1.8506    1.0352 </r>
       <r>   -1.7830    0.8764 </r>
       <r>   -1.7212    0.4107 </r>
       <r>   -1.5984   -0.0339 </r>
       <r>   -1.5780   -0.0259 </r>
       <r>   -1.1080   -0.0000 </r>
       <r>   -0.8964   -0.0000 </r>
       <r>   -0.7781   -0.0000 </r>
       <r>   -0.4035   -0.0000 </r>
       <r>    0.0270   -0.0000 </r>
       <r>    0.8358   -0.0000 </r>
       <r>    1.2313    0.0000 </r>
       <r>    1.6574    0.0000 </r>
       <r>    1.7746    0.0000 </r>
       <r>    2.1274    0.0000 </r>
       <r>    2.4312    0.0000 </r>
       <r>    2.9174    0.0000 </r>
       <r>    3.3713    0.0000 </r>
      </set>
      <set comment="kpoint 17">
       <r>  -23.8835    1.0000 </r>
       <r>  -12.1871    1.0000 </r>
       <r>   -9.9370    1.0000 </r>
       <r>   -8.8182    1.0000 </r>
       <r>   -8.5419    1.0000 </r>
       <r>   -8.2837    1.0000 </r>
       <r>   -8.2053    1.0000 </r>
       <r>   -8.0453    1.0000 </r>
       <r>   -7.9409    1.0000 </r>
       <r>   -7.8170    1.0000 </r>
       <r>   -7.6844    1.0000 </r>
       <r>   -7.5908    1.0000 </r>
       <r>   -7.4612    1.0000 </r>
       <r>   -7.4243    1.0000 </r>
       <r>   -7.3925    1.0000 </r>
       <r>   -7.2723    1.0000 </r>
       <r>   -7.1558    1.0000 </r>
       <r>   -7.0731    1.0000 </r>
       <r>   -7.0151    1.0000 </r>
       <r>   -6.9705    1.0000 </r>
       <r>   -6.8211    1.0000 </r>
       <r>   -6.6628    1.0000 </r>
       <r>   -6.5931    1.0000 </r>
       <r>   -6.4537    1.0000 </r>
       <r>   -6.3417    1.0000 </r>
       <r>   -6.2925    1.0000 </r>
       <r>   -6.2306    1.0000 </r>
       <r>   -6.1269    1.0000 </r>
       <r>   -6.0898    1.0000 </r>
       <r>   -5.9673    1.0000 </r>
       <r>   -5.8475    1.0000 </r>
       <r>   -5.7993    1.0000 </r>
       <r>   -5.6470    1.0000 </r>
       <r>   -5.5240    1.0000 </r>
       <r>   -5.4734    1.0000 </r>
       <r>   -5.4562    1.0000 </r>
       <r>   -5.3640    1.0000 </r>
       <r>   -5.2728    1.0000 </r>
       <r>   -5.1908    1.0000 </r>
       <r>   -5.1401    1.0000 </r>
       <r>   -5.1181    1.0000 </r>
       <r>   -5.0664    1.0000 </r>
       <r>   -4.9731    1.0000 </r>
       <r>   -4.8916    1.0000 </r>
       <r>   -4.8360    1.0000 </r>
       <r>   -4.7917    1.0000 </r>
       <r>   -4.7306    1.0000 </r>
       <r>   -4.6152    1.0000 </r>
       <r>   -4.5365    1.0000 </r>
       <r>   -4.4854    1.0000 </r>
       <r>   -4.4381    1.0000 </r>
       <r>   -4.3447    1.0000 </r>
       <r>   -4.2843    1.0000 </r>
       <r>   -4.2392    1.0000 </r>
       <r>   -4.1736    1.0000 </r>
       <r>   -4.0644    1.0000 </r>
       <r>   -4.0099    1.0000 </r>
       <r>   -3.9716    1.0000 </r>
       <r>   -3.9173    1.0000 </r>
       <r>   -3.8555    1.0000 </r>
       <r>   -3.7937    1.0000 </r>
       <r>   -3.7546    1.0000 </r>
       <r>   -3.6695    1.0000 </r>
       <r>   -3.5024    1.0000 </r>
       <r>   -3.3578    1.0000 </r>
       <r>   -3.3028    1.0000 </r>
       <r>   -3.2381    1.0000 </r>
       <r>   -3.1722    1.0000 </r>
       <r>   -3.0579    1.0000 </r>
       <r>   -3.0015    1.0000 </r>
       <r>   -2.8978    1.0000 </r>
       <r>   -2.8288    1.0000 </r>
       <r>   -2.8028    1.0000 </r>
       <r>   -2.7448    1.0000 </r>
       <r>   -2.5742    1.0000 </r>
       <r>   -2.5178    1.0000 </r>
       <r>   -2.4114    1.0000 </r>
       <r>   -2.3039    1.0000 </r>
       <r>   -2.2052    1.0000 </r>
       <r>   -2.1119    1.0000 </r>
       <r>   -2.0691    1.0000 </r>
       <r>   -1.9899    1.0008 </r>
       <r>   -1.9248    1.0100 </r>
       <r>   -1.9032    1.0180 </r>
       <r>   -1.8535    1.0354 </r>
       <r>   -1.7893    0.9082 </r>
       <r>   -1.7285    0.4723 </r>
       <r>   -1.5866   -0.0297 </r>
       <r>   -1.5635   -0.0193 </r>
       <r>   -1.0991   -0.0000 </r>
       <r>   -0.8919   -0.0000 </r>
       <r>   -0.7717   -0.0000 </r>
       <r>   -0.3970   -0.0000 </r>
       <r>    0.0236   -0.0000 </r>
       <r>    0.8492   -0.0000 </r>
       <r>    1.2391    0.0000 </r>
       <r>    1.6556    0.0000 </r>
       <r>    1.7717    0.0000 </r>
       <r>    2.1247    0.0000 </r>
       <r>    2.4412    0.0000 </r>
       <r>    2.9166    0.0000 </r>
       <r>    3.3723    0.0000 </r>
      </set>
      <set comment="kpoint 18">
       <r>  -23.8835    1.0000 </r>
       <r>  -12.1888    1.0000 </r>
       <r>   -9.9394    1.0000 </r>
       <r>   -8.8187    1.0000 </r>
       <r>   -8.5514    1.0000 </r>
       <r>   -8.2834    1.0000 </r>
       <r>   -8.2053    1.0000 </r>
       <r>   -8.0518    1.0000 </r>
       <r>   -7.9449    1.0000 </r>
       <r>   -7.8157    1.0000 </r>
       <r>   -7.6897    1.0000 </r>
       <r>   -7.5850    1.0000 </r>
       <r>   -7.4684    1.0000 </r>
       <r>   -7.4361    1.0000 </r>
       <r>   -7.3948    1.0000 </r>
       <r>   -7.2781    1.0000 </r>
       <r>   -7.1658    1.0000 </r>
       <r>   -7.0756    1.0000 </r>
       <r>   -7.0126    1.0000 </r>
       <r>   -6.9711    1.0000 </r>
       <r>   -6.8245    1.0000 </r>
       <r>   -6.6616    1.0000 </r>
       <r>   -6.6000    1.0000 </r>
       <r>   -6.4468    1.0000 </r>
       <r>   -6.3383    1.0000 </r>
       <r>   -6.2848    1.0000 </r>
       <r>   -6.2188    1.0000 </r>
       <r>   -6.1198    1.0000 </r>
       <r>   -6.0872    1.0000 </r>
       <r>   -5.9584    1.0000 </r>
       <r>   -5.8580    1.0000 </r>
       <r>   -5.8040    1.0000 </r>
       <r>   -5.6641    1.0000 </r>
       <r>   -5.5222    1.0000 </r>
       <r>   -5.4689    1.0000 </r>
       <r>   -5.4548    1.0000 </r>
       <r>   -5.3556    1.0000 </r>
       <r>   -5.2458    1.0000 </r>
       <r>   -5.1569    1.0000 </r>
       <r>   -5.1181    1.0000 </r>
       <r>   -5.0979    1.0000 </r>
       <r>   -5.0502    1.0000 </r>
       <r>   -4.9832    1.0000 </r>
       <r>   -4.8877    1.0000 </r>
       <r>   -4.8256    1.0000 </r>
       <r>   -4.7868    1.0000 </r>
       <r>   -4.7257    1.0000 </r>
       <r>   -4.5943    1.0000 </r>
       <r>   -4.5574    1.0000 </r>
       <r>   -4.4938    1.0000 </r>
       <r>   -4.4297    1.0000 </r>
       <r>   -4.3348    1.0000 </r>
       <r>   -4.2852    1.0000 </r>
       <r>   -4.2311    1.0000 </r>
       <r>   -4.1705    1.0000 </r>
       <r>   -4.0656    1.0000 </r>
       <r>   -4.0217    1.0000 </r>
       <r>   -3.9594    1.0000 </r>
       <r>   -3.9198    1.0000 </r>
       <r>   -3.8574    1.0000 </r>
       <r>   -3.7986    1.0000 </r>
       <r>   -3.7529    1.0000 </r>
       <r>   -3.6738    1.0000 </r>
       <r>   -3.5012    1.0000 </r>
       <r>   -3.3745    1.0000 </r>
       <r>   -3.3233    1.0000 </r>
       <r>   -3.2460    1.0000 </r>
       <r>   -3.1806    1.0000 </r>
       <r>   -3.0762    1.0000 </r>
       <r>   -3.0134    1.0000 </r>
       <r>   -2.8688    1.0000 </r>
       <r>   -2.8282    1.0000 </r>
       <r>   -2.8013    1.0000 </r>
       <r>   -2.7482    1.0000 </r>
       <r>   -2.5708    1.0000 </r>
       <r>   -2.5092    1.0000 </r>
       <r>   -2.4157    1.0000 </r>
       <r>   -2.3106    1.0000 </r>
       <r>   -2.2044    1.0000 </r>
       <r>   -2.1039    1.0000 </r>
       <r>   -2.0708    1.0000 </r>
       <r>   -1.9830    1.0011 </r>
       <r>   -1.9179    1.0122 </r>
       <r>   -1.8976    1.0204 </r>
       <r>   -1.8516    1.0353 </r>
       <r>   -1.7936    0.9280 </r>
       <r>   -1.7412    0.5790 </r>
       <r>   -1.6026   -0.0348 </r>
       <r>   -1.5878   -0.0302 </r>
       <r>   -1.0986   -0.0000 </r>
       <r>   -0.8885   -0.0000 </r>
       <r>   -0.7719   -0.0000 </r>
       <r>   -0.4209   -0.0000 </r>
       <r>    0.0300   -0.0000 </r>
       <r>    0.8363   -0.0000 </r>
       <r>    1.2369    0.0000 </r>
       <r>    1.6411    0.0000 </r>
       <r>    1.7676    0.0000 </r>
       <r>    2.1220    0.0000 </r>
       <r>    2.4334    0.0000 </r>
       <r>    2.8906    0.0000 </r>
       <r>    3.3570    0.0000 </r>
      </set>
      <set comment="kpoint 19">
       <r>  -23.8835    1.0000 </r>
       <r>  -12.1893    1.0000 </r>
       <r>   -9.9396    1.0000 </r>
       <r>   -8.8187    1.0000 </r>
       <r>   -8.5597    1.0000 </r>
       <r>   -8.2808    1.0000 </r>
       <r>   -8.2008    1.0000 </r>
       <r>   -8.0472    1.0000 </r>
       <r>   -7.9400    1.0000 </r>
       <r>   -7.8178    1.0000 </r>
       <r>   -7.6905    1.0000 </r>
       <r>   -7.6005    1.0000 </r>
       <r>   -7.4696    1.0000 </r>
       <r>   -7.4326    1.0000 </r>
       <r>   -7.3953    1.0000 </r>
       <r>   -7.2759    1.0000 </r>
       <r>   -7.1648    1.0000 </r>
       <r>   -7.0728    1.0000 </r>
       <r>   -7.0115    1.0000 </r>
       <r>   -6.9715    1.0000 </r>
       <r>   -6.8286    1.0000 </r>
       <r>   -6.6664    1.0000 </r>
       <r>   -6.5945    1.0000 </r>
       <r>   -6.4446    1.0000 </r>
       <r>   -6.3358    1.0000 </r>
       <r>   -6.2871    1.0000 </r>
       <r>   -6.2094    1.0000 </r>
       <r>   -6.1198    1.0000 </r>
       <r>   -6.0903    1.0000 </r>
       <r>   -5.9723    1.0000 </r>
       <r>   -5.8528    1.0000 </r>
       <r>   -5.7978    1.0000 </r>
       <r>   -5.6507    1.0000 </r>
       <r>   -5.5074    1.0000 </r>
       <r>   -5.4553    1.0000 </r>
       <r>   -5.4348    1.0000 </r>
       <r>   -5.3532    1.0000 </r>
       <r>   -5.2547    1.0000 </r>
       <r>   -5.1645    1.0000 </r>
       <r>   -5.1263    1.0000 </r>
       <r>   -5.1127    1.0000 </r>
       <r>   -5.0567    1.0000 </r>
       <r>   -4.9998    1.0000 </r>
       <r>   -4.9087    1.0000 </r>
       <r>   -4.8468    1.0000 </r>
       <r>   -4.7835    1.0000 </r>
       <r>   -4.7163    1.0000 </r>
       <r>   -4.6045    1.0000 </r>
       <r>   -4.5370    1.0000 </r>
       <r>   -4.4919    1.0000 </r>
       <r>   -4.4277    1.0000 </r>
       <r>   -4.3407    1.0000 </r>
       <r>   -4.2839    1.0000 </r>
       <r>   -4.2315    1.0000 </r>
       <r>   -4.1762    1.0000 </r>
       <r>   -4.0650    1.0000 </r>
       <r>   -4.0135    1.0000 </r>
       <r>   -3.9646    1.0000 </r>
       <r>   -3.9172    1.0000 </r>
       <r>   -3.8493    1.0000 </r>
       <r>   -3.7998    1.0000 </r>
       <r>   -3.7556    1.0000 </r>
       <r>   -3.6732    1.0000 </r>
       <r>   -3.5041    1.0000 </r>
       <r>   -3.3683    1.0000 </r>
       <r>   -3.3181    1.0000 </r>
       <r>   -3.2469    1.0000 </r>
       <r>   -3.1635    1.0000 </r>
       <r>   -3.0591    1.0000 </r>
       <r>   -3.0009    1.0000 </r>
       <r>   -2.8835    1.0000 </r>
       <r>   -2.8420    1.0000 </r>
       <r>   -2.7979    1.0000 </r>
       <r>   -2.7438    1.0000 </r>
       <r>   -2.5795    1.0000 </r>
       <r>   -2.5205    1.0000 </r>
       <r>   -2.4070    1.0000 </r>
       <r>   -2.3098    1.0000 </r>
       <r>   -2.1997    1.0000 </r>
       <r>   -2.1033    1.0000 </r>
       <r>   -2.0643    1.0000 </r>
       <r>   -1.9893    1.0008 </r>
       <r>   -1.9168    1.0126 </r>
       <r>   -1.8987    1.0199 </r>
       <r>   -1.8509    1.0353 </r>
       <r>   -1.7820    0.8712 </r>
       <r>   -1.7231    0.4270 </r>
       <r>   -1.6109   -0.0354 </r>
       <r>   -1.5950   -0.0329 </r>
       <r>   -1.1139   -0.0000 </r>
       <r>   -0.8974   -0.0000 </r>
       <r>   -0.7813   -0.0000 </r>
       <r>   -0.4201   -0.0000 </r>
       <r>    0.0324   -0.0000 </r>
       <r>    0.8201   -0.0000 </r>
       <r>    1.2246    0.0000 </r>
       <r>    1.6504    0.0000 </r>
       <r>    1.7738    0.0000 </r>
       <r>    2.1309    0.0000 </r>
       <r>    2.4202    0.0000 </r>
       <r>    2.9056    0.0000 </r>
       <r>    3.3636    0.0000 </r>
      </set>
      <set comment="kpoint 20">
       <r>  -23.8836    1.0000 </r>
       <r>  -12.1205    1.0000 </r>
       <r>   -9.1986    1.0000 </r>
       <r>   -9.1649    1.0000 </r>
       <r>   -8.5470    1.0000 </r>
       <r>   -8.2662    1.0000 </r>
       <r>   -8.0535    1.0000 </r>
       <r>   -7.9398    1.0000 </r>
       <r>   -7.8688    1.0000 </r>
       <r>   -7.7361    1.0000 </r>
       <r>   -7.3929    1.0000 </r>
       <r>   -7.3488    1.0000 </r>
       <r>   -7.2659    1.0000 </r>
       <r>   -7.1852    1.0000 </r>
       <r>   -7.1270    1.0000 </r>
       <r>   -7.0413    1.0000 </r>
       <r>   -6.9539    1.0000 </r>
       <r>   -6.8450    1.0000 </r>
       <r>   -6.7164    1.0000 </r>
       <r>   -6.6444    1.0000 </r>
       <r>   -6.6245    1.0000 </r>
       <r>   -6.5930    1.0000 </r>
       <r>   -6.5394    1.0000 </r>
       <r>   -6.4791    1.0000 </r>
       <r>   -6.3409    1.0000 </r>
       <r>   -6.1998    1.0000 </r>
       <r>   -6.1707    1.0000 </r>
       <r>   -6.1343    1.0000 </r>
       <r>   -6.1136    1.0000 </r>
       <r>   -6.0481    1.0000 </r>
       <r>   -6.0131    1.0000 </r>
       <r>   -5.9749    1.0000 </r>
       <r>   -5.9019    1.0000 </r>
       <r>   -5.6877    1.0000 </r>
       <r>   -5.6053    1.0000 </r>
       <r>   -5.4988    1.0000 </r>
       <r>   -5.4457    1.0000 </r>
       <r>   -5.4367    1.0000 </r>
       <r>   -5.3614    1.0000 </r>
       <r>   -5.3150    1.0000 </r>
       <r>   -5.2660    1.0000 </r>
       <r>   -5.1508    1.0000 </r>
       <r>   -5.1126    1.0000 </r>
       <r>   -5.0620    1.0000 </r>
       <r>   -5.0213    1.0000 </r>
       <r>   -4.8929    1.0000 </r>
       <r>   -4.7811    1.0000 </r>
       <r>   -4.7098    1.0000 </r>
       <r>   -4.6738    1.0000 </r>
       <r>   -4.6458    1.0000 </r>
       <r>   -4.5847    1.0000 </r>
       <r>   -4.5556    1.0000 </r>
       <r>   -4.5146    1.0000 </r>
       <r>   -4.4755    1.0000 </r>
       <r>   -4.2721    1.0000 </r>
       <r>   -4.2148    1.0000 </r>
       <r>   -4.0398    1.0000 </r>
       <r>   -3.9565    1.0000 </r>
       <r>   -3.8769    1.0000 </r>
       <r>   -3.8632    1.0000 </r>
       <r>   -3.8386    1.0000 </r>
       <r>   -3.7851    1.0000 </r>
       <r>   -3.6145    1.0000 </r>
       <r>   -3.5190    1.0000 </r>
       <r>   -3.4781    1.0000 </r>
       <r>   -3.3924    1.0000 </r>
       <r>   -3.3483    1.0000 </r>
       <r>   -3.2544    1.0000 </r>
       <r>   -3.1855    1.0000 </r>
       <r>   -3.1492    1.0000 </r>
       <r>   -3.0178    1.0000 </r>
       <r>   -2.9829    1.0000 </r>
       <r>   -2.9530    1.0000 </r>
       <r>   -2.9178    1.0000 </r>
       <r>   -2.8256    1.0000 </r>
       <r>   -2.7202    1.0000 </r>
       <r>   -2.6754    1.0000 </r>
       <r>   -2.5879    1.0000 </r>
       <r>   -2.4683    1.0000 </r>
       <r>   -2.3027    1.0000 </r>
       <r>   -2.2535    1.0000 </r>
       <r>   -2.1306    1.0000 </r>
       <r>   -1.9390    1.0063 </r>
       <r>   -1.9111    1.0147 </r>
       <r>   -1.8957    1.0213 </r>
       <r>   -1.8199    1.0080 </r>
       <r>   -1.6339   -0.0229 </r>
       <r>   -1.5730   -0.0236 </r>
       <r>   -1.5305   -0.0077 </r>
       <r>   -1.3568   -0.0000 </r>
       <r>   -0.8648   -0.0000 </r>
       <r>   -0.7250   -0.0000 </r>
       <r>    0.0154   -0.0000 </r>
       <r>    0.1206   -0.0000 </r>
       <r>    0.4891   -0.0000 </r>
       <r>    1.3834    0.0000 </r>
       <r>    1.7597    0.0000 </r>
       <r>    1.9096    0.0000 </r>
       <r>    2.0972    0.0000 </r>
       <r>    2.8269    0.0000 </r>
       <r>    3.0772    0.0000 </r>
       <r>    3.5646    0.0000 </r>
      </set>
      <set comment="kpoint 21">
       <r>  -23.8836    1.0000 </r>
       <r>  -12.1232    1.0000 </r>
       <r>   -9.2056    1.0000 </r>
       <r>   -9.1737    1.0000 </r>
       <r>   -8.5409    1.0000 </r>
       <r>   -8.2628    1.0000 </r>
       <r>   -8.0561    1.0000 </r>
       <r>   -7.9447    1.0000 </r>
       <r>   -7.8704    1.0000 </r>
       <r>   -7.7415    1.0000 </r>
       <r>   -7.4156    1.0000 </r>
       <r>   -7.3635    1.0000 </r>
       <r>   -7.2800    1.0000 </r>
       <r>   -7.2015    1.0000 </r>
       <r>   -7.1492    1.0000 </r>
       <r>   -7.0534    1.0000 </r>
       <r>   -6.9535    1.0000 </r>
       <r>   -6.8378    1.0000 </r>
       <r>   -6.7164    1.0000 </r>
       <r>   -6.6395    1.0000 </r>
       <r>   -6.6158    1.0000 </r>
       <r>   -6.5893    1.0000 </r>
       <r>   -6.5281    1.0000 </r>
       <r>   -6.4691    1.0000 </r>
       <r>   -6.3334    1.0000 </r>
       <r>   -6.1908    1.0000 </r>
       <r>   -6.1813    1.0000 </r>
       <r>   -6.1262    1.0000 </r>
       <r>   -6.1084    1.0000 </r>
       <r>   -6.0384    1.0000 </r>
       <r>   -6.0068    1.0000 </r>
       <r>   -5.9631    1.0000 </r>
       <r>   -5.8959    1.0000 </r>
       <r>   -5.6758    1.0000 </r>
       <r>   -5.5957    1.0000 </r>
       <r>   -5.4901    1.0000 </r>
       <r>   -5.4369    1.0000 </r>
       <r>   -5.4226    1.0000 </r>
       <r>   -5.3391    1.0000 </r>
       <r>   -5.2916    1.0000 </r>
       <r>   -5.2484    1.0000 </r>
       <r>   -5.1534    1.0000 </r>
       <r>   -5.1178    1.0000 </r>
       <r>   -5.0483    1.0000 </r>
       <r>   -5.0127    1.0000 </r>
       <r>   -4.8785    1.0000 </r>
       <r>   -4.7524    1.0000 </r>
       <r>   -4.7191    1.0000 </r>
       <r>   -4.6761    1.0000 </r>
       <r>   -4.6486    1.0000 </r>
       <r>   -4.5905    1.0000 </r>
       <r>   -4.5708    1.0000 </r>
       <r>   -4.5108    1.0000 </r>
       <r>   -4.4801    1.0000 </r>
       <r>   -4.2869    1.0000 </r>
       <r>   -4.2251    1.0000 </r>
       <r>   -4.0338    1.0000 </r>
       <r>   -3.9652    1.0000 </r>
       <r>   -3.8866    1.0000 </r>
       <r>   -3.8627    1.0000 </r>
       <r>   -3.8444    1.0000 </r>
       <r>   -3.7705    1.0000 </r>
       <r>   -3.6105    1.0000 </r>
       <r>   -3.5289    1.0000 </r>
       <r>   -3.4779    1.0000 </r>
       <r>   -3.4050    1.0000 </r>
       <r>   -3.3341    1.0000 </r>
       <r>   -3.2422    1.0000 </r>
       <r>   -3.1790    1.0000 </r>
       <r>   -3.1411    1.0000 </r>
       <r>   -3.0126    1.0000 </r>
       <r>   -2.9795    1.0000 </r>
       <r>   -2.9496    1.0000 </r>
       <r>   -2.9183    1.0000 </r>
       <r>   -2.8197    1.0000 </r>
       <r>   -2.7267    1.0000 </r>
       <r>   -2.6856    1.0000 </r>
       <r>   -2.5866    1.0000 </r>
       <r>   -2.4797    1.0000 </r>
       <r>   -2.3208    1.0000 </r>
       <r>   -2.2493    1.0000 </r>
       <r>   -2.1164    1.0000 </r>
       <r>   -1.9370    1.0067 </r>
       <r>   -1.9055    1.0170 </r>
       <r>   -1.8883    1.0247 </r>
       <r>   -1.8105    0.9865 </r>
       <r>   -1.6568    0.0239 </r>
       <r>   -1.6066   -0.0353 </r>
       <r>   -1.5325   -0.0082 </r>
       <r>   -1.3830   -0.0000 </r>
       <r>   -0.8683   -0.0000 </r>
       <r>   -0.7315   -0.0000 </r>
       <r>    0.0026   -0.0000 </r>
       <r>    0.0984   -0.0000 </r>
       <r>    0.4660   -0.0000 </r>
       <r>    1.3794    0.0000 </r>
       <r>    1.7665    0.0000 </r>
       <r>    1.9061    0.0000 </r>
       <r>    2.0925    0.0000 </r>
       <r>    2.8019    0.0000 </r>
       <r>    3.0616    0.0000 </r>
       <r>    3.5229    0.0000 </r>
      </set>
      <set comment="kpoint 22">
       <r>  -23.8836    1.0000 </r>
       <r>  -12.1216    1.0000 </r>
       <r>   -9.2015    1.0000 </r>
       <r>   -9.1699    1.0000 </r>
       <r>   -8.5440    1.0000 </r>
       <r>   -8.2649    1.0000 </r>
       <r>   -8.0546    1.0000 </r>
       <r>   -7.9419    1.0000 </r>
       <r>   -7.8691    1.0000 </r>
       <r>   -7.7387    1.0000 </r>
       <r>   -7.4045    1.0000 </r>
       <r>   -7.3561    1.0000 </r>
       <r>   -7.2725    1.0000 </r>
       <r>   -7.1939    1.0000 </r>
       <r>   -7.1376    1.0000 </r>
       <r>   -7.0456    1.0000 </r>
       <r>   -6.9557    1.0000 </r>
       <r>   -6.8401    1.0000 </r>
       <r>   -6.7168    1.0000 </r>
       <r>   -6.6398    1.0000 </r>
       <r>   -6.6206    1.0000 </r>
       <r>   -6.5923    1.0000 </r>
       <r>   -6.5340    1.0000 </r>
       <r>   -6.4740    1.0000 </r>
       <r>   -6.3366    1.0000 </r>
       <r>   -6.1945    1.0000 </r>
       <r>   -6.1770    1.0000 </r>
       <r>   -6.1306    1.0000 </r>
       <r>   -6.1121    1.0000 </r>
       <r>   -6.0428    1.0000 </r>
       <r>   -6.0099    1.0000 </r>
       <r>   -5.9696    1.0000 </r>
       <r>   -5.8975    1.0000 </r>
       <r>   -5.6826    1.0000 </r>
       <r>   -5.6032    1.0000 </r>
       <r>   -5.4979    1.0000 </r>
       <r>   -5.4375    1.0000 </r>
       <r>   -5.4326    1.0000 </r>
       <r>   -5.3508    1.0000 </r>
       <r>   -5.3040    1.0000 </r>
       <r>   -5.2588    1.0000 </r>
       <r>   -5.1534    1.0000 </r>
       <r>   -5.1154    1.0000 </r>
       <r>   -5.0567    1.0000 </r>
       <r>   -5.0178    1.0000 </r>
       <r>   -4.8876    1.0000 </r>
       <r>   -4.7740    1.0000 </r>
       <r>   -4.7128    1.0000 </r>
       <r>   -4.6740    1.0000 </r>
       <r>   -4.6456    1.0000 </r>
       <r>   -4.5773    1.0000 </r>
       <r>   -4.5678    1.0000 </r>
       <r>   -4.5117    1.0000 </r>
       <r>   -4.4762    1.0000 </r>
       <r>   -4.2775    1.0000 </r>
       <r>   -4.2170    1.0000 </r>
       <r>   -4.0337    1.0000 </r>
       <r>   -3.9627    1.0000 </r>
       <r>   -3.8808    1.0000 </r>
       <r>   -3.8647    1.0000 </r>
       <r>   -3.8411    1.0000 </r>
       <r>   -3.7754    1.0000 </r>
       <r>   -3.6123    1.0000 </r>
       <r>   -3.5235    1.0000 </r>
       <r>   -3.4766    1.0000 </r>
       <r>   -3.3990    1.0000 </r>
       <r>   -3.3420    1.0000 </r>
       <r>   -3.2482    1.0000 </r>
       <r>   -3.1823    1.0000 </r>
       <r>   -3.1456    1.0000 </r>
       <r>   -3.0152    1.0000 </r>
       <r>   -2.9818    1.0000 </r>
       <r>   -2.9514    1.0000 </r>
       <r>   -2.9180    1.0000 </r>
       <r>   -2.8226    1.0000 </r>
       <r>   -2.7233    1.0000 </r>
       <r>   -2.6818    1.0000 </r>
       <r>   -2.5861    1.0000 </r>
       <r>   -2.4754    1.0000 </r>
       <r>   -2.3124    1.0000 </r>
       <r>   -2.2514    1.0000 </r>
       <r>   -2.1235    1.0000 </r>
       <r>   -1.9381    1.0065 </r>
       <r>   -1.9103    1.0150 </r>
       <r>   -1.8892    1.0243 </r>
       <r>   -1.8138    0.9949 </r>
       <r>   -1.6463   -0.0029 </r>
       <r>   -1.5904   -0.0313 </r>
       <r>   -1.5328   -0.0083 </r>
       <r>   -1.3684   -0.0000 </r>
       <r>   -0.8661   -0.0000 </r>
       <r>   -0.7282   -0.0000 </r>
       <r>    0.0107   -0.0000 </r>
       <r>    0.1090   -0.0000 </r>
       <r>    0.4788   -0.0000 </r>
       <r>    1.3818    0.0000 </r>
       <r>    1.7637    0.0000 </r>
       <r>    1.9077    0.0000 </r>
       <r>    2.0938    0.0000 </r>
       <r>    2.8150    0.0000 </r>
       <r>    3.0693    0.0000 </r>
       <r>    3.5450    0.0000 </r>
      </set>
      <set comment="kpoint 23">
       <r>  -23.8837    1.0000 </r>
       <r>  -12.1054    1.0000 </r>
       <r>   -9.2589    1.0000 </r>
       <r>   -8.6448    1.0000 </r>
       <r>   -8.4788    1.0000 </r>
       <r>   -8.3598    1.0000 </r>
       <r>   -8.1761    1.0000 </r>
       <r>   -8.0589    1.0000 </r>
       <r>   -7.8880    1.0000 </r>
       <r>   -7.6402    1.0000 </r>
       <r>   -7.4987    1.0000 </r>
       <r>   -7.1341    1.0000 </r>
       <r>   -7.1096    1.0000 </r>
       <r>   -7.0830    1.0000 </r>
       <r>   -7.0191    1.0000 </r>
       <r>   -7.0059    1.0000 </r>
       <r>   -6.8753    1.0000 </r>
       <r>   -6.8220    1.0000 </r>
       <r>   -6.7700    1.0000 </r>
       <r>   -6.6966    1.0000 </r>
       <r>   -6.5340    1.0000 </r>
       <r>   -6.4665    1.0000 </r>
       <r>   -6.4445    1.0000 </r>
       <r>   -6.3849    1.0000 </r>
       <r>   -6.3618    1.0000 </r>
       <r>   -6.3166    1.0000 </r>
       <r>   -6.2990    1.0000 </r>
       <r>   -6.2590    1.0000 </r>
       <r>   -6.1342    1.0000 </r>
       <r>   -6.1046    1.0000 </r>
       <r>   -6.0741    1.0000 </r>
       <r>   -6.0258    1.0000 </r>
       <r>   -5.9632    1.0000 </r>
       <r>   -5.7263    1.0000 </r>
       <r>   -5.6739    1.0000 </r>
       <r>   -5.6414    1.0000 </r>
       <r>   -5.5601    1.0000 </r>
       <r>   -5.4774    1.0000 </r>
       <r>   -5.3518    1.0000 </r>
       <r>   -5.3157    1.0000 </r>
       <r>   -5.3049    1.0000 </r>
       <r>   -5.2520    1.0000 </r>
       <r>   -5.1958    1.0000 </r>
       <r>   -5.1561    1.0000 </r>
       <r>   -5.0941    1.0000 </r>
       <r>   -5.0380    1.0000 </r>
       <r>   -4.9114    1.0000 </r>
       <r>   -4.8003    1.0000 </r>
       <r>   -4.7194    1.0000 </r>
       <r>   -4.6851    1.0000 </r>
       <r>   -4.6085    1.0000 </r>
       <r>   -4.5196    1.0000 </r>
       <r>   -4.4072    1.0000 </r>
       <r>   -4.3685    1.0000 </r>
       <r>   -4.3536    1.0000 </r>
       <r>   -4.2730    1.0000 </r>
       <r>   -4.0046    1.0000 </r>
       <r>   -3.9272    1.0000 </r>
       <r>   -3.8934    1.0000 </r>
       <r>   -3.8638    1.0000 </r>
       <r>   -3.8390    1.0000 </r>
       <r>   -3.7210    1.0000 </r>
       <r>   -3.6715    1.0000 </r>
       <r>   -3.5789    1.0000 </r>
       <r>   -3.4537    1.0000 </r>
       <r>   -3.2938    1.0000 </r>
       <r>   -3.2275    1.0000 </r>
       <r>   -3.1636    1.0000 </r>
       <r>   -3.1561    1.0000 </r>
       <r>   -3.0028    1.0000 </r>
       <r>   -2.9284    1.0000 </r>
       <r>   -2.8934    1.0000 </r>
       <r>   -2.7982    1.0000 </r>
       <r>   -2.6593    1.0000 </r>
       <r>   -2.5221    1.0000 </r>
       <r>   -2.5177    1.0000 </r>
       <r>   -2.4395    1.0000 </r>
       <r>   -2.3607    1.0000 </r>
       <r>   -2.3391    1.0000 </r>
       <r>   -2.3160    1.0000 </r>
       <r>   -2.1027    1.0000 </r>
       <r>   -2.0675    1.0000 </r>
       <r>   -2.0322    1.0001 </r>
       <r>   -1.9931    1.0007 </r>
       <r>   -1.9669    1.0022 </r>
       <r>   -1.9444    1.0052 </r>
       <r>   -1.8858    1.0258 </r>
       <r>   -1.8670    1.0334 </r>
       <r>   -1.8067    0.9759 </r>
       <r>   -1.7913    0.9176 </r>
       <r>   -1.4253   -0.0001 </r>
       <r>   -0.9879   -0.0000 </r>
       <r>   -0.8557   -0.0000 </r>
       <r>    0.1336   -0.0000 </r>
       <r>    0.7863   -0.0000 </r>
       <r>    1.0576    0.0000 </r>
       <r>    1.8518    0.0000 </r>
       <r>    2.1236    0.0000 </r>
       <r>    2.7872    0.0000 </r>
       <r>    2.9858    0.0000 </r>
       <r>    3.0931    0.0000 </r>
       <r>    3.5382    0.0000 </r>
      </set>
      <set comment="kpoint 24">
       <r>  -23.8837    1.0000 </r>
       <r>  -12.1058    1.0000 </r>
       <r>   -9.2608    1.0000 </r>
       <r>   -8.6458    1.0000 </r>
       <r>   -8.4788    1.0000 </r>
       <r>   -8.3608    1.0000 </r>
       <r>   -8.1757    1.0000 </r>
       <r>   -8.0599    1.0000 </r>
       <r>   -7.8884    1.0000 </r>
       <r>   -7.6400    1.0000 </r>
       <r>   -7.4987    1.0000 </r>
       <r>   -7.1403    1.0000 </r>
       <r>   -7.1208    1.0000 </r>
       <r>   -7.0848    1.0000 </r>
       <r>   -7.0183    1.0000 </r>
       <r>   -7.0076    1.0000 </r>
       <r>   -6.8800    1.0000 </r>
       <r>   -6.8263    1.0000 </r>
       <r>   -6.7755    1.0000 </r>
       <r>   -6.6868    1.0000 </r>
       <r>   -6.5325    1.0000 </r>
       <r>   -6.4660    1.0000 </r>
       <r>   -6.4451    1.0000 </r>
       <r>   -6.3753    1.0000 </r>
       <r>   -6.3592    1.0000 </r>
       <r>   -6.3140    1.0000 </r>
       <r>   -6.2961    1.0000 </r>
       <r>   -6.2574    1.0000 </r>
       <r>   -6.1387    1.0000 </r>
       <r>   -6.1012    1.0000 </r>
       <r>   -6.0765    1.0000 </r>
       <r>   -6.0277    1.0000 </r>
       <r>   -5.9632    1.0000 </r>
       <r>   -5.7228    1.0000 </r>
       <r>   -5.6776    1.0000 </r>
       <r>   -5.6409    1.0000 </r>
       <r>   -5.5597    1.0000 </r>
       <r>   -5.4759    1.0000 </r>
       <r>   -5.3517    1.0000 </r>
       <r>   -5.3132    1.0000 </r>
       <r>   -5.2877    1.0000 </r>
       <r>   -5.2539    1.0000 </r>
       <r>   -5.1911    1.0000 </r>
       <r>   -5.1480    1.0000 </r>
       <r>   -5.0899    1.0000 </r>
       <r>   -5.0420    1.0000 </r>
       <r>   -4.8852    1.0000 </r>
       <r>   -4.7958    1.0000 </r>
       <r>   -4.7192    1.0000 </r>
       <r>   -4.6747    1.0000 </r>
       <r>   -4.6149    1.0000 </r>
       <r>   -4.5491    1.0000 </r>
       <r>   -4.4083    1.0000 </r>
       <r>   -4.3671    1.0000 </r>
       <r>   -4.3566    1.0000 </r>
       <r>   -4.2604    1.0000 </r>
       <r>   -4.0027    1.0000 </r>
       <r>   -3.9315    1.0000 </r>
       <r>   -3.8940    1.0000 </r>
       <r>   -3.8713    1.0000 </r>
       <r>   -3.8424    1.0000 </r>
       <r>   -3.7250    1.0000 </r>
       <r>   -3.6814    1.0000 </r>
       <r>   -3.5709    1.0000 </r>
       <r>   -3.4527    1.0000 </r>
       <r>   -3.2908    1.0000 </r>
       <r>   -3.2214    1.0000 </r>
       <r>   -3.1613    1.0000 </r>
       <r>   -3.1556    1.0000 </r>
       <r>   -3.0011    1.0000 </r>
       <r>   -2.9307    1.0000 </r>
       <r>   -2.8955    1.0000 </r>
       <r>   -2.7981    1.0000 </r>
       <r>   -2.6638    1.0000 </r>
       <r>   -2.5239    1.0000 </r>
       <r>   -2.5113    1.0000 </r>
       <r>   -2.4462    1.0000 </r>
       <r>   -2.3575    1.0000 </r>
       <r>   -2.3384    1.0000 </r>
       <r>   -2.3222    1.0000 </r>
       <r>   -2.0922    1.0000 </r>
       <r>   -2.0658    1.0000 </r>
       <r>   -2.0340    1.0001 </r>
       <r>   -1.9955    1.0006 </r>
       <r>   -1.9720    1.0018 </r>
       <r>   -1.9426    1.0056 </r>
       <r>   -1.8904    1.0237 </r>
       <r>   -1.8726    1.0315 </r>
       <r>   -1.8076    0.9785 </r>
       <r>   -1.7916    0.9192 </r>
       <r>   -1.4370   -0.0001 </r>
       <r>   -0.9835   -0.0000 </r>
       <r>   -0.8490   -0.0000 </r>
       <r>    0.1190   -0.0000 </r>
       <r>    0.7900   -0.0000 </r>
       <r>    1.0589    0.0000 </r>
       <r>    1.8446    0.0000 </r>
       <r>    2.1290    0.0000 </r>
       <r>    2.7809    0.0000 </r>
       <r>    2.9838    0.0000 </r>
       <r>    3.0865    0.0000 </r>
       <r>    3.5362    0.0000 </r>
      </set>
      <set comment="kpoint 25">
       <r>  -23.8837    1.0000 </r>
       <r>  -12.1046    1.0000 </r>
       <r>   -9.2569    1.0000 </r>
       <r>   -8.6441    1.0000 </r>
       <r>   -8.4786    1.0000 </r>
       <r>   -8.3587    1.0000 </r>
       <r>   -8.1768    1.0000 </r>
       <r>   -8.0584    1.0000 </r>
       <r>   -7.8866    1.0000 </r>
       <r>   -7.6401    1.0000 </r>
       <r>   -7.4992    1.0000 </r>
       <r>   -7.1277    1.0000 </r>
       <r>   -7.0984    1.0000 </r>
       <r>   -7.0797    1.0000 </r>
       <r>   -7.0190    1.0000 </r>
       <r>   -7.0051    1.0000 </r>
       <r>   -6.8691    1.0000 </r>
       <r>   -6.8165    1.0000 </r>
       <r>   -6.7658    1.0000 </r>
       <r>   -6.7063    1.0000 </r>
       <r>   -6.5356    1.0000 </r>
       <r>   -6.4630    1.0000 </r>
       <r>   -6.4484    1.0000 </r>
       <r>   -6.3939    1.0000 </r>
       <r>   -6.3643    1.0000 </r>
       <r>   -6.3192    1.0000 </r>
       <r>   -6.3023    1.0000 </r>
       <r>   -6.2609    1.0000 </r>
       <r>   -6.1302    1.0000 </r>
       <r>   -6.1089    1.0000 </r>
       <r>   -6.0717    1.0000 </r>
       <r>   -6.0246    1.0000 </r>
       <r>   -5.9637    1.0000 </r>
       <r>   -5.7273    1.0000 </r>
       <r>   -5.6756    1.0000 </r>
       <r>   -5.6412    1.0000 </r>
       <r>   -5.5619    1.0000 </r>
       <r>   -5.4816    1.0000 </r>
       <r>   -5.3529    1.0000 </r>
       <r>   -5.3231    1.0000 </r>
       <r>   -5.3165    1.0000 </r>
       <r>   -5.2491    1.0000 </r>
       <r>   -5.2003    1.0000 </r>
       <r>   -5.1673    1.0000 </r>
       <r>   -5.0974    1.0000 </r>
       <r>   -5.0371    1.0000 </r>
       <r>   -4.9354    1.0000 </r>
       <r>   -4.8086    1.0000 </r>
       <r>   -4.7199    1.0000 </r>
       <r>   -4.6913    1.0000 </r>
       <r>   -4.6095    1.0000 </r>
       <r>   -4.4791    1.0000 </r>
       <r>   -4.4061    1.0000 </r>
       <r>   -4.3720    1.0000 </r>
       <r>   -4.3529    1.0000 </r>
       <r>   -4.2831    1.0000 </r>
       <r>   -4.0030    1.0000 </r>
       <r>   -3.9211    1.0000 </r>
       <r>   -3.8968    1.0000 </r>
       <r>   -3.8588    1.0000 </r>
       <r>   -3.8273    1.0000 </r>
       <r>   -3.7118    1.0000 </r>
       <r>   -3.6679    1.0000 </r>
       <r>   -3.5851    1.0000 </r>
       <r>   -3.4557    1.0000 </r>
       <r>   -3.2982    1.0000 </r>
       <r>   -3.2336    1.0000 </r>
       <r>   -3.1635    1.0000 </r>
       <r>   -3.1569    1.0000 </r>
       <r>   -3.0049    1.0000 </r>
       <r>   -2.9270    1.0000 </r>
       <r>   -2.8914    1.0000 </r>
       <r>   -2.7971    1.0000 </r>
       <r>   -2.6538    1.0000 </r>
       <r>   -2.5256    1.0000 </r>
       <r>   -2.5207    1.0000 </r>
       <r>   -2.4322    1.0000 </r>
       <r>   -2.3639    1.0000 </r>
       <r>   -2.3399    1.0000 </r>
       <r>   -2.3093    1.0000 </r>
       <r>   -2.1136    1.0000 </r>
       <r>   -2.0704    1.0000 </r>
       <r>   -2.0275    1.0001 </r>
       <r>   -1.9870    1.0009 </r>
       <r>   -1.9657    1.0023 </r>
       <r>   -1.9430    1.0055 </r>
       <r>   -1.8833    1.0270 </r>
       <r>   -1.8645    1.0341 </r>
       <r>   -1.8058    0.9730 </r>
       <r>   -1.7914    0.9181 </r>
       <r>   -1.4136   -0.0000 </r>
       <r>   -0.9897   -0.0000 </r>
       <r>   -0.8656   -0.0000 </r>
       <r>    0.1497   -0.0000 </r>
       <r>    0.7846   -0.0000 </r>
       <r>    1.0544    0.0000 </r>
       <r>    1.8614    0.0000 </r>
       <r>    2.1146    0.0000 </r>
       <r>    2.7953    0.0000 </r>
       <r>    2.9880    0.0000 </r>
       <r>    3.1014    0.0000 </r>
       <r>    3.5405    0.0000 </r>
      </set>
     </set>
    </set>
   </array>
  </eigenvalues>
  <separator name="orbital magnetization" >
   <v name="MAGDIPOLOUT">      0.00000000      0.00000000      0.00000000</v>
  </separator>
  <dos>
   <i name="efermi">     -1.73181578 </i>
   <total>
    <array>
     <dimension dim="1">gridpoints</dimension>
     <dimension dim="2">spin</dimension>
     <field>energy</field>
     <field>total</field>
     <field>integrated</field>
     <set>
      <set comment="spin 1">
       <r>   -25.2562     0.0000     0.0000 </r>
       <r>   -25.1555     0.0000     0.0000 </r>
       <r>   -25.0549     0.0000     0.0000 </r>
       <r>   -24.9542     0.0000     0.0000 </r>
       <r>   -24.8536     0.0000     0.0000 </r>
       <r>   -24.7529    -0.0000    -0.0000 </r>
       <r>   -24.6523    -0.0000    -0.0000 </r>
       <r>   -24.5517    -0.0000    -0.0000 </r>
       <r>   -24.4510    -0.0000    -0.0000 </r>
       <r>   -24.3504    -0.0000    -0.0000 </r>
       <r>   -24.2497    -0.0000    -0.0000 </r>
       <r>   -24.1491    -0.0112    -0.0011 </r>
       <r>   -24.0484    -0.4030    -0.0417 </r>
       <r>   -23.9478     1.6473     0.1241 </r>
       <r>   -23.8472    14.4046     1.5738 </r>
       <r>   -23.7465     4.8859     2.0656 </r>
       <r>   -23.6459    -0.6123     2.0039 </r>
       <r>   -23.5452    -0.0389     2.0000 </r>
       <r>   -23.4446    -0.0002     2.0000 </r>
       <r>   -23.3439    -0.0000     2.0000 </r>
       <r>   -23.2433    -0.0000     2.0000 </r>
       <r>   -23.1426     0.0000     2.0000 </r>
       <r>   -23.0420     0.0000     2.0000 </r>
       <r>   -22.9414     0.0000     2.0000 </r>
       <r>   -22.8407     0.0000     2.0000 </r>
       <r>   -22.7401     0.0000     2.0000 </r>
       <r>   -22.6394     0.0000     2.0000 </r>
       <r>   -22.5388     0.0000     2.0000 </r>
       <r>   -22.4381     0.0000     2.0000 </r>
       <r>   -22.3375     0.0000     2.0000 </r>
       <r>   -22.2369     0.0000     2.0000 </r>
       <r>   -22.1362     0.0000     2.0000 </r>
       <r>   -22.0356     0.0000     2.0000 </r>
       <r>   -21.9349     0.0000     2.0000 </r>
       <r>   -21.8343     0.0000     2.0000 </r>
       <r>   -21.7336     0.0000     2.0000 </r>
       <r>   -21.6330     0.0000     2.0000 </r>
       <r>   -21.5323     0.0000     2.0000 </r>
       <r>   -21.4317     0.0000     2.0000 </r>
       <r>   -21.3311     0.0000     2.0000 </r>
       <r>   -21.2304     0.0000     2.0000 </r>
       <r>   -21.1298     0.0000     2.0000 </r>
       <r>   -21.0291     0.0000     2.0000 </r>
       <r>   -20.9285     0.0000     2.0000 </r>
       <r>   -20.8278     0.0000     2.0000 </r>
       <r>   -20.7272     0.0000     2.0000 </r>
       <r>   -20.6266     0.0000     2.0000 </r>
       <r>   -20.5259     0.0000     2.0000 </r>
       <r>   -20.4253     0.0000     2.0000 </r>
       <r>   -20.3246     0.0000     2.0000 </r>
       <r>   -20.2240     0.0000     2.0000 </r>
       <r>   -20.1233     0.0000     2.0000 </r>
       <r>   -20.0227     0.0000     2.0000 </r>
       <r>   -19.9220     0.0000     2.0000 </r>
       <r>   -19.8214     0.0000     2.0000 </r>
       <r>   -19.7208     0.0000     2.0000 </r>
       <r>   -19.6201     0.0000     2.0000 </r>
       <r>   -19.5195     0.0000     2.0000 </r>
       <r>   -19.4188     0.0000     2.0000 </r>
       <r>   -19.3182     0.0000     2.0000 </r>
       <r>   -19.2175     0.0000     2.0000 </r>
       <r>   -19.1169     0.0000     2.0000 </r>
       <r>   -19.0163     0.0000     2.0000 </r>
       <r>   -18.9156     0.0000     2.0000 </r>
       <r>   -18.8150     0.0000     2.0000 </r>
       <r>   -18.7143     0.0000     2.0000 </r>
       <r>   -18.6137     0.0000     2.0000 </r>
       <r>   -18.5130     0.0000     2.0000 </r>
       <r>   -18.4124     0.0000     2.0000 </r>
       <r>   -18.3117     0.0000     2.0000 </r>
       <r>   -18.2111     0.0000     2.0000 </r>
       <r>   -18.1105     0.0000     2.0000 </r>
       <r>   -18.0098     0.0000     2.0000 </r>
       <r>   -17.9092     0.0000     2.0000 </r>
       <r>   -17.8085     0.0000     2.0000 </r>
       <r>   -17.7079     0.0000     2.0000 </r>
       <r>   -17.6072     0.0000     2.0000 </r>
       <r>   -17.5066     0.0000     2.0000 </r>
       <r>   -17.4060     0.0000     2.0000 </r>
       <r>   -17.3053     0.0000     2.0000 </r>
       <r>   -17.2047     0.0000     2.0000 </r>
       <r>   -17.1040     0.0000     2.0000 </r>
       <r>   -17.0034     0.0000     2.0000 </r>
       <r>   -16.9027     0.0000     2.0000 </r>
       <r>   -16.8021     0.0000     2.0000 </r>
       <r>   -16.7014     0.0000     2.0000 </r>
       <r>   -16.6008     0.0000     2.0000 </r>
       <r>   -16.5002     0.0000     2.0000 </r>
       <r>   -16.3995     0.0000     2.0000 </r>
       <r>   -16.2989     0.0000     2.0000 </r>
       <r>   -16.1982     0.0000     2.0000 </r>
       <r>   -16.0976     0.0000     2.0000 </r>
       <r>   -15.9969     0.0000     2.0000 </r>
       <r>   -15.8963     0.0000     2.0000 </r>
       <r>   -15.7956     0.0000     2.0000 </r>
       <r>   -15.6950     0.0000     2.0000 </r>
       <r>   -15.5944     0.0000     2.0000 </r>
       <r>   -15.4937     0.0000     2.0000 </r>
       <r>   -15.3931     0.0000     2.0000 </r>
       <r>   -15.2924     0.0000     2.0000 </r>
       <r>   -15.1918     0.0000     2.0000 </r>
       <r>   -15.0911     0.0000     2.0000 </r>
       <r>   -14.9905     0.0000     2.0000 </r>
       <r>   -14.8899     0.0000     2.0000 </r>
       <r>   -14.7892     0.0000     2.0000 </r>
       <r>   -14.6886     0.0000     2.0000 </r>
       <r>   -14.5879     0.0000     2.0000 </r>
       <r>   -14.4873     0.0000     2.0000 </r>
       <r>   -14.3866     0.0000     2.0000 </r>
       <r>   -14.2860     0.0000     2.0000 </r>
       <r>   -14.1853     0.0000     2.0000 </r>
       <r>   -14.0847     0.0000     2.0000 </r>
       <r>   -13.9841     0.0000     2.0000 </r>
       <r>   -13.8834     0.0000     2.0000 </r>
       <r>   -13.7828     0.0000     2.0000 </r>
       <r>   -13.6821     0.0000     2.0000 </r>
       <r>   -13.5815     0.0000     2.0000 </r>
       <r>   -13.4808     0.0000     2.0000 </r>
       <r>   -13.3802    -0.0000     2.0000 </r>
       <r>   -13.2796    -0.0000     2.0000 </r>
       <r>   -13.1789    -0.0000     2.0000 </r>
       <r>   -13.0783    -0.0000     2.0000 </r>
       <r>   -12.9776    -0.0000     2.0000 </r>
       <r>   -12.8770    -0.0000     2.0000 </r>
       <r>   -12.7763    -0.0003     2.0000 </r>
       <r>   -12.6757    -0.0156     1.9984 </r>
       <r>   -12.5750    -0.0424     1.9941 </r>
       <r>   -12.4744     0.9460     2.0893 </r>
       <r>   -12.3738     2.2768     2.3185 </r>
       <r>   -12.2731     3.3124     2.6519 </r>
       <r>   -12.1725     5.8162     3.2372 </r>
       <r>   -12.0718     6.8889     3.9305 </r>
       <r>   -11.9712     0.8887     4.0200 </r>
       <r>   -11.8705    -0.1899     4.0009 </r>
       <r>   -11.7699    -0.0086     4.0000 </r>
       <r>   -11.6693    -0.0000     4.0000 </r>
       <r>   -11.5686    -0.0000     4.0000 </r>
       <r>   -11.4680    -0.0000     4.0000 </r>
       <r>   -11.3673    -0.0000     4.0000 </r>
       <r>   -11.2667    -0.0018     3.9998 </r>
       <r>   -11.1660    -0.0127     3.9985 </r>
       <r>   -11.0654     0.1360     4.0122 </r>
       <r>   -10.9647     0.2821     4.0406 </r>
       <r>   -10.8641     1.5453     4.1961 </r>
       <r>   -10.7635     0.9627     4.2930 </r>
       <r>   -10.6628    -0.1455     4.2784 </r>
       <r>   -10.5622     0.9917     4.3782 </r>
       <r>   -10.4615     1.6424     4.5435 </r>
       <r>   -10.3609     1.7357     4.7182 </r>
       <r>   -10.2602     0.6529     4.7839 </r>
       <r>   -10.1596    -0.0962     4.7742 </r>
       <r>   -10.0590    -0.1592     4.7582 </r>
       <r>    -9.9583     1.8122     4.9406 </r>
       <r>    -9.8577     3.1420     5.2568 </r>
       <r>    -9.7570     0.2269     5.2796 </r>
       <r>    -9.6564     1.8140     5.4622 </r>
       <r>    -9.5557     2.0122     5.6647 </r>
       <r>    -9.4551     1.3003     5.7956 </r>
       <r>    -9.3544    -0.1757     5.7779 </r>
       <r>    -9.2538     3.0098     6.0808 </r>
       <r>    -9.1532     6.6137     6.7464 </r>
       <r>    -9.0525     2.8537     7.0336 </r>
       <r>    -8.9519     1.1969     7.1541 </r>
       <r>    -8.8512     2.2762     7.3832 </r>
       <r>    -8.7506     3.5472     7.7402 </r>
       <r>    -8.6499     4.0411     8.1469 </r>
       <r>    -8.5493    10.3500     9.1886 </r>
       <r>    -8.4487    11.4218    10.3381 </r>
       <r>    -8.3480    10.9305    11.4382 </r>
       <r>    -8.2474    19.4636    13.3971 </r>
       <r>    -8.1467    20.3012    15.4403 </r>
       <r>    -8.0461    19.1036    17.3629 </r>
       <r>    -7.9454    20.2076    19.3967 </r>
       <r>    -7.8448    18.5879    21.2675 </r>
       <r>    -7.7441    13.4551    22.6216 </r>
       <r>    -7.6435    17.2563    24.3584 </r>
       <r>    -7.5429    14.5100    25.8187 </r>
       <r>    -7.4422    24.6741    28.3020 </r>
       <r>    -7.3416    28.9040    31.2110 </r>
       <r>    -7.2409    16.5159    32.8732 </r>
       <r>    -7.1403    15.2751    34.4106 </r>
       <r>    -7.0396    25.0388    36.9306 </r>
       <r>    -6.9390    25.5878    39.5058 </r>
       <r>    -6.8384    15.6008    41.0760 </r>
       <r>    -6.7377    16.1530    42.7017 </r>
       <r>    -6.6371    16.6834    44.3807 </r>
       <r>    -6.5364    15.1326    45.9037 </r>
       <r>    -6.4358    21.5650    48.0741 </r>
       <r>    -6.3351    23.7823    50.4677 </r>
       <r>    -6.2345    17.6421    52.2432 </r>
       <r>    -6.1338    23.2964    54.5879 </r>
       <r>    -6.0332    25.5009    57.1544 </r>
       <r>    -5.9326    19.5084    59.1178 </r>
       <r>    -5.8319    16.3672    60.7650 </r>
       <r>    -5.7313    16.9003    62.4659 </r>
       <r>    -5.6306    25.6590    65.0484 </r>
       <r>    -5.5300    27.6007    67.8262 </r>
       <r>    -5.4293    26.7763    70.5211 </r>
       <r>    -5.3287    30.1021    73.5507 </r>
       <r>    -5.2281    27.4921    76.3176 </r>
       <r>    -5.1274    27.5711    79.0924 </r>
       <r>    -5.0268    32.3816    82.3514 </r>
       <r>    -4.9261    28.2087    85.1905 </r>
       <r>    -4.8255    34.4508    88.6577 </r>
       <r>    -4.7248    38.1420    92.4965 </r>
       <r>    -4.6242    33.6093    95.8791 </r>
       <r>    -4.5235    32.7280    99.1729 </r>
       <r>    -4.4229    29.3423   102.1260 </r>
       <r>    -4.3223    24.5959   104.6015 </r>
       <r>    -4.2216    24.6909   107.0864 </r>
       <r>    -4.1210    16.9306   108.7904 </r>
       <r>    -4.0203    12.5167   110.0501 </r>
       <r>    -3.9197    23.5332   112.4186 </r>
       <r>    -3.8190    36.6637   116.1086 </r>
       <r>    -3.7184    30.2180   119.1498 </r>
       <r>    -3.6177    17.0789   120.8687 </r>
       <r>    -3.5171    15.3698   122.4156 </r>
       <r>    -3.4165    23.2205   124.7526 </r>
       <r>    -3.3158    24.3582   127.2041 </r>
       <r>    -3.2152    24.6387   129.6838 </r>
       <r>    -3.1145    26.4180   132.3426 </r>
       <r>    -3.0139    25.7536   134.9346 </r>
       <r>    -2.9132    31.1640   138.0710 </r>
       <r>    -2.8126    32.0246   141.2941 </r>
       <r>    -2.7120    24.3361   143.7434 </r>
       <r>    -2.6113    18.4711   145.6024 </r>
       <r>    -2.5107    23.7802   147.9957 </r>
       <r>    -2.4100    22.6103   150.2713 </r>
       <r>    -2.3094    27.3809   153.0270 </r>
       <r>    -2.2087    22.1867   155.2600 </r>
       <r>    -2.1081    21.5728   157.4311 </r>
       <r>    -2.0074    28.5225   160.3018 </r>
       <r>    -1.9068    34.9400   163.8183 </r>
       <r>    -1.8062    35.5483   167.3960 </r>
       <r>    -1.7055    33.3187   170.7493 </r>
       <r>    -1.6049    22.6200   173.0259 </r>
       <r>    -1.5042    22.9592   175.3366 </r>
       <r>    -1.4036    16.1577   176.9627 </r>
       <r>    -1.3029    12.8872   178.2597 </r>
       <r>    -1.2023     4.6729   178.7300 </r>
       <r>    -1.1017     6.2934   179.3634 </r>
       <r>    -1.0010     6.4237   180.0099 </r>
       <r>    -0.9004     7.7252   180.7874 </r>
       <r>    -0.7997    15.1564   182.3128 </r>
       <r>    -0.6991     7.0477   183.0221 </r>
       <r>    -0.5984     2.2438   183.2480 </r>
       <r>    -0.4978     0.3423   183.2824 </r>
       <r>    -0.3971     4.4373   183.7290 </r>
       <r>    -0.2965     5.2894   184.2613 </r>
       <r>    -0.1959     4.4075   184.7049 </r>
       <r>    -0.0952     2.3178   184.9382 </r>
       <r>     0.0054     5.9629   185.5383 </r>
       <r>     0.1061     8.8515   186.4292 </r>
       <r>     0.2067     5.2971   186.9623 </r>
       <r>     0.3074     4.7543   187.4408 </r>
       <r>     0.4080     5.8189   188.0264 </r>
       <r>     0.5086     9.2543   188.9578 </r>
       <r>     0.6093     5.5508   189.5165 </r>
       <r>     0.7099    -0.3401   189.4822 </r>
       <r>     0.8106     5.2952   190.0152 </r>
       <r>     0.9112    10.7013   191.0922 </r>
       <r>     1.0119     3.3767   191.4321 </r>
       <r>     1.1125     3.8235   191.8169 </r>
       <r>     1.2132     5.6388   192.3844 </r>
       <r>     1.3138     5.1977   192.9075 </r>
       <r>     1.4144     4.2307   193.3333 </r>
       <r>     1.5151     4.9293   193.8294 </r>
       <r>     1.6157     4.9123   194.3238 </r>
       <r>     1.7164     7.8133   195.1101 </r>
       <r>     1.8170     7.4250   195.8574 </r>
       <r>     1.9177     8.7180   196.7348 </r>
       <r>     2.0183     4.6291   197.2007 </r>
       <r>     2.1189     6.6741   197.8724 </r>
       <r>     2.2196     6.9056   198.5674 </r>
       <r>     2.3202     0.2665   198.5943 </r>
       <r>     2.4209     3.5037   198.9469 </r>
       <r>     2.5215     7.9516   199.7472 </r>
       <r>     2.6222     6.2999   200.3812 </r>
       <r>     2.7228     2.1780   200.6004 </r>
       <r>     2.8235     2.9474   200.8970 </r>
       <r>     2.9241     5.9196   201.4928 </r>
       <r>     3.0247     5.5922   202.0556 </r>
       <r>     3.1254     4.0509   202.4633 </r>
       <r>     3.2260     3.0575   202.7710 </r>
       <r>     3.3267     3.3870   203.1119 </r>
       <r>     3.4273     3.5287   203.4671 </r>
       <r>     3.5280     2.4416   203.7128 </r>
       <r>     3.6286     2.8578   204.0004 </r>
       <r>     3.7292     0.0542   204.0059 </r>
       <r>     3.8299    -0.0574   204.0001 </r>
       <r>     3.9305    -0.0010   204.0000 </r>
       <r>     4.0312    -0.0000   204.0000 </r>
       <r>     4.1318    -0.0000   204.0000 </r>
       <r>     4.2325    -0.0000   204.0000 </r>
       <r>     4.3331     0.0000   204.0000 </r>
       <r>     4.4338     0.0000   204.0000 </r>
       <r>     4.5344     0.0000   204.0000 </r>
       <r>     4.6350     0.0000   204.0000 </r>
       <r>     4.7357     0.0000   204.0000 </r>
       <r>     4.8363     0.0000   204.0000 </r>
       <r>     4.9370     0.0000   204.0000 </r>
      </set>
     </set>
    </array>
   </total>
  </dos>
 </calculation>
 <structure name="finalpos" >
  <crystal>
   <varray name="basis" >
    <v>       5.54371716       0.00000000       0.00000000 </v>
    <v>       2.77185858       4.80099990       0.00000000 </v>
    <v>       0.00000000       0.00000000      36.78963917 </v>
   </varray>
   <i name="volume">    979.17042988 </i>
   <varray name="rec_basis" >
    <v>       0.18038438      -0.10414497       0.00000000 </v>
    <v>       0.00000000       0.20828994       0.00000000 </v>
    <v>       0.00000000       0.00000000       0.02718157 </v>
   </varray>
  </crystal>
  <varray name="positions" >
   <v>       0.00000000       0.00000000       0.40772349 </v>
   <v>       0.50000000       0.00000000       0.40772349 </v>
   <v>       0.00000000       0.50000000       0.40772349 </v>
   <v>       0.50000000       0.50000000       0.40772349 </v>
   <v>       0.16666667       0.16666667       0.46924116 </v>
   <v>       0.66666667       0.16666667       0.46924116 </v>
   <v>       0.16666667       0.66666667       0.46924116 </v>
   <v>       0.66666667       0.66666667       0.46924116 </v>
   <v>       0.84167649       0.33245479       0.53202070 </v>
   <v>       0.33938527       0.33242188       0.53205981 </v>
   <v>       0.84042559       0.83328454       0.53308412 </v>
   <v>       0.33931571       0.83488647       0.53204822 </v>
   <v>       0.01174584      -0.00216392       0.59822192 </v>
   <v>       0.51960322      -0.00250167       0.59803119 </v>
   <v>       0.01156544       0.50543529       0.59806269 </v>
   <v>       0.51416025       0.50021787       0.59388537 </v>
   <v>       0.18412565       0.16783511       0.66718912 </v>
   <v>       0.18227042       0.16732443       0.63476057 </v>
  </varray>
  <varray name="selective"  type="logical" >
   <v type="logical" >  F  F  F </v>
   <v type="logical" >  F  F  F </v>
   <v type="logical" >  F  F  F </v>
   <v type="logical" >  F  F  F </v>
   <v type="logical" >  F  F  F </v>
   <v type="logical" >  F  F  F </v>
   <v type="logical" >  F  F  F </v>
   <v type="logical" >  F  F  F </v>
   <v type="logical" >  T  T  T </v>
   <v type="logical" >  T  T  T </v>
   <v type="logical" >  T  T  T </v>
   <v type="logical" >  T  T  T </v>
   <v type="logical" >  T  T  T </v>
   <v type="logical" >  T  T  T </v>
   <v type="logical" >  T  T  T </v>
   <v type="logical" >  T  T  T </v>
   <v type="logical" >  T  T  T </v>
   <v type="logical" >  T  T  T </v>
  </varray>
  <nose>
   <v>      -3.00000000       0.00000000       0.00010000       0.00010000 </v>
  </nose>
 </structure>
</modeling>
