    1    1    1    1
  0.1407563E+02  0.2634490E-09  0.2634490E-09  0.2634490E-09  0.5000000E-15
   1.0000000000000000E-004
  CAR 
 V EOS scale_1.020                       
      5    256      6
 
  0.1262379E-14  0.1262379E-14  0.1262379E-14  0.1250000E-03
      1         -0.673447   1.000000
      2          6.103456  -0.000000
      3          6.103457  -0.000000
      4          6.103458  -0.000000
      5          7.965527   0.000000
      6          7.965529   0.000000
 
  0.5000000E-01  0.1264026E-14  0.1262379E-14  0.1500000E-02
      1         -0.576523   1.000000
      2          6.063816  -0.000000
      3          6.096105  -0.000000
      4          6.170990  -0.000000
      5          7.919950   0.000000
      6          7.968326   0.000000
 
  0.1000000E+00  0.1280028E-14  0.1262379E-14  0.1500000E-02
      1         -0.291550   1.000000
      2          5.950335  -0.000000
      3          6.063698  -0.000000
      4          6.370144  -0.000000
      5          7.808005   0.000000
      6          7.977733   0.000000
 
  0.1500000E+00  0.1278504E-14  0.1262379E-14  0.1500000E-02
      1          0.162680   1.000000
      2          5.778241  -0.033962
      3          5.982413  -0.000000
      4          6.690429  -0.000000
      5          7.693363   0.000000
      6          7.996413   0.000000
 
  0.2000000E+00  0.1276110E-14  0.1262379E-14  0.1500000E-02
      1          0.749803   1.000000
      2          5.568772   1.000068
      3          5.846839  -0.001137
      4          7.113436   0.000000
      5          7.640220   0.000000
      6          8.027016   0.000000
 
  0.2500000E+00  0.1304961E-14  0.1262379E-14  0.1500000E-02
      1          1.405010   1.000000
      2          5.345419   1.000000
      3          5.714726   0.615738
      4          7.611832   0.000000
      5          7.667476   0.000000
      6          8.070510   0.000000
 
  0.3000000E+00  0.1273061E-14  0.1262379E-14  0.1500000E-02
      1          2.019289   1.000000
      2          5.130560   1.000000
      3          5.711024   0.675221
      4          7.750236   0.000000
      5          8.124698   0.000000
      6          8.147685   0.000000
 
  0.3500000E+00  0.1257838E-14  0.1262379E-14  0.1500000E-02
      1          2.456409   1.000000
      2          4.943387   1.000000
      3          5.968731  -0.000000
      4          7.850890   0.000000
      5          8.183376   0.000000
      6          8.670712   0.000000
 
  0.4000000E+00  0.1242959E-14  0.1262379E-14  0.1500000E-02
      1          2.664908   1.000000
      2          4.798984   1.000000
      3          6.484627  -0.000000
      4          7.933854   0.000000
      5          8.237008   0.000000
      6          9.118995   0.000000
 
  0.4500000E+00  0.1281151E-14  0.1262379E-14  0.1500000E-02
      1          2.726976   1.000000
      2          4.708123   1.000000
      3          7.040101  -0.000000
      4          7.968233   0.000000
      5          8.274972   0.000000
      6          9.425627   0.000000
 
  0.5000000E+00  0.1206569E-14  0.1262379E-14  0.7500000E-03
      1          2.736541   1.000000
      2          4.677126   1.000000
      3          7.299457   0.000000
      4          7.960864   0.000000
      5          8.288706   0.000000
      6          9.535178   0.000000
 
  0.5000000E-01  0.5000000E-01  0.1262379E-14  0.3000000E-02
      1         -0.385493   1.000000
      2          6.009679  -0.000000
      3          6.045638  -0.000000
      4          6.312921  -0.000000
      5          7.836354   0.000000
      6          7.978882   0.000000
 
  0.1000000E+00  0.5000000E-01  0.1262379E-14  0.6000000E-02
      1         -0.015140   1.000000
      2          5.870919  -0.000101
      3          5.978359  -0.000000
      4          6.580666  -0.000000
      5          7.711405   0.000000
      6          8.003017   0.000000
 
  0.1500000E+00  0.5000000E-01  0.1262379E-14  0.6000000E-02
      1          0.508401   1.000000
      2          5.676499   1.011871
      3          5.865972  -0.000174
      4          6.959196  -0.000000
      5          7.616919   0.000000
      6          8.038438   0.000000
 
  0.2000000E+00  0.5000000E-01  0.1262379E-14  0.6000000E-02
      1          1.137355   1.000000
      2          5.456988   1.000000
      3          5.718620   0.550967
      4          7.425480   0.000000
      5          7.603689   0.000000
      6          8.083977   0.000000
 
  0.2500000E+00  0.5000000E-01  0.1262379E-14  0.6000000E-02
      1          1.787726   1.000000
      2          5.236341   1.000000
      3          5.624038   1.009307
      4          7.656590   0.000000
      5          7.960595   0.000000
      6          8.138682   0.000000
 
  0.3000000E+00  0.5000000E-01  0.1262379E-14  0.6000000E-02
      1          2.329310   1.000000
      2          5.035467   1.000000
      3          5.718750   0.548770
      4          7.761667   0.000000
      5          8.194674   0.000000
      6          8.509292   0.000000
 
  0.3500000E+00  0.5000000E-01  0.1262379E-14  0.6000000E-02
      1          2.648107   1.000000
      2          4.870863   1.000000
      3          6.085478  -0.000000
      4          7.868926   0.000000
      5          8.260373   0.000000
      6          9.020200   0.000000
 
  0.4000000E+00  0.5000000E-01  0.1262379E-14  0.6000000E-02
      1          2.767074   1.000000
      2          4.754520   1.000000
      3          6.602937  -0.000000
      4          7.936604   0.000000
      5          8.338212   0.000000
      6          9.432650   0.000000
 
  0.4500000E+00  0.5000000E-01  0.1262379E-14  0.6000000E-02
      1          2.792808   1.000000
      2          4.694365   1.000000
      3          6.987780  -0.000000
      4          7.948482   0.000000
      5          8.409379   0.000000
      6          9.673026   0.000000
 
  0.1000000E+00  0.1000000E+00  0.1262379E-14  0.3000000E-02
      1          0.426536   1.000000
      2          5.751346   0.082617
      3          5.824432  -0.006646
      4          6.922156  -0.000000
      5          7.593481   0.000000
      6          8.055422   0.000000
 
  0.1500000E+00  0.1000000E+00  0.1262379E-14  0.6000000E-02
      1          1.000060   1.000000
      2          5.560785   1.000026
      3          5.661371   1.035398
      4          7.364974   0.000000
      5          7.527251   0.000000
      6          8.118998   0.000000
 
  0.2000000E+00  0.1000000E+00  0.1262379E-14  0.6000000E-02
      1          1.645496   1.000000
      2          5.336918   1.000000
      3          5.517371   1.000000
      4          7.537474   0.000000
      5          7.888653   0.000000
      6          8.189162   0.000000
 
  0.2500000E+00  0.1000000E+00  0.1262379E-14  0.6000000E-02
      1          2.258718   1.000000
      2          5.124632   1.000000
      3          5.471922   1.000000
      4          7.623789   0.000000
      5          8.226359   0.000000
      6          8.486590   0.000000
 
  0.3000000E+00  0.1000000E+00  0.1262379E-14  0.6000000E-02
      1          2.698878   1.000000
      2          4.949173   1.000000
      3          5.639014   1.020662
      4          7.746120   0.000000
      5          8.297733   0.000000
      6          9.061160   0.000000
 
  0.3500000E+00  0.1000000E+00  0.1262379E-14  0.6000000E-02
      1          2.902782   1.000000
      2          4.818422   1.000000
      3          6.019018  -0.000000
      4          7.855538   0.000000
      5          8.381383   0.000000
      6          9.601814   0.000000
 
  0.4000000E+00  0.1000000E+00  0.1262379E-14  0.6000000E-02
      1          2.956736   1.000000
      2          4.737196   1.000000
      3          6.406861  -0.000000
      4          7.907922   0.000000
      5          8.486699   0.000000
      6         10.027730   0.000000
 
  0.4500000E+00  0.1000000E+00  0.1262379E-14  0.3000000E-02
      1          2.962859   1.000000
      2          4.709596   1.000000
      3          6.568030  -0.000000
      4          7.916347   0.000000
      5          8.542073   0.000000
      6         10.203195   0.000000
 
  0.1500000E+00  0.1500000E+00  0.1262379E-14  0.3000000E-02
      1          1.597647   1.000000
      2          5.406019   1.000000
      3          5.444633   1.000000
      4          7.486973   0.000000
      5          7.870272   0.000000
      6          8.213063   0.000000
 
  0.2000000E+00  0.1500000E+00  0.1262379E-14  0.6000000E-02
      1          2.229736   1.000000
      2          5.165451   1.000000
      3          5.343242   1.000000
      4          7.523197   0.000000
      5          8.236839   0.000000
      6          8.512533   0.000000
 
  0.2500000E+00  0.1500000E+00  0.1262379E-14  0.6000000E-02
      1          2.775342   1.000000
      2          4.975794   1.000000
      3          5.341060   1.000000
      4          7.622405   0.000000
      5          8.315052   0.000000
      6          9.137759   0.000000
 
  0.3000000E+00  0.1500000E+00  0.1262379E-14  0.6000000E-02
      1          3.100917   1.000000
      2          4.852039   1.000000
      3          5.522645   1.000000
      4          7.749409   0.000000
      5          8.378411   0.000000
      6          9.793793   0.000000
 
  0.3500000E+00  0.1500000E+00  0.1262379E-14  0.6000000E-02
      1          3.210318   1.000000
      2          4.774294   1.000000
      3          5.828159  -0.005128
      4          7.850007   0.000000
      5          8.460732   0.000000
      6         10.413220   0.000000
 
  0.4000000E+00  0.1500000E+00  0.1262379E-14  0.6000000E-02
      1          3.225517   1.000000
      2          4.734897   1.000000
      3          6.051284  -0.000000
      4          7.892189   0.000000
      5          8.538514   0.000000
      6         10.852324   0.000000
 
  0.2000000E+00  0.2000000E+00  0.1262379E-14  0.3000000E-02
      1          2.813300   1.000000
      2          4.945959   1.000000
      3          5.270209   1.000000
      4          7.570496   0.000000
      5          8.319692   0.000000
      6          9.171399   0.000000
 
  0.2500000E+00  0.2000000E+00  0.1262379E-14  0.6000000E-02
      1          3.273635   1.000000
      2          4.789806   1.000000
      3          5.285877   1.000000
      4          7.672699   0.000000
      5          8.370276   0.000000
      6          9.908923   0.000000
 
  0.3000000E+00  0.2000000E+00  0.1262379E-14  0.6000000E-02
      1          3.501803   1.000000
      2          4.736312   1.000000
      3          5.407489   1.000000
      4          7.796366   0.000000
      5          8.415287   0.000000
      6         10.682665   0.000000
 
  0.3500000E+00  0.2000000E+00  0.1262379E-14  0.6000000E-02
      1          3.552933   1.000000
      2          4.730541   1.000000
      3          5.570692   1.000084
      4          7.887990   0.000000
      5          8.467691   0.000000
      6         11.401082   0.000000
 
  0.4000000E+00  0.2000000E+00  0.1262379E-14  0.3000000E-02
      1          3.554278   1.000000
      2          4.730455   1.000000
      3          5.643973   1.025228
      4          7.918224   0.000000
      5          8.496076   0.000000
      6         11.751529   0.000000
 
  0.2500000E+00  0.2500000E+00  0.1262379E-14  0.3000000E-02
      1          3.664091   1.000000
      2          4.651690   1.000000
      3          5.276350   1.000000
      4          7.774037   0.000000
      5          8.395997   0.000000
      6         10.776839   0.000000
 
  0.3000000E+00  0.2500000E+00  0.1262379E-14  0.6000000E-02
      1          3.858583   1.000000
      2          4.640902   1.000000
      3          5.277010   1.000000
      4          7.897629   0.000000
      5          8.403579   0.000000
      6         11.702149   0.000000
 
  0.3500000E+00  0.2500000E+00  0.1262379E-14  0.6000000E-02
      1          3.899026   1.000000
      2          4.700215   1.000000
      3          5.273941   1.000000
      4          7.984911   0.000000
      5          8.404972   0.000000
      6         12.504881   0.000000
 
  0.3000000E+00  0.3000000E+00  0.1262379E-14  0.3000000E-02
      1          4.097363   1.000000
      2          4.647122   1.000000
      3          5.109134   1.000000
      4          8.032530   0.000000
      5          8.347263   0.000000
      6         12.807318   0.000000
 
  0.3500000E+00  0.3000000E+00  0.1262379E-14  0.3000000E-02
      1          4.164523   1.000000
      2          4.733511   1.000000
      3          4.980105   1.000000
      4          8.120237   0.000000
      5          8.291971   0.000000
      6         13.606981   0.000000
 
  0.5000000E-01  0.5000000E-01  0.5000000E-01  0.1000000E-02
      1         -0.106226   1.000000
      2          5.915948  -0.000000
      3          5.915949  -0.000000
      4          6.571953  -0.000000
      5          7.876338   0.000000
      6          7.876339   0.000000
 
  0.1000000E+00  0.5000000E-01  0.5000000E-01  0.3000000E-02
      1          0.340206   1.000000
      2          5.727942   0.394223
      3          5.801794  -0.022920
      4          6.929507  -0.000000
      5          7.766774   0.000000
      6          7.931156   0.000000
 
  0.1500000E+00  0.5000000E-01  0.5000000E-01  0.3000000E-02
      1          0.920164   1.000000
      2          5.509210   1.000000
      3          5.653741   1.033193
      4          7.378035   0.000000
      5          7.707308   0.000000
      6          7.993166   0.000000
 
  0.2000000E+00  0.5000000E-01  0.5000000E-01  0.3000000E-02
      1          1.572647   1.000000
      2          5.284527   1.000000
      3          5.513774   1.000000
      4          7.710269   0.000000
      5          7.908419   0.000000
      6          8.058764   0.000000
 
  0.2500000E+00  0.5000000E-01  0.5000000E-01  0.3000000E-02
      1          2.190691   1.000000
      2          5.074293   1.000000
      3          5.489967   1.000000
      4          7.778473   0.000000
      5          8.125498   0.000000
      6          8.471124   0.000000
 
  0.3000000E+00  0.5000000E-01  0.5000000E-01  0.3000000E-02
      1          2.631024   1.000000
      2          4.894639   1.000000
      3          5.712168   0.657124
      4          7.866372   0.000000
      5          8.189364   0.000000
      6          9.037660   0.000000
 
  0.3500000E+00  0.5000000E-01  0.5000000E-01  0.3000000E-02
      1          2.834014   1.000000
      2          4.757794   1.000000
      3          6.178681  -0.000000
      4          7.943573   0.000000
      5          8.243795   0.000000
      6          9.553112   0.000000
 
  0.4000000E+00  0.5000000E-01  0.5000000E-01  0.3000000E-02
      1          2.888571   1.000000
      2          4.672317   1.000000
      3          6.666343  -0.000000
      4          7.985899   0.000000
      5          8.280923   0.000000
      6          9.944464   0.000000
 
  0.4500000E+00  0.5000000E-01  0.5000000E-01  0.1500000E-02
      1          2.895207   1.000000
      2          4.643269   1.000000
      3          6.878889  -0.000000
      4          7.994445   0.000000
      5          8.294182   0.000000
      6         10.100184   0.000000
 
 -0.5000000E-01  0.5000000E-01  0.5000000E-01  0.7500000E-03
      1         -0.480381   1.000000
      2          6.092327  -0.000000
      3          6.092328  -0.000000
      4          6.171273  -0.000000
      5          7.821297   0.000000
      6          8.020160   0.000000
 
  0.1000000E+00  0.1000000E+00  0.5000000E-01  0.3000000E-02
      1          0.846318   1.000000
      2          5.556629   1.000016
      3          5.593726   1.000889
      4          7.372689   0.000000
      5          7.746269   0.000000
      6          7.959351   0.000000
 
  0.1500000E+00  0.1000000E+00  0.5000000E-01  0.6000000E-02
      1          1.462166   1.000000
      2          5.338981   1.000000
      3          5.410858   1.000000
      4          7.722920   0.000000
      5          7.896948   0.000000
      6          8.040770   0.000000
 
  0.2000000E+00  0.1000000E+00  0.5000000E-01  0.6000000E-02
      1          2.111894   1.000000
      2          5.119806   1.000000
      3          5.290491   1.000000
      4          7.753973   0.000000
      5          8.119980   0.000000
      6          8.482363   0.000000
 
  0.2500000E+00  0.1000000E+00  0.5000000E-01  0.6000000E-02
      1          2.664005   1.000000
      2          4.930325   1.000000
      3          5.334665   1.000000
      4          7.826641   0.000000
      5          8.191477   0.000000
      6          9.097362   0.000000
 
  0.3000000E+00  0.1000000E+00  0.5000000E-01  0.6000000E-02
      1          2.982036   1.000000
      2          4.781922   1.000000
      3          5.637605   1.019399
      4          7.912790   0.000000
      5          8.251541   0.000000
      6          9.705896   0.000000
 
  0.3500000E+00  0.1000000E+00  0.5000000E-01  0.6000000E-02
      1          3.085709   1.000000
      2          4.679723   1.000000
      3          6.087193  -0.000000
      4          7.981492   0.000000
      5          8.300935   0.000000
      6         10.251998   0.000000
 
  0.4000000E+00  0.1000000E+00  0.5000000E-01  0.6000000E-02
      1          3.100234   1.000000
      2          4.627557   1.000000
      3          6.413282  -0.000000
      4          8.013706   0.000000
      5          8.334132   0.000000
      6         10.617843   0.000000
 
 -0.1000000E+00  0.1000000E+00  0.5000000E-01  0.3000000E-02
      1         -0.197732   1.000000
      2          6.002245  -0.000000
      3          6.069889  -0.000000
      4          6.349818  -0.000000
      5          7.661042   0.000000
      6          8.066628   0.000000
 
  0.1500000E+00  0.1500000E+00  0.5000000E-01  0.3000000E-02
      1          2.086711   1.000000
      2          5.154450   1.000000
      3          5.199438   1.000000
      4          7.733071   0.000000
      5          8.128195   0.000000
      6          8.492779   0.000000
 
  0.2000000E+00  0.1500000E+00  0.5000000E-01  0.6000000E-02
      1          2.703230   1.000000
      2          4.947461   1.000000
      3          5.113882   1.000000
      4          7.780053   0.000000
      5          8.210224   0.000000
      6          9.144487   0.000000
 
  0.2500000E+00  0.1500000E+00  0.5000000E-01  0.6000000E-02
      1          3.159649   1.000000
      2          4.794955   1.000000
      3          5.205801   1.000000
      4          7.860254   0.000000
      5          8.273067   0.000000
      6          9.828929   0.000000
 
  0.3000000E+00  0.1500000E+00  0.5000000E-01  0.6000000E-02
      1          3.355186   1.000000
      2          4.692927   1.000000
      3          5.518754   1.000000
      4          7.948695   0.000000
      5          8.320112   0.000000
      6         10.511849   0.000000
 
  0.3500000E+00  0.1500000E+00  0.5000000E-01  0.6000000E-02
      1          3.389642   1.000000
      2          4.632429   1.000000
      3          5.860778  -0.000299
      4          8.013090   0.000000
      5          8.357654   0.000000
      6         11.110240   0.000000
 
  0.4000000E+00  0.1500000E+00  0.5000000E-01  0.3000000E-02
      1          3.387902   1.000000
      2          4.612197   1.000000
      3          6.003297  -0.000000
      4          8.034784   0.000000
      5          8.375047   0.000000
      6         11.384457   0.000000
 
 -0.1500000E+00  0.1500000E+00  0.5000000E-01  0.3000000E-02
      1          0.252638   1.000000
      2          5.835574  -0.002937
      3          5.999421  -0.000000
      4          6.668731  -0.000000
      5          7.510503   0.000000
      6          8.108227   0.000000
 
 -0.1000000E+00  0.1500000E+00  0.5000000E-01  0.3000000E-02
      1          0.166044   1.000000
      2          5.943332  -0.000000
      3          6.005837  -0.000000
      4          6.563260  -0.000000
      5          7.463221   0.000000
      6          8.138228   0.000000
 
  0.2000000E+00  0.2000000E+00  0.5000000E-01  0.3000000E-02
      1          3.249937   1.000000
      2          4.776928   1.000000
      3          5.052287   1.000000
      4          7.834894   0.000000
      5          8.282395   0.000000
      6          9.875294   0.000000
 
  0.2500000E+00  0.2000000E+00  0.5000000E-01  0.6000000E-02
      1          3.602334   1.000000
      2          4.674128   1.000000
      3          5.145152   1.000000
      4          7.917607   0.000000
      5          8.327855   0.000000
      6         10.656997   0.000000
 
  0.3000000E+00  0.2000000E+00  0.5000000E-01  0.6000000E-02
      1          3.711768   1.000000
      2          4.633284   1.000000
      3          5.374917   1.000000
      4          8.004924   0.000000
      5          8.353331   0.000000
      6         11.451078   0.000000
 
  0.3500000E+00  0.2000000E+00  0.5000000E-01  0.6000000E-02
      1          3.717243   1.000000
      2          4.617545   1.000000
      3          5.559956   1.000024
      4          8.061239   0.000000
      5          8.367048   0.000000
      6         12.088849   0.000000
 
 -0.2000000E+00  0.2000000E+00  0.5000000E-01  0.3000000E-02
      1          0.834551   1.000000
      2          5.630494   1.013568
      3          5.862977  -0.000238
      4          7.092446   0.000000
      5          7.440820   0.000000
      6          8.153312   0.000000
 
 -0.1500000E+00  0.2000000E+00  0.5000000E-01  0.6000000E-02
      1          0.679759   1.000000
      2          5.783541  -0.035431
      3          5.896574  -0.000004
      4          6.928087  -0.000000
      5          7.318907   0.000000
      6          8.203733   0.000000
 
  0.2500000E+00  0.2500000E+00  0.5000000E-01  0.3000000E-02
      1          3.891560   1.000000
      2          4.618100   1.000000
      3          5.155848   1.000000
      4          8.000521   0.000000
      5          8.347982   0.000000
      6         11.569977   0.000000
 
  0.3000000E+00  0.2500000E+00  0.5000000E-01  0.6000000E-02
      1          3.991029   1.000000
      2          4.641237   1.000000
      3          5.205900   1.000000
      4          8.087438   0.000000
      5          8.340016   0.000000
      6         12.511804   0.000000
 
  0.3500000E+00  0.2500000E+00  0.5000000E-01  0.3000000E-02
      1          4.003738   1.000000
      2          4.662134   1.000000
      3          5.234310   1.000000
      4          8.130016   0.000000
      5          8.328100   0.000000
      6         13.079995   0.000000
 
 -0.2500000E+00  0.2500000E+00  0.5000000E-01  0.3000000E-02
      1          1.484127   1.000000
      2          5.411189   1.000000
      3          5.710249   0.687309
      4          7.477143   0.000000
      5          7.592439   0.000000
      6          8.204528   0.000000
 
 -0.2000000E+00  0.2500000E+00  0.5000000E-01  0.6000000E-02
      1          1.296541   1.000000
      2          5.574814   1.000133
      3          5.736462   0.260890
      4          7.288109   0.000000
      5          7.398987   0.000000
      6          8.268676   0.000000
 
 -0.1500000E+00  0.2500000E+00  0.5000000E-01  0.3000000E-02
      1          1.233165   1.000000
      2          5.685940   0.964644
      3          5.697392   0.861696
      4          7.208582   0.000000
      5          7.338756   0.000000
      6          8.294236   0.000000
 
  0.3000000E+00  0.3000000E+00  0.5000000E-01  0.3000000E-02
      1          4.123167   1.000000
      2          4.762525   1.000000
      3          5.016123   1.000000
      4          8.181536   0.000000
      5          8.285738   0.000000
      6         13.640431   0.000000
 
 -0.3000000E+00  0.3000000E+00  0.5000000E-01  0.3000000E-02
      1          2.094414   1.000000
      2          5.199894   1.000000
      3          5.663652   1.034746
      4          7.591974   0.000000
      5          8.130453   0.000000
      6          8.264340   0.000000
 
 -0.2500000E+00  0.3000000E+00  0.5000000E-01  0.6000000E-02
      1          1.935522   1.000000
      2          5.356830   1.000000
      3          5.595552   1.001050
      4          7.380391   0.000000
      5          7.921787   0.000000
      6          8.342980   0.000000
 
 -0.2000000E+00  0.3000000E+00  0.5000000E-01  0.6000000E-02
      1          1.855790   1.000000
      2          5.430907   1.000000
      3          5.584400   1.000362
      4          7.221221   0.000000
      5          7.838341   0.000000
      6          8.393824   0.000000
 
 -0.3500000E+00  0.3500000E+00  0.5000000E-01  0.3000000E-02
      1          2.530334   1.000000
      2          5.015665   1.000000
      3          5.848309  -0.000996
      4          7.736734   0.000000
      5          8.347585   0.000000
      6          8.656070   0.000000
 
 -0.3000000E+00  0.3500000E+00  0.5000000E-01  0.6000000E-02
      1          2.471623   1.000000
      2          5.162068   1.000000
      3          5.594773   1.000979
      4          7.539641   0.000000
      5          8.348040   0.000000
      6          8.557335   0.000000
 
 -0.2500000E+00  0.3500000E+00  0.5000000E-01  0.6000000E-02
      1          2.452152   1.000000
      2          5.203404   1.000000
      3          5.494627   1.000000
      4          7.340452   0.000000
      5          8.265894   0.000000
      6          8.631642   0.000000
 
 -0.2000000E+00  0.3500000E+00  0.5000000E-01  0.3000000E-02
      1          2.449210   1.000000
      2          5.169279   1.000000
      3          5.515686   1.000000
      4          7.253733   0.000000
      5          8.238468   0.000000
      6          8.665191   0.000000
 
 -0.4000000E+00  0.4000000E+00  0.5000000E-01  0.3000000E-02
      1          2.737830   1.000000
      2          4.873482   1.000000
      3          6.249248  -0.000000
      4          7.845652   0.000000
      5          8.494081   0.000000
      6          9.107042   0.000000
 
 -0.3500000E+00  0.4000000E+00  0.5000000E-01  0.6000000E-02
      1          2.789661   1.000000
      2          5.006397   1.000000
      3          5.811458  -0.014569
      4          7.696067   0.000000
      5          8.523775   0.000000
      6          9.057280   0.000000
 
 -0.3000000E+00  0.4000000E+00  0.5000000E-01  0.6000000E-02
      1          2.890592   1.000000
      2          5.057378   1.000000
      3          5.506944   1.000000
      4          7.512226   0.000000
      5          8.439336   0.000000
      6          9.179300   0.000000
 
 -0.2500000E+00  0.4000000E+00  0.5000000E-01  0.6000000E-02
      1          2.977613   1.000000
      2          4.949304   1.000000
      3          5.472120   1.000000
      4          7.377243   0.000000
      5          8.386685   0.000000
      6          9.267481   0.000000
 
 -0.4500000E+00  0.4500000E+00  0.5000000E-01  0.3000000E-02
      1          2.798138   1.000000
      2          4.783962   1.000000
      3          6.654061  -0.000000
      4          7.875903   0.000000
      5          8.701076   0.000000
      6          9.415765   0.000000
 
 -0.4000000E+00  0.4500000E+00  0.5000000E-01  0.6000000E-02
      1          2.906194   1.000000
      2          4.896803   1.000000
      3          6.145320  -0.000000
      4          7.774320   0.000000
      5          8.755688   0.000000
      6          9.509244   0.000000
 
 -0.3500000E+00  0.4500000E+00  0.5000000E-01  0.6000000E-02
      1          3.097560   1.000000
      2          4.971676   1.000000
      3          5.674435   1.018303
      4          7.652772   0.000000
      5          8.606536   0.000000
      6          9.791021   0.000000
 
 -0.3000000E+00  0.4500000E+00  0.5000000E-01  0.6000000E-02
      1          3.319169   1.000000
      2          4.859374   1.000000
      3          5.463074   1.000000
      4          7.542354   0.000000
      5          8.483679   0.000000
      6          9.997952   0.000000
 
 -0.2500000E+00  0.4500000E+00  0.5000000E-01  0.3000000E-02
      1          3.435067   1.000000
      2          4.730135   1.000000
      3          5.449063   1.000000
      4          7.495655   0.000000
      5          8.439969   0.000000
      6         10.070320   0.000000
 
  0.5000000E+00  0.5000000E+00  0.5000000E-01  0.1500000E-02
      1          2.806866   1.000000
      2          4.753423   1.000000
      3          6.823239  -0.000000
      4          7.870346   0.000000
      5          8.813036   0.000000
      6          9.526135   0.000000
 
 -0.4500000E+00  0.5000000E+00  0.5000000E-01  0.6000000E-02
      1          2.929171   1.000000
      2          4.840019   1.000000
      3          6.384575  -0.000000
      4          7.782662   0.000000
      5          8.957426   0.000000
      6          9.800559   0.000000
 
 -0.4000000E+00  0.5000000E+00  0.5000000E-01  0.6000000E-02
      1          3.149395   1.000000
      2          4.918093   1.000000
      3          5.885587  -0.000018
      4          7.709870   0.000000
      5          8.797717   0.000000
      6         10.328251   0.000000
 
 -0.3500000E+00  0.5000000E+00  0.5000000E-01  0.6000000E-02
      1          3.442139   1.000000
      2          4.881369   1.000000
      3          5.502165   1.000000
      4          7.668855   0.000000
      5          8.610418   0.000000
      6         10.747014   0.000000
 
 -0.3000000E+00  0.5000000E+00  0.5000000E-01  0.6000000E-02
      1          3.724828   1.000000
      2          4.657137   1.000000
      3          5.386001   1.000000
      4          7.658063   0.000000
      5          8.486605   0.000000
      6         10.965581   0.000000
 
 -0.4500000E+00 -0.4500000E+00  0.5000000E-01  0.3000000E-02
      1          3.153706   1.000000
      2          4.899047   1.000000
      3          5.977239  -0.000000
      4          7.718186   0.000000
      5          8.886628   0.000000
      6         10.569321   0.000000
 
 -0.4000000E+00 -0.4500000E+00  0.5000000E-01  0.6000000E-02
      1          3.457718   1.000000
      2          4.912424   1.000000
      3          5.553738   1.000011
      4          7.721017   0.000000
      5          8.720887   0.000000
      6         11.324279   0.000000
 
 -0.3500000E+00 -0.4500000E+00  0.5000000E-01  0.6000000E-02
      1          3.810285   1.000000
      2          4.762543   1.000000
      3          5.280189   1.000000
      4          7.786247   0.000000
      5          8.542518   0.000000
      6         11.853817   0.000000
 
 -0.3000000E+00 -0.4500000E+00  0.5000000E-01  0.3000000E-02
      1          4.052933   1.000000
      2          4.552043   1.000000
      3          5.222796   1.000000
      4          7.835334   0.000000
      5          8.454015   0.000000
      6         12.038219   0.000000
 
 -0.4000000E+00 -0.4000000E+00  0.5000000E-01  0.3000000E-02
      1          3.815019   1.000000
      2          4.861212   1.000000
      3          5.203044   1.000000
      4          7.830690   0.000000
      5          8.572490   0.000000
      6         12.330284   0.000000
 
 -0.3500000E+00 -0.4000000E+00  0.5000000E-01  0.6000000E-02
      1          4.180169   1.000000
      2          4.672807   1.000000
      3          4.992472   1.000000
      4          7.986064   0.000000
      5          8.405570   0.000000
      6         13.063240   0.000000
 
 -0.3500000E+00 -0.3500000E+00  0.5000000E-01  0.1000000E-02
      1          4.421193   1.000000
      2          4.708203   1.000000
      3          4.708205   1.000000
      4          8.210203   0.000000
      5          8.210204   0.000000
      6         14.292238   0.000000
 
  0.1000000E+00  0.1000000E+00  0.1000000E+00  0.1000000E-02
      1          1.399536   1.000000
      2          5.354378   1.000000
      3          5.354379   1.000000
      4          7.890923   0.000000
      5          7.890924   0.000000
      6          7.903393   0.000000
 
  0.1500000E+00  0.1000000E+00  0.1000000E+00  0.3000000E-02
      1          2.037472   1.000000
      2          5.129927   1.000000
      3          5.167360   1.000000
      4          7.873485   0.000000
      5          8.015804   0.000000
      6          8.500364   0.000000
 
  0.2000000E+00  0.1000000E+00  0.1000000E+00  0.3000000E-02
      1          2.664799   1.000000
      2          4.934244   1.000000
      3          5.071896   1.000000
      4          7.904569   0.000000
      5          8.118523   0.000000
      6          9.143635   0.000000
 
  0.2500000E+00  0.1000000E+00  0.1000000E+00  0.3000000E-02
      1          3.119597   1.000000
      2          4.775762   1.000000
      3          5.199123   1.000000
      4          7.963983   0.000000
      5          8.199579   0.000000
      6          9.807555   0.000000
 
  0.3000000E+00  0.1000000E+00  0.1000000E+00  0.3000000E-02
      1          3.305229   1.000000
      2          4.659627   1.000000
      3          5.578750   1.000202
      4          8.026180   0.000000
      5          8.259115   0.000000
      6         10.456750   0.000000
 
  0.3500000E+00  0.1000000E+00  0.1000000E+00  0.3000000E-02
      1          3.334581   1.000000
      2          4.588880   1.000000
      3          5.982399  -0.000000
      4          8.069956   0.000000
      5          8.295942   0.000000
      6         11.011728   0.000000
 
  0.4000000E+00  0.1000000E+00  0.1000000E+00  0.1500000E-02
      1          3.331736   1.000000
      2          4.565128   1.000000
      3          6.151279  -0.000000
      4          8.085040   0.000000
      5          8.308472   0.000000
      6         11.260083   0.000000
 
 -0.1000000E+00  0.1000000E+00  0.1000000E+00  0.7500000E-03
      1          0.077878   1.000000
      2          6.078275  -0.000000
      3          6.078276  -0.000000
      4          6.369954  -0.000000
      5          7.408557   0.000000
      6          8.170702   0.000000
 
  0.1500000E+00  0.1500000E+00  0.1000000E+00  0.3000000E-02
      1          2.670596   1.000000
      2          4.942945   1.000000
      3          4.966253   1.000000
      4          7.934596   0.000000
      5          8.090514   0.000000
      6          9.164136   0.000000
 
  0.2000000E+00  0.1500000E+00  0.1000000E+00  0.6000000E-02
      1          3.245018   1.000000
      2          4.777516   1.000000
      3          4.902334   1.000000
      4          7.981124   0.000000
      5          8.184308   0.000000
      6          9.871337   0.000000
 
  0.2500000E+00  0.1500000E+00  0.1000000E+00  0.6000000E-02
      1          3.572376   1.000000
      2          4.658844   1.000000
      3          5.091640   1.000000
      4          8.040510   0.000000
      5          8.254601   0.000000
      6         10.602788   0.000000
 
  0.3000000E+00  0.1500000E+00  0.1000000E+00  0.6000000E-02
      1          3.642173   1.000000
      2          4.581360   1.000000
      3          5.466247   1.000000
      4          8.096209   0.000000
      5          8.299610   0.000000
      6         11.319741   0.000000
 
  0.3500000E+00  0.1500000E+00  0.1000000E+00  0.6000000E-02
      1          3.632332   1.000000
      2          4.542974   1.000000
      3          5.740483   0.204759
      4          8.129296   0.000000
      5          8.321932   0.000000
      6         11.869544   0.000000
 
 -0.1500000E+00  0.1500000E+00  0.1000000E+00  0.3000000E-02
      1          0.516262   1.000000
      2          5.985502  -0.000000
      3          6.048914  -0.000000
      4          6.626850  -0.000000
      5          7.165923   0.000000
      6          8.257457   0.000000
 
  0.2000000E+00  0.2000000E+00  0.1000000E+00  0.3000000E-02
      1          3.727054   1.000000
      2          4.658890   1.000000
      3          4.859760   1.000000
      4          8.039428   0.000000
      5          8.257328   0.000000
      6         10.655674   0.000000
 
  0.2500000E+00  0.2000000E+00  0.1000000E+00  0.6000000E-02
      1          3.934757   1.000000
      2          4.596153   1.000000
      3          5.040079   1.000000
      4          8.102148   0.000000
      5          8.304508   0.000000
      6         11.485376   0.000000
 
  0.3000000E+00  0.2000000E+00  0.1000000E+00  0.6000000E-02
      1          3.946950   1.000000
      2          4.563747   1.000000
      3          5.307513   1.000000
      4          8.156334   0.000000
      5          8.325745   0.000000
      6         12.300505   0.000000
 
  0.3500000E+00  0.2000000E+00  0.1000000E+00  0.3000000E-02
      1          3.935737   1.000000
      2          4.553165   1.000000
      3          5.422229   1.000000
      4          8.178819   0.000000
      5          8.330557   0.000000
      6         12.747784   0.000000
 
 -0.2000000E+00  0.2000000E+00  0.1000000E+00  0.3000000E-02
      1          1.081631   1.000000
      2          5.805780  -0.019300
      3          5.916557  -0.000000
      4          7.039796  -0.000000
      5          7.052294  -0.000000
      6          8.335055   0.000000
 
 -0.1500000E+00  0.2000000E+00  0.1000000E+00  0.3000000E-02
      1          1.009166   1.000000
      2          5.952686  -0.000000
      3          5.961231  -0.000000
      4          6.903836  -0.000000
      5          6.932785  -0.000000
      6          8.360458   0.000000
 
  0.2500000E+00  0.2500000E+00  0.1000000E+00  0.3000000E-02
      1          4.106541   1.000000
      2          4.619241   1.000000
      3          5.057838   1.000000
      4          8.166158   0.000000
      5          8.324068   0.000000
      6         12.450120   0.000000
 
  0.3000000E+00  0.2500000E+00  0.1000000E+00  0.6000000E-02
      1          4.137034   1.000000
      2          4.662630   1.000000
      3          5.107007   1.000000
      4          8.218862   0.000000
      5          8.317288   0.000000
      6         13.388393   0.000000
 
 -0.2500000E+00  0.2500000E+00  0.1000000E+00  0.3000000E-02
      1          1.712420   1.000000
      2          5.602636   1.001946
      3          5.700956   0.819035
      4          7.116000   0.000000
      5          7.539811   0.000000
      6          8.412856   0.000000
 
 -0.2000000E+00  0.2500000E+00  0.1000000E+00  0.6000000E-02
      1          1.598928   1.000000
      2          5.733552   0.304537
      3          5.832478  -0.003732
      4          6.892678  -0.000000
      5          7.342411   0.000000
      6          8.457760   0.000000
 
  0.3000000E+00  0.3000000E+00  0.1000000E+00  0.1000000E-02
      1          4.185962   1.000000
      2          4.876133   1.000000
      3          4.876134   1.000000
      4          8.277258   0.000000
      5          8.277259   0.000000
      6         14.511700   0.000000
 
 -0.3000000E+00  0.3000000E+00  0.1000000E+00  0.3000000E-02
      1          2.308028   1.000000
      2          5.403813   1.000000
      3          5.538600   1.000001
      4          7.294097   0.000000
      5          8.082103   0.000000
      6          8.513455   0.000000
 
 -0.2500000E+00  0.3000000E+00  0.1000000E+00  0.6000000E-02
      1          2.210337   1.000000
      2          5.462542   1.000000
      3          5.672093   1.024155
      4          7.032844  -0.000000
      5          7.856493   0.000000
      6          8.577156   0.000000
 
 -0.2000000E+00  0.3000000E+00  0.1000000E+00  0.3000000E-02
      1          2.177962   1.000000
      2          5.444691   1.000000
      3          5.790870  -0.032318
      4          6.899228  -0.000000
      5          7.785496   0.000000
      6          8.602189   0.000000
 
 -0.3500000E+00  0.3500000E+00  0.1000000E+00  0.3000000E-02
      1          2.738568   1.000000
      2          5.229238   1.000000
      3          5.557521   1.000018
      4          7.494308   0.000000
      5          8.614273   0.000000
      6          8.696905   0.000000
 
 -0.3000000E+00  0.3500000E+00  0.1000000E+00  0.6000000E-02
      1          2.730246   1.000000
      2          5.272798   1.000000
      3          5.531171   1.000001
      4          7.252044   0.000000
      5          8.342446   0.000000
      6          8.815000   0.000000
 
 -0.2500000E+00  0.3500000E+00  0.1000000E+00  0.6000000E-02
      1          2.737260   1.000000
      2          5.150554   1.000000
      3          5.709504   0.698808
      4          7.051042  -0.000000
      5          8.210395   0.000000
      6          8.885517   0.000000
 
 -0.4000000E+00  0.4000000E+00  0.1000000E+00  0.3000000E-02
      1          2.942500   1.000000
      2          5.093991   1.000000
      3          5.763303   0.001914
      4          7.616054   0.000000
      5          9.038379   0.000000
      6          9.072529   0.000000
 
 -0.3500000E+00  0.4000000E+00  0.1000000E+00  0.6000000E-02
      1          3.044807   1.000000
      2          5.204510   1.000000
      3          5.482943   1.000000
      4          7.436639   0.000000
      5          8.709843   0.000000
      6          9.289482   0.000000
 
 -0.3000000E+00  0.4000000E+00  0.1000000E+00  0.6000000E-02
      1          3.166124   1.000000
      2          4.973659   1.000000
      3          5.606477   1.002665
      4          7.264776   0.000000
      5          8.484031   0.000000
      6          9.444108   0.000000
 
 -0.2500000E+00  0.4000000E+00  0.1000000E+00  0.3000000E-02
      1          3.224692   1.000000
      2          4.854813   1.000000
      3          5.691007   0.925588
      4          7.185451   0.000000
      5          8.407341   0.000000
      6          9.496985   0.000000
 
 -0.4500000E+00  0.4500000E+00  0.1000000E+00  0.3000000E-02
      1          2.997050   1.000000
      2          5.008651   1.000000
      3          6.002029  -0.000000
      4          7.639430   0.000000
      5          9.387214   0.000000
      6          9.463113   0.000000
 
 -0.4000000E+00  0.4500000E+00  0.1000000E+00  0.6000000E-02
      1          3.155709   1.000000
      2          5.157280   1.000000
      3          5.590015   1.000628
      4          7.513447   0.000000
      5          9.040253   0.000000
      6          9.864519   0.000000
 
 -0.3500000E+00  0.4500000E+00  0.1000000E+00  0.6000000E-02
      1          3.377961   1.000000
      2          4.980754   1.000000
      3          5.504361   1.000000
      4          7.427082   0.000000
      5          8.728667   0.000000
      6         10.162841   0.000000
 
 -0.3000000E+00  0.4500000E+00  0.1000000E+00  0.6000000E-02
      1          3.583751   1.000000
      2          4.685109   1.000000
      3          5.592137   1.000767
      4          7.388741   0.000000
      5          8.538542   0.000000
      6         10.314207   0.000000
 
  0.5000000E+00  0.5000000E+00  0.1000000E+00  0.1500000E-02
      1          3.003016   1.000000
      2          4.979516   1.000000
      3          6.104390  -0.000000
      4          7.632846   0.000000
      5          9.499933   0.000000
      6          9.674802   0.000000
 
 -0.4500000E+00  0.5000000E+00  0.1000000E+00  0.6000000E-02
      1          3.172236   1.000000
      2          5.120599   1.000000
      3          5.711853   0.662136
      4          7.519591   0.000000
      5          9.258290   0.000000
      6         10.315786   0.000000
 
 -0.4000000E+00  0.5000000E+00  0.1000000E+00  0.6000000E-02
      1          3.424446   1.000000
      2          5.101811   1.000000
      3          5.413522   1.000000
      4          7.492969   0.000000
      5          8.957986   0.000000
      6         10.870855   0.000000
 
 -0.3500000E+00  0.5000000E+00  0.1000000E+00  0.6000000E-02
      1          3.730882   1.000000
      2          4.738581   1.000000
      3          5.425248   1.000000
      4          7.553930   0.000000
      5          8.685584   0.000000
      6         11.218052   0.000000
 
 -0.3000000E+00  0.5000000E+00  0.1000000E+00  0.3000000E-02
      1          3.942063   1.000000
      2          4.490261   1.000000
      3          5.444997   1.000000
      4          7.606604   0.000000
      5          8.561349   0.000000
      6         11.332820   0.000000
 
 -0.4500000E+00 -0.4500000E+00  0.1000000E+00  0.3000000E-02
      1          3.424337   1.000000
      2          5.182912   1.000000
      3          5.359740   1.000000
      4          7.505158   0.000000
      5          9.054618   0.000000
      6         11.217597   0.000000
 
 -0.4000000E+00 -0.4500000E+00  0.1000000E+00  0.6000000E-02
      1          3.741479   1.000000
      2          4.947100   1.000000
      3          5.214215   1.000000
      4          7.629165   0.000000
      5          8.803063   0.000000
      6         11.980217   0.000000
 
 -0.3500000E+00 -0.4500000E+00  0.1000000E+00  0.6000000E-02
      1          4.097840   1.000000
      2          4.553576   1.000000
      3          5.199872   1.000000
      4          7.807385   0.000000
      5          8.574911   0.000000
      6         12.404876   0.000000
 
 -0.4000000E+00 -0.4000000E+00  0.1000000E+00  0.3000000E-02
      1          4.094153   1.000000
      2          4.758946   1.000000
      3          4.983179   1.000000
      4          7.886308   0.000000
      5          8.581510   0.000000
      6         13.063910   0.000000
 
 -0.3500000E+00 -0.4000000E+00  0.1000000E+00  0.3000000E-02
      1          4.452734   1.000000
      2          4.459880   1.000000
      3          4.892676   1.000000
      4          8.089272   0.000000
      5          8.400355   0.000000
      6         13.649767   0.000000
 
  0.1500000E+00  0.1500000E+00  0.1500000E+00  0.1000000E-02
      1          3.289972   1.000000
      2          4.775182   1.000000
      3          4.775182   1.000000
      4          8.089069   0.000000
      5          8.089070   0.000000
      6          9.890071   0.000000
 
  0.2000000E+00  0.1500000E+00  0.1500000E+00  0.3000000E-02
      1          3.796850   1.000000
      2          4.650447   1.000000
      3          4.733799   1.000000
      4          8.117269   0.000000
      5          8.199726   0.000000
      6         10.658597   0.000000
 
  0.2500000E+00  0.1500000E+00  0.1500000E+00  0.3000000E-02
      1          3.962731   1.000000
      2          4.565589   1.000000
      3          5.007008   1.000000
      4          8.157401   0.000000
      5          8.272425   0.000000
      6         11.457106   0.000000
 
  0.3000000E+00  0.1500000E+00  0.1500000E+00  0.3000000E-02
      1          3.941513   1.000000
      2          4.516742   1.000000
      3          5.352301   1.000000
      4          8.190597   0.000000
      5          8.313148   0.000000
      6         12.225509   0.000000
 
  0.3500000E+00  0.1500000E+00  0.1500000E+00  0.1500000E-02
      1          3.921983   1.000000
      2          4.500843   1.000000
      3          5.492729   1.000000
      4          8.203269   0.000000
      5          8.326211   0.000000
      6         12.634393   0.000000
 
 -0.1500000E+00  0.1500000E+00  0.1500000E+00  0.7500000E-03
      1          0.933704   1.000000
      2          6.109483  -0.000000
      3          6.109484  -0.000000
      4          6.685038  -0.000000
      5          6.784040  -0.000000
      6          8.385604   0.000000
 
  0.2000000E+00  0.2000000E+00  0.1500000E+00  0.3000000E-02
      1          4.197789   1.000000
      2          4.584184   1.000000
      3          4.696690   1.000000
      4          8.184323   0.000000
      5          8.257977   0.000000
      6         11.504835   0.000000
 
  0.2500000E+00  0.2000000E+00  0.1500000E+00  0.6000000E-02
      1          4.239006   1.000000
      2          4.546176   1.000000
      3          4.960291   1.000000
      4          8.225911   0.000000
      5          8.307252   0.000000
      6         12.402014   0.000000
 
  0.3000000E+00  0.2000000E+00  0.1500000E+00  0.6000000E-02
      1          4.201067   1.000000
      2          4.525403   1.000000
      3          5.178439   1.000000
      4          8.251526   0.000000
      5          8.329768   0.000000
      6         13.224907   0.000000
 
 -0.2000000E+00  0.2000000E+00  0.1500000E+00  0.3000000E-02
      1          1.468514   1.000000
      2          6.018986  -0.000000
      3          6.051780  -0.000000
      4          6.584566  -0.000000
      5          6.998426  -0.000000
      6          8.499567   0.000000
 
  0.2500000E+00  0.2500000E+00  0.1500000E+00  0.3000000E-02
      1          4.307552   1.000000
      2          4.639393   1.000000
      3          4.952823   1.000000
      4          8.272553   0.000000
      5          8.326148   0.000000
      6         13.431892   0.000000
 
  0.3000000E+00  0.2500000E+00  0.1500000E+00  0.3000000E-02
      1          4.307084   1.000000
      2          4.688735   1.000000
      3          4.960672   1.000000
      4          8.294861   0.000000
      5          8.326296   0.000000
      6         14.220258   0.000000
 
 -0.2500000E+00  0.2500000E+00  0.1500000E+00  0.3000000E-02
      1          2.061503   1.000000
      2          5.680807   0.994175
      3          5.898745  -0.000003
      4          6.723745  -0.000000
      5          7.473467   0.000000
      6          8.618842   0.000000
 
 -0.2000000E+00  0.2500000E+00  0.1500000E+00  0.3000000E-02
      1          2.011333   1.000000
      2          5.761939   0.008425
      3          6.077187  -0.000000
      4          6.528928  -0.000000
      5          7.320909   0.000000
      6          8.637223   0.000000
 
 -0.3000000E+00  0.3000000E+00  0.1500000E+00  0.3000000E-02
      1          2.622663   1.000000
      2          5.363654   1.000000
      3          5.728712   0.381567
      4          6.977881  -0.000000
      5          8.013111   0.000000
      6          8.792114   0.000000
 
 -0.2500000E+00  0.3000000E+00  0.1500000E+00  0.6000000E-02
      1          2.568734   1.000000
      2          5.375700   1.000000
      3          5.987591  -0.000000
      4          6.727232  -0.000000
      5          7.790994   0.000000
      6          8.819526   0.000000
 
 -0.3500000E+00  0.3500000E+00  0.1500000E+00  0.3000000E-02
      1          3.036178   1.000000
      2          5.203161   1.000000
      3          5.573593   1.000116
      4          7.211917   0.000000
      5          8.551475   0.000000
      6          9.115224   0.000000
 
 -0.3000000E+00  0.3500000E+00  0.1500000E+00  0.6000000E-02
      1          3.047872   1.000000
      2          5.066349   1.000000
      3          5.852841  -0.000653
      4          6.993528  -0.000000
      5          8.278606   0.000000
      6          9.152987   0.000000
 
 -0.2500000E+00  0.3500000E+00  0.1500000E+00  0.3000000E-02
      1          3.055450   1.000000
      2          5.013190   1.000000
      3          5.999100  -0.000000
      4          6.876711  -0.000000
      5          8.169358   0.000000
      6          9.176170   0.000000
 
 -0.4000000E+00  0.4000000E+00  0.1500000E+00  0.3000000E-02
      1          3.231528   1.000000
      2          5.234925   1.000000
      3          5.451466   1.000000
      4          7.332148   0.000000
      5          9.019454   0.000000
      6          9.656396   0.000000
 
 -0.3500000E+00  0.4000000E+00  0.1500000E+00  0.6000000E-02
      1          3.348196   1.000000
      2          4.930640   1.000000
      3          5.718936   0.545638
      4          7.193957   0.000000
      5          8.711834   0.000000
      6          9.732998   0.000000
 
 -0.3000000E+00  0.4000000E+00  0.1500000E+00  0.6000000E-02
      1          3.446617   1.000000
      2          4.731767   1.000000
      3          5.902175  -0.000002
      4          7.120402   0.000000
      5          8.476522   0.000000
      6          9.805496   0.000000
 
 -0.4500000E+00  0.4500000E+00  0.1500000E+00  0.3000000E-02
      1          3.274622   1.000000
      2          5.354149   1.000000
      3          5.373812   1.000000
      4          7.351160   0.000000
      5          9.342986   0.000000
      6         10.283960   0.000000
 
 -0.4000000E+00  0.4500000E+00  0.1500000E+00  0.6000000E-02
      1          3.447428   1.000000
      2          4.975143   1.000000
      3          5.604341   1.002242
      4          7.275216   0.000000
      5          9.077075   0.000000
      6         10.482164   0.000000
 
 -0.3500000E+00  0.4500000E+00  0.1500000E+00  0.6000000E-02
      1          3.657213   1.000000
      2          4.634365   1.000000
      3          5.751921   0.077452
      4          7.317391   0.000000
      5          8.755787   0.000000
      6         10.650844   0.000000
 
 -0.3000000E+00  0.4500000E+00  0.1500000E+00  0.3000000E-02
      1          3.782671   1.000000
      2          4.464308   1.000000
      3          5.798042  -0.026383
      4          7.372296   0.000000
      5          8.603822   0.000000
      6         10.710270   0.000000
 
  0.5000000E+00  0.5000000E+00  0.1500000E+00  0.1500000E-02
      1          3.275076   1.000000
      2          5.347210   1.000000
      3          5.414037   1.000000
      4          7.344592   0.000000
      5          9.459306   0.000000
      6         10.598934   0.000000
 
 -0.4500000E+00  0.5000000E+00  0.1500000E+00  0.6000000E-02
      1          3.451388   1.000000
      2          5.068724   1.000000
      3          5.526835   1.000000
      4          7.287072   0.000000
      5          9.296330   0.000000
      6         11.120380   0.000000
 
 -0.4000000E+00  0.5000000E+00  0.1500000E+00  0.6000000E-02
      1          3.689726   1.000000
      2          4.715002   1.000000
      3          5.601197   1.001724
      4          7.411117   0.000000
      5          8.995385   0.000000
      6         11.547235   0.000000
 
 -0.3500000E+00  0.5000000E+00  0.1500000E+00  0.6000000E-02
      1          3.958281   1.000000
      2          4.389451   1.000000
      3          5.605875   1.002539
      4          7.612995   0.000000
      5          8.720843   0.000000
      6         11.760115   0.000000
 
 -0.4500000E+00 -0.4500000E+00  0.1500000E+00  0.3000000E-02
      1          3.679507   1.000000
      2          4.783192   1.000000
      3          5.528488   1.000000
      4          7.434640   0.000000
      5          9.092616   0.000000
      6         12.031180   0.000000
 
 -0.4000000E+00 -0.4500000E+00  0.1500000E+00  0.6000000E-02
      1          3.945408   1.000000
      2          4.507011   1.000000
      3          5.436938   1.000000
      4          7.739408   0.000000
      5          8.811570   0.000000
      6         12.732916   0.000000
 
 -0.3500000E+00 -0.4500000E+00  0.1500000E+00  0.3000000E-02
      1          4.221636   1.000000
      2          4.233974   1.000000
      3          5.386911   1.000000
      4          7.946528   0.000000
      5          8.624262   0.000000
      6         12.980764   0.000000
 
 -0.4000000E+00 -0.4000000E+00  0.1500000E+00  0.3000000E-02
      1          4.176270   1.000000
      2          4.351724   1.000000
      3          5.268719   1.000000
      4          8.124559   0.000000
      5          8.539980   0.000000
      6         13.892609   0.000000
 
  0.2000000E+00  0.2000000E+00  0.2000000E+00  0.1000000E-02
      1          4.542459   1.000000
      2          4.542459   1.000000
      3          4.631941   1.000000
      4          8.276300   0.000000
      5          8.276300   0.000000
      6         12.430451   0.000000
 
  0.2500000E+00  0.2000000E+00  0.2000000E+00  0.3000000E-02
      1          4.479474   1.000000
      2          4.522935   1.000000
      3          4.892890   1.000000
      4          8.296693   0.000000
      5          8.325409   0.000000
      6         13.420749   0.000000
 
  0.3000000E+00  0.2000000E+00  0.2000000E+00  0.1500000E-02
      1          4.452054   1.000000
      2          4.517446   1.000000
      3          4.992113   1.000000
      4          8.305297   0.000000
      5          8.340595   0.000000
      6         14.121848   0.000000
 
 -0.2000000E+00  0.2000000E+00  0.2000000E+00  0.7500000E-03
      1          1.955176   1.000000
      2          6.030186  -0.000000
      3          6.242011  -0.000000
      4          6.242012  -0.000000
      5          7.092152   0.000000
      6          8.653607   0.000000
 
  0.2500000E+00  0.2500000E+00  0.2000000E+00  0.3000000E-02
      1          4.495929   1.000000
      2          4.661017   1.000000
      3          4.824208   1.000000
      4          8.328906   0.000000
      5          8.339288   0.000000
      6         14.522940   0.000000
 
 -0.2500000E+00  0.2500000E+00  0.2000000E+00  0.3000000E-02
      1          2.482094   1.000000
      2          5.561821   1.000030
      3          6.246657  -0.000000
      4          6.468359  -0.000000
      5          7.441322   0.000000
      6          8.826907   0.000000
 
 -0.3000000E+00  0.3000000E+00  0.2000000E+00  0.3000000E-02
      1          2.972222   1.000000
      2          5.137535   1.000000
      3          6.147072  -0.000000
      4          6.760540  -0.000000
      5          7.944149   0.000000
      6          9.090095   0.000000
 
 -0.2500000E+00  0.3000000E+00  0.2000000E+00  0.3000000E-02
      1          2.946102   1.000000
      2          5.166846   1.000000
      3          6.332831  -0.000000
      4          6.625215  -0.000000
      5          7.779791   0.000000
      6          9.085127   0.000000
 
 -0.3500000E+00  0.3500000E+00  0.2000000E+00  0.3000000E-02
      1          3.338411   1.000000
      2          4.843225   1.000000
      3          6.029697  -0.000000
      4          7.005010  -0.000000
      5          8.478264   0.000000
      6          9.555499   0.000000
 
 -0.3000000E+00  0.3500000E+00  0.2000000E+00  0.6000000E-02
      1          3.336592   1.000000
      2          4.791820   1.000000
      3          6.276273  -0.000000
      4          6.894648  -0.000000
      5          8.225451   0.000000
      6          9.524440   0.000000
 
 -0.4000000E+00  0.4000000E+00  0.2000000E+00  0.3000000E-02
      1          3.512258   1.000000
      2          4.734633   1.000000
      3          5.930077  -0.000000
      4          7.126834   0.000000
      5          8.954158   0.000000
      6         10.275423   0.000000
 
 -0.3500000E+00  0.4000000E+00  0.2000000E+00  0.6000000E-02
      1          3.589577   1.000000
      2          4.542789   1.000000
      3          6.171377  -0.000000
      4          7.114756   0.000000
      5          8.666542   0.000000
      6         10.231967   0.000000
 
 -0.3000000E+00  0.4000000E+00  0.2000000E+00  0.3000000E-02
      1          3.627440   1.000000
      2          4.466289   1.000000
      3          6.245928  -0.000000
      4          7.165030   0.000000
      5          8.504519   0.000000
      6         10.232060   0.000000
 
 -0.4500000E+00  0.4500000E+00  0.2000000E+00  0.3000000E-02
      1          3.535133   1.000000
      2          4.760830   1.000000
      3          5.864864  -0.000195
      4          7.152793   0.000000
      5          9.287661   0.000000
      6         11.100750   0.000000
 
 -0.4000000E+00  0.4500000E+00  0.2000000E+00  0.6000000E-02
      1          3.664578   1.000000
      2          4.475466   1.000000
      3          6.073065  -0.000000
      4          7.221196   0.000000
      5          9.043010   0.000000
      6         11.146981   0.000000
 
 -0.3500000E+00  0.4500000E+00  0.2000000E+00  0.6000000E-02
      1          3.801521   1.000000
      2          4.260718   1.000000
      3          6.123115  -0.000000
      4          7.431302   0.000000
      5          8.762176   0.000000
      6         11.187928   0.000000
 
  0.5000000E+00  0.5000000E+00  0.2000000E+00  0.1500000E-02
      1          3.526057   1.000000
      2          4.788977   1.000000
      3          5.842291  -0.001692
      4          7.151037   0.000000
      5          9.408426   0.000000
      6         11.541394   0.000000
 
 -0.4500000E+00  0.5000000E+00  0.2000000E+00  0.6000000E-02
      1          3.647261   1.000000
      2          4.502475   1.000000
      3          6.012941  -0.000000
      4          7.252676   0.000000
      5          9.266751   0.000000
      6         11.983136   0.000000
 
 -0.4000000E+00  0.5000000E+00  0.2000000E+00  0.6000000E-02
      1          3.807677   1.000000
      2          4.245132   1.000000
      3          6.005902  -0.000000
      4          7.583288   0.000000
      5          8.981567   0.000000
      6         12.254491   0.000000
 
 -0.3500000E+00  0.5000000E+00  0.2000000E+00  0.3000000E-02
      1          3.959983   1.000000
      2          4.061978   1.000000
      3          5.981250  -0.000000
      4          7.803496   0.000000
      5          8.791632   0.000000
      6         12.334506   0.000000
 
 -0.4500000E+00 -0.4500000E+00  0.2000000E+00  0.3000000E-02
      1          3.780691   1.000000
      2          4.273034   1.000000
      3          5.957855  -0.000000
      4          7.627943   0.000000
      5          9.071795   0.000000
      6         12.908424   0.000000
 
 -0.4000000E+00 -0.4500000E+00  0.2000000E+00  0.6000000E-02
      1          3.925810   1.000000
      2          4.087214   1.000000
      3          5.874421  -0.000068
      4          8.047452   0.000000
      5          8.789382   0.000000
      6         13.503382   0.000000
 
 -0.4000000E+00 -0.4000000E+00  0.2000000E+00  0.1000000E-02
      1          4.002483   1.000000
      2          4.002484   1.000000
      3          5.814951  -0.012017
      4          8.471203   0.000000
      5          8.471203   0.000000
      6         14.764712   0.000000
 
  0.2500000E+00  0.2500000E+00  0.2500000E+00  0.2500000E-03
      1          4.670051   1.000000
      2          4.670052   1.000000
      3          4.670053   1.000000
      4          8.346129   0.000000
      5          8.346129   0.000000
      6         15.673381   0.000000
 
 -0.2500000E+00  0.2500000E+00  0.2500000E+00  0.7500000E-03
      1          2.908339   1.000000
      2          5.237247   1.000000
      3          6.520874  -0.000000
      4          6.520874  -0.000000
      5          7.557336   0.000000
      6          9.071085   0.000000
 
 -0.3000000E+00  0.3000000E+00  0.2500000E+00  0.3000000E-02
      1          3.275506   1.000000
      2          4.837183   1.000000
      3          6.601620  -0.000000
      4          6.760742  -0.000000
      5          7.918980   0.000000
      6          9.431559   0.000000
 
 -0.3500000E+00  0.3500000E+00  0.2500000E+00  0.3000000E-02
      1          3.538229   1.000000
      2          4.493700   1.000000
      3          6.565455  -0.000000
      4          7.002316  -0.000000
      5          8.411717   0.000000
      6         10.020216   0.000000
 
 -0.3000000E+00  0.3500000E+00  0.2500000E+00  0.3000000E-02
      1          3.518671   1.000000
      2          4.479827   1.000000
      3          6.711553  -0.000000
      4          7.020237  -0.000000
      5          8.238605   0.000000
      6          9.964882   0.000000
 
 -0.4000000E+00  0.4000000E+00  0.2500000E+00  0.3000000E-02
      1          3.660986   1.000000
      2          4.289073   1.000000
      3          6.505514  -0.000000
      4          7.144258   0.000000
      5          8.885055   0.000000
      6         10.880545   0.000000
 
 -0.3500000E+00  0.4000000E+00  0.2500000E+00  0.6000000E-02
      1          3.666024   1.000000
      2          4.186748   1.000000
      3          6.679781  -0.000000
      4          7.291167   0.000000
      5          8.632791   0.000000
      6         10.767908   0.000000
 
 -0.4500000E+00  0.4500000E+00  0.2500000E+00  0.3000000E-02
      1          3.654030   1.000000
      2          4.240292   1.000000
      3          6.459924  -0.000000
      4          7.196273   0.000000
      5          9.226951   0.000000
      6         11.882527   0.000000
 
 -0.4000000E+00  0.4500000E+00  0.2500000E+00  0.6000000E-02
      1          3.697430   1.000000
      2          4.035753   1.000000
      3          6.620721  -0.000000
      4          7.454084   0.000000
      5          8.996027   0.000000
      6         11.802924   0.000000
 
 -0.3500000E+00  0.4500000E+00  0.2500000E+00  0.3000000E-02
      1          3.738466   1.000000
      2          3.940149   1.000000
      3          6.625532  -0.000000
      4          7.681875   0.000000
      5          8.818387   0.000000
      6         11.775471   0.000000
 
  0.5000000E+00  0.5000000E+00  0.2500000E+00  0.1500000E-02
      1          3.631898   1.000000
      2          4.243260   1.000000
      3          6.443396  -0.000000
      4          7.206382   0.000000
      5          9.352396   0.000000
      6         12.477032   0.000000
 
 -0.4500000E+00  0.5000000E+00  0.2500000E+00  0.6000000E-02
      1          3.654655   1.000000
      2          4.013930   1.000000
      3          6.581417  -0.000000
      4          7.519740   0.000000
      5          9.218888   0.000000
      6         12.828953   0.000000
 
 -0.4000000E+00  0.5000000E+00  0.2500000E+00  0.6000000E-02
      1          3.720028   1.000000
      2          3.840861   1.000000
      3          6.557325  -0.000000
      4          7.953474   0.000000
      5          8.964910   0.000000
      6         12.948048   0.000000
 
 -0.4500000E+00 -0.4500000E+00  0.2500000E+00  0.3000000E-02
      1          3.677501   1.000000
      2          3.842594   1.000000
      3          6.529645  -0.000000
      4          8.043066   0.000000
      5          9.027805   0.000000
      6         13.789695   0.000000
 
 -0.4000000E+00 -0.4500000E+00  0.2500000E+00  0.3000000E-02
      1          3.723005   1.000000
      2          3.746166   1.000000
      3          6.499680  -0.000000
      4          8.395530   0.000000
      5          8.802843   0.000000
      6         14.214319   0.000000
 
 -0.3000000E+00  0.3000000E+00  0.3000000E+00  0.7500000E-03
      1          3.479950   1.000000
      2          4.487035   1.000000
      3          6.967906  -0.000000
      4          6.967907  -0.000000
      5          8.038036   0.000000
      6          9.888042   0.000000
 
 -0.3500000E+00  0.3500000E+00  0.3000000E+00  0.3000000E-02
      1          3.588671   1.000000
      2          4.155197   1.000000
      3          7.121659   0.000000
      4          7.233732   0.000000
      5          8.385724   0.000000
      6         10.560628   0.000000
 
 -0.4000000E+00  0.4000000E+00  0.3000000E+00  0.3000000E-02
      1          3.621315   1.000000
      2          3.908948   1.000000
      3          7.140516   0.000000
      4          7.429001   0.000000
      5          8.823479   0.000000
      6         11.498127   0.000000
 
 -0.3500000E+00  0.4000000E+00  0.3000000E+00  0.3000000E-02
      1          3.592900   1.000000
      2          3.868117   1.000000
      3          7.239813   0.000000
      4          7.600350   0.000000
      5          8.659493   0.000000
      6         11.394944   0.000000
 
 -0.4500000E+00  0.4500000E+00  0.3000000E+00  0.3000000E-02
      1          3.580766   1.000000
      2          3.802911   1.000000
      3          7.127014   0.000000
      4          7.528528   0.000000
      5          9.167128   0.000000
      6         12.616673   0.000000
 
 -0.4000000E+00  0.4500000E+00  0.3000000E+00  0.6000000E-02
      1          3.560273   1.000000
      2          3.674120   1.000000
      3          7.244020   0.000000
      4          7.878137   0.000000
      5          8.963828   0.000000
      6         12.466724   0.000000
 
  0.5000000E+00  0.5000000E+00  0.3000000E+00  0.1500000E-02
      1          3.546369   1.000000
      2          3.785759   1.000000
      3          7.119521   0.000000
      4          7.557062   0.000000
      5          9.296774   0.000000
      6         13.379687   0.000000
 
 -0.4500000E+00  0.5000000E+00  0.3000000E+00  0.6000000E-02
      1          3.497484   1.000000
      2          3.613819   1.000000
      3          7.233187   0.000000
      4          8.003834   0.000000
      5          9.169677   0.000000
      6         13.618407   0.000000
 
 -0.4000000E+00  0.5000000E+00  0.3000000E+00  0.3000000E-02
      1          3.515099   1.000000
      2          3.519904   1.000000
      3          7.227499   0.000000
      4          8.329238   0.000000
      5          9.000965   0.000000
      6         13.631635   0.000000
 
 -0.4500000E+00 -0.4500000E+00  0.3000000E+00  0.3000000E-02
      1          3.465000   1.000000
      2          3.500362   1.000000
      3          7.216783   0.000000
      4          8.530591   0.000000
      5          8.979136   0.000000
      6         14.626383   0.000000
 
 -0.3500000E+00  0.3500000E+00  0.3500000E+00  0.7500000E-03
      1          3.542386   1.000000
      2          3.844366   1.000000
      3          7.571665   0.000000
      4          7.571666   0.000000
      5          8.485766   0.000000
      6         11.262592   0.000000
 
 -0.4000000E+00  0.4000000E+00  0.3500000E+00  0.3000000E-02
      1          3.468137   1.000000
      2          3.596361   1.000000
      3          7.772565   0.000000
      4          7.860995   0.000000
      5          8.790228   0.000000
      6         12.190635   0.000000
 
 -0.4500000E+00  0.4500000E+00  0.3500000E+00  0.3000000E-02
      1          3.392057   1.000000
      2          3.455826   1.000000
      3          7.818052   0.000000
      4          8.033815   0.000000
      5          9.114734   0.000000
      6         13.318167   0.000000
 
 -0.4000000E+00  0.4500000E+00  0.3500000E+00  0.3000000E-02
      1          3.360541   1.000000
      2          3.396854   1.000000
      3          7.899465   0.000000
      4          8.284430   0.000000
      5          8.982987   0.000000
      6         13.191784   0.000000
 
  0.5000000E+00  0.5000000E+00  0.3500000E+00  0.1500000E-02
      1          3.349104   1.000000
      2          3.423100   1.000000
      3          7.824099   0.000000
      4          8.089081   0.000000
      5          9.246968   0.000000
      6         14.214382   0.000000
 
 -0.4500000E+00  0.5000000E+00  0.3500000E+00  0.6000000E-02
      1          3.284084   1.000000
      2          3.308594   1.000000
      3          7.923324   0.000000
      4          8.526983   0.000000
      5          9.131409   0.000000
      6         14.328815   0.000000
 
 -0.4500000E+00 -0.4500000E+00  0.3500000E+00  0.1000000E-02
      1          3.252086   1.000000
      2          3.252086   1.000000
      3          7.929582   0.000000
      4          8.937053   0.000000
      5          8.937054   0.000000
      6         15.357052   0.000000
 
 -0.4000000E+00  0.4000000E+00  0.4000000E+00  0.7500000E-03
      1          3.306620   1.000000
      2          3.355652   1.000000
      3          8.268630   0.000000
      4          8.268631   0.000000
      5          8.851054   0.000000
      6         13.027206   0.000000
 
 -0.4500000E+00  0.4500000E+00  0.4000000E+00  0.3000000E-02
      1          3.192665   1.000000
      2          3.204155   1.000000
      3          8.456173   0.000000
      4          8.538708   0.000000
      5          9.078015   0.000000
      6         14.026678   0.000000
 
  0.5000000E+00  0.5000000E+00  0.4000000E+00  0.1500000E-02
      1          3.144356   1.000000
      2          3.160375   1.000000
      3          8.483554   0.000000
      4          8.630701   0.000000
      5          9.207671   0.000000
      6         14.926955   0.000000
 
 -0.4500000E+00  0.5000000E+00  0.4000000E+00  0.3000000E-02
      1          3.101621   1.000000
      2          3.103750   1.000000
      3          8.554222   0.000000
      4          8.908927   0.000000
      5          9.131204   0.000000
      6         14.954825   0.000000
 
 -0.4500000E+00  0.4500000E+00  0.4500000E+00  0.7500000E-03
      1          3.051213   1.000000
      2          3.051237   1.000000
      3          8.899062   0.000000
      4          8.899063   0.000000
      5          9.090478   0.000000
      6         14.767455   0.000000
 
  0.5000000E+00  0.5000000E+00  0.4500000E+00  0.1500000E-02
      1          2.999513   1.000000
      2          3.001235   1.000000
      3          8.982016   0.000000
      4          9.028263   0.000000
      5          9.182523   0.000000
      6         15.431290   0.000000
 
  0.5000000E+00  0.5000000E+00  0.5000000E+00  0.1250000E-03
      1          2.947934   1.000000
      2          2.947934   1.000000
      3          9.173879   0.000000
      4          9.173879   0.000000
      5          9.173881   0.000000
      6         15.618505   0.000000
