 vasp.6.4.2 20Jul23 (build Mar  2 2025 11:04:54) complex                         
 executed on              LinuxNV date 2026.04.07  10:26:25
 running    1 mpi-ranks, with    2 threads/rank, on    1 nodes
 distrk:  each k-point on    1 cores,    1 groups
 distr:  one band on NCORE=   1 cores,    1 groups
 OpenACC runtime initialized ...    1 GPUs detected


--------------------------------------------------------------------------------------------------------


 INCAR:
   EDIFF = 1e-06
   ENCUT = 350
   IBRION = -1
   ISIF = 2
   ISMEAR = 1
   KGAMMA = True
   KSPACING = 0.15
   LCHARG = False
   LWAVE = False
   NSW = 0
   PREC = Accurate
   SIGMA = 0.05
   SYSTEM = V EOS scale_1.020

 POTCAR:    PAW_PBE V 08Apr2002                   
 POTCAR:    PAW_PBE V 08Apr2002                   
   SHA256 =  ef546ef2c242197bded3fc1a147275a02051e3e940c74ac2c3352ea17412f79c V/POTCAR              
   COPYR  = (c) Copyright 08Apr2002 Georg Kresse                                                    
   COPYR  = This file is part of the software VASP. Any use, copying, and all other rights are regul
   COPYR  = If you do not have a valid VASP license, you may not use, copy or distribute this file. 
   VRHFIN =V: p6 d4 s1                                                                              
   LEXCH  = PE                                                                                      
   EATOM  =   170.8679 eV,   12.5584 Ry                                                             
                                                                                                    
   TITEL  = PAW_PBE V 08Apr2002                                                                     
   LULTRA =        F    use ultrasoft PP ?                                                          
   IUNSCR =        1    unscreen: 0-lin 1-nonlin 2-no                                               
   RPACOR =    2.000    partial core radius                                                         
   POMASS =   50.941; ZVAL   =    5.000    mass and valenz                                          
   RCORE  =    2.700    outmost cutoff radius                                                       
   RWIGS  =    2.500; RWIGS  =    1.323    wigner-seitz radius (au A)                               
   ENMAX  =  192.543; ENMIN  =  144.408 eV                                                          
   RCLOC  =    1.779    cutoff for local pot                                                        
   LCOR   =        T    correct aug charges                                                         
   LPAW   =        T    paw PP                                                                      
   EAUG   =  358.662                                                                                
   DEXC   =    0.000                                                                                
   RMAX   =    2.768    core radius for proj-oper                                                   
   RAUG   =    1.300    factor for augmentation sphere                                              
   RDEP   =    2.762    radius for radial grids                                                     
   RDEPT  =    2.240    core radius for aug-charge                                                  
                                                                                                    
   Atomic configuration                                                                             
    9 entries                                                                                       
     n  l   j            E        occ.                                                              
     1  0  0.50     -5360.7193   2.0000                                                             
     2  0  0.50      -598.4546   2.0000                                                             
     2  1  1.50      -499.0155   6.0000                                                             
     3  0  0.50       -66.5711   2.0000                                                             
     3  1  1.50       -40.5282   6.0000                                                             
     3  2  2.50        -2.4291   4.0000                                                             
     4  0  0.50        -3.8743   1.0000                                                             
     4  1  0.50        -2.7212   0.0000                                                             
     4  3  2.50        -1.3606   0.0000                                                             
   Description                                                                                      
     l       E           TYP  RCUT    TYP  RCUT                                                     
     2     -2.4290901     23  2.700                                                                 
     2     -3.7896727     23  2.700                                                                 
     0     -3.8742752     23  2.700                                                                 
     0     27.2116520     23  2.700                                                                 
     1     -2.7211652     23  2.700                                                                 
     1     27.2116520     23  2.700                                                                 
  local pseudopotential read in
  partial core-charges read in
  partial kinetic energy density read in
  atomic valenz-charges read in
  non local Contribution for L=            2  read in
    real space projection operators read in
  non local Contribution for L=            2  read in
    real space projection operators read in
  non local Contribution for L=            0  read in
    real space projection operators read in
  non local Contribution for L=            0  read in
    real space projection operators read in
  non local Contribution for L=            1  read in
    real space projection operators read in
  non local Contribution for L=            1  read in
    real space projection operators read in
    PAW grid and wavefunctions read in
 
   number of l-projection  operators is LMAX  =            6
   number of lm-projection operators is LMMAX =           18
 
  PAW_PBE V 08Apr2002                   :
 energy of atom  1       EATOM= -170.8679
 kinetic energy error for atom=    0.0011 (will be added to EATOM!!)
 
 
 POSCAR: V1
  positions in direct lattice
  No initial velocities read in
 exchange correlation table for  LEXCH =        8
   RHO(1)=    0.500       N(1)  =     2000
   RHO(2)=  100.500       N(2)  =     4000
 


--------------------------------------------------------------------------------------------------------


 ion  position               nearest neighbor table
   1  0.000  0.000  0.000-
 
  LATTYP: Found a body centered cubic cell.
 ALAT       =     3.0420473590
  
  Lattice vectors:
  
 A1 = (   2.4838211352,   0.0000000000,  -0.8781637776)
 A2 = (  -1.2419105676,   2.1510520002,  -0.8781637776)
 A3 = (  -0.0000000000,  -0.0000000000,   2.6344902924)


Analysis of symmetry for initial positions (statically):
=====================================================================
 Subroutine PRICEL returns:
 Original cell was already a primitive cell.
 

 Routine SETGRP: Setting up the symmetry group for a 
 body centered cubic supercell.


 Subroutine GETGRP returns: Found 48 space group operations
 (whereof 48 operations were pure point group operations)
 out of a pool of 48 trial point group operations.


The static configuration has the point symmetry O_h .


Analysis of symmetry for dynamics (positions and initial velocities):
=====================================================================
 Subroutine PRICEL returns:
 Original cell was already a primitive cell.
 

 Routine SETGRP: Setting up the symmetry group for a 
 body centered cubic supercell.


 Subroutine GETGRP returns: Found 48 space group operations
 (whereof 48 operations were pure point group operations)
 out of a pool of 48 trial point group operations.


The dynamic configuration has the point symmetry O_h .


 Subroutine INISYM returns: Found 48 space group operations
 (whereof 48 operations are pure point group operations),
 and found     1 'primitive' translations


----------------------------------------------------------------------------------------

                                     Primitive cell                                     

  volume of cell :      14.0756

  direct lattice vectors                    reciprocal lattice vectors
     2.483821135  0.000000000 -0.878163778     0.402605480  0.232444404  0.000000000
    -1.241910568  2.151052000 -0.878163778     0.000000000  0.464888808  0.000000000
    -0.000000000 -0.000000000  2.634490292     0.134201880  0.232444496  0.379580066

  length of vectors
     2.634490283  2.634490119  2.634490292     0.464888775  0.464888808  0.464888820

  position of ions in fractional coordinates (direct lattice)
     0.000000000  0.000000000  0.000000000

  ion indices of the primitive-cell ions
   primitive index   ion index
                 1           1

----------------------------------------------------------------------------------------

 
 -----------------------------------------------------------------------------
|                                                                             |
|           W    W    AA    RRRRR   N    N  II  N    N   GGGG   !!!           |
|           W    W   A  A   R    R  NN   N  II  NN   N  G    G  !!!           |
|           W    W  A    A  R    R  N N  N  II  N N  N  G       !!!           |
|           W WW W  AAAAAA  RRRRR   N  N N  II  N  N N  G  GGG   !            |
|           WW  WW  A    A  R   R   N   NN  II  N   NN  G    G                |
|           W    W  A    A  R    R  N    N  II  N    N   GGGG   !!!           |
|                                                                             |
|     The requested file  could not be found or opened for reading            |
|     k-point information. Automatic k-point generation is used as a          |
|     fallback, which may lead to unwanted results.                           |
|                                                                             |
 -----------------------------------------------------------------------------

 

Automatic generation of k-mesh.
 Grid dimensions derived from KSPACING:
 generate k-points for:   20   20   20

 Generating k-lattice:

  Cartesian coordinates                     Fractional coordinates (reciprocal lattice)
     0.020130274  0.011622220  0.000000000     0.050000000 -0.000000000  0.000000000
     0.000000000  0.023244440  0.000000000     0.000000000  0.050000000  0.000000000
     0.006710094  0.011622225  0.018979003     0.000000000  0.000000000  0.050000000

  Length of vectors
     0.023244439  0.023244440  0.023244441

  Shift w.r.t. Gamma in fractional coordinates (k-lattice)
     0.000000000  0.000000000  0.000000000

 
 Subroutine IBZKPT returns following result:
 ===========================================
 
 Found    256 irreducible k-points:
 
 Following reciprocal coordinates:
            Coordinates               Weight
  0.000000  0.000000  0.000000      1.000000
  0.050000  0.000000  0.000000     12.000000
  0.100000  0.000000  0.000000     12.000000
  0.150000  0.000000  0.000000     12.000000
  0.200000  0.000000  0.000000     12.000000
  0.250000  0.000000  0.000000     12.000000
  0.300000  0.000000  0.000000     12.000000
  0.350000  0.000000  0.000000     12.000000
  0.400000  0.000000  0.000000     12.000000
  0.450000  0.000000  0.000000     12.000000
  0.500000  0.000000  0.000000      6.000000
  0.050000  0.050000  0.000000     24.000000
  0.100000  0.050000  0.000000     48.000000
  0.150000  0.050000  0.000000     48.000000
  0.200000  0.050000  0.000000     48.000000
  0.250000  0.050000  0.000000     48.000000
  0.300000  0.050000  0.000000     48.000000
  0.350000  0.050000  0.000000     48.000000
  0.400000  0.050000  0.000000     48.000000
  0.450000  0.050000  0.000000     48.000000
  0.100000  0.100000  0.000000     24.000000
  0.150000  0.100000  0.000000     48.000000
  0.200000  0.100000  0.000000     48.000000
  0.250000  0.100000  0.000000     48.000000
  0.300000  0.100000  0.000000     48.000000
  0.350000  0.100000  0.000000     48.000000
  0.400000  0.100000  0.000000     48.000000
  0.450000  0.100000  0.000000     24.000000
  0.150000  0.150000  0.000000     24.000000
  0.200000  0.150000  0.000000     48.000000
  0.250000  0.150000  0.000000     48.000000
  0.300000  0.150000  0.000000     48.000000
  0.350000  0.150000  0.000000     48.000000
  0.400000  0.150000  0.000000     48.000000
  0.200000  0.200000  0.000000     24.000000
  0.250000  0.200000  0.000000     48.000000
  0.300000  0.200000  0.000000     48.000000
  0.350000  0.200000  0.000000     48.000000
  0.400000  0.200000  0.000000     24.000000
  0.250000  0.250000  0.000000     24.000000
  0.300000  0.250000  0.000000     48.000000
  0.350000  0.250000  0.000000     48.000000
  0.300000  0.300000  0.000000     24.000000
  0.350000  0.300000  0.000000     24.000000
  0.050000  0.050000  0.050000      8.000000
  0.100000  0.050000  0.050000     24.000000
  0.150000  0.050000  0.050000     24.000000
  0.200000  0.050000  0.050000     24.000000
  0.250000  0.050000  0.050000     24.000000
  0.300000  0.050000  0.050000     24.000000
  0.350000  0.050000  0.050000     24.000000
  0.400000  0.050000  0.050000     24.000000
  0.450000  0.050000  0.050000     12.000000
 -0.050000  0.050000  0.050000      6.000000
  0.100000  0.100000  0.050000     24.000000
  0.150000  0.100000  0.050000     48.000000
  0.200000  0.100000  0.050000     48.000000
  0.250000  0.100000  0.050000     48.000000
  0.300000  0.100000  0.050000     48.000000
  0.350000  0.100000  0.050000     48.000000
  0.400000  0.100000  0.050000     48.000000
 -0.100000  0.100000  0.050000     24.000000
  0.150000  0.150000  0.050000     24.000000
  0.200000  0.150000  0.050000     48.000000
  0.250000  0.150000  0.050000     48.000000
  0.300000  0.150000  0.050000     48.000000
  0.350000  0.150000  0.050000     48.000000
  0.400000  0.150000  0.050000     24.000000
 -0.150000  0.150000  0.050000     24.000000
 -0.100000  0.150000  0.050000     24.000000
  0.200000  0.200000  0.050000     24.000000
  0.250000  0.200000  0.050000     48.000000
  0.300000  0.200000  0.050000     48.000000
  0.350000  0.200000  0.050000     48.000000
 -0.200000  0.200000  0.050000     24.000000
 -0.150000  0.200000  0.050000     48.000000
  0.250000  0.250000  0.050000     24.000000
  0.300000  0.250000  0.050000     48.000000
  0.350000  0.250000  0.050000     24.000000
 -0.250000  0.250000  0.050000     24.000000
 -0.200000  0.250000  0.050000     48.000000
 -0.150000  0.250000  0.050000     24.000000
  0.300000  0.300000  0.050000     24.000000
 -0.300000  0.300000  0.050000     24.000000
 -0.250000  0.300000  0.050000     48.000000
 -0.200000  0.300000  0.050000     48.000000
 -0.350000  0.350000  0.050000     24.000000
 -0.300000  0.350000  0.050000     48.000000
 -0.250000  0.350000  0.050000     48.000000
 -0.200000  0.350000  0.050000     24.000000
 -0.400000  0.400000  0.050000     24.000000
 -0.350000  0.400000  0.050000     48.000000
 -0.300000  0.400000  0.050000     48.000000
 -0.250000  0.400000  0.050000     48.000000
 -0.450000  0.450000  0.050000     24.000000
 -0.400000  0.450000  0.050000     48.000000
 -0.350000  0.450000  0.050000     48.000000
 -0.300000  0.450000  0.050000     48.000000
 -0.250000  0.450000  0.050000     24.000000
  0.500000  0.500000  0.050000     12.000000
 -0.450000  0.500000  0.050000     48.000000
 -0.400000  0.500000  0.050000     48.000000
 -0.350000  0.500000  0.050000     48.000000
 -0.300000  0.500000  0.050000     48.000000
 -0.450000 -0.450000  0.050000     24.000000
 -0.400000 -0.450000  0.050000     48.000000
 -0.350000 -0.450000  0.050000     48.000000
 -0.300000 -0.450000  0.050000     24.000000
 -0.400000 -0.400000  0.050000     24.000000
 -0.350000 -0.400000  0.050000     48.000000
 -0.350000 -0.350000  0.050000      8.000000
  0.100000  0.100000  0.100000      8.000000
  0.150000  0.100000  0.100000     24.000000
  0.200000  0.100000  0.100000     24.000000
  0.250000  0.100000  0.100000     24.000000
  0.300000  0.100000  0.100000     24.000000
  0.350000  0.100000  0.100000     24.000000
  0.400000  0.100000  0.100000     12.000000
 -0.100000  0.100000  0.100000      6.000000
  0.150000  0.150000  0.100000     24.000000
  0.200000  0.150000  0.100000     48.000000
  0.250000  0.150000  0.100000     48.000000
  0.300000  0.150000  0.100000     48.000000
  0.350000  0.150000  0.100000     48.000000
 -0.150000  0.150000  0.100000     24.000000
  0.200000  0.200000  0.100000     24.000000
  0.250000  0.200000  0.100000     48.000000
  0.300000  0.200000  0.100000     48.000000
  0.350000  0.200000  0.100000     24.000000
 -0.200000  0.200000  0.100000     24.000000
 -0.150000  0.200000  0.100000     24.000000
  0.250000  0.250000  0.100000     24.000000
  0.300000  0.250000  0.100000     48.000000
 -0.250000  0.250000  0.100000     24.000000
 -0.200000  0.250000  0.100000     48.000000
  0.300000  0.300000  0.100000      8.000000
 -0.300000  0.300000  0.100000     24.000000
 -0.250000  0.300000  0.100000     48.000000
 -0.200000  0.300000  0.100000     24.000000
 -0.350000  0.350000  0.100000     24.000000
 -0.300000  0.350000  0.100000     48.000000
 -0.250000  0.350000  0.100000     48.000000
 -0.400000  0.400000  0.100000     24.000000
 -0.350000  0.400000  0.100000     48.000000
 -0.300000  0.400000  0.100000     48.000000
 -0.250000  0.400000  0.100000     24.000000
 -0.450000  0.450000  0.100000     24.000000
 -0.400000  0.450000  0.100000     48.000000
 -0.350000  0.450000  0.100000     48.000000
 -0.300000  0.450000  0.100000     48.000000
  0.500000  0.500000  0.100000     12.000000
 -0.450000  0.500000  0.100000     48.000000
 -0.400000  0.500000  0.100000     48.000000
 -0.350000  0.500000  0.100000     48.000000
 -0.300000  0.500000  0.100000     24.000000
 -0.450000 -0.450000  0.100000     24.000000
 -0.400000 -0.450000  0.100000     48.000000
 -0.350000 -0.450000  0.100000     48.000000
 -0.400000 -0.400000  0.100000     24.000000
 -0.350000 -0.400000  0.100000     24.000000
  0.150000  0.150000  0.150000      8.000000
  0.200000  0.150000  0.150000     24.000000
  0.250000  0.150000  0.150000     24.000000
  0.300000  0.150000  0.150000     24.000000
  0.350000  0.150000  0.150000     12.000000
 -0.150000  0.150000  0.150000      6.000000
  0.200000  0.200000  0.150000     24.000000
  0.250000  0.200000  0.150000     48.000000
  0.300000  0.200000  0.150000     48.000000
 -0.200000  0.200000  0.150000     24.000000
  0.250000  0.250000  0.150000     24.000000
  0.300000  0.250000  0.150000     24.000000
 -0.250000  0.250000  0.150000     24.000000
 -0.200000  0.250000  0.150000     24.000000
 -0.300000  0.300000  0.150000     24.000000
 -0.250000  0.300000  0.150000     48.000000
 -0.350000  0.350000  0.150000     24.000000
 -0.300000  0.350000  0.150000     48.000000
 -0.250000  0.350000  0.150000     24.000000
 -0.400000  0.400000  0.150000     24.000000
 -0.350000  0.400000  0.150000     48.000000
 -0.300000  0.400000  0.150000     48.000000
 -0.450000  0.450000  0.150000     24.000000
 -0.400000  0.450000  0.150000     48.000000
 -0.350000  0.450000  0.150000     48.000000
 -0.300000  0.450000  0.150000     24.000000
  0.500000  0.500000  0.150000     12.000000
 -0.450000  0.500000  0.150000     48.000000
 -0.400000  0.500000  0.150000     48.000000
 -0.350000  0.500000  0.150000     48.000000
 -0.450000 -0.450000  0.150000     24.000000
 -0.400000 -0.450000  0.150000     48.000000
 -0.350000 -0.450000  0.150000     24.000000
 -0.400000 -0.400000  0.150000     24.000000
  0.200000  0.200000  0.200000      8.000000
  0.250000  0.200000  0.200000     24.000000
  0.300000  0.200000  0.200000     12.000000
 -0.200000  0.200000  0.200000      6.000000
  0.250000  0.250000  0.200000     24.000000
 -0.250000  0.250000  0.200000     24.000000
 -0.300000  0.300000  0.200000     24.000000
 -0.250000  0.300000  0.200000     24.000000
 -0.350000  0.350000  0.200000     24.000000
 -0.300000  0.350000  0.200000     48.000000
 -0.400000  0.400000  0.200000     24.000000
 -0.350000  0.400000  0.200000     48.000000
 -0.300000  0.400000  0.200000     24.000000
 -0.450000  0.450000  0.200000     24.000000
 -0.400000  0.450000  0.200000     48.000000
 -0.350000  0.450000  0.200000     48.000000
  0.500000  0.500000  0.200000     12.000000
 -0.450000  0.500000  0.200000     48.000000
 -0.400000  0.500000  0.200000     48.000000
 -0.350000  0.500000  0.200000     24.000000
 -0.450000 -0.450000  0.200000     24.000000
 -0.400000 -0.450000  0.200000     48.000000
 -0.400000 -0.400000  0.200000      8.000000
  0.250000  0.250000  0.250000      2.000000
 -0.250000  0.250000  0.250000      6.000000
 -0.300000  0.300000  0.250000     24.000000
 -0.350000  0.350000  0.250000     24.000000
 -0.300000  0.350000  0.250000     24.000000
 -0.400000  0.400000  0.250000     24.000000
 -0.350000  0.400000  0.250000     48.000000
 -0.450000  0.450000  0.250000     24.000000
 -0.400000  0.450000  0.250000     48.000000
 -0.350000  0.450000  0.250000     24.000000
  0.500000  0.500000  0.250000     12.000000
 -0.450000  0.500000  0.250000     48.000000
 -0.400000  0.500000  0.250000     48.000000
 -0.450000 -0.450000  0.250000     24.000000
 -0.400000 -0.450000  0.250000     24.000000
 -0.300000  0.300000  0.300000      6.000000
 -0.350000  0.350000  0.300000     24.000000
 -0.400000  0.400000  0.300000     24.000000
 -0.350000  0.400000  0.300000     24.000000
 -0.450000  0.450000  0.300000     24.000000
 -0.400000  0.450000  0.300000     48.000000
  0.500000  0.500000  0.300000     12.000000
 -0.450000  0.500000  0.300000     48.000000
 -0.400000  0.500000  0.300000     24.000000
 -0.450000 -0.450000  0.300000     24.000000
 -0.350000  0.350000  0.350000      6.000000
 -0.400000  0.400000  0.350000     24.000000
 -0.450000  0.450000  0.350000     24.000000
 -0.400000  0.450000  0.350000     24.000000
  0.500000  0.500000  0.350000     12.000000
 -0.450000  0.500000  0.350000     48.000000
 -0.450000 -0.450000  0.350000      8.000000
 -0.400000  0.400000  0.400000      6.000000
 -0.450000  0.450000  0.400000     24.000000
  0.500000  0.500000  0.400000     12.000000
 -0.450000  0.500000  0.400000     24.000000
 -0.450000  0.450000  0.450000      6.000000
  0.500000  0.500000  0.450000     12.000000
  0.500000  0.500000  0.500000      1.000000
 
 Following cartesian coordinates:
            Coordinates               Weight
  0.000000  0.000000  0.000000      1.000000
  0.020533  0.011855  0.000000     12.000000
  0.041066  0.023709  0.000000     12.000000
  0.061599  0.035564  0.000000     12.000000
  0.082132  0.047419  0.000000     12.000000
  0.102664  0.059273  0.000000     12.000000
  0.123197  0.071128  0.000000     12.000000
  0.143730  0.082983  0.000000     12.000000
  0.164263  0.094837  0.000000     12.000000
  0.184796  0.106692  0.000000     12.000000
  0.205329  0.118547  0.000000      6.000000
  0.020533  0.035564  0.000000     24.000000
  0.041066  0.047419  0.000000     48.000000
  0.061599  0.059273  0.000000     48.000000
  0.082132  0.071128  0.000000     48.000000
  0.102664  0.082983  0.000000     48.000000
  0.123197  0.094837  0.000000     48.000000
  0.143730  0.106692  0.000000     48.000000
  0.164263  0.118547  0.000000     48.000000
  0.184796  0.130401  0.000000     48.000000
  0.041066  0.071128  0.000000     24.000000
  0.061599  0.082983  0.000000     48.000000
  0.082132  0.094837  0.000000     48.000000
  0.102664  0.106692  0.000000     48.000000
  0.123197  0.118547  0.000000     48.000000
  0.143730  0.130401  0.000000     48.000000
  0.164263  0.142256  0.000000     48.000000
  0.184796  0.154111  0.000000     24.000000
  0.061599  0.106692  0.000000     24.000000
  0.082132  0.118547  0.000000     48.000000
  0.102664  0.130401  0.000000     48.000000
  0.123197  0.142256  0.000000     48.000000
  0.143730  0.154111  0.000000     48.000000
  0.164263  0.165965  0.000000     48.000000
  0.082132  0.142256  0.000000     24.000000
  0.102664  0.154111  0.000000     48.000000
  0.123197  0.165965  0.000000     48.000000
  0.143730  0.177820  0.000000     48.000000
  0.164263  0.189675  0.000000     24.000000
  0.102664  0.177820  0.000000     24.000000
  0.123197  0.189675  0.000000     48.000000
  0.143730  0.201529  0.000000     48.000000
  0.123197  0.213384  0.000000     24.000000
  0.143730  0.225239  0.000000     24.000000
  0.027377  0.047419  0.019359      8.000000
  0.047910  0.059273  0.019359     24.000000
  0.068443  0.071128  0.019359     24.000000
  0.088976  0.082983  0.019359     24.000000
  0.109509  0.094837  0.019359     24.000000
  0.130042  0.106692  0.019359     24.000000
  0.150574  0.118547  0.019359     24.000000
  0.171107  0.130401  0.019359     24.000000
  0.191640  0.142256  0.019359     12.000000
 -0.013689  0.023709  0.019359      6.000000
  0.047910  0.082983  0.019359     24.000000
  0.068443  0.094837  0.019359     48.000000
  0.088976  0.106692  0.019359     48.000000
  0.109509  0.118547  0.019359     48.000000
  0.130042  0.130401  0.019359     48.000000
  0.150574  0.142256  0.019359     48.000000
  0.171107  0.154111  0.019359     48.000000
 -0.034221  0.035564  0.019359     24.000000
  0.068443  0.118547  0.019359     24.000000
  0.088976  0.130401  0.019359     48.000000
  0.109509  0.142256  0.019359     48.000000
  0.130042  0.154111  0.019359     48.000000
  0.150574  0.165965  0.019359     48.000000
  0.171107  0.177820  0.019359     24.000000
 -0.054754  0.047419  0.019359     24.000000
 -0.034221  0.059273  0.019359     24.000000
  0.088976  0.154111  0.019359     24.000000
  0.109509  0.165965  0.019359     48.000000
  0.130042  0.177820  0.019359     48.000000
  0.150574  0.189675  0.019359     48.000000
 -0.075287  0.059273  0.019359     24.000000
 -0.054754  0.071128  0.019359     48.000000
  0.109509  0.189675  0.019359     24.000000
  0.130042  0.201529  0.019359     48.000000
  0.150574  0.213384  0.019359     24.000000
 -0.095820  0.071128  0.019359     24.000000
 -0.075287  0.082983  0.019359     48.000000
 -0.054754  0.094837  0.019359     24.000000
  0.130042  0.225239  0.019359     24.000000
 -0.116353  0.082983  0.019359     24.000000
 -0.095820  0.094837  0.019359     48.000000
 -0.075287  0.106692  0.019359     48.000000
 -0.136886  0.094837  0.019359     24.000000
 -0.116353  0.106692  0.019359     48.000000
 -0.095820  0.118547  0.019359     48.000000
 -0.075287  0.130401  0.019359     24.000000
 -0.157419  0.106692  0.019359     24.000000
 -0.136886  0.118547  0.019359     48.000000
 -0.116353  0.130401  0.019359     48.000000
 -0.095820  0.142256  0.019359     48.000000
 -0.177952  0.118547  0.019359     24.000000
 -0.157419  0.130401  0.019359     48.000000
 -0.136886  0.142256  0.019359     48.000000
 -0.116353  0.154111  0.019359     48.000000
 -0.095820  0.165965  0.019359     24.000000
  0.212173  0.367495  0.019359     12.000000
 -0.177952  0.142256  0.019359     48.000000
 -0.157419  0.154111  0.019359     48.000000
 -0.136886  0.165965  0.019359     48.000000
 -0.116353  0.177820  0.019359     48.000000
 -0.177952 -0.308221  0.019359     24.000000
 -0.157419 -0.296367  0.019359     48.000000
 -0.136886 -0.284512  0.019359     48.000000
 -0.116353 -0.272657  0.019359     24.000000
 -0.157419 -0.272657  0.019359     24.000000
 -0.136886 -0.260803  0.019359     48.000000
 -0.136886 -0.237093  0.019359      8.000000
  0.054754  0.094837  0.038717      8.000000
  0.075287  0.106692  0.038717     24.000000
  0.095820  0.118547  0.038717     24.000000
  0.116353  0.130401  0.038717     24.000000
  0.136886  0.142256  0.038717     24.000000
  0.157419  0.154111  0.038717     24.000000
  0.177952  0.165965  0.038717     12.000000
 -0.027377  0.047419  0.038717      6.000000
  0.075287  0.130401  0.038717     24.000000
  0.095820  0.142256  0.038717     48.000000
  0.116353  0.154111  0.038717     48.000000
  0.136886  0.165965  0.038717     48.000000
  0.157419  0.177820  0.038717     48.000000
 -0.047910  0.059273  0.038717     24.000000
  0.095820  0.165965  0.038717     24.000000
  0.116353  0.177820  0.038717     48.000000
  0.136886  0.189675  0.038717     48.000000
  0.157419  0.201529  0.038717     24.000000
 -0.068443  0.071128  0.038717     24.000000
 -0.047910  0.082983  0.038717     24.000000
  0.116353  0.201529  0.038717     24.000000
  0.136886  0.213384  0.038717     48.000000
 -0.088976  0.082983  0.038717     24.000000
 -0.068443  0.094837  0.038717     48.000000
  0.136886  0.237093  0.038717      8.000000
 -0.109509  0.094837  0.038717     24.000000
 -0.088976  0.106692  0.038717     48.000000
 -0.068443  0.118547  0.038717     24.000000
 -0.130042  0.106692  0.038717     24.000000
 -0.109509  0.118547  0.038717     48.000000
 -0.088976  0.130401  0.038717     48.000000
 -0.150574  0.118547  0.038717     24.000000
 -0.130042  0.130401  0.038717     48.000000
 -0.109509  0.142256  0.038717     48.000000
 -0.088976  0.154111  0.038717     24.000000
 -0.171107  0.130401  0.038717     24.000000
 -0.150574  0.142256  0.038717     48.000000
 -0.130042  0.154111  0.038717     48.000000
 -0.109509  0.165965  0.038717     48.000000
  0.219017  0.379349  0.038717     12.000000
 -0.171107  0.154111  0.038717     48.000000
 -0.150574  0.165965  0.038717     48.000000
 -0.130042  0.177820  0.038717     48.000000
 -0.109509  0.189675  0.038717     24.000000
 -0.171107 -0.296367  0.038717     24.000000
 -0.150574 -0.284512  0.038717     48.000000
 -0.130042 -0.272657  0.038717     48.000000
 -0.150574 -0.260803  0.038717     24.000000
 -0.130042 -0.248948  0.038717     24.000000
  0.082132  0.142256  0.058076      8.000000
  0.102664  0.154111  0.058076     24.000000
  0.123197  0.165965  0.058076     24.000000
  0.143730  0.177820  0.058076     24.000000
  0.164263  0.189675  0.058076     12.000000
 -0.041066  0.071128  0.058076      6.000000
  0.102664  0.177820  0.058076     24.000000
  0.123197  0.189675  0.058076     48.000000
  0.143730  0.201529  0.058076     48.000000
 -0.061599  0.082983  0.058076     24.000000
  0.123197  0.213384  0.058076     24.000000
  0.143730  0.225239  0.058076     24.000000
 -0.082132  0.094837  0.058076     24.000000
 -0.061599  0.106692  0.058076     24.000000
 -0.102664  0.106692  0.058076     24.000000
 -0.082132  0.118547  0.058076     48.000000
 -0.123197  0.118547  0.058076     24.000000
 -0.102664  0.130401  0.058076     48.000000
 -0.082132  0.142256  0.058076     24.000000
 -0.143730  0.130401  0.058076     24.000000
 -0.123197  0.142256  0.058076     48.000000
 -0.102664  0.154111  0.058076     48.000000
 -0.164263  0.142256  0.058076     24.000000
 -0.143730  0.154111  0.058076     48.000000
 -0.123197  0.165965  0.058076     48.000000
 -0.102664  0.177820  0.058076     24.000000
  0.225862  0.391204  0.058076     12.000000
 -0.164263  0.165965  0.058076     48.000000
 -0.143730  0.177820  0.058076     48.000000
 -0.123197  0.189675  0.058076     48.000000
 -0.164263 -0.284512  0.058076     24.000000
 -0.143730 -0.272657  0.058076     48.000000
 -0.123197 -0.260803  0.058076     24.000000
 -0.143730 -0.248948  0.058076     24.000000
  0.109509  0.189675  0.077434      8.000000
  0.130042  0.201529  0.077434     24.000000
  0.150574  0.213384  0.077434     12.000000
 -0.054754  0.094837  0.077434      6.000000
  0.130042  0.225239  0.077434     24.000000
 -0.075287  0.106692  0.077434     24.000000
 -0.095820  0.118547  0.077434     24.000000
 -0.075287  0.130401  0.077434     24.000000
 -0.116353  0.130401  0.077434     24.000000
 -0.095820  0.142256  0.077434     48.000000
 -0.136886  0.142256  0.077434     24.000000
 -0.116353  0.154111  0.077434     48.000000
 -0.095820  0.165965  0.077434     24.000000
 -0.157419  0.154111  0.077434     24.000000
 -0.136886  0.165965  0.077434     48.000000
 -0.116353  0.177820  0.077434     48.000000
  0.232706  0.403059  0.077434     12.000000
 -0.157419  0.177820  0.077434     48.000000
 -0.136886  0.189675  0.077434     48.000000
 -0.116353  0.201529  0.077434     24.000000
 -0.157419 -0.272657  0.077434     24.000000
 -0.136886 -0.260803  0.077434     48.000000
 -0.136886 -0.237093  0.077434      8.000000
  0.136886  0.237093  0.096793      2.000000
 -0.068443  0.118547  0.096793      6.000000
 -0.088976  0.130401  0.096793     24.000000
 -0.109509  0.142256  0.096793     24.000000
 -0.088976  0.154111  0.096793     24.000000
 -0.130042  0.154111  0.096793     24.000000
 -0.109509  0.165965  0.096793     48.000000
 -0.150574  0.165965  0.096793     24.000000
 -0.130042  0.177820  0.096793     48.000000
 -0.109509  0.189675  0.096793     24.000000
  0.239550  0.414913  0.096793     12.000000
 -0.150574  0.189675  0.096793     48.000000
 -0.130042  0.201529  0.096793     48.000000
 -0.150574 -0.260803  0.096793     24.000000
 -0.130042 -0.248948  0.096793     24.000000
 -0.082132  0.142256  0.116152      6.000000
 -0.102664  0.154111  0.116152     24.000000
 -0.123197  0.165965  0.116152     24.000000
 -0.102664  0.177820  0.116152     24.000000
 -0.143730  0.177820  0.116152     24.000000
 -0.123197  0.189675  0.116152     48.000000
  0.246395  0.426768  0.116152     12.000000
 -0.143730  0.201529  0.116152     48.000000
 -0.123197  0.213384  0.116152     24.000000
 -0.143730 -0.248948  0.116152     24.000000
 -0.095820  0.165965  0.135510      6.000000
 -0.116353  0.177820  0.135510     24.000000
 -0.136886  0.189675  0.135510     24.000000
 -0.116353  0.201529  0.135510     24.000000
  0.253239  0.438623  0.135510     12.000000
 -0.136886  0.213384  0.135510     48.000000
 -0.136886 -0.237093  0.135510      8.000000
 -0.109509  0.189675  0.154869      6.000000
 -0.130042  0.201529  0.154869     24.000000
  0.260083  0.450477  0.154869     12.000000
 -0.130042  0.225239  0.154869     24.000000
 -0.123197  0.213384  0.174227      6.000000
  0.266927  0.462332  0.174227     12.000000
  0.273772  0.474187  0.193586      1.000000
 


--------------------------------------------------------------------------------------------------------




 Dimension of arrays:
   k-points           NKPTS =    256   k-points in BZ     NKDIM =    256   number of bands    NBANDS=      6
   number of dos      NEDOS =    301   number of ions     NIONS =      1
   non local maximal  LDIM  =      6   non local SUM 2l+1 LMDIM =     18
   total plane-waves  NPLWV =   4096
   max r-space proj   IRMAX =      1   max aug-charges    IRDMAX=  17845
   dimension x,y,z NGX =    16 NGY =   16 NGZ =   16
   dimension x,y,z NGXF=    32 NGYF=   32 NGZF=   32
   support grid    NGXF=    32 NGYF=   32 NGZF=   32
   ions per type =               1
   NGX,Y,Z   is equivalent  to a cutoff of  10.10, 10.10, 10.10 a.u.
   NGXF,Y,Z  is equivalent  to a cutoff of  20.19, 20.19, 20.19 a.u.

 SYSTEM =  V EOS scale_1.020                       
 POSCAR =  V1                                      

 Startparameter for this run:
   NWRITE =      2    write-flag & timer
   PREC   = accura    normal or accurate (medium, high low for compatibility)
   ISTART =      0    job   : 0-new  1-cont  2-samecut
   ICHARG =      2    charge: 1-file 2-atom 10-const
   ISPIN  =      1    spin polarized calculation?
   LNONCOLLINEAR =      F non collinear calculations
   LSORBIT =      F    spin-orbit coupling
   INIWAV =      1    electr: 0-lowe 1-rand  2-diag
   LASPH  =      F    aspherical Exc in radial PAW
 Electronic Relaxation 1
   ENCUT  =  350.0 eV  25.72 Ry    5.07 a.u.   4.02  4.02  4.02*2*pi/ulx,y,z
   ENINI  =  350.0     initial cutoff
   ENAUG  =  358.7 eV  augmentation charge cutoff
   NELM   =     60;   NELMIN=  2; NELMDL= -5     # of ELM steps 
   EDIFF  = 0.1E-05   stopping-criterion for ELM
   LREAL  =      F    real-space projection
   NLSPLINE    = F    spline interpolate recip. space projectors
   LCOMPAT=      F    compatible to vasp.4.4
   GGA_COMPAT  = T    GGA compatible to vasp.4.4-vasp.4.6
   LMAXPAW     = -100 max onsite density
   LMAXMIX     =    2 max onsite mixed and CHGCAR
   VOSKOWN=      0    Vosko Wilk Nusair interpolation
   ROPT   =    0.00000
 Ionic relaxation
   EDIFFG = 0.1E-04   stopping-criterion for IOM
   NSW    =      0    number of steps for IOM
   NBLOCK =      1;   KBLOCK =      1    inner block; outer block 
   IBRION =     -1    ionic relax: 0-MD 1-quasi-New 2-CG
   NFREE  =      0    steps in history (QN), initial steepest desc. (CG)
   ISIF   =      2    stress and relaxation
   IWAVPR =     10    prediction:  0-non 1-charg 2-wave 3-comb
   ISYM   =      2    0-nonsym 1-usesym 2-fastsym
   LCORR  =      T    Harris-Foulkes like correction to forces

   POTIM  = 0.5000    time-step for ionic-motion
   TEIN   =    0.0    initial temperature
   TEBEG  =    0.0;   TEEND  =   0.0 temperature during run
   SMASS  =  -3.00    Nose mass-parameter (am)
   estimated Nose-frequenzy (Omega)   =  0.10E-29 period in steps = 0.13E+47 mass=  -0.159E-27a.u.
   SCALEE = 1.0000    scale energy and forces
   NPACO  =    256;   APACO  = 10.0  distance and # of slots for P.C.
   PSTRESS=    0.0 pullay stress

  Mass of Ions in am
   POMASS =  50.94
  Ionic Valenz
   ZVAL   =   5.00
  Atomic Wigner-Seitz radii
   RWIGS  =  -1.00
  virtual crystal weights 
   VCA    =   1.00
   NELECT =       5.0000    total number of electrons
   NUPDOWN=      -1.0000    fix difference up-down

 DOS related values:
   EMIN   =  10.00;   EMAX   =-10.00  energy-range for DOS
   EFERMI =   0.00;   METHOD = LEGACY      
   ISMEAR =     1;   SIGMA  =   0.05  broadening in eV -4-tet -1-fermi 0-gaus

 Electronic relaxation 2 (details)
   IALGO  =     38    algorithm
   LDIAG  =      T    sub-space diagonalisation (order eigenvalues)
   LSUBROT=      F    optimize rotation matrix (better conditioning)
   TURBO    =      0    0=normal 1=particle mesh
   IRESTART =      0    0=no restart 2=restart with 2 vectors
   NREBOOT  =      0    no. of reboots
   NMIN     =      0    reboot dimension
   EREF     =   0.00    reference energy to select bands
   IMIX   =      4    mixing-type and parameters
     AMIX     =   0.40;   BMIX     =  1.00
     AMIX_MAG =   1.60;   BMIX_MAG =  1.00
     AMIN     =   0.10
     WC   =   100.;   INIMIX=   1;  MIXPRE=   1;  MAXMIX= -45

 Intra band minimization:
   WEIMIN = 0.0000     energy-eigenvalue tresh-hold
   EBREAK =  0.42E-07  absolut break condition
   DEPER  =   0.30     relativ break condition  

   TIME   =   0.40     timestep for ELM

  volume/ion in A,a.u.               =      14.08        94.99
  Fermi-wavevector in a.u.,A,eV,Ry     =   1.159424  2.190993 18.289817  1.344264
  Thomas-Fermi vector in A             =   2.296017
 
 Write flags
   LWAVE        =      F    write WAVECAR
   LDOWNSAMPLE  =      F    k-point downsampling of WAVECAR
   LCHARG       =      F    write CHGCAR
   LVTOT        =      F    write LOCPOT, total local potential
   LVHAR        =      F    write LOCPOT, Hartree potential only
   LELF         =      F    write electronic localiz. function (ELF)
   LORBIT       =      0    0 simple, 1 ext, 2 COOP (PROOUT), +10 PAW based schemes


 Dipole corrections
   LMONO  =      F    monopole corrections only (constant potential shift)
   LDIPOL =      F    correct potential (dipole corrections)
   IDIPOL =      0    1-x, 2-y, 3-z, 4-all directions 
   EPSILON=  1.0000000 bulk dielectric constant

 Exchange correlation treatment:
   GGA     =    --    GGA type
   LEXCH   =     8    internal setting for exchange type
   LIBXC   =     F    Libxc                    
   VOSKOWN =     0    Vosko Wilk Nusair interpolation
   LHFCALC =     F    Hartree Fock is set to
   LHFONE  =     F    Hartree Fock one center treatment
   AEXX    =    0.0000 exact exchange contribution

 Linear response parameters
   LEPSILON=     F    determine dielectric tensor
   LRPA    =     F    only Hartree local field effects (RPA)
   LNABLA  =     F    use nabla operator in PAW spheres
   LVEL    =     F    velocity operator in full k-point grid
   CSHIFT  =0.1000    complex shift for real part using Kramers Kronig
   OMEGAMAX=  -1.0    maximum frequency
   DEG_THRESHOLD= 0.2000000E-02 threshold for treating states as degnerate
   RTIME   =   -0.100 relaxation time in fs
  (WPLASMAI=    0.000 imaginary part of plasma frequency in eV, 0.658/RTIME)
   DFIELD  = 0.0000000 0.0000000 0.0000000 field for delta impulse in time
 
  Optional k-point grid parameters
   LKPOINTS_OPT  =     F    use optional k-point grid
   KPOINTS_OPT_MODE=     1    mode for optional k-point grid
 
 Orbital magnetization related:
   ORBITALMAG=     F  switch on orbital magnetization
   LCHIMAG   =     F  perturbation theory with respect to B field
   DQ        =  0.001000  dq finite difference perturbation B field
   LLRAUG    =     F  two centre corrections for induced B field
   LBONE     =     F  B-component reconstruction in AE one-centre
   LVGVCALC  =     T  calculate vGv susceptibility
   LVGVAPPL  =     F  apply vGv susceptibility instead of pGv for G=0

 Random number generation:
   RANDOM_GENERATOR = DEFAULT
   PCG_SEED         = not used


--------------------------------------------------------------------------------------------------------


 Static calculation
 charge density and potential will be updated during run
 non-spin polarized calculation
 Variant of blocked Davidson
 Davidson routine will perform the subspace rotation
 perform sub-space diagonalisation
    after iterative eigenvector-optimisation
 modified Broyden-mixing scheme, WC =      100.0
 initial mixing is a Kerker type mixing with AMIX =  0.4000 and BMIX =      1.0000
 Hartree-type preconditioning will be used
 using additional bands             3
 reciprocal scheme for non local part
 use partial core corrections
 calculate Harris-corrections to forces 
   (improved forces if not selfconsistent)
 use gradient corrections 
 use of overlap-Matrix (Vanderbilt PP)
 Methfessel and Paxton  Order N= 1 SIGMA  =   0.05


--------------------------------------------------------------------------------------------------------


  energy-cutoff  :      350.00
  volume of cell :       14.08
      direct lattice vectors                 reciprocal lattice vectors
     2.483821135  0.000000000 -0.878163778     0.402605480  0.232444404  0.000000000
    -1.241910568  2.151052000 -0.878163778     0.000000000  0.464888808  0.000000000
    -0.000000000 -0.000000000  2.634490292     0.134201880  0.232444496  0.379580066

  length of vectors
     2.634490283  2.634490119  2.634490292     0.464888775  0.464888808  0.464888820


 
 k-points in units of 2pi/SCALE and weight: read from INCAR                         
   0.00000000  0.00000000  0.00000000       0.000
   0.02053288  0.01185466  0.00000000       0.002
   0.04106576  0.02370933  0.00000000       0.002
   0.06159864  0.03556399  0.00000000       0.002
   0.08213152  0.04741866  0.00000000       0.002
   0.10266440  0.05927332  0.00000000       0.002
   0.12319728  0.07112799  0.00000000       0.002
   0.14373016  0.08298265  0.00000000       0.002
   0.16426304  0.09483732  0.00000000       0.002
   0.18479592  0.10669198  0.00000000       0.002
   0.20532879  0.11854665  0.00000000       0.001
   0.02053288  0.03556399  0.00000000       0.003
   0.04106576  0.04741866  0.00000000       0.006
   0.06159864  0.05927332  0.00000000       0.006
   0.08213152  0.07112799  0.00000000       0.006
   0.10266440  0.08298265  0.00000000       0.006
   0.12319728  0.09483732  0.00000000       0.006
   0.14373016  0.10669198  0.00000000       0.006
   0.16426304  0.11854665  0.00000000       0.006
   0.18479592  0.13040131  0.00000000       0.006
   0.04106576  0.07112799  0.00000000       0.003
   0.06159864  0.08298265  0.00000000       0.006
   0.08213152  0.09483732  0.00000000       0.006
   0.10266440  0.10669198  0.00000000       0.006
   0.12319728  0.11854665  0.00000000       0.006
   0.14373016  0.13040131  0.00000000       0.006
   0.16426304  0.14225598  0.00000000       0.006
   0.18479592  0.15411064  0.00000000       0.003
   0.06159864  0.10669198  0.00000000       0.003
   0.08213152  0.11854665  0.00000000       0.006
   0.10266440  0.13040131  0.00000000       0.006
   0.12319728  0.14225598  0.00000000       0.006
   0.14373016  0.15411064  0.00000000       0.006
   0.16426304  0.16596530  0.00000000       0.006
   0.08213152  0.14225598  0.00000000       0.003
   0.10266440  0.15411064  0.00000000       0.006
   0.12319728  0.16596530  0.00000000       0.006
   0.14373016  0.17781997  0.00000000       0.006
   0.16426304  0.18967463  0.00000000       0.003
   0.10266440  0.17781997  0.00000000       0.003
   0.12319728  0.18967463  0.00000000       0.006
   0.14373016  0.20152930  0.00000000       0.006
   0.12319728  0.21338396  0.00000000       0.003
   0.14373016  0.22523863  0.00000000       0.003
   0.02737718  0.04741866  0.01935858       0.001
   0.04791005  0.05927333  0.01935858       0.003
   0.06844293  0.07112799  0.01935858       0.003
   0.08897581  0.08298266  0.01935858       0.003
   0.10950869  0.09483732  0.01935858       0.003
   0.13004157  0.10669199  0.01935858       0.003
   0.15057445  0.11854665  0.01935858       0.003
   0.17110733  0.13040132  0.01935858       0.003
   0.19164021  0.14225598  0.01935858       0.002
  -0.01368858  0.02370933  0.01935858       0.001
   0.04791005  0.08298266  0.01935858       0.003
   0.06844293  0.09483732  0.01935858       0.006
   0.08897581  0.10669199  0.01935858       0.006
   0.10950869  0.11854665  0.01935858       0.006
   0.13004157  0.13040132  0.01935858       0.006
   0.15057445  0.14225598  0.01935858       0.006
   0.17110733  0.15411064  0.01935858       0.006
  -0.03422146  0.03556400  0.01935858       0.003
   0.06844293  0.11854665  0.01935858       0.003
   0.08897581  0.13040132  0.01935858       0.006
   0.10950869  0.14225598  0.01935858       0.006
   0.13004157  0.15411064  0.01935858       0.006
   0.15057445  0.16596531  0.01935858       0.006
   0.17110733  0.17781997  0.01935858       0.003
  -0.05475434  0.04741866  0.01935858       0.003
  -0.03422146  0.05927333  0.01935858       0.003
   0.08897581  0.15411064  0.01935858       0.003
   0.10950869  0.16596531  0.01935858       0.006
   0.13004157  0.17781997  0.01935858       0.006
   0.15057445  0.18967464  0.01935858       0.006
  -0.07528722  0.05927333  0.01935858       0.003
  -0.05475434  0.07112799  0.01935858       0.006
   0.10950869  0.18967464  0.01935858       0.003
   0.13004157  0.20152930  0.01935858       0.006
   0.15057445  0.21338397  0.01935858       0.003
  -0.09582010  0.07112799  0.01935858       0.003
  -0.07528722  0.08298266  0.01935858       0.006
  -0.05475434  0.09483732  0.01935858       0.003
   0.13004157  0.22523863  0.01935858       0.003
  -0.11635298  0.08298266  0.01935858       0.003
  -0.09582010  0.09483732  0.01935858       0.006
  -0.07528722  0.10669199  0.01935858       0.006
  -0.13688586  0.09483732  0.01935858       0.003
  -0.11635298  0.10669199  0.01935858       0.006
  -0.09582010  0.11854665  0.01935858       0.006
  -0.07528722  0.13040132  0.01935858       0.003
  -0.15741874  0.10669199  0.01935858       0.003
  -0.13688586  0.11854665  0.01935858       0.006
  -0.11635298  0.13040132  0.01935858       0.006
  -0.09582010  0.14225598  0.01935858       0.006
  -0.17795162  0.11854665  0.01935858       0.003
  -0.15741874  0.13040132  0.01935858       0.006
  -0.13688586  0.14225598  0.01935858       0.006
  -0.11635298  0.15411064  0.01935858       0.006
  -0.09582010  0.16596531  0.01935858       0.003
   0.21217309  0.36749461  0.01935858       0.002
  -0.17795162  0.14225598  0.01935858       0.006
  -0.15741874  0.15411064  0.01935858       0.006
  -0.13688586  0.16596531  0.01935858       0.006
  -0.11635298  0.17781997  0.01935858       0.006
  -0.17795162 -0.30822127  0.01935858       0.003
  -0.15741874 -0.29636661  0.01935858       0.006
  -0.13688586 -0.28451195  0.01935858       0.006
  -0.11635298 -0.27265728  0.01935858       0.003
  -0.15741874 -0.27265728  0.01935858       0.003
  -0.13688586 -0.26080262  0.01935858       0.006
  -0.13688586 -0.23709329  0.01935858       0.001
   0.05475435  0.09483733  0.03871717       0.001
   0.07528723  0.10669199  0.03871717       0.003
   0.09582011  0.11854666  0.03871717       0.003
   0.11635299  0.13040132  0.03871717       0.003
   0.13688587  0.14225598  0.03871717       0.003
   0.15741875  0.15411065  0.03871717       0.003
   0.17795163  0.16596531  0.03871717       0.002
  -0.02737717  0.04741867  0.03871717       0.001
   0.07528723  0.13040132  0.03871717       0.003
   0.09582011  0.14225598  0.03871717       0.006
   0.11635299  0.15411065  0.03871717       0.006
   0.13688587  0.16596531  0.03871717       0.006
   0.15741875  0.17781998  0.03871717       0.006
  -0.04791005  0.05927333  0.03871717       0.003
   0.09582011  0.16596531  0.03871717       0.003
   0.11635299  0.17781998  0.03871717       0.006
   0.13688587  0.18967464  0.03871717       0.006
   0.15741875  0.20152931  0.03871717       0.003
  -0.06844293  0.07112800  0.03871717       0.003
  -0.04791005  0.08298266  0.03871717       0.003
   0.11635299  0.20152931  0.03871717       0.003
   0.13688587  0.21338397  0.03871717       0.006
  -0.08897581  0.08298266  0.03871717       0.003
  -0.06844293  0.09483733  0.03871717       0.006
   0.13688587  0.23709330  0.03871717       0.001
  -0.10950869  0.09483733  0.03871717       0.003
  -0.08897581  0.10669199  0.03871717       0.006
  -0.06844293  0.11854666  0.03871717       0.003
  -0.13004156  0.10669199  0.03871717       0.003
  -0.10950869  0.11854666  0.03871717       0.006
  -0.08897581  0.13040132  0.03871717       0.006
  -0.15057444  0.11854666  0.03871717       0.003
  -0.13004156  0.13040132  0.03871717       0.006
  -0.10950869  0.14225598  0.03871717       0.006
  -0.08897581  0.15411065  0.03871717       0.003
  -0.17110732  0.13040132  0.03871717       0.003
  -0.15057444  0.14225598  0.03871717       0.006
  -0.13004156  0.15411065  0.03871717       0.006
  -0.10950869  0.16596531  0.03871717       0.006
   0.21901739  0.37934928  0.03871717       0.002
  -0.17110732  0.15411065  0.03871717       0.006
  -0.15057444  0.16596531  0.03871717       0.006
  -0.13004156  0.17781998  0.03871717       0.006
  -0.10950869  0.18967464  0.03871717       0.003
  -0.17110732 -0.29636661  0.03871717       0.003
  -0.15057444 -0.28451194  0.03871717       0.006
  -0.13004156 -0.27265728  0.03871717       0.006
  -0.15057444 -0.26080261  0.03871717       0.003
  -0.13004156 -0.24894795  0.03871717       0.003
   0.08213153  0.14225599  0.05807575       0.001
   0.10266441  0.15411065  0.05807575       0.003
   0.12319728  0.16596532  0.05807575       0.003
   0.14373016  0.17781998  0.05807575       0.003
   0.16426304  0.18967465  0.05807575       0.002
  -0.04106575  0.07112800  0.05807575       0.001
   0.10266441  0.17781998  0.05807575       0.003
   0.12319728  0.18967465  0.05807575       0.006
   0.14373016  0.20152931  0.05807575       0.006
  -0.06159863  0.08298267  0.05807575       0.003
   0.12319728  0.21338398  0.05807575       0.003
   0.14373016  0.22523864  0.05807575       0.003
  -0.08213151  0.09483733  0.05807575       0.003
  -0.06159863  0.10669200  0.05807575       0.003
  -0.10266439  0.10669200  0.05807575       0.003
  -0.08213151  0.11854666  0.05807575       0.006
  -0.12319727  0.11854666  0.05807575       0.003
  -0.10266439  0.13040132  0.05807575       0.006
  -0.08213151  0.14225599  0.05807575       0.003
  -0.14373015  0.13040132  0.05807575       0.003
  -0.12319727  0.14225599  0.05807575       0.006
  -0.10266439  0.15411065  0.05807575       0.006
  -0.16426303  0.14225599  0.05807575       0.003
  -0.14373015  0.15411065  0.05807575       0.006
  -0.12319727  0.16596532  0.05807575       0.006
  -0.10266439  0.17781998  0.05807575       0.003
   0.22586168  0.39120395  0.05807575       0.002
  -0.16426303  0.16596532  0.05807575       0.006
  -0.14373015  0.17781998  0.05807575       0.006
  -0.12319727  0.18967465  0.05807575       0.006
  -0.16426303 -0.28451194  0.05807575       0.003
  -0.14373015 -0.27265727  0.05807575       0.006
  -0.12319727 -0.26080261  0.05807575       0.003
  -0.14373015 -0.24894794  0.05807575       0.003
   0.10950870  0.18967465  0.07743433       0.001
   0.13004158  0.20152932  0.07743433       0.003
   0.15057446  0.21338398  0.07743433       0.002
  -0.05475433  0.09483734  0.07743433       0.001
   0.13004158  0.22523865  0.07743433       0.003
  -0.07528721  0.10669200  0.07743433       0.003
  -0.09582009  0.11854666  0.07743433       0.003
  -0.07528721  0.13040133  0.07743433       0.003
  -0.11635297  0.13040133  0.07743433       0.003
  -0.09582009  0.14225599  0.07743433       0.006
  -0.13688585  0.14225599  0.07743433       0.003
  -0.11635297  0.15411066  0.07743433       0.006
  -0.09582009  0.16596532  0.07743433       0.003
  -0.15741873  0.15411066  0.07743433       0.003
  -0.13688585  0.16596532  0.07743433       0.006
  -0.11635297  0.17781999  0.07743433       0.006
   0.23270598  0.40305862  0.07743433       0.002
  -0.15741873  0.17781999  0.07743433       0.006
  -0.13688585  0.18967465  0.07743433       0.006
  -0.11635297  0.20152932  0.07743433       0.003
  -0.15741873 -0.27265727  0.07743433       0.003
  -0.13688585 -0.26080260  0.07743433       0.006
  -0.13688585 -0.23709327  0.07743433       0.001
   0.13688588  0.23709332  0.09679292       0.000
  -0.06844292  0.11854667  0.09679292       0.001
  -0.08897580  0.13040133  0.09679292       0.003
  -0.10950868  0.14225600  0.09679292       0.003
  -0.08897580  0.15411066  0.09679292       0.003
  -0.13004156  0.15411066  0.09679292       0.003
  -0.10950868  0.16596533  0.09679292       0.006
  -0.15057444  0.16596533  0.09679292       0.003
  -0.13004156  0.17781999  0.09679292       0.006
  -0.10950868  0.18967466  0.09679292       0.003
   0.23955027  0.41491328  0.09679292       0.002
  -0.15057444  0.18967466  0.09679292       0.006
  -0.13004156  0.20152932  0.09679292       0.006
  -0.15057444 -0.26080260  0.09679292       0.003
  -0.13004156 -0.24894793  0.09679292       0.003
  -0.08213150  0.14225600  0.11615150       0.001
  -0.10266438  0.15411067  0.11615150       0.003
  -0.12319726  0.16596533  0.11615150       0.003
  -0.10266438  0.17782000  0.11615150       0.003
  -0.14373014  0.17782000  0.11615150       0.003
  -0.12319726  0.18967466  0.11615150       0.006
   0.24639457  0.42676795  0.11615150       0.002
  -0.14373014  0.20152933  0.11615150       0.006
  -0.12319726  0.21338399  0.11615150       0.003
  -0.14373014 -0.24894793  0.11615150       0.003
  -0.09582009  0.16596534  0.13551008       0.001
  -0.11635296  0.17782000  0.13551008       0.003
  -0.13688584  0.18967467  0.13551008       0.003
  -0.11635296  0.20152933  0.13551008       0.003
   0.25323887  0.43862262  0.13551008       0.002
  -0.13688584  0.21338400  0.13551008       0.006
  -0.13688584 -0.23709326  0.13551008       0.001
  -0.10950867  0.18967467  0.15486867       0.001
  -0.13004155  0.20152934  0.15486867       0.003
   0.26008316  0.45047729  0.15486867       0.002
  -0.13004155  0.22523866  0.15486867       0.003
  -0.12319725  0.21338400  0.17422725       0.001
   0.26692746  0.46233196  0.17422725       0.002
   0.27377175  0.47418663  0.19358583       0.000
 
 k-points in reciprocal lattice and weights: read from INCAR                         
   0.00000000  0.00000000  0.00000000       0.000
   0.05000000  0.00000000  0.00000000       0.002
   0.10000000  0.00000000  0.00000000       0.002
   0.15000000  0.00000000  0.00000000       0.002
   0.20000000  0.00000000  0.00000000       0.002
   0.25000000  0.00000000  0.00000000       0.002
   0.30000000  0.00000000  0.00000000       0.002
   0.35000000  0.00000000  0.00000000       0.002
   0.40000000  0.00000000  0.00000000       0.002
   0.45000000  0.00000000  0.00000000       0.002
   0.50000000  0.00000000  0.00000000       0.001
   0.05000000  0.05000000  0.00000000       0.003
   0.10000000  0.05000000  0.00000000       0.006
   0.15000000  0.05000000  0.00000000       0.006
   0.20000000  0.05000000  0.00000000       0.006
   0.25000000  0.05000000  0.00000000       0.006
   0.30000000  0.05000000  0.00000000       0.006
   0.35000000  0.05000000  0.00000000       0.006
   0.40000000  0.05000000  0.00000000       0.006
   0.45000000  0.05000000  0.00000000       0.006
   0.10000000  0.10000000  0.00000000       0.003
   0.15000000  0.10000000  0.00000000       0.006
   0.20000000  0.10000000  0.00000000       0.006
   0.25000000  0.10000000  0.00000000       0.006
   0.30000000  0.10000000  0.00000000       0.006
   0.35000000  0.10000000  0.00000000       0.006
   0.40000000  0.10000000  0.00000000       0.006
   0.45000000  0.10000000  0.00000000       0.003
   0.15000000  0.15000000  0.00000000       0.003
   0.20000000  0.15000000  0.00000000       0.006
   0.25000000  0.15000000  0.00000000       0.006
   0.30000000  0.15000000  0.00000000       0.006
   0.35000000  0.15000000  0.00000000       0.006
   0.40000000  0.15000000  0.00000000       0.006
   0.20000000  0.20000000  0.00000000       0.003
   0.25000000  0.20000000  0.00000000       0.006
   0.30000000  0.20000000  0.00000000       0.006
   0.35000000  0.20000000  0.00000000       0.006
   0.40000000  0.20000000  0.00000000       0.003
   0.25000000  0.25000000  0.00000000       0.003
   0.30000000  0.25000000  0.00000000       0.006
   0.35000000  0.25000000  0.00000000       0.006
   0.30000000  0.30000000  0.00000000       0.003
   0.35000000  0.30000000  0.00000000       0.003
   0.05000000  0.05000000  0.05000000       0.001
   0.10000000  0.05000000  0.05000000       0.003
   0.15000000  0.05000000  0.05000000       0.003
   0.20000000  0.05000000  0.05000000       0.003
   0.25000000  0.05000000  0.05000000       0.003
   0.30000000  0.05000000  0.05000000       0.003
   0.35000000  0.05000000  0.05000000       0.003
   0.40000000  0.05000000  0.05000000       0.003
   0.45000000  0.05000000  0.05000000       0.002
  -0.05000000  0.05000000  0.05000000       0.001
   0.10000000  0.10000000  0.05000000       0.003
   0.15000000  0.10000000  0.05000000       0.006
   0.20000000  0.10000000  0.05000000       0.006
   0.25000000  0.10000000  0.05000000       0.006
   0.30000000  0.10000000  0.05000000       0.006
   0.35000000  0.10000000  0.05000000       0.006
   0.40000000  0.10000000  0.05000000       0.006
  -0.10000000  0.10000000  0.05000000       0.003
   0.15000000  0.15000000  0.05000000       0.003
   0.20000000  0.15000000  0.05000000       0.006
   0.25000000  0.15000000  0.05000000       0.006
   0.30000000  0.15000000  0.05000000       0.006
   0.35000000  0.15000000  0.05000000       0.006
   0.40000000  0.15000000  0.05000000       0.003
  -0.15000000  0.15000000  0.05000000       0.003
  -0.10000000  0.15000000  0.05000000       0.003
   0.20000000  0.20000000  0.05000000       0.003
   0.25000000  0.20000000  0.05000000       0.006
   0.30000000  0.20000000  0.05000000       0.006
   0.35000000  0.20000000  0.05000000       0.006
  -0.20000000  0.20000000  0.05000000       0.003
  -0.15000000  0.20000000  0.05000000       0.006
   0.25000000  0.25000000  0.05000000       0.003
   0.30000000  0.25000000  0.05000000       0.006
   0.35000000  0.25000000  0.05000000       0.003
  -0.25000000  0.25000000  0.05000000       0.003
  -0.20000000  0.25000000  0.05000000       0.006
  -0.15000000  0.25000000  0.05000000       0.003
   0.30000000  0.30000000  0.05000000       0.003
  -0.30000000  0.30000000  0.05000000       0.003
  -0.25000000  0.30000000  0.05000000       0.006
  -0.20000000  0.30000000  0.05000000       0.006
  -0.35000000  0.35000000  0.05000000       0.003
  -0.30000000  0.35000000  0.05000000       0.006
  -0.25000000  0.35000000  0.05000000       0.006
  -0.20000000  0.35000000  0.05000000       0.003
  -0.40000000  0.40000000  0.05000000       0.003
  -0.35000000  0.40000000  0.05000000       0.006
  -0.30000000  0.40000000  0.05000000       0.006
  -0.25000000  0.40000000  0.05000000       0.006
  -0.45000000  0.45000000  0.05000000       0.003
  -0.40000000  0.45000000  0.05000000       0.006
  -0.35000000  0.45000000  0.05000000       0.006
  -0.30000000  0.45000000  0.05000000       0.006
  -0.25000000  0.45000000  0.05000000       0.003
   0.50000000  0.50000000  0.05000000       0.002
  -0.45000000  0.50000000  0.05000000       0.006
  -0.40000000  0.50000000  0.05000000       0.006
  -0.35000000  0.50000000  0.05000000       0.006
  -0.30000000  0.50000000  0.05000000       0.006
  -0.45000000 -0.45000000  0.05000000       0.003
  -0.40000000 -0.45000000  0.05000000       0.006
  -0.35000000 -0.45000000  0.05000000       0.006
  -0.30000000 -0.45000000  0.05000000       0.003
  -0.40000000 -0.40000000  0.05000000       0.003
  -0.35000000 -0.40000000  0.05000000       0.006
  -0.35000000 -0.35000000  0.05000000       0.001
   0.10000000  0.10000000  0.10000000       0.001
   0.15000000  0.10000000  0.10000000       0.003
   0.20000000  0.10000000  0.10000000       0.003
   0.25000000  0.10000000  0.10000000       0.003
   0.30000000  0.10000000  0.10000000       0.003
   0.35000000  0.10000000  0.10000000       0.003
   0.40000000  0.10000000  0.10000000       0.002
  -0.10000000  0.10000000  0.10000000       0.001
   0.15000000  0.15000000  0.10000000       0.003
   0.20000000  0.15000000  0.10000000       0.006
   0.25000000  0.15000000  0.10000000       0.006
   0.30000000  0.15000000  0.10000000       0.006
   0.35000000  0.15000000  0.10000000       0.006
  -0.15000000  0.15000000  0.10000000       0.003
   0.20000000  0.20000000  0.10000000       0.003
   0.25000000  0.20000000  0.10000000       0.006
   0.30000000  0.20000000  0.10000000       0.006
   0.35000000  0.20000000  0.10000000       0.003
  -0.20000000  0.20000000  0.10000000       0.003
  -0.15000000  0.20000000  0.10000000       0.003
   0.25000000  0.25000000  0.10000000       0.003
   0.30000000  0.25000000  0.10000000       0.006
  -0.25000000  0.25000000  0.10000000       0.003
  -0.20000000  0.25000000  0.10000000       0.006
   0.30000000  0.30000000  0.10000000       0.001
  -0.30000000  0.30000000  0.10000000       0.003
  -0.25000000  0.30000000  0.10000000       0.006
  -0.20000000  0.30000000  0.10000000       0.003
  -0.35000000  0.35000000  0.10000000       0.003
  -0.30000000  0.35000000  0.10000000       0.006
  -0.25000000  0.35000000  0.10000000       0.006
  -0.40000000  0.40000000  0.10000000       0.003
  -0.35000000  0.40000000  0.10000000       0.006
  -0.30000000  0.40000000  0.10000000       0.006
  -0.25000000  0.40000000  0.10000000       0.003
  -0.45000000  0.45000000  0.10000000       0.003
  -0.40000000  0.45000000  0.10000000       0.006
  -0.35000000  0.45000000  0.10000000       0.006
  -0.30000000  0.45000000  0.10000000       0.006
   0.50000000  0.50000000  0.10000000       0.002
  -0.45000000  0.50000000  0.10000000       0.006
  -0.40000000  0.50000000  0.10000000       0.006
  -0.35000000  0.50000000  0.10000000       0.006
  -0.30000000  0.50000000  0.10000000       0.003
  -0.45000000 -0.45000000  0.10000000       0.003
  -0.40000000 -0.45000000  0.10000000       0.006
  -0.35000000 -0.45000000  0.10000000       0.006
  -0.40000000 -0.40000000  0.10000000       0.003
  -0.35000000 -0.40000000  0.10000000       0.003
   0.15000000  0.15000000  0.15000000       0.001
   0.20000000  0.15000000  0.15000000       0.003
   0.25000000  0.15000000  0.15000000       0.003
   0.30000000  0.15000000  0.15000000       0.003
   0.35000000  0.15000000  0.15000000       0.002
  -0.15000000  0.15000000  0.15000000       0.001
   0.20000000  0.20000000  0.15000000       0.003
   0.25000000  0.20000000  0.15000000       0.006
   0.30000000  0.20000000  0.15000000       0.006
  -0.20000000  0.20000000  0.15000000       0.003
   0.25000000  0.25000000  0.15000000       0.003
   0.30000000  0.25000000  0.15000000       0.003
  -0.25000000  0.25000000  0.15000000       0.003
  -0.20000000  0.25000000  0.15000000       0.003
  -0.30000000  0.30000000  0.15000000       0.003
  -0.25000000  0.30000000  0.15000000       0.006
  -0.35000000  0.35000000  0.15000000       0.003
  -0.30000000  0.35000000  0.15000000       0.006
  -0.25000000  0.35000000  0.15000000       0.003
  -0.40000000  0.40000000  0.15000000       0.003
  -0.35000000  0.40000000  0.15000000       0.006
  -0.30000000  0.40000000  0.15000000       0.006
  -0.45000000  0.45000000  0.15000000       0.003
  -0.40000000  0.45000000  0.15000000       0.006
  -0.35000000  0.45000000  0.15000000       0.006
  -0.30000000  0.45000000  0.15000000       0.003
   0.50000000  0.50000000  0.15000000       0.002
  -0.45000000  0.50000000  0.15000000       0.006
  -0.40000000  0.50000000  0.15000000       0.006
  -0.35000000  0.50000000  0.15000000       0.006
  -0.45000000 -0.45000000  0.15000000       0.003
  -0.40000000 -0.45000000  0.15000000       0.006
  -0.35000000 -0.45000000  0.15000000       0.003
  -0.40000000 -0.40000000  0.15000000       0.003
   0.20000000  0.20000000  0.20000000       0.001
   0.25000000  0.20000000  0.20000000       0.003
   0.30000000  0.20000000  0.20000000       0.002
  -0.20000000  0.20000000  0.20000000       0.001
   0.25000000  0.25000000  0.20000000       0.003
  -0.25000000  0.25000000  0.20000000       0.003
  -0.30000000  0.30000000  0.20000000       0.003
  -0.25000000  0.30000000  0.20000000       0.003
  -0.35000000  0.35000000  0.20000000       0.003
  -0.30000000  0.35000000  0.20000000       0.006
  -0.40000000  0.40000000  0.20000000       0.003
  -0.35000000  0.40000000  0.20000000       0.006
  -0.30000000  0.40000000  0.20000000       0.003
  -0.45000000  0.45000000  0.20000000       0.003
  -0.40000000  0.45000000  0.20000000       0.006
  -0.35000000  0.45000000  0.20000000       0.006
   0.50000000  0.50000000  0.20000000       0.002
  -0.45000000  0.50000000  0.20000000       0.006
  -0.40000000  0.50000000  0.20000000       0.006
  -0.35000000  0.50000000  0.20000000       0.003
  -0.45000000 -0.45000000  0.20000000       0.003
  -0.40000000 -0.45000000  0.20000000       0.006
  -0.40000000 -0.40000000  0.20000000       0.001
   0.25000000  0.25000000  0.25000000       0.000
  -0.25000000  0.25000000  0.25000000       0.001
  -0.30000000  0.30000000  0.25000000       0.003
  -0.35000000  0.35000000  0.25000000       0.003
  -0.30000000  0.35000000  0.25000000       0.003
  -0.40000000  0.40000000  0.25000000       0.003
  -0.35000000  0.40000000  0.25000000       0.006
  -0.45000000  0.45000000  0.25000000       0.003
  -0.40000000  0.45000000  0.25000000       0.006
  -0.35000000  0.45000000  0.25000000       0.003
   0.50000000  0.50000000  0.25000000       0.002
  -0.45000000  0.50000000  0.25000000       0.006
  -0.40000000  0.50000000  0.25000000       0.006
  -0.45000000 -0.45000000  0.25000000       0.003
  -0.40000000 -0.45000000  0.25000000       0.003
  -0.30000000  0.30000000  0.30000000       0.001
  -0.35000000  0.35000000  0.30000000       0.003
  -0.40000000  0.40000000  0.30000000       0.003
  -0.35000000  0.40000000  0.30000000       0.003
  -0.45000000  0.45000000  0.30000000       0.003
  -0.40000000  0.45000000  0.30000000       0.006
   0.50000000  0.50000000  0.30000000       0.002
  -0.45000000  0.50000000  0.30000000       0.006
  -0.40000000  0.50000000  0.30000000       0.003
  -0.45000000 -0.45000000  0.30000000       0.003
  -0.35000000  0.35000000  0.35000000       0.001
  -0.40000000  0.40000000  0.35000000       0.003
  -0.45000000  0.45000000  0.35000000       0.003
  -0.40000000  0.45000000  0.35000000       0.003
   0.50000000  0.50000000  0.35000000       0.002
  -0.45000000  0.50000000  0.35000000       0.006
  -0.45000000 -0.45000000  0.35000000       0.001
  -0.40000000  0.40000000  0.40000000       0.001
  -0.45000000  0.45000000  0.40000000       0.003
   0.50000000  0.50000000  0.40000000       0.002
  -0.45000000  0.50000000  0.40000000       0.003
  -0.45000000  0.45000000  0.45000000       0.001
   0.50000000  0.50000000  0.45000000       0.002
   0.50000000  0.50000000  0.50000000       0.000
 
 position of ions in fractional coordinates (direct lattice) 
   0.00000000  0.00000000  0.00000000
 
 position of ions in cartesian coordinates  (Angst):
   0.00000000  0.00000000  0.00000000
 


--------------------------------------------------------------------------------------------------------


 k-point   1 :   0.0000 0.0000 0.0000  plane waves:     201
 k-point   2 :   0.0500 0.0000 0.0000  plane waves:     207
 k-point   3 :   0.1000 0.0000 0.0000  plane waves:     207
 k-point   4 :   0.1500 0.0000 0.0000  plane waves:     205
 k-point   5 :   0.2000 0.0000 0.0000  plane waves:     201
 k-point   6 :   0.2500 0.0000 0.0000  plane waves:     205
 k-point   7 :   0.3000 0.0000 0.0000  plane waves:     204
 k-point   8 :   0.3500 0.0000 0.0000  plane waves:     200
 k-point   9 :   0.4000 0.0000 0.0000  plane waves:     206
 k-point  10 :   0.4500 0.0000 0.0000  plane waves:     206
 k-point  11 :   0.5000 0.0000 0.0000  plane waves:     214
 k-point  12 :   0.0500 0.0500 0.0000  plane waves:     208
 k-point  13 :   0.1000 0.0500 0.0000  plane waves:     207
 k-point  14 :   0.1500 0.0500 0.0000  plane waves:     205
 k-point  15 :   0.2000 0.0500 0.0000  plane waves:     206
 k-point  16 :   0.2500 0.0500 0.0000  plane waves:     203
 k-point  17 :   0.3000 0.0500 0.0000  plane waves:     204
 k-point  18 :   0.3500 0.0500 0.0000  plane waves:     204
 k-point  19 :   0.4000 0.0500 0.0000  plane waves:     204
 k-point  20 :   0.4500 0.0500 0.0000  plane waves:     204
 k-point  21 :   0.1000 0.1000 0.0000  plane waves:     206
 k-point  22 :   0.1500 0.1000 0.0000  plane waves:     206
 k-point  23 :   0.2000 0.1000 0.0000  plane waves:     205
 k-point  24 :   0.2500 0.1000 0.0000  plane waves:     204
 k-point  25 :   0.3000 0.1000 0.0000  plane waves:     205
 k-point  26 :   0.3500 0.1000 0.0000  plane waves:     206
 k-point  27 :   0.4000 0.1000 0.0000  plane waves:     205
 k-point  28 :   0.4500 0.1000 0.0000  plane waves:     208
 k-point  29 :   0.1500 0.1500 0.0000  plane waves:     205
 k-point  30 :   0.2000 0.1500 0.0000  plane waves:     206
 k-point  31 :   0.2500 0.1500 0.0000  plane waves:     205
 k-point  32 :   0.3000 0.1500 0.0000  plane waves:     209
 k-point  33 :   0.3500 0.1500 0.0000  plane waves:     208
 k-point  34 :   0.4000 0.1500 0.0000  plane waves:     208
 k-point  35 :   0.2000 0.2000 0.0000  plane waves:     207
 k-point  36 :   0.2500 0.2000 0.0000  plane waves:     209
 k-point  37 :   0.3000 0.2000 0.0000  plane waves:     209
 k-point  38 :   0.3500 0.2000 0.0000  plane waves:     208
 k-point  39 :   0.4000 0.2000 0.0000  plane waves:     212
 k-point  40 :   0.2500 0.2500 0.0000  plane waves:     211
 k-point  41 :   0.3000 0.2500 0.0000  plane waves:     211
 k-point  42 :   0.3500 0.2500 0.0000  plane waves:     211
 k-point  43 :   0.3000 0.3000 0.0000  plane waves:     211
 k-point  44 :   0.3500 0.3000 0.0000  plane waves:     210
 k-point  45 :   0.0500 0.0500 0.0500  plane waves:     207
 k-point  46 :   0.1000 0.0500 0.0500  plane waves:     205
 k-point  47 :   0.1500 0.0500 0.0500  plane waves:     205
 k-point  48 :   0.2000 0.0500 0.0500  plane waves:     204
 k-point  49 :   0.2500 0.0500 0.0500  plane waves:     205
 k-point  50 :   0.3000 0.0500 0.0500  plane waves:     201
 k-point  51 :   0.3500 0.0500 0.0500  plane waves:     205
 k-point  52 :   0.4000 0.0500 0.0500  plane waves:     205
 k-point  53 :   0.4500 0.0500 0.0500  plane waves:     204
 k-point  54 :  -0.0500 0.0500 0.0500  plane waves:     209
 k-point  55 :   0.1000 0.1000 0.0500  plane waves:     208
 k-point  56 :   0.1500 0.1000 0.0500  plane waves:     208
 k-point  57 :   0.2000 0.1000 0.0500  plane waves:     205
 k-point  58 :   0.2500 0.1000 0.0500  plane waves:     205
 k-point  59 :   0.3000 0.1000 0.0500  plane waves:     205
 k-point  60 :   0.3500 0.1000 0.0500  plane waves:     206
 k-point  61 :   0.4000 0.1000 0.0500  plane waves:     205
 k-point  62 :  -0.1000 0.1000 0.0500  plane waves:     211
 k-point  63 :   0.1500 0.1500 0.0500  plane waves:     206
 k-point  64 :   0.2000 0.1500 0.0500  plane waves:     206
 k-point  65 :   0.2500 0.1500 0.0500  plane waves:     206
 k-point  66 :   0.3000 0.1500 0.0500  plane waves:     208
 k-point  67 :   0.3500 0.1500 0.0500  plane waves:     208
 k-point  68 :   0.4000 0.1500 0.0500  plane waves:     208
 k-point  69 :  -0.1500 0.1500 0.0500  plane waves:     207
 k-point  70 :  -0.1000 0.1500 0.0500  plane waves:     210
 k-point  71 :   0.2000 0.2000 0.0500  plane waves:     207
 k-point  72 :   0.2500 0.2000 0.0500  plane waves:     207
 k-point  73 :   0.3000 0.2000 0.0500  plane waves:     209
 k-point  74 :   0.3500 0.2000 0.0500  plane waves:     211
 k-point  75 :  -0.2000 0.2000 0.0500  plane waves:     209
 k-point  76 :  -0.1500 0.2000 0.0500  plane waves:     208
 k-point  77 :   0.2500 0.2500 0.0500  plane waves:     210
 k-point  78 :   0.3000 0.2500 0.0500  plane waves:     211
 k-point  79 :   0.3500 0.2500 0.0500  plane waves:     214
 k-point  80 :  -0.2500 0.2500 0.0500  plane waves:     208
 k-point  81 :  -0.2000 0.2500 0.0500  plane waves:     209
 k-point  82 :  -0.1500 0.2500 0.0500  plane waves:     207
 k-point  83 :   0.3000 0.3000 0.0500  plane waves:     211
 k-point  84 :  -0.3000 0.3000 0.0500  plane waves:     203
 k-point  85 :  -0.2500 0.3000 0.0500  plane waves:     207
 k-point  86 :  -0.2000 0.3000 0.0500  plane waves:     208
 k-point  87 :  -0.3500 0.3500 0.0500  plane waves:     207
 k-point  88 :  -0.3000 0.3500 0.0500  plane waves:     205
 k-point  89 :  -0.2500 0.3500 0.0500  plane waves:     207
 k-point  90 :  -0.2000 0.3500 0.0500  plane waves:     208
 k-point  91 :  -0.4000 0.4000 0.0500  plane waves:     204
 k-point  92 :  -0.3500 0.4000 0.0500  plane waves:     206
 k-point  93 :  -0.3000 0.4000 0.0500  plane waves:     208
 k-point  94 :  -0.2500 0.4000 0.0500  plane waves:     209
 k-point  95 :  -0.4500 0.4500 0.0500  plane waves:     204
 k-point  96 :  -0.4000 0.4500 0.0500  plane waves:     206
 k-point  97 :  -0.3500 0.4500 0.0500  plane waves:     205
 k-point  98 :  -0.3000 0.4500 0.0500  plane waves:     208
 k-point  99 :  -0.2500 0.4500 0.0500  plane waves:     214
 k-point 100 :   0.5000 0.5000 0.0500  plane waves:     204
 k-point 101 :  -0.4500 0.5000 0.0500  plane waves:     207
 k-point 102 :  -0.4000 0.5000 0.0500  plane waves:     206
 k-point 103 :  -0.3500 0.5000 0.0500  plane waves:     211
 k-point 104 :  -0.3000 0.5000 0.0500  plane waves:     212
 k-point 105 :  -0.4500-0.4500 0.0500  plane waves:     212
 k-point 106 :  -0.4000-0.4500 0.0500  plane waves:     209
 k-point 107 :  -0.3500-0.4500 0.0500  plane waves:     211
 k-point 108 :  -0.3000-0.4500 0.0500  plane waves:     215
 k-point 109 :  -0.4000-0.4000 0.0500  plane waves:     208
 k-point 110 :  -0.3500-0.4000 0.0500  plane waves:     213
 k-point 111 :  -0.3500-0.3500 0.0500  plane waves:     212
 k-point 112 :   0.1000 0.1000 0.1000  plane waves:     210
 k-point 113 :   0.1500 0.1000 0.1000  plane waves:     210
 k-point 114 :   0.2000 0.1000 0.1000  plane waves:     205
 k-point 115 :   0.2500 0.1000 0.1000  plane waves:     203
 k-point 116 :   0.3000 0.1000 0.1000  plane waves:     202
 k-point 117 :   0.3500 0.1000 0.1000  plane waves:     204
 k-point 118 :   0.4000 0.1000 0.1000  plane waves:     206
 k-point 119 :  -0.1000 0.1000 0.1000  plane waves:     209
 k-point 120 :   0.1500 0.1500 0.1000  plane waves:     207
 k-point 121 :   0.2000 0.1500 0.1000  plane waves:     204
 k-point 122 :   0.2500 0.1500 0.1000  plane waves:     205
 k-point 123 :   0.3000 0.1500 0.1000  plane waves:     209
 k-point 124 :   0.3500 0.1500 0.1000  plane waves:     208
 k-point 125 :  -0.1500 0.1500 0.1000  plane waves:     209
 k-point 126 :   0.2000 0.2000 0.1000  plane waves:     204
 k-point 127 :   0.2500 0.2000 0.1000  plane waves:     210
 k-point 128 :   0.3000 0.2000 0.1000  plane waves:     210
 k-point 129 :   0.3500 0.2000 0.1000  plane waves:     210
 k-point 130 :  -0.2000 0.2000 0.1000  plane waves:     210
 k-point 131 :  -0.1500 0.2000 0.1000  plane waves:     208
 k-point 132 :   0.2500 0.2500 0.1000  plane waves:     210
 k-point 133 :   0.3000 0.2500 0.1000  plane waves:     210
 k-point 134 :  -0.2500 0.2500 0.1000  plane waves:     206
 k-point 135 :  -0.2000 0.2500 0.1000  plane waves:     208
 k-point 136 :   0.3000 0.3000 0.1000  plane waves:     213
 k-point 137 :  -0.3000 0.3000 0.1000  plane waves:     203
 k-point 138 :  -0.2500 0.3000 0.1000  plane waves:     207
 k-point 139 :  -0.2000 0.3000 0.1000  plane waves:     210
 k-point 140 :  -0.3500 0.3500 0.1000  plane waves:     208
 k-point 141 :  -0.3000 0.3500 0.1000  plane waves:     207
 k-point 142 :  -0.2500 0.3500 0.1000  plane waves:     205
 k-point 143 :  -0.4000 0.4000 0.1000  plane waves:     206
 k-point 144 :  -0.3500 0.4000 0.1000  plane waves:     211
 k-point 145 :  -0.3000 0.4000 0.1000  plane waves:     212
 k-point 146 :  -0.2500 0.4000 0.1000  plane waves:     208
 k-point 147 :  -0.4500 0.4500 0.1000  plane waves:     208
 k-point 148 :  -0.4000 0.4500 0.1000  plane waves:     210
 k-point 149 :  -0.3500 0.4500 0.1000  plane waves:     211
 k-point 150 :  -0.3000 0.4500 0.1000  plane waves:     215
 k-point 151 :   0.5000 0.5000 0.1000  plane waves:     210
 k-point 152 :  -0.4500 0.5000 0.1000  plane waves:     210
 k-point 153 :  -0.4000 0.5000 0.1000  plane waves:     211
 k-point 154 :  -0.3500 0.5000 0.1000  plane waves:     213
 k-point 155 :  -0.3000 0.5000 0.1000  plane waves:     214
 k-point 156 :  -0.4500-0.4500 0.1000  plane waves:     212
 k-point 157 :  -0.4000-0.4500 0.1000  plane waves:     209
 k-point 158 :  -0.3500-0.4500 0.1000  plane waves:     214
 k-point 159 :  -0.4000-0.4000 0.1000  plane waves:     210
 k-point 160 :  -0.3500-0.4000 0.1000  plane waves:     212
 k-point 161 :   0.1500 0.1500 0.1500  plane waves:     210
 k-point 162 :   0.2000 0.1500 0.1500  plane waves:     208
 k-point 163 :   0.2500 0.1500 0.1500  plane waves:     208
 k-point 164 :   0.3000 0.1500 0.1500  plane waves:     210
 k-point 165 :   0.3500 0.1500 0.1500  plane waves:     210
 k-point 166 :  -0.1500 0.1500 0.1500  plane waves:     209
 k-point 167 :   0.2000 0.2000 0.1500  plane waves:     206
 k-point 168 :   0.2500 0.2000 0.1500  plane waves:     210
 k-point 169 :   0.3000 0.2000 0.1500  plane waves:     210
 k-point 170 :  -0.2000 0.2000 0.1500  plane waves:     212
 k-point 171 :   0.2500 0.2500 0.1500  plane waves:     206
 k-point 172 :   0.3000 0.2500 0.1500  plane waves:     208
 k-point 173 :  -0.2500 0.2500 0.1500  plane waves:     208
 k-point 174 :  -0.2000 0.2500 0.1500  plane waves:     210
 k-point 175 :  -0.3000 0.3000 0.1500  plane waves:     210
 k-point 176 :  -0.2500 0.3000 0.1500  plane waves:     209
 k-point 177 :  -0.3500 0.3500 0.1500  plane waves:     212
 k-point 178 :  -0.3000 0.3500 0.1500  plane waves:     211
 k-point 179 :  -0.2500 0.3500 0.1500  plane waves:     213
 k-point 180 :  -0.4000 0.4000 0.1500  plane waves:     213
 k-point 181 :  -0.3500 0.4000 0.1500  plane waves:     211
 k-point 182 :  -0.3000 0.4000 0.1500  plane waves:     211
 k-point 183 :  -0.4500 0.4500 0.1500  plane waves:     209
 k-point 184 :  -0.4000 0.4500 0.1500  plane waves:     212
 k-point 185 :  -0.3500 0.4500 0.1500  plane waves:     213
 k-point 186 :  -0.3000 0.4500 0.1500  plane waves:     214
 k-point 187 :   0.5000 0.5000 0.1500  plane waves:     208
 k-point 188 :  -0.4500 0.5000 0.1500  plane waves:     210
 k-point 189 :  -0.4000 0.5000 0.1500  plane waves:     211
 k-point 190 :  -0.3500 0.5000 0.1500  plane waves:     214
 k-point 191 :  -0.4500-0.4500 0.1500  plane waves:     212
 k-point 192 :  -0.4000-0.4500 0.1500  plane waves:     210
 k-point 193 :  -0.3500-0.4500 0.1500  plane waves:     211
 k-point 194 :  -0.4000-0.4000 0.1500  plane waves:     210
 k-point 195 :   0.2000 0.2000 0.2000  plane waves:     204
 k-point 196 :   0.2500 0.2000 0.2000  plane waves:     212
 k-point 197 :   0.3000 0.2000 0.2000  plane waves:     214
 k-point 198 :  -0.2000 0.2000 0.2000  plane waves:     209
 k-point 199 :   0.2500 0.2500 0.2000  plane waves:     216
 k-point 200 :  -0.2500 0.2500 0.2000  plane waves:     205
 k-point 201 :  -0.3000 0.3000 0.2000  plane waves:     211
 k-point 202 :  -0.2500 0.3000 0.2000  plane waves:     207
 k-point 203 :  -0.3500 0.3500 0.2000  plane waves:     213
 k-point 204 :  -0.3000 0.3500 0.2000  plane waves:     213
 k-point 205 :  -0.4000 0.4000 0.2000  plane waves:     215
 k-point 206 :  -0.3500 0.4000 0.2000  plane waves:     212
 k-point 207 :  -0.3000 0.4000 0.2000  plane waves:     211
 k-point 208 :  -0.4500 0.4500 0.2000  plane waves:     212
 k-point 209 :  -0.4000 0.4500 0.2000  plane waves:     214
 k-point 210 :  -0.3500 0.4500 0.2000  plane waves:     212
 k-point 211 :   0.5000 0.5000 0.2000  plane waves:     208
 k-point 212 :  -0.4500 0.5000 0.2000  plane waves:     212
 k-point 213 :  -0.4000 0.5000 0.2000  plane waves:     210
 k-point 214 :  -0.3500 0.5000 0.2000  plane waves:     213
 k-point 215 :  -0.4500-0.4500 0.2000  plane waves:     210
 k-point 216 :  -0.4000-0.4500 0.2000  plane waves:     212
 k-point 217 :  -0.4000-0.4000 0.2000  plane waves:     215
 k-point 218 :   0.2500 0.2500 0.2500  plane waves:     216
 k-point 219 :  -0.2500 0.2500 0.2500  plane waves:     209
 k-point 220 :  -0.3000 0.3000 0.2500  plane waves:     206
 k-point 221 :  -0.3500 0.3500 0.2500  plane waves:     212
 k-point 222 :  -0.3000 0.3500 0.2500  plane waves:     211
 k-point 223 :  -0.4000 0.4000 0.2500  plane waves:     213
 k-point 224 :  -0.3500 0.4000 0.2500  plane waves:     212
 k-point 225 :  -0.4500 0.4500 0.2500  plane waves:     215
 k-point 226 :  -0.4000 0.4500 0.2500  plane waves:     215
 k-point 227 :  -0.3500 0.4500 0.2500  plane waves:     214
 k-point 228 :   0.5000 0.5000 0.2500  plane waves:     210
 k-point 229 :  -0.4500 0.5000 0.2500  plane waves:     212
 k-point 230 :  -0.4000 0.5000 0.2500  plane waves:     216
 k-point 231 :  -0.4500-0.4500 0.2500  plane waves:     215
 k-point 232 :  -0.4000-0.4500 0.2500  plane waves:     216
 k-point 233 :  -0.3000 0.3000 0.3000  plane waves:     205
 k-point 234 :  -0.3500 0.3500 0.3000  plane waves:     214
 k-point 235 :  -0.4000 0.4000 0.3000  plane waves:     218
 k-point 236 :  -0.3500 0.4000 0.3000  plane waves:     216
 k-point 237 :  -0.4500 0.4500 0.3000  plane waves:     216
 k-point 238 :  -0.4000 0.4500 0.3000  plane waves:     217
 k-point 239 :   0.5000 0.5000 0.3000  plane waves:     216
 k-point 240 :  -0.4500 0.5000 0.3000  plane waves:     215
 k-point 241 :  -0.4000 0.5000 0.3000  plane waves:     218
 k-point 242 :  -0.4500-0.4500 0.3000  plane waves:     216
 k-point 243 :  -0.3500 0.3500 0.3500  plane waves:     212
 k-point 244 :  -0.4000 0.4000 0.3500  plane waves:     216
 k-point 245 :  -0.4500 0.4500 0.3500  plane waves:     218
 k-point 246 :  -0.4000 0.4500 0.3500  plane waves:     218
 k-point 247 :   0.5000 0.5000 0.3500  plane waves:     216
 k-point 248 :  -0.4500 0.5000 0.3500  plane waves:     219
 k-point 249 :  -0.4500-0.4500 0.3500  plane waves:     218
 k-point 250 :  -0.4000 0.4000 0.4000  plane waves:     220
 k-point 251 :  -0.4500 0.4500 0.4000  plane waves:     222
 k-point 252 :   0.5000 0.5000 0.4000  plane waves:     220
 k-point 253 :  -0.4500 0.5000 0.4000  plane waves:     224
 k-point 254 :  -0.4500 0.4500 0.4500  plane waves:     228
 k-point 255 :   0.5000 0.5000 0.4500  plane waves:     232
 k-point 256 :   0.5000 0.5000 0.5000  plane waves:     236

 maximum and minimum number of plane-waves per node :       236      200

 maximum number of plane-waves:       236
 maximum index in each direction: 
   IXMAX=    4   IYMAX=    4   IZMAX=    4
   IXMIN=   -4   IYMIN=   -4   IZMIN=   -4


 serial   3D FFT for wavefunctions
 parallel 3D FFT for charge:
    minimum data exchange during FFTs selected (reduces bandwidth)


 total amount of memory used by VASP MPI-rank0    47950. kBytes
=======================================================================

   base      :      30000. kBytes
   nonl-proj :       8703. kBytes
   fftplans  :       1184. kBytes
   grid      :       1806. kBytes
   one-center:         15. kBytes
   wavefun   :       6242. kBytes
 
     INWAV:  cpu time      0.0000: real time      0.0000
 Broyden mixing: mesh for mixing (old mesh)
   NGX =  7   NGY =  7   NGZ =  7
  (NGX  = 32   NGY  = 32   NGZ  = 32)
  gives a total of    343 points

 initial charge density was supplied:
 charge density of overlapping atoms calculated
 number of electron       5.0000000 magnetization 
 keeping initial charge density in first step


--------------------------------------------------------------------------------------------------------


 Maximum index for augmentation-charges         17153 (set IRDMAX)


--------------------------------------------------------------------------------------------------------


 First call to EWALD:  gamma=   0.734
 Maximum number of real-space cells 3x 3x 3
 Maximum number of reciprocal cells 3x 3x 3

    FEWALD:  cpu time      0.0009: real time      0.0006


--------------------------------------- Ionic step        1  -------------------------------------------




--------------------------------------- Iteration      1(   1)  ---------------------------------------


    POTLOK:  cpu time      0.0174: real time      0.0172
    SETDIJ:  cpu time      0.0072: real time      0.0036
     EDDAV:  cpu time      2.1917: real time      2.1913
       DOS:  cpu time      0.0018: real time      0.0018
    --------------------------------------------
      LOOP:  cpu time      2.2181: real time      2.2139

 eigenvalue-minimisations  :  3084
 total energy-change (2. order) : 0.3693452E+01  (-0.1654042E+03)
 number of electron       5.0000000 magnetization 
 augmentation part        5.0000000 magnetization 

 Free energy of the ion-electron system (eV)
  ---------------------------------------------------
  alpha Z        PSCENC =        22.02173108
  Ewald energy   TEWEN  =      -215.33273660
  -Hartree energ DENC   =       -17.72903748
  -exchange      EXHF   =         0.00000000
  -V(xc)+E(xc)   XCENC  =       -46.14820557
  PAW double counting   =       206.26570475     -156.96727414
  entropy T*S    EENTRO =        -0.00010251
  eigenvalues    EBANDS =        40.71660225
  atomic energy  EATOM  =       170.86676999
  Solvation  Ediel_sol  =         0.00000000
  ---------------------------------------------------
  free energy    TOTEN  =         3.69345177 eV

  energy without entropy =        3.69355428  energy(sigma->0) =        3.69348594


--------------------------------------------------------------------------------------------------------




--------------------------------------- Iteration      1(   2)  ---------------------------------------


     EDDAV:  cpu time      2.0831: real time      2.0835
       DOS:  cpu time      0.0019: real time      0.0019
    --------------------------------------------
      LOOP:  cpu time      2.0850: real time      2.0854

 eigenvalue-minimisations  :  3084
 total energy-change (2. order) :-0.1394393E+02  (-0.1339176E+02)
 number of electron       5.0000000 magnetization 
 augmentation part        5.0000000 magnetization 

 Free energy of the ion-electron system (eV)
  ---------------------------------------------------
  alpha Z        PSCENC =        22.02173108
  Ewald energy   TEWEN  =      -215.33273660
  -Hartree energ DENC   =       -17.72903748
  -exchange      EXHF   =         0.00000000
  -V(xc)+E(xc)   XCENC  =       -46.14820557
  PAW double counting   =       206.26570475     -156.96727414
  entropy T*S    EENTRO =        -0.00009792
  eigenvalues    EBANDS =        26.77266607
  atomic energy  EATOM  =       170.86676999
  Solvation  Ediel_sol  =         0.00000000
  ---------------------------------------------------
  free energy    TOTEN  =       -10.25047983 eV

  energy without entropy =      -10.25038190  energy(sigma->0) =      -10.25044719


--------------------------------------------------------------------------------------------------------




--------------------------------------- Iteration      1(   3)  ---------------------------------------


     EDDAV:  cpu time      2.1559: real time      2.1566
       DOS:  cpu time      0.0020: real time      0.0020
    --------------------------------------------
      LOOP:  cpu time      2.1579: real time      2.1585

 eigenvalue-minimisations  :  3222
 total energy-change (2. order) :-0.1511650E+00  (-0.1506712E+00)
 number of electron       5.0000000 magnetization 
 augmentation part        5.0000000 magnetization 

 Free energy of the ion-electron system (eV)
  ---------------------------------------------------
  alpha Z        PSCENC =        22.02173108
  Ewald energy   TEWEN  =      -215.33273660
  -Hartree energ DENC   =       -17.72903748
  -exchange      EXHF   =         0.00000000
  -V(xc)+E(xc)   XCENC  =       -46.14820557
  PAW double counting   =       206.26570475     -156.96727414
  entropy T*S    EENTRO =        -0.00016280
  eigenvalues    EBANDS =        26.62156595
  atomic energy  EATOM  =       170.86676999
  Solvation  Ediel_sol  =         0.00000000
  ---------------------------------------------------
  free energy    TOTEN  =       -10.40164483 eV

  energy without entropy =      -10.40148202  energy(sigma->0) =      -10.40159056


--------------------------------------------------------------------------------------------------------




--------------------------------------- Iteration      1(   4)  ---------------------------------------


     EDDAV:  cpu time      2.3850: real time      2.3856
       DOS:  cpu time      0.0018: real time      0.0018
    --------------------------------------------
      LOOP:  cpu time      2.3867: real time      2.3874

 eigenvalue-minimisations  :  3654
 total energy-change (2. order) :-0.1671073E-02  (-0.1670908E-02)
 number of electron       5.0000000 magnetization 
 augmentation part        5.0000000 magnetization 

 Free energy of the ion-electron system (eV)
  ---------------------------------------------------
  alpha Z        PSCENC =        22.02173108
  Ewald energy   TEWEN  =      -215.33273660
  -Hartree energ DENC   =       -17.72903748
  -exchange      EXHF   =         0.00000000
  -V(xc)+E(xc)   XCENC  =       -46.14820557
  PAW double counting   =       206.26570475     -156.96727414
  entropy T*S    EENTRO =        -0.00015747
  eigenvalues    EBANDS =        26.61988954
  atomic energy  EATOM  =       170.86676999
  Solvation  Ediel_sol  =         0.00000000
  ---------------------------------------------------
  free energy    TOTEN  =       -10.40331590 eV

  energy without entropy =      -10.40315843  energy(sigma->0) =      -10.40326341


--------------------------------------------------------------------------------------------------------




--------------------------------------- Iteration      1(   5)  ---------------------------------------


     EDDAV:  cpu time      2.1312: real time      2.1317
       DOS:  cpu time      0.0019: real time      0.0019
    CHARGE:  cpu time      0.1867: real time      0.1854
    MIXING:  cpu time      0.0008: real time      0.0004
    --------------------------------------------
      LOOP:  cpu time      2.3206: real time      2.3194

 eigenvalue-minimisations  :  3204
 total energy-change (2. order) :-0.1753020E-04  (-0.1753074E-04)
 number of electron       4.9999999 magnetization 
 augmentation part        1.3212447 magnetization 

 Broyden mixing:
  rms(total) = 0.11217E+01    rms(broyden)= 0.11217E+01
  rms(prec ) = 0.31541E+01
  weight for this iteration     100.00

 Free energy of the ion-electron system (eV)
  ---------------------------------------------------
  alpha Z        PSCENC =        22.02173108
  Ewald energy   TEWEN  =      -215.33273660
  -Hartree energ DENC   =       -17.72903748
  -exchange      EXHF   =         0.00000000
  -V(xc)+E(xc)   XCENC  =       -46.14820557
  PAW double counting   =       206.26570475     -156.96727414
  entropy T*S    EENTRO =        -0.00015735
  eigenvalues    EBANDS =        26.61987189
  atomic energy  EATOM  =       170.86676999
  Solvation  Ediel_sol  =         0.00000000
  ---------------------------------------------------
  free energy    TOTEN  =       -10.40333343 eV

  energy without entropy =      -10.40317608  energy(sigma->0) =      -10.40328098


--------------------------------------------------------------------------------------------------------




--------------------------------------- Iteration      1(   6)  ---------------------------------------


    POTLOK:  cpu time      0.0042: real time      0.0031
    SETDIJ:  cpu time      0.0087: real time      0.0043
     EDDAV:  cpu time      2.1020: real time      2.1016
       DOS:  cpu time      0.0020: real time      0.0020
    CHARGE:  cpu time      0.1862: real time      0.1848
    MIXING:  cpu time      0.0009: real time      0.0005
    --------------------------------------------
      LOOP:  cpu time      2.3040: real time      2.2963

 eigenvalue-minimisations  :  3126
 total energy-change (2. order) : 0.1431568E+01  (-0.5123561E+00)
 number of electron       4.9999999 magnetization 
 augmentation part        1.7422854 magnetization 

 Broyden mixing:
  rms(total) = 0.18703E+00    rms(broyden)= 0.18698E+00
  rms(prec ) = 0.53731E+00
  weight for this iteration     100.00

 eigenvalues of (default mixing * dielectric matrix)
  average eigenvalue GAMMA=   0.9746
  0.9746

 Free energy of the ion-electron system (eV)
  ---------------------------------------------------
  alpha Z        PSCENC =        22.02173108
  Ewald energy   TEWEN  =      -215.33273660
  -Hartree energ DENC   =       -11.70775919
  -exchange      EXHF   =         0.00000000
  -V(xc)+E(xc)   XCENC  =       -46.02026752
  PAW double counting   =       255.78508500     -206.09633314
  entropy T*S    EENTRO =        -0.00030747
  eigenvalues    EBANDS =        21.51205245
  atomic energy  EATOM  =       170.86676999
  Solvation  Ediel_sol  =         0.00000000
  ---------------------------------------------------
  free energy    TOTEN  =        -8.97176541 eV

  energy without entropy =       -8.97145794  energy(sigma->0) =       -8.97166292


--------------------------------------------------------------------------------------------------------




--------------------------------------- Iteration      1(   7)  ---------------------------------------


    POTLOK:  cpu time      0.0042: real time      0.0031
    SETDIJ:  cpu time      0.0065: real time      0.0033
     EDDAV:  cpu time      2.0955: real time      2.0952
       DOS:  cpu time      0.0020: real time      0.0020
    CHARGE:  cpu time      0.1857: real time      0.1845
    MIXING:  cpu time      0.0011: real time      0.0006
    --------------------------------------------
      LOOP:  cpu time      2.2951: real time      2.2886

 eigenvalue-minimisations  :  3120
 total energy-change (2. order) : 0.4874959E-01  (-0.1293947E-01)
 number of electron       4.9999999 magnetization 
 augmentation part        1.8104250 magnetization 

 Broyden mixing:
  rms(total) = 0.12221E+00    rms(broyden)= 0.12221E+00
  rms(prec ) = 0.15099E+00
  weight for this iteration     100.00

 eigenvalues of (default mixing * dielectric matrix)
  average eigenvalue GAMMA=   1.5457
  1.1285  1.9628

 Free energy of the ion-electron system (eV)
  ---------------------------------------------------
  alpha Z        PSCENC =        22.02173108
  Ewald energy   TEWEN  =      -215.33273660
  -Hartree energ DENC   =       -10.68579808
  -exchange      EXHF   =         0.00000000
  -V(xc)+E(xc)   XCENC  =       -45.97233954
  PAW double counting   =       276.83676808     -227.45176108
  entropy T*S    EENTRO =        -0.00036919
  eigenvalues    EBANDS =        20.79471951
  atomic energy  EATOM  =       170.86676999
  Solvation  Ediel_sol  =         0.00000000
  ---------------------------------------------------
  free energy    TOTEN  =        -8.92301583 eV

  energy without entropy =       -8.92264664  energy(sigma->0) =       -8.92289276


--------------------------------------------------------------------------------------------------------




--------------------------------------- Iteration      1(   8)  ---------------------------------------


    POTLOK:  cpu time      0.0041: real time      0.0029
    SETDIJ:  cpu time      0.0052: real time      0.0027
     EDDAV:  cpu time      2.0691: real time      2.0688
       DOS:  cpu time      0.0020: real time      0.0020
    CHARGE:  cpu time      0.1895: real time      0.1881
    MIXING:  cpu time      0.0010: real time      0.0005
    --------------------------------------------
      LOOP:  cpu time      2.2708: real time      2.2649

 eigenvalue-minimisations  :  3072
 total energy-change (2. order) : 0.1096298E-01  (-0.5020027E-03)
 number of electron       4.9999999 magnetization 
 augmentation part        1.8068733 magnetization 

 Broyden mixing:
  rms(total) = 0.21536E-01    rms(broyden)= 0.21533E-01
  rms(prec ) = 0.40789E-01
  weight for this iteration     100.00

 eigenvalues of (default mixing * dielectric matrix)
  average eigenvalue GAMMA=   1.6764
  1.1323  1.1323  2.7645

 Free energy of the ion-electron system (eV)
  ---------------------------------------------------
  alpha Z        PSCENC =        22.02173108
  Ewald energy   TEWEN  =      -215.33273660
  -Hartree energ DENC   =       -10.45783812
  -exchange      EXHF   =         0.00000000
  -V(xc)+E(xc)   XCENC  =       -45.95203080
  PAW double counting   =       294.02613289     -245.07364942
  entropy T*S    EENTRO =        -0.00041085
  eigenvalues    EBANDS =        20.98997899
  atomic energy  EATOM  =       170.86676999
  Solvation  Ediel_sol  =         0.00000000
  ---------------------------------------------------
  free energy    TOTEN  =        -8.91205284 eV

  energy without entropy =       -8.91164200  energy(sigma->0) =       -8.91191589


--------------------------------------------------------------------------------------------------------




--------------------------------------- Iteration      1(   9)  ---------------------------------------


    POTLOK:  cpu time      0.0044: real time      0.0033
    SETDIJ:  cpu time      0.0065: real time      0.0032
     EDDAV:  cpu time      2.5859: real time      2.5857
       DOS:  cpu time      0.0020: real time      0.0020
    CHARGE:  cpu time      0.1859: real time      0.1847
    MIXING:  cpu time      0.0009: real time      0.0005
    --------------------------------------------
      LOOP:  cpu time      2.7857: real time      2.7794

 eigenvalue-minimisations  :  4044
 total energy-change (2. order) : 0.2769084E-03  (-0.7755287E-04)
 number of electron       4.9999999 magnetization 
 augmentation part        1.8120211 magnetization 

 Broyden mixing:
  rms(total) = 0.68315E-02    rms(broyden)= 0.68295E-02
  rms(prec ) = 0.14347E-01
  weight for this iteration     100.00

 eigenvalues of (default mixing * dielectric matrix)
  average eigenvalue GAMMA=   1.8339
  2.8977  2.3772  0.9786  1.0821

 Free energy of the ion-electron system (eV)
  ---------------------------------------------------
  alpha Z        PSCENC =        22.02173108
  Ewald energy   TEWEN  =      -215.33273660
  -Hartree energ DENC   =       -10.33430032
  -exchange      EXHF   =         0.00000000
  -V(xc)+E(xc)   XCENC  =       -45.94213789
  PAW double counting   =       300.48727427     -251.65323947
  entropy T*S    EENTRO =        -0.00041155
  eigenvalues    EBANDS =        20.97527456
  atomic energy  EATOM  =       170.86676999
  Solvation  Ediel_sol  =         0.00000000
  ---------------------------------------------------
  free energy    TOTEN  =        -8.91177593 eV

  energy without entropy =       -8.91136438  energy(sigma->0) =       -8.91163875


--------------------------------------------------------------------------------------------------------




--------------------------------------- Iteration      1(  10)  ---------------------------------------


    POTLOK:  cpu time      0.0041: real time      0.0029
    SETDIJ:  cpu time      0.0053: real time      0.0027
     EDDAV:  cpu time      2.2253: real time      2.2250
       DOS:  cpu time      0.0020: real time      0.0020
    CHARGE:  cpu time      0.1863: real time      0.1850
    MIXING:  cpu time      0.0009: real time      0.0004
    --------------------------------------------
      LOOP:  cpu time      2.4240: real time      2.4181

 eigenvalue-minimisations  :  3366
 total energy-change (2. order) : 0.6223139E-04  (-0.4764611E-05)
 number of electron       4.9999999 magnetization 
 augmentation part        1.8106860 magnetization 

 Broyden mixing:
  rms(total) = 0.44993E-03    rms(broyden)= 0.44956E-03
  rms(prec ) = 0.15329E-02
  weight for this iteration     100.00

 eigenvalues of (default mixing * dielectric matrix)
  average eigenvalue GAMMA=   1.6550
  2.5624  2.5624  1.1119  0.9758  1.0623

 Free energy of the ion-electron system (eV)
  ---------------------------------------------------
  alpha Z        PSCENC =        22.02173108
  Ewald energy   TEWEN  =      -215.33273660
  -Hartree energ DENC   =       -10.37964414
  -exchange      EXHF   =         0.00000000
  -V(xc)+E(xc)   XCENC  =       -45.94379706
  PAW double counting   =       299.74355927     -250.86839080
  entropy T*S    EENTRO =        -0.00041457
  eigenvalues    EBANDS =        20.98120913
  atomic energy  EATOM  =       170.86676999
  Solvation  Ediel_sol  =         0.00000000
  ---------------------------------------------------
  free energy    TOTEN  =        -8.91171370 eV

  energy without entropy =       -8.91129913  energy(sigma->0) =       -8.91157551


--------------------------------------------------------------------------------------------------------




--------------------------------------- Iteration      1(  11)  ---------------------------------------


    POTLOK:  cpu time      0.0043: real time      0.0031
    SETDIJ:  cpu time      0.0066: real time      0.0033
     EDDAV:  cpu time      1.3071: real time      1.3065
       DOS:  cpu time      0.0020: real time      0.0020
    --------------------------------------------
      LOOP:  cpu time      1.3200: real time      1.3149

 eigenvalue-minimisations  :  1560
 total energy-change (2. order) : 0.6107089E-06  (-0.1155258E-06)
 number of electron       4.9999999 magnetization 
 augmentation part        1.8106860 magnetization 

 Free energy of the ion-electron system (eV)
  ---------------------------------------------------
  alpha Z        PSCENC =        22.02173108
  Ewald energy   TEWEN  =      -215.33273660
  -Hartree energ DENC   =       -10.37646200
  -exchange      EXHF   =         0.00000000
  -V(xc)+E(xc)   XCENC  =       -45.94381841
  PAW double counting   =       299.67972113     -250.80562097
  entropy T*S    EENTRO =        -0.00041444
  eigenvalues    EBANDS =        20.97911714
  atomic energy  EATOM  =       170.86676999
  Solvation  Ediel_sol  =         0.00000000
  ---------------------------------------------------
  free energy    TOTEN  =        -8.91171309 eV

  energy without entropy =       -8.91129865  energy(sigma->0) =       -8.91157494


--------------------------------------------------------------------------------------------------------




 average (electrostatic) potential at core
  the test charge radii are     1.2064
  (the norm of the test charge is              1.0000)
       1 -39.7143
 
 
 
 E-fermi :   5.7216     XC(G=0): -12.2576     alpha+bet :-14.5663

 Fermi energy:         5.7216368741

 k-point     1 :       0.0000    0.0000    0.0000
  band No.  band energies     occupation 
      1      -0.6734      2.00000
      2       6.1035     -0.00000
      3       6.1035     -0.00000
      4       6.1035     -0.00000
      5       7.9655      0.00000
      6       7.9655      0.00000

 k-point     2 :       0.0500    0.0000    0.0000
  band No.  band energies     occupation 
      1      -0.5765      2.00000
      2       6.0638     -0.00000
      3       6.0961     -0.00000
      4       6.1710     -0.00000
      5       7.9199      0.00000
      6       7.9683      0.00000

 k-point     3 :       0.1000    0.0000    0.0000
  band No.  band energies     occupation 
      1      -0.2915      2.00000
      2       5.9503     -0.00000
      3       6.0637     -0.00000
      4       6.3701     -0.00000
      5       7.8080      0.00000
      6       7.9777      0.00000

 k-point     4 :       0.1500    0.0000    0.0000
  band No.  band energies     occupation 
      1       0.1627      2.00000
      2       5.7782     -0.06792
      3       5.9824     -0.00000
      4       6.6904     -0.00000
      5       7.6934      0.00000
      6       7.9964      0.00000

 k-point     5 :       0.2000    0.0000    0.0000
  band No.  band energies     occupation 
      1       0.7498      2.00000
      2       5.5688      2.00014
      3       5.8468     -0.00227
      4       7.1134      0.00000
      5       7.6402      0.00000
      6       8.0270      0.00000

 k-point     6 :       0.2500    0.0000    0.0000
  band No.  band energies     occupation 
      1       1.4050      2.00000
      2       5.3454      2.00000
      3       5.7147      1.23148
      4       7.6118      0.00000
      5       7.6675      0.00000
      6       8.0705      0.00000

 k-point     7 :       0.3000    0.0000    0.0000
  band No.  band energies     occupation 
      1       2.0193      2.00000
      2       5.1306      2.00000
      3       5.7110      1.35044
      4       7.7502      0.00000
      5       8.1247      0.00000
      6       8.1477      0.00000

 k-point     8 :       0.3500    0.0000    0.0000
  band No.  band energies     occupation 
      1       2.4564      2.00000
      2       4.9434      2.00000
      3       5.9687     -0.00000
      4       7.8509      0.00000
      5       8.1834      0.00000
      6       8.6707      0.00000

 k-point     9 :       0.4000    0.0000    0.0000
  band No.  band energies     occupation 
      1       2.6649      2.00000
      2       4.7990      2.00000
      3       6.4846     -0.00000
      4       7.9339      0.00000
      5       8.2370      0.00000
      6       9.1190      0.00000

 k-point    10 :       0.4500    0.0000    0.0000
  band No.  band energies     occupation 
      1       2.7270      2.00000
      2       4.7081      2.00000
      3       7.0401     -0.00000
      4       7.9682      0.00000
      5       8.2750      0.00000
      6       9.4256      0.00000

 k-point    11 :       0.5000    0.0000    0.0000
  band No.  band energies     occupation 
      1       2.7365      2.00000
      2       4.6771      2.00000
      3       7.2995      0.00000
      4       7.9609      0.00000
      5       8.2887      0.00000
      6       9.5352      0.00000

 k-point    12 :       0.0500    0.0500    0.0000
  band No.  band energies     occupation 
      1      -0.3855      2.00000
      2       6.0097     -0.00000
      3       6.0456     -0.00000
      4       6.3129     -0.00000
      5       7.8364      0.00000
      6       7.9789      0.00000

 k-point    13 :       0.1000    0.0500    0.0000
  band No.  band energies     occupation 
      1      -0.0151      2.00000
      2       5.8709     -0.00020
      3       5.9784     -0.00000
      4       6.5807     -0.00000
      5       7.7114      0.00000
      6       8.0030      0.00000

 k-point    14 :       0.1500    0.0500    0.0000
  band No.  band energies     occupation 
      1       0.5084      2.00000
      2       5.6765      2.02374
      3       5.8660     -0.00035
      4       6.9592     -0.00000
      5       7.6169      0.00000
      6       8.0384      0.00000

 k-point    15 :       0.2000    0.0500    0.0000
  band No.  band energies     occupation 
      1       1.1374      2.00000
      2       5.4570      2.00000
      3       5.7186      1.10193
      4       7.4255      0.00000
      5       7.6037      0.00000
      6       8.0840      0.00000

 k-point    16 :       0.2500    0.0500    0.0000
  band No.  band energies     occupation 
      1       1.7877      2.00000
      2       5.2363      2.00000
      3       5.6240      2.01861
      4       7.6566      0.00000
      5       7.9606      0.00000
      6       8.1387      0.00000

 k-point    17 :       0.3000    0.0500    0.0000
  band No.  band energies     occupation 
      1       2.3293      2.00000
      2       5.0355      2.00000
      3       5.7188      1.09754
      4       7.7617      0.00000
      5       8.1947      0.00000
      6       8.5093      0.00000

 k-point    18 :       0.3500    0.0500    0.0000
  band No.  band energies     occupation 
      1       2.6481      2.00000
      2       4.8709      2.00000
      3       6.0855     -0.00000
      4       7.8689      0.00000
      5       8.2604      0.00000
      6       9.0202      0.00000

 k-point    19 :       0.4000    0.0500    0.0000
  band No.  band energies     occupation 
      1       2.7671      2.00000
      2       4.7545      2.00000
      3       6.6029     -0.00000
      4       7.9366      0.00000
      5       8.3382      0.00000
      6       9.4326      0.00000

 k-point    20 :       0.4500    0.0500    0.0000
  band No.  band energies     occupation 
      1       2.7928      2.00000
      2       4.6944      2.00000
      3       6.9878     -0.00000
      4       7.9485      0.00000
      5       8.4094      0.00000
      6       9.6730      0.00000

 k-point    21 :       0.1000    0.1000    0.0000
  band No.  band energies     occupation 
      1       0.4265      2.00000
      2       5.7513      0.16523
      3       5.8244     -0.01329
      4       6.9222     -0.00000
      5       7.5935      0.00000
      6       8.0554      0.00000

 k-point    22 :       0.1500    0.1000    0.0000
  band No.  band energies     occupation 
      1       1.0001      2.00000
      2       5.5608      2.00005
      3       5.6614      2.07080
      4       7.3650      0.00000
      5       7.5273      0.00000
      6       8.1190      0.00000

 k-point    23 :       0.2000    0.1000    0.0000
  band No.  band energies     occupation 
      1       1.6455      2.00000
      2       5.3369      2.00000
      3       5.5174      2.00000
      4       7.5375      0.00000
      5       7.8887      0.00000
      6       8.1892      0.00000

 k-point    24 :       0.2500    0.1000    0.0000
  band No.  band energies     occupation 
      1       2.2587      2.00000
      2       5.1246      2.00000
      3       5.4719      2.00000
      4       7.6238      0.00000
      5       8.2264      0.00000
      6       8.4866      0.00000

 k-point    25 :       0.3000    0.1000    0.0000
  band No.  band energies     occupation 
      1       2.6989      2.00000
      2       4.9492      2.00000
      3       5.6390      2.04132
      4       7.7461      0.00000
      5       8.2977      0.00000
      6       9.0612      0.00000

 k-point    26 :       0.3500    0.1000    0.0000
  band No.  band energies     occupation 
      1       2.9028      2.00000
      2       4.8184      2.00000
      3       6.0190     -0.00000
      4       7.8555      0.00000
      5       8.3814      0.00000
      6       9.6018      0.00000

 k-point    27 :       0.4000    0.1000    0.0000
  band No.  band energies     occupation 
      1       2.9567      2.00000
      2       4.7372      2.00000
      3       6.4069     -0.00000
      4       7.9079      0.00000
      5       8.4867      0.00000
      6      10.0277      0.00000

 k-point    28 :       0.4500    0.1000    0.0000
  band No.  band energies     occupation 
      1       2.9629      2.00000
      2       4.7096      2.00000
      3       6.5680     -0.00000
      4       7.9163      0.00000
      5       8.5421      0.00000
      6      10.2032      0.00000

 k-point    29 :       0.1500    0.1500    0.0000
  band No.  band energies     occupation 
      1       1.5976      2.00000
      2       5.4060      2.00000
      3       5.4446      2.00000
      4       7.4870      0.00000
      5       7.8703      0.00000
      6       8.2131      0.00000

 k-point    30 :       0.2000    0.1500    0.0000
  band No.  band energies     occupation 
      1       2.2297      2.00000
      2       5.1655      2.00000
      3       5.3432      2.00000
      4       7.5232      0.00000
      5       8.2368      0.00000
      6       8.5125      0.00000

 k-point    31 :       0.2500    0.1500    0.0000
  band No.  band energies     occupation 
      1       2.7753      2.00000
      2       4.9758      2.00000
      3       5.3411      2.00000
      4       7.6224      0.00000
      5       8.3151      0.00000
      6       9.1378      0.00000

 k-point    32 :       0.3000    0.1500    0.0000
  band No.  band energies     occupation 
      1       3.1009      2.00000
      2       4.8520      2.00000
      3       5.5226      2.00000
      4       7.7494      0.00000
      5       8.3784      0.00000
      6       9.7938      0.00000

 k-point    33 :       0.3500    0.1500    0.0000
  band No.  band energies     occupation 
      1       3.2103      2.00000
      2       4.7743      2.00000
      3       5.8282     -0.01026
      4       7.8500      0.00000
      5       8.4607      0.00000
      6      10.4132      0.00000

 k-point    34 :       0.4000    0.1500    0.0000
  band No.  band energies     occupation 
      1       3.2255      2.00000
      2       4.7349      2.00000
      3       6.0513     -0.00000
      4       7.8922      0.00000
      5       8.5385      0.00000
      6      10.8523      0.00000

 k-point    35 :       0.2000    0.2000    0.0000
  band No.  band energies     occupation 
      1       2.8133      2.00000
      2       4.9460      2.00000
      3       5.2702      2.00000
      4       7.5705      0.00000
      5       8.3197      0.00000
      6       9.1714      0.00000

 k-point    36 :       0.2500    0.2000    0.0000
  band No.  band energies     occupation 
      1       3.2736      2.00000
      2       4.7898      2.00000
      3       5.2859      2.00000
      4       7.6727      0.00000
      5       8.3703      0.00000
      6       9.9089      0.00000

 k-point    37 :       0.3000    0.2000    0.0000
  band No.  band energies     occupation 
      1       3.5018      2.00000
      2       4.7363      2.00000
      3       5.4075      2.00000
      4       7.7964      0.00000
      5       8.4153      0.00000
      6      10.6827      0.00000

 k-point    38 :       0.3500    0.2000    0.0000
  band No.  band energies     occupation 
      1       3.5529      2.00000
      2       4.7305      2.00000
      3       5.5707      2.00017
      4       7.8880      0.00000
      5       8.4677      0.00000
      6      11.4011      0.00000

 k-point    39 :       0.4000    0.2000    0.0000
  band No.  band energies     occupation 
      1       3.5543      2.00000
      2       4.7305      2.00000
      3       5.6440      2.05046
      4       7.9182      0.00000
      5       8.4961      0.00000
      6      11.7515      0.00000

 k-point    40 :       0.2500    0.2500    0.0000
  band No.  band energies     occupation 
      1       3.6641      2.00000
      2       4.6517      2.00000
      3       5.2764      2.00000
      4       7.7740      0.00000
      5       8.3960      0.00000
      6      10.7768      0.00000

 k-point    41 :       0.3000    0.2500    0.0000
  band No.  band energies     occupation 
      1       3.8586      2.00000
      2       4.6409      2.00000
      3       5.2770      2.00000
      4       7.8976      0.00000
      5       8.4036      0.00000
      6      11.7021      0.00000

 k-point    42 :       0.3500    0.2500    0.0000
  band No.  band energies     occupation 
      1       3.8990      2.00000
      2       4.7002      2.00000
      3       5.2739      2.00000
      4       7.9849      0.00000
      5       8.4050      0.00000
      6      12.5049      0.00000

 k-point    43 :       0.3000    0.3000    0.0000
  band No.  band energies     occupation 
      1       4.0974      2.00000
      2       4.6471      2.00000
      3       5.1091      2.00000
      4       8.0325      0.00000
      5       8.3473      0.00000
      6      12.8073      0.00000

 k-point    44 :       0.3500    0.3000    0.0000
  band No.  band energies     occupation 
      1       4.1645      2.00000
      2       4.7335      2.00000
      3       4.9801      2.00000
      4       8.1202      0.00000
      5       8.2920      0.00000
      6      13.6070      0.00000

 k-point    45 :       0.0500    0.0500    0.0500
  band No.  band energies     occupation 
      1      -0.1062      2.00000
      2       5.9159     -0.00000
      3       5.9159     -0.00000
      4       6.5720     -0.00000
      5       7.8763      0.00000
      6       7.8763      0.00000

 k-point    46 :       0.1000    0.0500    0.0500
  band No.  band energies     occupation 
      1       0.3402      2.00000
      2       5.7279      0.78845
      3       5.8018     -0.04584
      4       6.9295     -0.00000
      5       7.7668      0.00000
      6       7.9312      0.00000

 k-point    47 :       0.1500    0.0500    0.0500
  band No.  band energies     occupation 
      1       0.9202      2.00000
      2       5.5092      2.00000
      3       5.6537      2.06639
      4       7.3780      0.00000
      5       7.7073      0.00000
      6       7.9932      0.00000

 k-point    48 :       0.2000    0.0500    0.0500
  band No.  band energies     occupation 
      1       1.5726      2.00000
      2       5.2845      2.00000
      3       5.5138      2.00000
      4       7.7103      0.00000
      5       7.9084      0.00000
      6       8.0588      0.00000

 k-point    49 :       0.2500    0.0500    0.0500
  band No.  band energies     occupation 
      1       2.1907      2.00000
      2       5.0743      2.00000
      3       5.4900      2.00000
      4       7.7785      0.00000
      5       8.1255      0.00000
      6       8.4711      0.00000

 k-point    50 :       0.3000    0.0500    0.0500
  band No.  band energies     occupation 
      1       2.6310      2.00000
      2       4.8946      2.00000
      3       5.7122      1.31425
      4       7.8664      0.00000
      5       8.1894      0.00000
      6       9.0377      0.00000

 k-point    51 :       0.3500    0.0500    0.0500
  band No.  band energies     occupation 
      1       2.8340      2.00000
      2       4.7578      2.00000
      3       6.1787     -0.00000
      4       7.9436      0.00000
      5       8.2438      0.00000
      6       9.5531      0.00000

 k-point    52 :       0.4000    0.0500    0.0500
  band No.  band energies     occupation 
      1       2.8886      2.00000
      2       4.6723      2.00000
      3       6.6663     -0.00000
      4       7.9859      0.00000
      5       8.2809      0.00000
      6       9.9445      0.00000

 k-point    53 :       0.4500    0.0500    0.0500
  band No.  band energies     occupation 
      1       2.8952      2.00000
      2       4.6433      2.00000
      3       6.8789     -0.00000
      4       7.9944      0.00000
      5       8.2942      0.00000
      6      10.1002      0.00000

 k-point    54 :      -0.0500    0.0500    0.0500
  band No.  band energies     occupation 
      1      -0.4804      2.00000
      2       6.0923     -0.00000
      3       6.0923     -0.00000
      4       6.1713     -0.00000
      5       7.8213      0.00000
      6       8.0202      0.00000

 k-point    55 :       0.1000    0.1000    0.0500
  band No.  band energies     occupation 
      1       0.8463      2.00000
      2       5.5566      2.00003
      3       5.5937      2.00178
      4       7.3727      0.00000
      5       7.7463      0.00000
      6       7.9594      0.00000

 k-point    56 :       0.1500    0.1000    0.0500
  band No.  band energies     occupation 
      1       1.4622      2.00000
      2       5.3390      2.00000
      3       5.4109      2.00000
      4       7.7229      0.00000
      5       7.8969      0.00000
      6       8.0408      0.00000

 k-point    57 :       0.2000    0.1000    0.0500
  band No.  band energies     occupation 
      1       2.1119      2.00000
      2       5.1198      2.00000
      3       5.2905      2.00000
      4       7.7540      0.00000
      5       8.1200      0.00000
      6       8.4824      0.00000

 k-point    58 :       0.2500    0.1000    0.0500
  band No.  band energies     occupation 
      1       2.6640      2.00000
      2       4.9303      2.00000
      3       5.3347      2.00000
      4       7.8266      0.00000
      5       8.1915      0.00000
      6       9.0974      0.00000

 k-point    59 :       0.3000    0.1000    0.0500
  band No.  band energies     occupation 
      1       2.9820      2.00000
      2       4.7819      2.00000
      3       5.6376      2.03880
      4       7.9128      0.00000
      5       8.2515      0.00000
      6       9.7059      0.00000

 k-point    60 :       0.3500    0.1000    0.0500
  band No.  band energies     occupation 
      1       3.0857      2.00000
      2       4.6797      2.00000
      3       6.0872     -0.00000
      4       7.9815      0.00000
      5       8.3009      0.00000
      6      10.2520      0.00000

 k-point    61 :       0.4000    0.1000    0.0500
  band No.  band energies     occupation 
      1       3.1002      2.00000
      2       4.6276      2.00000
      3       6.4133     -0.00000
      4       8.0137      0.00000
      5       8.3341      0.00000
      6      10.6178      0.00000

 k-point    62 :      -0.1000    0.1000    0.0500
  band No.  band energies     occupation 
      1      -0.1977      2.00000
      2       6.0022     -0.00000
      3       6.0699     -0.00000
      4       6.3498     -0.00000
      5       7.6610      0.00000
      6       8.0666      0.00000

 k-point    63 :       0.1500    0.1500    0.0500
  band No.  band energies     occupation 
      1       2.0867      2.00000
      2       5.1544      2.00000
      3       5.1994      2.00000
      4       7.7331      0.00000
      5       8.1282      0.00000
      6       8.4928      0.00000

 k-point    64 :       0.2000    0.1500    0.0500
  band No.  band energies     occupation 
      1       2.7032      2.00000
      2       4.9475      2.00000
      3       5.1139      2.00000
      4       7.7801      0.00000
      5       8.2102      0.00000
      6       9.1445      0.00000

 k-point    65 :       0.2500    0.1500    0.0500
  band No.  band energies     occupation 
      1       3.1596      2.00000
      2       4.7950      2.00000
      3       5.2058      2.00000
      4       7.8603      0.00000
      5       8.2731      0.00000
      6       9.8289      0.00000

 k-point    66 :       0.3000    0.1500    0.0500
  band No.  band energies     occupation 
      1       3.3552      2.00000
      2       4.6929      2.00000
      3       5.5188      2.00000
      4       7.9487      0.00000
      5       8.3201      0.00000
      6      10.5118      0.00000

 k-point    67 :       0.3500    0.1500    0.0500
  band No.  band energies     occupation 
      1       3.3896      2.00000
      2       4.6324      2.00000
      3       5.8608     -0.00060
      4       8.0131      0.00000
      5       8.3577      0.00000
      6      11.1102      0.00000

 k-point    68 :       0.4000    0.1500    0.0500
  band No.  band energies     occupation 
      1       3.3879      2.00000
      2       4.6122      2.00000
      3       6.0033     -0.00000
      4       8.0348      0.00000
      5       8.3750      0.00000
      6      11.3845      0.00000

 k-point    69 :      -0.1500    0.1500    0.0500
  band No.  band energies     occupation 
      1       0.2526      2.00000
      2       5.8356     -0.00587
      3       5.9994     -0.00000
      4       6.6687     -0.00000
      5       7.5105      0.00000
      6       8.1082      0.00000

 k-point    70 :      -0.1000    0.1500    0.0500
  band No.  band energies     occupation 
      1       0.1660      2.00000
      2       5.9433     -0.00000
      3       6.0058     -0.00000
      4       6.5633     -0.00000
      5       7.4632      0.00000
      6       8.1382      0.00000

 k-point    71 :       0.2000    0.2000    0.0500
  band No.  band energies     occupation 
      1       3.2499      2.00000
      2       4.7769      2.00000
      3       5.0523      2.00000
      4       7.8349      0.00000
      5       8.2824      0.00000
      6       9.8753      0.00000

 k-point    72 :       0.2500    0.2000    0.0500
  band No.  band energies     occupation 
      1       3.6023      2.00000
      2       4.6741      2.00000
      3       5.1452      2.00000
      4       7.9176      0.00000
      5       8.3279      0.00000
      6      10.6570      0.00000

 k-point    73 :       0.3000    0.2000    0.0500
  band No.  band energies     occupation 
      1       3.7118      2.00000
      2       4.6333      2.00000
      3       5.3749      2.00000
      4       8.0049      0.00000
      5       8.3533      0.00000
      6      11.4511      0.00000

 k-point    74 :       0.3500    0.2000    0.0500
  band No.  band energies     occupation 
      1       3.7172      2.00000
      2       4.6175      2.00000
      3       5.5600      2.00005
      4       8.0612      0.00000
      5       8.3670      0.00000
      6      12.0888      0.00000

 k-point    75 :      -0.2000    0.2000    0.0500
  band No.  band energies     occupation 
      1       0.8346      2.00000
      2       5.6305      2.02714
      3       5.8630     -0.00048
      4       7.0924      0.00000
      5       7.4408      0.00000
      6       8.1533      0.00000

 k-point    76 :      -0.1500    0.2000    0.0500
  band No.  band energies     occupation 
      1       0.6798      2.00000
      2       5.7835     -0.07086
      3       5.8966     -0.00001
      4       6.9281     -0.00000
      5       7.3189      0.00000
      6       8.2037      0.00000

 k-point    77 :       0.2500    0.2500    0.0500
  band No.  band energies     occupation 
      1       3.8916      2.00000
      2       4.6181      2.00000
      3       5.1558      2.00000
      4       8.0005      0.00000
      5       8.3480      0.00000
      6      11.5700      0.00000

 k-point    78 :       0.3000    0.2500    0.0500
  band No.  band energies     occupation 
      1       3.9910      2.00000
      2       4.6412      2.00000
      3       5.2059      2.00000
      4       8.0874      0.00000
      5       8.3400      0.00000
      6      12.5118      0.00000

 k-point    79 :       0.3500    0.2500    0.0500
  band No.  band energies     occupation 
      1       4.0037      2.00000
      2       4.6621      2.00000
      3       5.2343      2.00000
      4       8.1300      0.00000
      5       8.3281      0.00000
      6      13.0800      0.00000

 k-point    80 :      -0.2500    0.2500    0.0500
  band No.  band energies     occupation 
      1       1.4841      2.00000
      2       5.4112      2.00000
      3       5.7102      1.37462
      4       7.4771      0.00000
      5       7.5924      0.00000
      6       8.2045      0.00000

 k-point    81 :      -0.2000    0.2500    0.0500
  band No.  band energies     occupation 
      1       1.2965      2.00000
      2       5.5748      2.00027
      3       5.7365      0.52178
      4       7.2881      0.00000
      5       7.3990      0.00000
      6       8.2687      0.00000

 k-point    82 :      -0.1500    0.2500    0.0500
  band No.  band energies     occupation 
      1       1.2332      2.00000
      2       5.6859      1.92929
      3       5.6974      1.72339
      4       7.2086      0.00000
      5       7.3388      0.00000
      6       8.2942      0.00000

 k-point    83 :       0.3000    0.3000    0.0500
  band No.  band energies     occupation 
      1       4.1232      2.00000
      2       4.7625      2.00000
      3       5.0161      2.00000
      4       8.1815      0.00000
      5       8.2857      0.00000
      6      13.6404      0.00000

 k-point    84 :      -0.3000    0.3000    0.0500
  band No.  band energies     occupation 
      1       2.0944      2.00000
      2       5.1999      2.00000
      3       5.6637      2.06949
      4       7.5920      0.00000
      5       8.1305      0.00000
      6       8.2643      0.00000

 k-point    85 :      -0.2500    0.3000    0.0500
  band No.  band energies     occupation 
      1       1.9355      2.00000
      2       5.3568      2.00000
      3       5.5956      2.00210
      4       7.3804      0.00000
      5       7.9218      0.00000
      6       8.3430      0.00000

 k-point    86 :      -0.2000    0.3000    0.0500
  band No.  band energies     occupation 
      1       1.8558      2.00000
      2       5.4309      2.00000
      3       5.5844      2.00072
      4       7.2212      0.00000
      5       7.8383      0.00000
      6       8.3938      0.00000

 k-point    87 :      -0.3500    0.3500    0.0500
  band No.  band energies     occupation 
      1       2.5303      2.00000
      2       5.0157      2.00000
      3       5.8483     -0.00199
      4       7.7367      0.00000
      5       8.3476      0.00000
      6       8.6561      0.00000

 k-point    88 :      -0.3000    0.3500    0.0500
  band No.  band energies     occupation 
      1       2.4716      2.00000
      2       5.1621      2.00000
      3       5.5948      2.00196
      4       7.5396      0.00000
      5       8.3480      0.00000
      6       8.5573      0.00000

 k-point    89 :      -0.2500    0.3500    0.0500
  band No.  band energies     occupation 
      1       2.4522      2.00000
      2       5.2034      2.00000
      3       5.4946      2.00000
      4       7.3405      0.00000
      5       8.2659      0.00000
      6       8.6316      0.00000

 k-point    90 :      -0.2000    0.3500    0.0500
  band No.  band energies     occupation 
      1       2.4492      2.00000
      2       5.1693      2.00000
      3       5.5157      2.00000
      4       7.2537      0.00000
      5       8.2385      0.00000
      6       8.6652      0.00000

 k-point    91 :      -0.4000    0.4000    0.0500
  band No.  band energies     occupation 
      1       2.7378      2.00000
      2       4.8735      2.00000
      3       6.2492     -0.00000
      4       7.8457      0.00000
      5       8.4941      0.00000
      6       9.1070      0.00000

 k-point    92 :      -0.3500    0.4000    0.0500
  band No.  band energies     occupation 
      1       2.7897      2.00000
      2       5.0064      2.00000
      3       5.8115     -0.02914
      4       7.6961      0.00000
      5       8.5238      0.00000
      6       9.0573      0.00000

 k-point    93 :      -0.3000    0.4000    0.0500
  band No.  band energies     occupation 
      1       2.8906      2.00000
      2       5.0574      2.00000
      3       5.5069      2.00000
      4       7.5122      0.00000
      5       8.4393      0.00000
      6       9.1793      0.00000

 k-point    94 :      -0.2500    0.4000    0.0500
  band No.  band energies     occupation 
      1       2.9776      2.00000
      2       4.9493      2.00000
      3       5.4721      2.00000
      4       7.3772      0.00000
      5       8.3867      0.00000
      6       9.2675      0.00000

 k-point    95 :      -0.4500    0.4500    0.0500
  band No.  band energies     occupation 
      1       2.7981      2.00000
      2       4.7840      2.00000
      3       6.6541     -0.00000
      4       7.8759      0.00000
      5       8.7011      0.00000
      6       9.4158      0.00000

 k-point    96 :      -0.4000    0.4500    0.0500
  band No.  band energies     occupation 
      1       2.9062      2.00000
      2       4.8968      2.00000
      3       6.1453     -0.00000
      4       7.7743      0.00000
      5       8.7557      0.00000
      6       9.5092      0.00000

 k-point    97 :      -0.3500    0.4500    0.0500
  band No.  band energies     occupation 
      1       3.0976      2.00000
      2       4.9717      2.00000
      3       5.6744      2.03661
      4       7.6528      0.00000
      5       8.6065      0.00000
      6       9.7910      0.00000

 k-point    98 :      -0.3000    0.4500    0.0500
  band No.  band energies     occupation 
      1       3.3192      2.00000
      2       4.8594      2.00000
      3       5.4631      2.00000
      4       7.5424      0.00000
      5       8.4837      0.00000
      6       9.9980      0.00000

 k-point    99 :      -0.2500    0.4500    0.0500
  band No.  band energies     occupation 
      1       3.4351      2.00000
      2       4.7301      2.00000
      3       5.4491      2.00000
      4       7.4957      0.00000
      5       8.4400      0.00000
      6      10.0703      0.00000

 k-point   100 :       0.5000    0.5000    0.0500
  band No.  band energies     occupation 
      1       2.8069      2.00000
      2       4.7534      2.00000
      3       6.8232     -0.00000
      4       7.8703      0.00000
      5       8.8130      0.00000
      6       9.5261      0.00000

 k-point   101 :      -0.4500    0.5000    0.0500
  band No.  band energies     occupation 
      1       2.9292      2.00000
      2       4.8400      2.00000
      3       6.3846     -0.00000
      4       7.7827      0.00000
      5       8.9574      0.00000
      6       9.8006      0.00000

 k-point   102 :      -0.4000    0.5000    0.0500
  band No.  band energies     occupation 
      1       3.1494      2.00000
      2       4.9181      2.00000
      3       5.8856     -0.00004
      4       7.7099      0.00000
      5       8.7977      0.00000
      6      10.3283      0.00000

 k-point   103 :      -0.3500    0.5000    0.0500
  band No.  band energies     occupation 
      1       3.4421      2.00000
      2       4.8814      2.00000
      3       5.5022      2.00000
      4       7.6689      0.00000
      5       8.6104      0.00000
      6      10.7470      0.00000

 k-point   104 :      -0.3000    0.5000    0.0500
  band No.  band energies     occupation 
      1       3.7248      2.00000
      2       4.6571      2.00000
      3       5.3860      2.00000
      4       7.6581      0.00000
      5       8.4866      0.00000
      6      10.9656      0.00000

 k-point   105 :      -0.4500   -0.4500    0.0500
  band No.  band energies     occupation 
      1       3.1537      2.00000
      2       4.8990      2.00000
      3       5.9772     -0.00000
      4       7.7182      0.00000
      5       8.8866      0.00000
      6      10.5693      0.00000

 k-point   106 :      -0.4000   -0.4500    0.0500
  band No.  band energies     occupation 
      1       3.4577      2.00000
      2       4.9124      2.00000
      3       5.5537      2.00002
      4       7.7210      0.00000
      5       8.7209      0.00000
      6      11.3243      0.00000

 k-point   107 :      -0.3500   -0.4500    0.0500
  band No.  band energies     occupation 
      1       3.8103      2.00000
      2       4.7625      2.00000
      3       5.2802      2.00000
      4       7.7862      0.00000
      5       8.5425      0.00000
      6      11.8538      0.00000

 k-point   108 :      -0.3000   -0.4500    0.0500
  band No.  band energies     occupation 
      1       4.0529      2.00000
      2       4.5520      2.00000
      3       5.2228      2.00000
      4       7.8353      0.00000
      5       8.4540      0.00000
      6      12.0382      0.00000

 k-point   109 :      -0.4000   -0.4000    0.0500
  band No.  band energies     occupation 
      1       3.8150      2.00000
      2       4.8612      2.00000
      3       5.2030      2.00000
      4       7.8307      0.00000
      5       8.5725      0.00000
      6      12.3303      0.00000

 k-point   110 :      -0.3500   -0.4000    0.0500
  band No.  band energies     occupation 
      1       4.1802      2.00000
      2       4.6728      2.00000
      3       4.9925      2.00000
      4       7.9861      0.00000
      5       8.4056      0.00000
      6      13.0632      0.00000

 k-point   111 :      -0.3500   -0.3500    0.0500
  band No.  band energies     occupation 
      1       4.4212      2.00000
      2       4.7082      2.00000
      3       4.7082      2.00000
      4       8.2102      0.00000
      5       8.2102      0.00000
      6      14.2922      0.00000

 k-point   112 :       0.1000    0.1000    0.1000
  band No.  band energies     occupation 
      1       1.3995      2.00000
      2       5.3544      2.00000
      3       5.3544      2.00000
      4       7.8909      0.00000
      5       7.8909      0.00000
      6       7.9034      0.00000

 k-point   113 :       0.1500    0.1000    0.1000
  band No.  band energies     occupation 
      1       2.0375      2.00000
      2       5.1299      2.00000
      3       5.1674      2.00000
      4       7.8735      0.00000
      5       8.0158      0.00000
      6       8.5004      0.00000

 k-point   114 :       0.2000    0.1000    0.1000
  band No.  band energies     occupation 
      1       2.6648      2.00000
      2       4.9342      2.00000
      3       5.0719      2.00000
      4       7.9046      0.00000
      5       8.1185      0.00000
      6       9.1436      0.00000

 k-point   115 :       0.2500    0.1000    0.1000
  band No.  band energies     occupation 
      1       3.1196      2.00000
      2       4.7758      2.00000
      3       5.1991      2.00000
      4       7.9640      0.00000
      5       8.1996      0.00000
      6       9.8076      0.00000

 k-point   116 :       0.3000    0.1000    0.1000
  band No.  band energies     occupation 
      1       3.3052      2.00000
      2       4.6596      2.00000
      3       5.5788      2.00040
      4       8.0262      0.00000
      5       8.2591      0.00000
      6      10.4568      0.00000

 k-point   117 :       0.3500    0.1000    0.1000
  band No.  band energies     occupation 
      1       3.3346      2.00000
      2       4.5889      2.00000
      3       5.9824     -0.00000
      4       8.0700      0.00000
      5       8.2959      0.00000
      6      11.0117      0.00000

 k-point   118 :       0.4000    0.1000    0.1000
  band No.  band energies     occupation 
      1       3.3317      2.00000
      2       4.5651      2.00000
      3       6.1513     -0.00000
      4       8.0850      0.00000
      5       8.3085      0.00000
      6      11.2601      0.00000

 k-point   119 :      -0.1000    0.1000    0.1000
  band No.  band energies     occupation 
      1       0.0779      2.00000
      2       6.0783     -0.00000
      3       6.0783     -0.00000
      4       6.3700     -0.00000
      5       7.4086      0.00000
      6       8.1707      0.00000

 k-point   120 :       0.1500    0.1500    0.1000
  band No.  band energies     occupation 
      1       2.6706      2.00000
      2       4.9429      2.00000
      3       4.9663      2.00000
      4       7.9346      0.00000
      5       8.0905      0.00000
      6       9.1641      0.00000

 k-point   121 :       0.2000    0.1500    0.1000
  band No.  band energies     occupation 
      1       3.2450      2.00000
      2       4.7775      2.00000
      3       4.9023      2.00000
      4       7.9811      0.00000
      5       8.1843      0.00000
      6       9.8713      0.00000

 k-point   122 :       0.2500    0.1500    0.1000
  band No.  band energies     occupation 
      1       3.5724      2.00000
      2       4.6588      2.00000
      3       5.0916      2.00000
      4       8.0405      0.00000
      5       8.2546      0.00000
      6      10.6028      0.00000

 k-point   123 :       0.3000    0.1500    0.1000
  band No.  band energies     occupation 
      1       3.6422      2.00000
      2       4.5814      2.00000
      3       5.4662      2.00000
      4       8.0962      0.00000
      5       8.2996      0.00000
      6      11.3197      0.00000

 k-point   124 :       0.3500    0.1500    0.1000
  band No.  band energies     occupation 
      1       3.6323      2.00000
      2       4.5430      2.00000
      3       5.7405      0.40952
      4       8.1293      0.00000
      5       8.3219      0.00000
      6      11.8695      0.00000

 k-point   125 :      -0.1500    0.1500    0.1000
  band No.  band energies     occupation 
      1       0.5163      2.00000
      2       5.9855     -0.00000
      3       6.0489     -0.00000
      4       6.6269     -0.00000
      5       7.1659      0.00000
      6       8.2575      0.00000

 k-point   126 :       0.2000    0.2000    0.1000
  band No.  band energies     occupation 
      1       3.7271      2.00000
      2       4.6589      2.00000
      3       4.8598      2.00000
      4       8.0394      0.00000
      5       8.2573      0.00000
      6      10.6557      0.00000

 k-point   127 :       0.2500    0.2000    0.1000
  band No.  band energies     occupation 
      1       3.9348      2.00000
      2       4.5962      2.00000
      3       5.0401      2.00000
      4       8.1021      0.00000
      5       8.3045      0.00000
      6      11.4854      0.00000

 k-point   128 :       0.3000    0.2000    0.1000
  band No.  band energies     occupation 
      1       3.9469      2.00000
      2       4.5637      2.00000
      3       5.3075      2.00000
      4       8.1563      0.00000
      5       8.3257      0.00000
      6      12.3005      0.00000

 k-point   129 :       0.3500    0.2000    0.1000
  band No.  band energies     occupation 
      1       3.9357      2.00000
      2       4.5532      2.00000
      3       5.4222      2.00000
      4       8.1788      0.00000
      5       8.3306      0.00000
      6      12.7478      0.00000

 k-point   130 :      -0.2000    0.2000    0.1000
  band No.  band energies     occupation 
      1       1.0816      2.00000
      2       5.8058     -0.03860
      3       5.9166     -0.00000
      4       7.0398     -0.00000
      5       7.0523     -0.00000
      6       8.3351      0.00000

 k-point   131 :      -0.1500    0.2000    0.1000
  band No.  band energies     occupation 
      1       1.0092      2.00000
      2       5.9527     -0.00000
      3       5.9612     -0.00000
      4       6.9038     -0.00000
      5       6.9328     -0.00000
      6       8.3605      0.00000

 k-point   132 :       0.2500    0.2500    0.1000
  band No.  band energies     occupation 
      1       4.1065      2.00000
      2       4.6192      2.00000
      3       5.0578      2.00000
      4       8.1662      0.00000
      5       8.3241      0.00000
      6      12.4501      0.00000

 k-point   133 :       0.3000    0.2500    0.1000
  band No.  band energies     occupation 
      1       4.1370      2.00000
      2       4.6626      2.00000
      3       5.1070      2.00000
      4       8.2189      0.00000
      5       8.3173      0.00000
      6      13.3884      0.00000

 k-point   134 :      -0.2500    0.2500    0.1000
  band No.  band energies     occupation 
      1       1.7124      2.00000
      2       5.6026      2.00389
      3       5.7010      1.63807
      4       7.1160      0.00000
      5       7.5398      0.00000
      6       8.4129      0.00000

 k-point   135 :      -0.2000    0.2500    0.1000
  band No.  band energies     occupation 
      1       1.5989      2.00000
      2       5.7336      0.60907
      3       5.8325     -0.00746
      4       6.8927     -0.00000
      5       7.3424      0.00000
      6       8.4578      0.00000

 k-point   136 :       0.3000    0.3000    0.1000
  band No.  band energies     occupation 
      1       4.1860      2.00000
      2       4.8761      2.00000
      3       4.8761      2.00000
      4       8.2773      0.00000
      5       8.2773      0.00000
      6      14.5117      0.00000

 k-point   137 :      -0.3000    0.3000    0.1000
  band No.  band energies     occupation 
      1       2.3080      2.00000
      2       5.4038      2.00000
      3       5.5386      2.00000
      4       7.2941      0.00000
      5       8.0821      0.00000
      6       8.5135      0.00000

 k-point   138 :      -0.2500    0.3000    0.1000
  band No.  band energies     occupation 
      1       2.2103      2.00000
      2       5.4625      2.00000
      3       5.6721      2.04831
      4       7.0328     -0.00000
      5       7.8565      0.00000
      6       8.5772      0.00000

 k-point   139 :      -0.2000    0.3000    0.1000
  band No.  band energies     occupation 
      1       2.1780      2.00000
      2       5.4447      2.00000
      3       5.7909     -0.06464
      4       6.8992     -0.00000
      5       7.7855      0.00000
      6       8.6022      0.00000

 k-point   140 :      -0.3500    0.3500    0.1000
  band No.  band energies     occupation 
      1       2.7386      2.00000
      2       5.2292      2.00000
      3       5.5575      2.00004
      4       7.4943      0.00000
      5       8.6143      0.00000
      6       8.6969      0.00000

 k-point   141 :      -0.3000    0.3500    0.1000
  band No.  band energies     occupation 
      1       2.7302      2.00000
      2       5.2728      2.00000
      3       5.5312      2.00000
      4       7.2520      0.00000
      5       8.3424      0.00000
      6       8.8150      0.00000

 k-point   142 :      -0.2500    0.3500    0.1000
  band No.  band energies     occupation 
      1       2.7373      2.00000
      2       5.1506      2.00000
      3       5.7095      1.39762
      4       7.0510     -0.00000
      5       8.2104      0.00000
      6       8.8855      0.00000

 k-point   143 :      -0.4000    0.4000    0.1000
  band No.  band energies     occupation 
      1       2.9425      2.00000
      2       5.0940      2.00000
      3       5.7633      0.00383
      4       7.6161      0.00000
      5       9.0384      0.00000
      6       9.0725      0.00000

 k-point   144 :      -0.3500    0.4000    0.1000
  band No.  band energies     occupation 
      1       3.0448      2.00000
      2       5.2045      2.00000
      3       5.4829      2.00000
      4       7.4366      0.00000
      5       8.7098      0.00000
      6       9.2895      0.00000

 k-point   145 :      -0.3000    0.4000    0.1000
  band No.  band energies     occupation 
      1       3.1661      2.00000
      2       4.9737      2.00000
      3       5.6065      2.00533
      4       7.2648      0.00000
      5       8.4840      0.00000
      6       9.4441      0.00000

 k-point   146 :      -0.2500    0.4000    0.1000
  band No.  band energies     occupation 
      1       3.2247      2.00000
      2       4.8548      2.00000
      3       5.6910      1.85118
      4       7.1855      0.00000
      5       8.4073      0.00000
      6       9.4970      0.00000

 k-point   147 :      -0.4500    0.4500    0.1000
  band No.  band energies     occupation 
      1       2.9970      2.00000
      2       5.0087      2.00000
      3       6.0020     -0.00000
      4       7.6394      0.00000
      5       9.3872      0.00000
      6       9.4631      0.00000

 k-point   148 :      -0.4000    0.4500    0.1000
  band No.  band energies     occupation 
      1       3.1557      2.00000
      2       5.1573      2.00000
      3       5.5900      2.00126
      4       7.5134      0.00000
      5       9.0403      0.00000
      6       9.8645      0.00000

 k-point   149 :      -0.3500    0.4500    0.1000
  band No.  band energies     occupation 
      1       3.3780      2.00000
      2       4.9808      2.00000
      3       5.5044      2.00000
      4       7.4271      0.00000
      5       8.7287      0.00000
      6      10.1628      0.00000

 k-point   150 :      -0.3000    0.4500    0.1000
  band No.  band energies     occupation 
      1       3.5838      2.00000
      2       4.6851      2.00000
      3       5.5921      2.00153
      4       7.3887      0.00000
      5       8.5385      0.00000
      6      10.3142      0.00000

 k-point   151 :       0.5000    0.5000    0.1000
  band No.  band energies     occupation 
      1       3.0030      2.00000
      2       4.9795      2.00000
      3       6.1044     -0.00000
      4       7.6328      0.00000
      5       9.4999      0.00000
      6       9.6748      0.00000

 k-point   152 :      -0.4500    0.5000    0.1000
  band No.  band energies     occupation 
      1       3.1722      2.00000
      2       5.1206      2.00000
      3       5.7119      1.32427
      4       7.5196      0.00000
      5       9.2583      0.00000
      6      10.3158      0.00000

 k-point   153 :      -0.4000    0.5000    0.1000
  band No.  band energies     occupation 
      1       3.4244      2.00000
      2       5.1018      2.00000
      3       5.4135      2.00000
      4       7.4930      0.00000
      5       8.9580      0.00000
      6      10.8709      0.00000

 k-point   154 :      -0.3500    0.5000    0.1000
  band No.  band energies     occupation 
      1       3.7309      2.00000
      2       4.7386      2.00000
      3       5.4252      2.00000
      4       7.5539      0.00000
      5       8.6856      0.00000
      6      11.2181      0.00000

 k-point   155 :      -0.3000    0.5000    0.1000
  band No.  band energies     occupation 
      1       3.9421      2.00000
      2       4.4903      2.00000
      3       5.4450      2.00000
      4       7.6066      0.00000
      5       8.5613      0.00000
      6      11.3328      0.00000

 k-point   156 :      -0.4500   -0.4500    0.1000
  band No.  band energies     occupation 
      1       3.4243      2.00000
      2       5.1829      2.00000
      3       5.3597      2.00000
      4       7.5052      0.00000
      5       9.0546      0.00000
      6      11.2176      0.00000

 k-point   157 :      -0.4000   -0.4500    0.1000
  band No.  band energies     occupation 
      1       3.7415      2.00000
      2       4.9471      2.00000
      3       5.2142      2.00000
      4       7.6292      0.00000
      5       8.8031      0.00000
      6      11.9802      0.00000

 k-point   158 :      -0.3500   -0.4500    0.1000
  band No.  band energies     occupation 
      1       4.0978      2.00000
      2       4.5536      2.00000
      3       5.1999      2.00000
      4       7.8074      0.00000
      5       8.5749      0.00000
      6      12.4049      0.00000

 k-point   159 :      -0.4000   -0.4000    0.1000
  band No.  band energies     occupation 
      1       4.0942      2.00000
      2       4.7589      2.00000
      3       4.9832      2.00000
      4       7.8863      0.00000
      5       8.5815      0.00000
      6      13.0639      0.00000

 k-point   160 :      -0.3500   -0.4000    0.1000
  band No.  band energies     occupation 
      1       4.4527      2.00000
      2       4.4599      2.00000
      3       4.8927      2.00000
      4       8.0893      0.00000
      5       8.4004      0.00000
      6      13.6498      0.00000

 k-point   161 :       0.1500    0.1500    0.1500
  band No.  band energies     occupation 
      1       3.2900      2.00000
      2       4.7752      2.00000
      3       4.7752      2.00000
      4       8.0891      0.00000
      5       8.0891      0.00000
      6       9.8901      0.00000

 k-point   162 :       0.2000    0.1500    0.1500
  band No.  band energies     occupation 
      1       3.7968      2.00000
      2       4.6504      2.00000
      3       4.7338      2.00000
      4       8.1173      0.00000
      5       8.1997      0.00000
      6      10.6586      0.00000

 k-point   163 :       0.2500    0.1500    0.1500
  band No.  band energies     occupation 
      1       3.9627      2.00000
      2       4.5656      2.00000
      3       5.0070      2.00000
      4       8.1574      0.00000
      5       8.2724      0.00000
      6      11.4571      0.00000

 k-point   164 :       0.3000    0.1500    0.1500
  band No.  band energies     occupation 
      1       3.9415      2.00000
      2       4.5167      2.00000
      3       5.3523      2.00000
      4       8.1906      0.00000
      5       8.3131      0.00000
      6      12.2255      0.00000

 k-point   165 :       0.3500    0.1500    0.1500
  band No.  band energies     occupation 
      1       3.9220      2.00000
      2       4.5008      2.00000
      3       5.4927      2.00000
      4       8.2033      0.00000
      5       8.3262      0.00000
      6      12.6344      0.00000

 k-point   166 :      -0.1500    0.1500    0.1500
  band No.  band energies     occupation 
      1       0.9337      2.00000
      2       6.1095     -0.00000
      3       6.1095     -0.00000
      4       6.6850     -0.00000
      5       6.7840     -0.00000
      6       8.3856      0.00000

 k-point   167 :       0.2000    0.2000    0.1500
  band No.  band energies     occupation 
      1       4.1978      2.00000
      2       4.5842      2.00000
      3       4.6967      2.00000
      4       8.1843      0.00000
      5       8.2580      0.00000
      6      11.5048      0.00000

 k-point   168 :       0.2500    0.2000    0.1500
  band No.  band energies     occupation 
      1       4.2390      2.00000
      2       4.5462      2.00000
      3       4.9603      2.00000
      4       8.2259      0.00000
      5       8.3073      0.00000
      6      12.4020      0.00000

 k-point   169 :       0.3000    0.2000    0.1500
  band No.  band energies     occupation 
      1       4.2011      2.00000
      2       4.5254      2.00000
      3       5.1784      2.00000
      4       8.2515      0.00000
      5       8.3298      0.00000
      6      13.2249      0.00000

 k-point   170 :      -0.2000    0.2000    0.1500
  band No.  band energies     occupation 
      1       1.4685      2.00000
      2       6.0190     -0.00000
      3       6.0518     -0.00000
      4       6.5846     -0.00000
      5       6.9984     -0.00000
      6       8.4996      0.00000

 k-point   171 :       0.2500    0.2500    0.1500
  band No.  band energies     occupation 
      1       4.3076      2.00000
      2       4.6394      2.00000
      3       4.9528      2.00000
      4       8.2726      0.00000
      5       8.3261      0.00000
      6      13.4319      0.00000

 k-point   172 :       0.3000    0.2500    0.1500
  band No.  band energies     occupation 
      1       4.3071      2.00000
      2       4.6887      2.00000
      3       4.9607      2.00000
      4       8.2949      0.00000
      5       8.3263      0.00000
      6      14.2203      0.00000

 k-point   173 :      -0.2500    0.2500    0.1500
  band No.  band energies     occupation 
      1       2.0615      2.00000
      2       5.6808      1.98835
      3       5.8987     -0.00001
      4       6.7237     -0.00000
      5       7.4735      0.00000
      6       8.6188      0.00000

 k-point   174 :      -0.2000    0.2500    0.1500
  band No.  band energies     occupation 
      1       2.0113      2.00000
      2       5.7619      0.01685
      3       6.0772     -0.00000
      4       6.5289     -0.00000
      5       7.3209      0.00000
      6       8.6372      0.00000

 k-point   175 :      -0.3000    0.3000    0.1500
  band No.  band energies     occupation 
      1       2.6227      2.00000
      2       5.3637      2.00000
      3       5.7287      0.76313
      4       6.9779     -0.00000
      5       8.0131      0.00000
      6       8.7921      0.00000

 k-point   176 :      -0.2500    0.3000    0.1500
  band No.  band energies     occupation 
      1       2.5687      2.00000
      2       5.3757      2.00000
      3       5.9876     -0.00000
      4       6.7272     -0.00000
      5       7.7910      0.00000
      6       8.8195      0.00000

 k-point   177 :      -0.3500    0.3500    0.1500
  band No.  band energies     occupation 
      1       3.0362      2.00000
      2       5.2032      2.00000
      3       5.5736      2.00023
      4       7.2119      0.00000
      5       8.5515      0.00000
      6       9.1152      0.00000

 k-point   178 :      -0.3000    0.3500    0.1500
  band No.  band energies     occupation 
      1       3.0479      2.00000
      2       5.0663      2.00000
      3       5.8528     -0.00131
      4       6.9935     -0.00000
      5       8.2786      0.00000
      6       9.1530      0.00000

 k-point   179 :      -0.2500    0.3500    0.1500
  band No.  band energies     occupation 
      1       3.0554      2.00000
      2       5.0132      2.00000
      3       5.9991     -0.00000
      4       6.8767     -0.00000
      5       8.1694      0.00000
      6       9.1762      0.00000

 k-point   180 :      -0.4000    0.4000    0.1500
  band No.  band energies     occupation 
      1       3.2315      2.00000
      2       5.2349      2.00000
      3       5.4515      2.00000
      4       7.3321      0.00000
      5       9.0195      0.00000
      6       9.6564      0.00000

 k-point   181 :      -0.3500    0.4000    0.1500
  band No.  band energies     occupation 
      1       3.3482      2.00000
      2       4.9306      2.00000
      3       5.7189      1.09128
      4       7.1940      0.00000
      5       8.7118      0.00000
      6       9.7330      0.00000

 k-point   182 :      -0.3000    0.4000    0.1500
  band No.  band energies     occupation 
      1       3.4466      2.00000
      2       4.7318      2.00000
      3       5.9022     -0.00000
      4       7.1204      0.00000
      5       8.4765      0.00000
      6       9.8055      0.00000

 k-point   183 :      -0.4500    0.4500    0.1500
  band No.  band energies     occupation 
      1       3.2746      2.00000
      2       5.3541      2.00000
      3       5.3738      2.00000
      4       7.3512      0.00000
      5       9.3430      0.00000
      6      10.2840      0.00000

 k-point   184 :      -0.4000    0.4500    0.1500
  band No.  band energies     occupation 
      1       3.4474      2.00000
      2       4.9751      2.00000
      3       5.6043      2.00448
      4       7.2752      0.00000
      5       9.0771      0.00000
      6      10.4822      0.00000

 k-point   185 :      -0.3500    0.4500    0.1500
  band No.  band energies     occupation 
      1       3.6572      2.00000
      2       4.6344      2.00000
      3       5.7519      0.15490
      4       7.3174      0.00000
      5       8.7558      0.00000
      6      10.6508      0.00000

 k-point   186 :      -0.3000    0.4500    0.1500
  band No.  band energies     occupation 
      1       3.7827      2.00000
      2       4.4643      2.00000
      3       5.7980     -0.05277
      4       7.3723      0.00000
      5       8.6038      0.00000
      6      10.7103      0.00000

 k-point   187 :       0.5000    0.5000    0.1500
  band No.  band energies     occupation 
      1       3.2751      2.00000
      2       5.3472      2.00000
      3       5.4140      2.00000
      4       7.3446      0.00000
      5       9.4593      0.00000
      6      10.5989      0.00000

 k-point   188 :      -0.4500    0.5000    0.1500
  band No.  band energies     occupation 
      1       3.4514      2.00000
      2       5.0687      2.00000
      3       5.5268      2.00000
      4       7.2871      0.00000
      5       9.2963      0.00000
      6      11.1204      0.00000

 k-point   189 :      -0.4000    0.5000    0.1500
  band No.  band energies     occupation 
      1       3.6897      2.00000
      2       4.7150      2.00000
      3       5.6012      2.00345
      4       7.4111      0.00000
      5       8.9954      0.00000
      6      11.5472      0.00000

 k-point   190 :      -0.3500    0.5000    0.1500
  band No.  band energies     occupation 
      1       3.9583      2.00000
      2       4.3895      2.00000
      3       5.6059      2.00508
      4       7.6130      0.00000
      5       8.7208      0.00000
      6      11.7601      0.00000

 k-point   191 :      -0.4500   -0.4500    0.1500
  band No.  band energies     occupation 
      1       3.6795      2.00000
      2       4.7832      2.00000
      3       5.5285      2.00000
      4       7.4346      0.00000
      5       9.0926      0.00000
      6      12.0312      0.00000

 k-point   192 :      -0.4000   -0.4500    0.1500
  band No.  band energies     occupation 
      1       3.9454      2.00000
      2       4.5070      2.00000
      3       5.4369      2.00000
      4       7.7394      0.00000
      5       8.8116      0.00000
      6      12.7329      0.00000

 k-point   193 :      -0.3500   -0.4500    0.1500
  band No.  band energies     occupation 
      1       4.2216      2.00000
      2       4.2340      2.00000
      3       5.3869      2.00000
      4       7.9465      0.00000
      5       8.6243      0.00000
      6      12.9808      0.00000

 k-point   194 :      -0.4000   -0.4000    0.1500
  band No.  band energies     occupation 
      1       4.1763      2.00000
      2       4.3517      2.00000
      3       5.2687      2.00000
      4       8.1246      0.00000
      5       8.5400      0.00000
      6      13.8926      0.00000

 k-point   195 :       0.2000    0.2000    0.2000
  band No.  band energies     occupation 
      1       4.5425      2.00000
      2       4.5425      2.00000
      3       4.6319      2.00000
      4       8.2763      0.00000
      5       8.2763      0.00000
      6      12.4305      0.00000

 k-point   196 :       0.2500    0.2000    0.2000
  band No.  band energies     occupation 
      1       4.4795      2.00000
      2       4.5229      2.00000
      3       4.8929      2.00000
      4       8.2967      0.00000
      5       8.3254      0.00000
      6      13.4207      0.00000

 k-point   197 :       0.3000    0.2000    0.2000
  band No.  band energies     occupation 
      1       4.4521      2.00000
      2       4.5174      2.00000
      3       4.9921      2.00000
      4       8.3053      0.00000
      5       8.3406      0.00000
      6      14.1218      0.00000

 k-point   198 :      -0.2000    0.2000    0.2000
  band No.  band energies     occupation 
      1       1.9552      2.00000
      2       6.0302     -0.00000
      3       6.2420     -0.00000
      4       6.2420     -0.00000
      5       7.0922      0.00000
      6       8.6536      0.00000

 k-point   199 :       0.2500    0.2500    0.2000
  band No.  band energies     occupation 
      1       4.4959      2.00000
      2       4.6610      2.00000
      3       4.8242      2.00000
      4       8.3289      0.00000
      5       8.3393      0.00000
      6      14.5229      0.00000

 k-point   200 :      -0.2500    0.2500    0.2000
  band No.  band energies     occupation 
      1       2.4821      2.00000
      2       5.5618      2.00006
      3       6.2467     -0.00000
      4       6.4684     -0.00000
      5       7.4413      0.00000
      6       8.8269      0.00000

 k-point   201 :      -0.3000    0.3000    0.2000
  band No.  band energies     occupation 
      1       2.9722      2.00000
      2       5.1375      2.00000
      3       6.1471     -0.00000
      4       6.7605     -0.00000
      5       7.9441      0.00000
      6       9.0901      0.00000

 k-point   202 :      -0.2500    0.3000    0.2000
  band No.  band energies     occupation 
      1       2.9461      2.00000
      2       5.1668      2.00000
      3       6.3328     -0.00000
      4       6.6252     -0.00000
      5       7.7798      0.00000
      6       9.0851      0.00000

 k-point   203 :      -0.3500    0.3500    0.2000
  band No.  band energies     occupation 
      1       3.3384      2.00000
      2       4.8432      2.00000
      3       6.0297     -0.00000
      4       7.0050     -0.00000
      5       8.4783      0.00000
      6       9.5555      0.00000

 k-point   204 :      -0.3000    0.3500    0.2000
  band No.  band energies     occupation 
      1       3.3366      2.00000
      2       4.7918      2.00000
      3       6.2763     -0.00000
      4       6.8946     -0.00000
      5       8.2255      0.00000
      6       9.5244      0.00000

 k-point   205 :      -0.4000    0.4000    0.2000
  band No.  band energies     occupation 
      1       3.5123      2.00000
      2       4.7346      2.00000
      3       5.9301     -0.00000
      4       7.1268      0.00000
      5       8.9542      0.00000
      6      10.2754      0.00000

 k-point   206 :      -0.3500    0.4000    0.2000
  band No.  band energies     occupation 
      1       3.5896      2.00000
      2       4.5428      2.00000
      3       6.1714     -0.00000
      4       7.1148      0.00000
      5       8.6665      0.00000
      6      10.2320      0.00000

 k-point   207 :      -0.3000    0.4000    0.2000
  band No.  band energies     occupation 
      1       3.6274      2.00000
      2       4.4663      2.00000
      3       6.2459     -0.00000
      4       7.1650      0.00000
      5       8.5045      0.00000
      6      10.2321      0.00000

 k-point   208 :      -0.4500    0.4500    0.2000
  band No.  band energies     occupation 
      1       3.5351      2.00000
      2       4.7608      2.00000
      3       5.8649     -0.00039
      4       7.1528      0.00000
      5       9.2877      0.00000
      6      11.1007      0.00000

 k-point   209 :      -0.4000    0.4500    0.2000
  band No.  band energies     occupation 
      1       3.6646      2.00000
      2       4.4755      2.00000
      3       6.0731     -0.00000
      4       7.2212      0.00000
      5       9.0430      0.00000
      6      11.1470      0.00000

 k-point   210 :      -0.3500    0.4500    0.2000
  band No.  band energies     occupation 
      1       3.8015      2.00000
      2       4.2607      2.00000
      3       6.1231     -0.00000
      4       7.4313      0.00000
      5       8.7622      0.00000
      6      11.1879      0.00000

 k-point   211 :       0.5000    0.5000    0.2000
  band No.  band energies     occupation 
      1       3.5261      2.00000
      2       4.7890      2.00000
      3       5.8423     -0.00338
      4       7.1510      0.00000
      5       9.4084      0.00000
      6      11.5414      0.00000

 k-point   212 :      -0.4500    0.5000    0.2000
  band No.  band energies     occupation 
      1       3.6473      2.00000
      2       4.5025      2.00000
      3       6.0129     -0.00000
      4       7.2527      0.00000
      5       9.2668      0.00000
      6      11.9831      0.00000

 k-point   213 :      -0.4000    0.5000    0.2000
  band No.  band energies     occupation 
      1       3.8077      2.00000
      2       4.2451      2.00000
      3       6.0059     -0.00000
      4       7.5833      0.00000
      5       8.9816      0.00000
      6      12.2545      0.00000

 k-point   214 :      -0.3500    0.5000    0.2000
  band No.  band energies     occupation 
      1       3.9600      2.00000
      2       4.0620      2.00000
      3       5.9813     -0.00000
      4       7.8035      0.00000
      5       8.7916      0.00000
      6      12.3345      0.00000

 k-point   215 :      -0.4500   -0.4500    0.2000
  band No.  band energies     occupation 
      1       3.7807      2.00000
      2       4.2730      2.00000
      3       5.9579     -0.00000
      4       7.6279      0.00000
      5       9.0718      0.00000
      6      12.9084      0.00000

 k-point   216 :      -0.4000   -0.4500    0.2000
  band No.  band energies     occupation 
      1       3.9258      2.00000
      2       4.0872      2.00000
      3       5.8744     -0.00014
      4       8.0475      0.00000
      5       8.7894      0.00000
      6      13.5034      0.00000

 k-point   217 :      -0.4000   -0.4000    0.2000
  band No.  band energies     occupation 
      1       4.0025      2.00000
      2       4.0025      2.00000
      3       5.8150     -0.02403
      4       8.4712      0.00000
      5       8.4712      0.00000
      6      14.7647      0.00000

 k-point   218 :       0.2500    0.2500    0.2500
  band No.  band energies     occupation 
      1       4.6701      2.00000
      2       4.6701      2.00000
      3       4.6701      2.00000
      4       8.3461      0.00000
      5       8.3461      0.00000
      6      15.6734      0.00000

 k-point   219 :      -0.2500    0.2500    0.2500
  band No.  band energies     occupation 
      1       2.9083      2.00000
      2       5.2372      2.00000
      3       6.5209     -0.00000
      4       6.5209     -0.00000
      5       7.5573      0.00000
      6       9.0711      0.00000

 k-point   220 :      -0.3000    0.3000    0.2500
  band No.  band energies     occupation 
      1       3.2755      2.00000
      2       4.8372      2.00000
      3       6.6016     -0.00000
      4       6.7607     -0.00000
      5       7.9190      0.00000
      6       9.4316      0.00000

 k-point   221 :      -0.3500    0.3500    0.2500
  band No.  band energies     occupation 
      1       3.5382      2.00000
      2       4.4937      2.00000
      3       6.5655     -0.00000
      4       7.0023     -0.00000
      5       8.4117      0.00000
      6      10.0202      0.00000

 k-point   222 :      -0.3000    0.3500    0.2500
  band No.  band energies     occupation 
      1       3.5187      2.00000
      2       4.4798      2.00000
      3       6.7116     -0.00000
      4       7.0202     -0.00000
      5       8.2386      0.00000
      6       9.9649      0.00000

 k-point   223 :      -0.4000    0.4000    0.2500
  band No.  band energies     occupation 
      1       3.6610      2.00000
      2       4.2891      2.00000
      3       6.5055     -0.00000
      4       7.1443      0.00000
      5       8.8851      0.00000
      6      10.8805      0.00000

 k-point   224 :      -0.3500    0.4000    0.2500
  band No.  band energies     occupation 
      1       3.6660      2.00000
      2       4.1867      2.00000
      3       6.6798     -0.00000
      4       7.2912      0.00000
      5       8.6328      0.00000
      6      10.7679      0.00000

 k-point   225 :      -0.4500    0.4500    0.2500
  band No.  band energies     occupation 
      1       3.6540      2.00000
      2       4.2403      2.00000
      3       6.4599     -0.00000
      4       7.1963      0.00000
      5       9.2270      0.00000
      6      11.8825      0.00000

 k-point   226 :      -0.4000    0.4500    0.2500
  band No.  band energies     occupation 
      1       3.6974      2.00000
      2       4.0358      2.00000
      3       6.6207     -0.00000
      4       7.4541      0.00000
      5       8.9960      0.00000
      6      11.8029      0.00000

 k-point   227 :      -0.3500    0.4500    0.2500
  band No.  band energies     occupation 
      1       3.7385      2.00000
      2       3.9401      2.00000
      3       6.6255     -0.00000
      4       7.6819      0.00000
      5       8.8184      0.00000
      6      11.7755      0.00000

 k-point   228 :       0.5000    0.5000    0.2500
  band No.  band energies     occupation 
      1       3.6319      2.00000
      2       4.2433      2.00000
      3       6.4434     -0.00000
      4       7.2064      0.00000
      5       9.3524      0.00000
      6      12.4770      0.00000

 k-point   229 :      -0.4500    0.5000    0.2500
  band No.  band energies     occupation 
      1       3.6547      2.00000
      2       4.0139      2.00000
      3       6.5814     -0.00000
      4       7.5197      0.00000
      5       9.2189      0.00000
      6      12.8290      0.00000

 k-point   230 :      -0.4000    0.5000    0.2500
  band No.  band energies     occupation 
      1       3.7200      2.00000
      2       3.8409      2.00000
      3       6.5573     -0.00000
      4       7.9535      0.00000
      5       8.9649      0.00000
      6      12.9480      0.00000

 k-point   231 :      -0.4500   -0.4500    0.2500
  band No.  band energies     occupation 
      1       3.6775      2.00000
      2       3.8426      2.00000
      3       6.5296     -0.00000
      4       8.0431      0.00000
      5       9.0278      0.00000
      6      13.7897      0.00000

 k-point   232 :      -0.4000   -0.4500    0.2500
  band No.  band energies     occupation 
      1       3.7230      2.00000
      2       3.7462      2.00000
      3       6.4997     -0.00000
      4       8.3955      0.00000
      5       8.8028      0.00000
      6      14.2143      0.00000

 k-point   233 :      -0.3000    0.3000    0.3000
  band No.  band energies     occupation 
      1       3.4800      2.00000
      2       4.4870      2.00000
      3       6.9679     -0.00000
      4       6.9679     -0.00000
      5       8.0380      0.00000
      6       9.8880      0.00000

 k-point   234 :      -0.3500    0.3500    0.3000
  band No.  band energies     occupation 
      1       3.5887      2.00000
      2       4.1552      2.00000
      3       7.1217      0.00000
      4       7.2337      0.00000
      5       8.3857      0.00000
      6      10.5606      0.00000

 k-point   235 :      -0.4000    0.4000    0.3000
  band No.  band energies     occupation 
      1       3.6213      2.00000
      2       3.9089      2.00000
      3       7.1405      0.00000
      4       7.4290      0.00000
      5       8.8235      0.00000
      6      11.4981      0.00000

 k-point   236 :      -0.3500    0.4000    0.3000
  band No.  band energies     occupation 
      1       3.5929      2.00000
      2       3.8681      2.00000
      3       7.2398      0.00000
      4       7.6003      0.00000
      5       8.6595      0.00000
      6      11.3949      0.00000

 k-point   237 :      -0.4500    0.4500    0.3000
  band No.  band energies     occupation 
      1       3.5808      2.00000
      2       3.8029      2.00000
      3       7.1270      0.00000
      4       7.5285      0.00000
      5       9.1671      0.00000
      6      12.6167      0.00000

 k-point   238 :      -0.4000    0.4500    0.3000
  band No.  band energies     occupation 
      1       3.5603      2.00000
      2       3.6741      2.00000
      3       7.2440      0.00000
      4       7.8781      0.00000
      5       8.9638      0.00000
      6      12.4667      0.00000

 k-point   239 :       0.5000    0.5000    0.3000
  band No.  band energies     occupation 
      1       3.5464      2.00000
      2       3.7858      2.00000
      3       7.1195      0.00000
      4       7.5571      0.00000
      5       9.2968      0.00000
      6      13.3797      0.00000

 k-point   240 :      -0.4500    0.5000    0.3000
  band No.  band energies     occupation 
      1       3.4975      2.00000
      2       3.6138      2.00000
      3       7.2332      0.00000
      4       8.0038      0.00000
      5       9.1697      0.00000
      6      13.6184      0.00000

 k-point   241 :      -0.4000    0.5000    0.3000
  band No.  band energies     occupation 
      1       3.5151      2.00000
      2       3.5199      2.00000
      3       7.2275      0.00000
      4       8.3292      0.00000
      5       9.0010      0.00000
      6      13.6316      0.00000

 k-point   242 :      -0.4500   -0.4500    0.3000
  band No.  band energies     occupation 
      1       3.4650      2.00000
      2       3.5004      2.00000
      3       7.2168      0.00000
      4       8.5306      0.00000
      5       8.9791      0.00000
      6      14.6264      0.00000

 k-point   243 :      -0.3500    0.3500    0.3500
  band No.  band energies     occupation 
      1       3.5424      2.00000
      2       3.8444      2.00000
      3       7.5717      0.00000
      4       7.5717      0.00000
      5       8.4858      0.00000
      6      11.2626      0.00000

 k-point   244 :      -0.4000    0.4000    0.3500
  band No.  band energies     occupation 
      1       3.4681      2.00000
      2       3.5964      2.00000
      3       7.7726      0.00000
      4       7.8610      0.00000
      5       8.7902      0.00000
      6      12.1906      0.00000

 k-point   245 :      -0.4500    0.4500    0.3500
  band No.  band energies     occupation 
      1       3.3921      2.00000
      2       3.4558      2.00000
      3       7.8181      0.00000
      4       8.0338      0.00000
      5       9.1147      0.00000
      6      13.3182      0.00000

 k-point   246 :      -0.4000    0.4500    0.3500
  band No.  band energies     occupation 
      1       3.3605      2.00000
      2       3.3969      2.00000
      3       7.8995      0.00000
      4       8.2844      0.00000
      5       8.9830      0.00000
      6      13.1918      0.00000

 k-point   247 :       0.5000    0.5000    0.3500
  band No.  band energies     occupation 
      1       3.3491      2.00000
      2       3.4231      2.00000
      3       7.8241      0.00000
      4       8.0891      0.00000
      5       9.2470      0.00000
      6      14.2144      0.00000

 k-point   248 :      -0.4500    0.5000    0.3500
  band No.  band energies     occupation 
      1       3.2841      2.00000
      2       3.3086      2.00000
      3       7.9233      0.00000
      4       8.5270      0.00000
      5       9.1314      0.00000
      6      14.3288      0.00000

 k-point   249 :      -0.4500   -0.4500    0.3500
  band No.  band energies     occupation 
      1       3.2521      2.00000
      2       3.2521      2.00000
      3       7.9296      0.00000
      4       8.9371      0.00000
      5       8.9371      0.00000
      6      15.3571      0.00000

 k-point   250 :      -0.4000    0.4000    0.4000
  band No.  band energies     occupation 
      1       3.3066      2.00000
      2       3.3557      2.00000
      3       8.2686      0.00000
      4       8.2686      0.00000
      5       8.8511      0.00000
      6      13.0272      0.00000

 k-point   251 :      -0.4500    0.4500    0.4000
  band No.  band energies     occupation 
      1       3.1927      2.00000
      2       3.2042      2.00000
      3       8.4562      0.00000
      4       8.5387      0.00000
      5       9.0780      0.00000
      6      14.0267      0.00000

 k-point   252 :       0.5000    0.5000    0.4000
  band No.  band energies     occupation 
      1       3.1444      2.00000
      2       3.1604      2.00000
      3       8.4836      0.00000
      4       8.6307      0.00000
      5       9.2077      0.00000
      6      14.9270      0.00000

 k-point   253 :      -0.4500    0.5000    0.4000
  band No.  band energies     occupation 
      1       3.1016      2.00000
      2       3.1037      2.00000
      3       8.5542      0.00000
      4       8.9089      0.00000
      5       9.1312      0.00000
      6      14.9548      0.00000

 k-point   254 :      -0.4500    0.4500    0.4500
  band No.  band energies     occupation 
      1       3.0512      2.00000
      2       3.0512      2.00000
      3       8.8991      0.00000
      4       8.8991      0.00000
      5       9.0905      0.00000
      6      14.7675      0.00000

 k-point   255 :       0.5000    0.5000    0.4500
  band No.  band energies     occupation 
      1       2.9995      2.00000
      2       3.0012      2.00000
      3       8.9820      0.00000
      4       9.0283      0.00000
      5       9.1825      0.00000
      6      15.4313      0.00000

 k-point   256 :       0.5000    0.5000    0.5000
  band No.  band energies     occupation 
      1       2.9479      2.00000
      2       2.9479      2.00000
      3       9.1739      0.00000
      4       9.1739      0.00000
      5       9.1739      0.00000
      6      15.6185      0.00000


--------------------------------------------------------------------------------------------------------


 soft charge-density along one line, spin component            1
         0         1         2         3         4         5         6         7         8         9
 total charge-density along one line
 
 pseudopotential strength for first ion, spin component:            1
 -1.558  -0.005  -0.000  -0.000  -0.000  -2.066  -0.005  -0.000
 -0.005  -1.555  -0.000  -0.000   0.000  -0.005  -2.062  -0.000
 -0.000  -0.000  -1.562  -0.000  -0.000  -0.000  -0.000  -2.069
 -0.000  -0.000  -0.000  -1.555   0.005  -0.000  -0.000  -0.000
 -0.000   0.000  -0.000   0.005  -1.558  -0.000   0.000  -0.000
 -2.066  -0.005  -0.000  -0.000  -0.000  -2.523  -0.005  -0.000
 -0.005  -2.062  -0.000  -0.000   0.000  -0.005  -2.519  -0.000
 -0.000  -0.000  -2.069  -0.000  -0.000  -0.000  -0.000  -2.526
 -0.000  -0.000  -0.000  -2.062   0.005  -0.000  -0.000  -0.000
 -0.000   0.000  -0.000   0.005  -2.066  -0.000   0.000  -0.000
 -0.000   0.000  -0.000   0.000  -0.000  -0.000   0.000  -0.000
  0.000  -0.000   0.000  -0.000   0.000   0.000  -0.000   0.000
 -0.000  -0.000   0.000  -0.000   0.000  -0.000  -0.000   0.000
 -0.000  -0.000  -0.000  -0.000   0.000  -0.000  -0.000  -0.000
 -0.000  -0.000   0.000  -0.000  -0.000  -0.000  -0.000   0.000
  0.000   0.000  -0.000   0.000  -0.000   0.000   0.000  -0.000
  0.000   0.000   0.000   0.000  -0.000   0.000   0.000   0.000
  0.000   0.000  -0.000   0.000   0.000   0.000   0.000  -0.000
 total augmentation occupancy for first ion, spin component:            1
  0.303  -0.050   0.000  -0.000   0.000  -0.462   0.157  -0.000   0.000  -0.000  -0.000  -0.000   0.000   0.000   0.000   0.000
 -0.050   0.339  -0.000   0.000   0.000   0.157  -0.573   0.000  -0.000  -0.000  -0.000  -0.000   0.000   0.000   0.000   0.000
  0.000  -0.000   0.268  -0.000  -0.000  -0.000   0.000  -0.350   0.000   0.000   0.000   0.000   0.000   0.000   0.000   0.000
 -0.000   0.000  -0.000   0.339   0.050   0.000  -0.000   0.000  -0.573  -0.157  -0.000  -0.000   0.000   0.000   0.000   0.000
  0.000   0.000  -0.000   0.050   0.303  -0.000  -0.000   0.000  -0.157  -0.462   0.000   0.000   0.000   0.000   0.000   0.000
 -0.462   0.157  -0.000   0.000  -0.000   1.380  -0.173   0.000  -0.000   0.000   0.000   0.000   0.000   0.000   0.000   0.000
  0.157  -0.573   0.000  -0.000  -0.000  -0.173   1.503  -0.000   0.000   0.000   0.000   0.000   0.000   0.000   0.000   0.000
 -0.000   0.000  -0.350   0.000   0.000   0.000  -0.000   1.257  -0.000  -0.000  -0.000  -0.000   0.000   0.000   0.000   0.000
  0.000  -0.000   0.000  -0.573  -0.157  -0.000   0.000  -0.000   1.503   0.173   0.000   0.000   0.000   0.000   0.000   0.000
 -0.000  -0.000   0.000  -0.157  -0.462   0.000   0.000  -0.000   0.173   1.380  -0.000  -0.000   0.000   0.000   0.000   0.000
 -0.000  -0.000   0.000  -0.000   0.000  -0.000   0.000  -0.000   0.000  -0.000   1.907   0.041   0.000   0.000   0.000   0.000
  0.000  -0.000   0.000  -0.000   0.000   0.000   0.000  -0.000   0.000  -0.000   0.041   0.001   0.000   0.000   0.000   0.000
  0.000   0.000   0.000   0.000   0.000   0.000   0.000   0.000   0.000   0.000   0.000   0.000   0.342  -0.000  -0.000   0.009
  0.000   0.000   0.000   0.000   0.000   0.000   0.000   0.000   0.000   0.000   0.000   0.000  -0.000   0.342  -0.000  -0.000
  0.000   0.000   0.000   0.000   0.000   0.000   0.000   0.000   0.000   0.000   0.000   0.000  -0.000  -0.000   0.342   0.000
  0.000   0.000   0.000   0.000   0.000   0.000   0.000   0.000   0.000   0.000   0.000   0.000   0.009  -0.000  -0.000   0.000
  0.000   0.000   0.000   0.000   0.000   0.000   0.000   0.000   0.000   0.000   0.000   0.000  -0.000   0.009  -0.000  -0.000
  0.000   0.000   0.000   0.000   0.000   0.000   0.000   0.000   0.000   0.000   0.000   0.000  -0.000  -0.000   0.009   0.000


------------------------ aborting loop because EDIFF is reached ----------------------------------------


    CHARGE:  cpu time      0.1919: real time      0.1901
    FORLOC:  cpu time      0.0023: real time      0.0018
    FORNL :  cpu time      0.5219: real time      0.5117
    STRESS:  cpu time      4.0855: real time      3.8396
    FORCOR:  cpu time      0.0043: real time      0.0033
    FORHAR:  cpu time      0.0009: real time      0.0008
    MIXING:  cpu time      0.0008: real time      0.0005
    OFIELD:  cpu time      0.0000: real time      0.0000

  FORCE on cell =-STRESS in cart. coord.  units (eV):
  Direction    XX          YY          ZZ          XY          YZ          ZX
  --------------------------------------------------------------------------------------
  Alpha Z    22.02173    22.02173    22.02173
  Ewald     -71.77758   -71.77757   -71.77758     0.00000     0.00000     0.00000
  Hartree     3.45842     3.45842     3.45842     0.00000     0.00000     0.00000
  E(xc)     -21.90944   -21.90944   -21.90944    -0.00000    -0.00000    -0.00000
  Local      12.97727    12.97726    12.97727    -0.00001    -0.00000    -0.00000
  n-local    -3.13497    -3.23254     2.68436     0.52403    -0.55210    -0.38009
  augment    19.84328    19.84329    19.84328     0.00000    -0.00000    -0.00000
  Kinetic    38.44676    39.25868    29.37365    -0.48617     1.14404    -0.91102
  Fock        0.00000     0.00000     0.00000     0.00000     0.00000     0.00000
  -------------------------------------------------------------------------------------
  Total      -0.92101    -0.92101    -0.92101    -0.00000     0.00000     0.00000
  in kB    -104.83508  -104.83506  -104.83509    -0.00000     0.00003     0.00001
  external pressure =     -104.84 kB  Pullay stress =        0.00 kB


 VOLUME and BASIS-vectors are now :
 -----------------------------------------------------------------------------
  energy-cutoff  :      350.00
  volume of cell :       14.08
      direct lattice vectors                 reciprocal lattice vectors
     2.483821135  0.000000000 -0.878163778     0.402605480  0.232444404  0.000000000
    -1.241910568  2.151052000 -0.878163778     0.000000000  0.464888808  0.000000000
    -0.000000000 -0.000000000  2.634490292     0.134201880  0.232444496  0.379580066

  length of vectors
     2.634490283  2.634490119  2.634490292     0.464888775  0.464888808  0.464888820


 FORCES acting on ions
    electron-ion (+dipol)            ewald-force                    non-local-force                 convergence-correction
 -----------------------------------------------------------------------------------------------
   -.149E-14 -.213E-14 0.148E-14   0.759E-15 -.419E-15 -.265E-15   0.517E-24 0.000E+00 -.207E-24   0.138E-15 -.169E-14 0.832E-15
 -----------------------------------------------------------------------------------------------
   -.149E-14 -.213E-14 0.148E-14   0.759E-15 -.419E-15 -.265E-15   0.517E-24 0.000E+00 -.207E-24   0.138E-15 -.169E-14 0.832E-15
 
 
 POSITION                                       TOTAL-FORCE (eV/Angst)
 -----------------------------------------------------------------------------------
      0.00000      0.00000      0.00000         0.000000      0.000000      0.000000
 -----------------------------------------------------------------------------------
    total drift:                               -0.000000     -0.000000      0.000000


--------------------------------------------------------------------------------------------------------



  FREE ENERGIE OF THE ION-ELECTRON SYSTEM (eV)
  ---------------------------------------------------
  free  energy   TOTEN  =        -8.91171309 eV

  energy  without entropy=       -8.91129865  energy(sigma->0) =       -8.91157494
 


--------------------------------------------------------------------------------------------------------


    POTLOK:  cpu time      0.0113: real time      0.0071


--------------------------------------------------------------------------------------------------------


     LOOP+:  cpu time     29.4210: real time     29.1116
    4ORBIT:  cpu time      0.0000: real time      0.0000

 total amount of memory used by VASP MPI-rank0    47950. kBytes
=======================================================================

   base      :      30000. kBytes
   nonl-proj :       8703. kBytes
   fftplans  :       1184. kBytes
   grid      :       1806. kBytes
   one-center:         15. kBytes
   wavefun   :       6242. kBytes
 
  
  
 General timing and accounting informations for this job:
 ========================================================
  
                  Total CPU time used (sec):       30.825
                            User time (sec):       29.976
                          System time (sec):        0.848
                         Elapsed time (sec):       30.412
  
                   Maximum memory used (kb):     1391580.
                   Average memory used (kb):          N/A
  
                          Minor page faults:       342583
                          Major page faults:            0
                 Voluntary context switches:        31598
