       N       E                     dE             d eps       ncg     rms          rms(c)
DAV:   1     0.420703207836E+04    0.42070E+04   -0.16583E+05  8824   0.174E+03
DAV:   2     0.311969992662E+03   -0.38951E+04   -0.35472E+04  8824   0.478E+02
DAV:   3    -0.294332929579E+03   -0.60630E+03   -0.56655E+03  9331   0.200E+02
DAV:   4    -0.334888592232E+03   -0.40556E+02   -0.40243E+02 10442   0.482E+01
DAV:   5    -0.336320318159E+03   -0.14317E+01   -0.14292E+01 13376   0.790E+00    0.830E+01
DAV:   6    -0.309961136797E+03    0.26359E+02   -0.54000E+02 11192   0.103E+02    0.175E+02
DAV:   7    -0.234248726781E+03    0.75712E+02   -0.24696E+02 10496   0.852E+01    0.433E+01
DAV:   8    -0.240222511102E+03   -0.59738E+01   -0.37935E+01 10105   0.228E+01    0.261E+01
DAV:   9    -0.239667131362E+03    0.55538E+00   -0.28772E+01  9898   0.258E+01    0.348E+01
DAV:  10    -0.243302043749E+03   -0.36349E+01   -0.61508E+00 10608   0.686E+00    0.359E+01
DAV:  11    -0.241263477881E+03    0.20386E+01   -0.27045E+00  9896   0.885E+00    0.219E+01
DAV:  12    -0.241097698836E+03    0.16578E+00   -0.90123E-01 10408   0.508E+00    0.173E+01
DAV:  13    -0.239975931093E+03    0.11218E+01   -0.18270E+00 10488   0.751E+00    0.974E+00
DAV:  14    -0.239866421753E+03    0.10951E+00   -0.79019E-01 10984   0.293E+00    0.439E+00
DAV:  15    -0.239933950773E+03   -0.67529E-01   -0.13632E-01  9280   0.114E+00    0.454E+00
DAV:  16    -0.239934812281E+03   -0.86151E-03   -0.37969E-02 10216   0.697E-01    0.230E+00
DAV:  17    -0.239938951440E+03   -0.41392E-02   -0.13630E-02 11080   0.436E-01    0.189E+00
DAV:  18    -0.239945466103E+03   -0.65147E-02   -0.29509E-03  9520   0.178E-01    0.171E+00
DAV:  19    -0.239959732188E+03   -0.14266E-01   -0.89007E-03 10024   0.239E-01    0.138E+00
DAV:  20    -0.239966163960E+03   -0.64318E-02   -0.18223E-02 10104   0.381E-01    0.825E-01
DAV:  21    -0.239966625093E+03   -0.46113E-03   -0.47816E-03 11072   0.265E-01    0.182E-01
DAV:  22    -0.239966794061E+03   -0.16897E-03   -0.11052E-03  9384   0.935E-02    0.147E-01
DAV:  23    -0.239966954120E+03   -0.16006E-03   -0.39812E-04  9872   0.574E-02    0.105E-01
DAV:  24    -0.239966906752E+03    0.47368E-04   -0.90038E-05 10520   0.529E-02    0.313E-02
DAV:  25    -0.239966907317E+03   -0.56513E-06   -0.21383E-05 10144   0.145E-02    0.163E-02
DAV:  26    -0.239966907827E+03   -0.51074E-06   -0.26821E-06  7472   0.481E-03
   1 F= -.23996691E+03 E0= -.23995530E+03  d E =-.239967E+03  mag=    36.0288
       N       E                     dE             d eps       ncg     rms          rms(c)
DAV:   1    -0.250359415699E+03   -0.10393E+02   -0.34363E+02 11301   0.111E+02    0.406E+01
DAV:   2    -0.247737934373E+03    0.26215E+01   -0.11447E+02  9332   0.594E+01    0.693E+01
DAV:   3    -0.240824659956E+03    0.69133E+01   -0.19796E+01  9465   0.279E+01    0.171E+01
DAV:   4    -0.240660327820E+03    0.16433E+00   -0.11510E+01 10513   0.104E+01    0.614E+00
DAV:   5    -0.240646940332E+03    0.13387E-01   -0.22365E+00 10009   0.507E+00    0.417E+00
DAV:   6    -0.240601757220E+03    0.45183E-01   -0.33879E-01 11141   0.215E+00    0.241E+00
DAV:   7    -0.240557948163E+03    0.43809E-01   -0.14450E-01 11184   0.159E+00    0.173E+00
DAV:   8    -0.240561636863E+03   -0.36887E-02   -0.52120E-02 10811   0.659E-01    0.548E-01
DAV:   9    -0.240561942849E+03   -0.30599E-03   -0.42706E-03 11249   0.239E-01    0.238E-01
DAV:  10    -0.240562080268E+03   -0.13742E-03   -0.20275E-03  9971   0.133E-01    0.186E-01
DAV:  11    -0.240562189006E+03   -0.10874E-03   -0.30098E-04  9986   0.536E-02    0.948E-02
DAV:  12    -0.240562194001E+03   -0.49959E-05   -0.58482E-05 11008   0.255E-02    0.396E-02
DAV:  13    -0.240562203895E+03   -0.98935E-05   -0.26652E-05  9184   0.162E-02    0.242E-02
DAV:  14    -0.240562205666E+03   -0.17706E-05   -0.75641E-06  8857   0.826E-03    0.155E-02
DAV:  15    -0.240562203972E+03    0.16938E-05   -0.30329E-06  7608   0.778E-03    0.456E-03
DAV:  16    -0.240562204315E+03   -0.34354E-06   -0.79519E-07  5441   0.272E-03
   2 F= -.24056220E+03 E0= -.24055278E+03  d E =-.595296E+00  mag=    38.0388
       N       E                     dE             d eps       ncg     rms          rms(c)
DAV:   1    -0.241015697353E+03   -0.45349E+00   -0.14072E+01 11595   0.224E+01    0.827E+00
DAV:   2    -0.240675643356E+03    0.34005E+00   -0.34466E+00  9752   0.890E+00    0.115E+01
DAV:   3    -0.240631113320E+03    0.44530E-01   -0.55406E-01  9313   0.323E+00    0.190E+00
DAV:   4    -0.240609710742E+03    0.21403E-01   -0.25678E-01 10524   0.127E+00    0.949E-01
DAV:   5    -0.240603668995E+03    0.60417E-02   -0.41162E-02 10465   0.927E-01    0.130E+00
DAV:   6    -0.240601776786E+03    0.18922E-02   -0.84519E-03 10297   0.377E-01    0.532E-01
DAV:   7    -0.240601671459E+03    0.10533E-03   -0.57136E-03 11706   0.274E-01    0.320E-01
DAV:   8    -0.240601157773E+03    0.51369E-03   -0.22936E-03 10675   0.172E-01    0.126E-01
DAV:   9    -0.240601254849E+03   -0.97076E-04   -0.64360E-04 10018   0.647E-02    0.785E-02
DAV:  10    -0.240601253884E+03    0.96496E-06   -0.54040E-05  9867   0.191E-02    0.329E-02
DAV:  11    -0.240601256112E+03   -0.22285E-05   -0.30135E-05  9840   0.187E-02    0.134E-02
DAV:  12    -0.240601257825E+03   -0.17125E-05   -0.52272E-06  8760   0.854E-03    0.563E-03
DAV:  13    -0.240601258451E+03   -0.62618E-06   -0.16266E-06  5816   0.360E-03
   3 F= -.24060126E+03 E0= -.24058922E+03  d E =-.634351E+00  mag=    37.7683
       N       E                     dE             d eps       ncg     rms          rms(c)
DAV:   1    -0.240244639137E+03    0.35662E+00   -0.14995E+01 11746   0.285E+01    0.401E+00
DAV:   2    -0.240638894268E+03   -0.39426E+00   -0.40569E+00  9384   0.576E+00    0.384E+00
DAV:   3    -0.240657318933E+03   -0.18425E-01   -0.24913E-01  9586   0.194E+00    0.153E+00
DAV:   4    -0.240654437728E+03    0.28812E-02   -0.25097E-02 10566   0.430E-01    0.472E-01
DAV:   5    -0.240652901774E+03    0.15360E-02   -0.47984E-03 10691   0.353E-01    0.305E-01
DAV:   6    -0.240652789415E+03    0.11236E-03   -0.23785E-03 10339   0.210E-01    0.161E-01
DAV:   7    -0.240652758126E+03    0.31289E-04   -0.68775E-04 11040   0.913E-02    0.777E-02
DAV:   8    -0.240652750933E+03    0.71936E-05   -0.15850E-04 10113   0.484E-02    0.737E-02
DAV:   9    -0.240652759624E+03   -0.86913E-05   -0.54659E-05  9896   0.226E-02    0.283E-02
DAV:  10    -0.240652762097E+03   -0.24734E-05   -0.13014E-05 10560   0.114E-02    0.104E-02
DAV:  11    -0.240652762402E+03   -0.30421E-06   -0.20038E-06  6640   0.508E-03
   4 F= -.24065276E+03 E0= -.24063887E+03  d E =-.515040E-01  mag=    37.2337
       N       E                     dE             d eps       ncg     rms          rms(c)
DAV:   1    -0.240213589932E+03    0.43917E+00   -0.16729E+01 11700   0.301E+01    0.425E+00
DAV:   2    -0.240651990807E+03   -0.43840E+00   -0.45210E+00  9434   0.610E+00    0.413E+00
DAV:   3    -0.240672949159E+03   -0.20958E-01   -0.28138E-01  9586   0.207E+00    0.159E+00
DAV:   4    -0.240670065394E+03    0.28838E-02   -0.27711E-02 10730   0.445E-01    0.490E-01
DAV:   5    -0.240668305123E+03    0.17603E-02   -0.47691E-03 10986   0.368E-01    0.312E-01
DAV:   6    -0.240668028434E+03    0.27669E-03   -0.29672E-03 10233   0.252E-01    0.170E-01
DAV:   7    -0.240668052854E+03   -0.24421E-04   -0.68994E-04 10722   0.987E-02    0.640E-02
DAV:   8    -0.240668070834E+03   -0.17980E-04   -0.79567E-05 10896   0.247E-02    0.429E-02
DAV:   9    -0.240668075271E+03   -0.44367E-05   -0.23978E-05 10756   0.186E-02    0.255E-02
DAV:  10    -0.240668077435E+03   -0.21645E-05   -0.12614E-05  9992   0.128E-02    0.858E-03
DAV:  11    -0.240668077920E+03   -0.48483E-06   -0.25940E-06  7001   0.515E-03
   5 F= -.24066808E+03 E0= -.24065538E+03  d E =-.668195E-01  mag=    36.6123
       N       E                     dE             d eps       ncg     rms          rms(c)
DAV:   1    -0.240660942731E+03    0.71347E-02   -0.27021E-01 11823   0.384E+00    0.513E-01
DAV:   2    -0.240668180058E+03   -0.72373E-02   -0.74210E-02  9450   0.768E-01    0.453E-01
DAV:   3    -0.240668499675E+03   -0.31962E-03   -0.41375E-03  9580   0.251E-01    0.213E-01
DAV:   4    -0.240668448521E+03    0.51153E-04   -0.40303E-04 10723   0.547E-02    0.619E-02
DAV:   5    -0.240668416589E+03    0.31932E-04   -0.76754E-05 10829   0.471E-02    0.393E-02
DAV:   6    -0.240668412642E+03    0.39473E-05   -0.46589E-05 10224   0.306E-02    0.215E-02
DAV:   7    -0.240668412398E+03    0.24416E-06   -0.11287E-05  9641   0.123E-02    0.933E-03
DAV:   8    -0.240668411720E+03    0.67820E-06   -0.13648E-06  5888   0.481E-03
   6 F= -.24066841E+03 E0= -.24065545E+03  d E =-.671533E-01  mag=    36.6814
       N       E                     dE             d eps       ncg     rms          rms(c)
DAV:   1    -0.240693515223E+03   -0.25103E-01   -0.16447E+00  8837   0.377E+00    0.195E+00
DAV:   2    -0.240679065591E+03    0.14450E-01   -0.13522E-01  9581   0.193E+00    0.302E+00
DAV:   3    -0.240673306644E+03    0.57589E-02   -0.14584E-02 10083   0.642E-01    0.645E-01
DAV:   4    -0.240672107951E+03    0.11987E-02   -0.95024E-03 11004   0.329E-01    0.216E-01
DAV:   5    -0.240671764605E+03    0.34335E-03   -0.21713E-03 10610   0.222E-01    0.263E-01
DAV:   6    -0.240671717030E+03    0.47575E-04   -0.72186E-04 10713   0.862E-02    0.954E-02
DAV:   7    -0.240671668198E+03    0.48832E-04   -0.21135E-04 11745   0.549E-02    0.471E-02
DAV:   8    -0.240671647097E+03    0.21100E-04   -0.78635E-05 10280   0.256E-02    0.166E-02
DAV:   9    -0.240671646813E+03    0.28469E-06   -0.27132E-05  8899   0.124E-02    0.129E-02
DAV:  10    -0.240671644036E+03    0.27768E-05   -0.32743E-06  7417   0.579E-03    0.445E-03
DAV:  11    -0.240671644393E+03   -0.35763E-06   -0.10168E-06  5523   0.277E-03
   7 F= -.24067164E+03 E0= -.24065864E+03  d E =-.323267E-02  mag=    36.7709
       N       E                     dE             d eps       ncg     rms          rms(c)
DAV:   1    -0.240673259832E+03   -0.16158E-02   -0.10554E-01  8897   0.954E-01    0.492E-01
DAV:   2    -0.240672319615E+03    0.94022E-03   -0.85891E-03  9602   0.484E-01    0.757E-01
DAV:   3    -0.240671961796E+03    0.35782E-03   -0.92805E-04 10122   0.161E-01    0.161E-01
DAV:   4    -0.240671886798E+03    0.74997E-04   -0.59619E-04 10977   0.815E-02    0.543E-02
DAV:   5    -0.240671864147E+03    0.22651E-04   -0.13634E-04 10650   0.559E-02    0.677E-02
DAV:   6    -0.240671858892E+03    0.52555E-05   -0.46090E-05 10697   0.221E-02    0.230E-02
DAV:   7    -0.240671855304E+03    0.35874E-05   -0.13459E-05 10970   0.136E-02    0.120E-02
DAV:   8    -0.240671853497E+03    0.18074E-05   -0.46369E-06  8609   0.649E-03    0.438E-03
DAV:   9    -0.240671852849E+03    0.64751E-06   -0.17005E-06  6029   0.328E-03
   8 F= -.24067185E+03 E0= -.24065885E+03  d E =-.344113E-02  mag=    36.7924
       N       E                     dE             d eps       ncg     rms          rms(c)
DAV:   1    -0.240667256101E+03    0.45974E-02   -0.53898E-01 10584   0.403E+00    0.656E-01
DAV:   2    -0.240672767834E+03   -0.55117E-02   -0.80242E-02  9408   0.945E-01    0.827E-01
DAV:   3    -0.240672959768E+03   -0.19193E-03   -0.67953E-03  9583   0.331E-01    0.212E-01
DAV:   4    -0.240672783113E+03    0.17666E-03   -0.11732E-03 10296   0.912E-02    0.814E-02
DAV:   5    -0.240672728887E+03    0.54226E-04   -0.21984E-04 10301   0.693E-02    0.824E-02
DAV:   6    -0.240672711674E+03    0.17213E-04   -0.90913E-05 10321   0.428E-02    0.252E-02
DAV:   7    -0.240672712611E+03   -0.93745E-06   -0.21512E-05 10744   0.168E-02    0.151E-02
DAV:   8    -0.240672713513E+03   -0.90191E-06   -0.58639E-06  9178   0.966E-03
   9 F= -.24067271E+03 E0= -.24065979E+03  d E =-.860664E-03  mag=    36.7643
