   1   1   0   0
  0.8710429E+02  0.4836752E-09  0.4836752E-09  0.4836752E-09  0.5000000E-15
   1.0000000000000000E-004
  CAR 
 BCC Rb K-test                           
      6.33115515    -30.43895034  301      0.13300839      1.00000000
    -30.439  0.0000E+00  0.0000E+00
    -30.316  0.0000E+00  0.0000E+00
    -30.194  0.0000E+00  0.0000E+00
    -30.071  0.0000E+00  0.0000E+00
    -29.949  0.0000E+00  0.0000E+00
    -29.826  0.0000E+00  0.0000E+00
    -29.704  0.0000E+00  0.0000E+00
    -29.581 -0.3170E-27 -0.3886E-28
    -29.458 -0.3067E-19 -0.3759E-20
    -29.336 -0.1384E-12 -0.1696E-13
    -29.213 -0.2997E-07 -0.3674E-08
    -29.091 -0.2908E-03 -0.3564E-04
    -28.968 -0.1082E+00 -0.1330E-01
    -28.846  0.1526E+00  0.5401E-02
    -28.723  0.1313E+02  0.1614E+01
    -28.600  0.3507E+01  0.2044E+01
    -28.478 -0.3571E+00  0.2000E+01
    -28.355 -0.3512E-02  0.2000E+01
    -28.233 -0.1117E-05  0.2000E+01
    -28.110 -0.1541E-10  0.2000E+01
    -27.988  0.0000E+00  0.2000E+01
    -27.865  0.0000E+00  0.2000E+01
    -27.742  0.0000E+00  0.2000E+01
    -27.620  0.0000E+00  0.2000E+01
    -27.497  0.0000E+00  0.2000E+01
    -27.375  0.0000E+00  0.2000E+01
    -27.252  0.0000E+00  0.2000E+01
    -27.130  0.0000E+00  0.2000E+01
    -27.007  0.0000E+00  0.2000E+01
    -26.885  0.0000E+00  0.2000E+01
    -26.762  0.0000E+00  0.2000E+01
    -26.639  0.0000E+00  0.2000E+01
    -26.517  0.0000E+00  0.2000E+01
    -26.394  0.0000E+00  0.2000E+01
    -26.272  0.0000E+00  0.2000E+01
    -26.149  0.0000E+00  0.2000E+01
    -26.027  0.0000E+00  0.2000E+01
    -25.904  0.0000E+00  0.2000E+01
    -25.781  0.0000E+00  0.2000E+01
    -25.659  0.0000E+00  0.2000E+01
    -25.536  0.0000E+00  0.2000E+01
    -25.414  0.0000E+00  0.2000E+01
    -25.291  0.0000E+00  0.2000E+01
    -25.169  0.0000E+00  0.2000E+01
    -25.046  0.0000E+00  0.2000E+01
    -24.923  0.0000E+00  0.2000E+01
    -24.801  0.0000E+00  0.2000E+01
    -24.678  0.0000E+00  0.2000E+01
    -24.556  0.0000E+00  0.2000E+01
    -24.433  0.0000E+00  0.2000E+01
    -24.311  0.0000E+00  0.2000E+01
    -24.188  0.0000E+00  0.2000E+01
    -24.065  0.0000E+00  0.2000E+01
    -23.943  0.0000E+00  0.2000E+01
    -23.820  0.0000E+00  0.2000E+01
    -23.698  0.0000E+00  0.2000E+01
    -23.575  0.0000E+00  0.2000E+01
    -23.453  0.0000E+00  0.2000E+01
    -23.330  0.0000E+00  0.2000E+01
    -23.207  0.0000E+00  0.2000E+01
    -23.085  0.0000E+00  0.2000E+01
    -22.962  0.0000E+00  0.2000E+01
    -22.840  0.0000E+00  0.2000E+01
    -22.717  0.0000E+00  0.2000E+01
    -22.595  0.0000E+00  0.2000E+01
    -22.472  0.0000E+00  0.2000E+01
    -22.350  0.0000E+00  0.2000E+01
    -22.227  0.0000E+00  0.2000E+01
    -22.104  0.0000E+00  0.2000E+01
    -21.982  0.0000E+00  0.2000E+01
    -21.859  0.0000E+00  0.2000E+01
    -21.737  0.0000E+00  0.2000E+01
    -21.614  0.0000E+00  0.2000E+01
    -21.492  0.0000E+00  0.2000E+01
    -21.369  0.0000E+00  0.2000E+01
    -21.246  0.0000E+00  0.2000E+01
    -21.124  0.0000E+00  0.2000E+01
    -21.001  0.0000E+00  0.2000E+01
    -20.879  0.0000E+00  0.2000E+01
    -20.756  0.0000E+00  0.2000E+01
    -20.634  0.0000E+00  0.2000E+01
    -20.511  0.0000E+00  0.2000E+01
    -20.388  0.0000E+00  0.2000E+01
    -20.266  0.0000E+00  0.2000E+01
    -20.143  0.0000E+00  0.2000E+01
    -20.021  0.0000E+00  0.2000E+01
    -19.898  0.0000E+00  0.2000E+01
    -19.776  0.0000E+00  0.2000E+01
    -19.653  0.0000E+00  0.2000E+01
    -19.530  0.0000E+00  0.2000E+01
    -19.408  0.0000E+00  0.2000E+01
    -19.285  0.0000E+00  0.2000E+01
    -19.163  0.0000E+00  0.2000E+01
    -19.040  0.0000E+00  0.2000E+01
    -18.918  0.0000E+00  0.2000E+01
    -18.795  0.0000E+00  0.2000E+01
    -18.673  0.0000E+00  0.2000E+01
    -18.550  0.0000E+00  0.2000E+01
    -18.427  0.0000E+00  0.2000E+01
    -18.305  0.0000E+00  0.2000E+01
    -18.182  0.0000E+00  0.2000E+01
    -18.060  0.0000E+00  0.2000E+01
    -17.937  0.0000E+00  0.2000E+01
    -17.815  0.0000E+00  0.2000E+01
    -17.692  0.0000E+00  0.2000E+01
    -17.569  0.0000E+00  0.2000E+01
    -17.447  0.0000E+00  0.2000E+01
    -17.324  0.0000E+00  0.2000E+01
    -17.202  0.0000E+00  0.2000E+01
    -17.079  0.0000E+00  0.2000E+01
    -16.957  0.0000E+00  0.2000E+01
    -16.834  0.0000E+00  0.2000E+01
    -16.711  0.0000E+00  0.2000E+01
    -16.589  0.0000E+00  0.2000E+01
    -16.466  0.0000E+00  0.2000E+01
    -16.344  0.0000E+00  0.2000E+01
    -16.221  0.0000E+00  0.2000E+01
    -16.099  0.0000E+00  0.2000E+01
    -15.976  0.0000E+00  0.2000E+01
    -15.853  0.0000E+00  0.2000E+01
    -15.731  0.0000E+00  0.2000E+01
    -15.608  0.0000E+00  0.2000E+01
    -15.486  0.0000E+00  0.2000E+01
    -15.363  0.0000E+00  0.2000E+01
    -15.241  0.0000E+00  0.2000E+01
    -15.118  0.0000E+00  0.2000E+01
    -14.996  0.0000E+00  0.2000E+01
    -14.873  0.0000E+00  0.2000E+01
    -14.750  0.0000E+00  0.2000E+01
    -14.628  0.0000E+00  0.2000E+01
    -14.505  0.0000E+00  0.2000E+01
    -14.383  0.0000E+00  0.2000E+01
    -14.260  0.0000E+00  0.2000E+01
    -14.138  0.0000E+00  0.2000E+01
    -14.015  0.0000E+00  0.2000E+01
    -13.892  0.0000E+00  0.2000E+01
    -13.770 -0.6456E-31  0.2000E+01
    -13.647 -0.1857E-22  0.2000E+01
    -13.525 -0.2699E-15  0.2000E+01
    -13.402 -0.1901E-09  0.2000E+01
    -13.280 -0.6806E-05  0.2000E+01
    -13.157 -0.1164E-01  0.1999E+01
    -13.034 -0.7594E+00  0.1905E+01
    -12.912  0.7127E+01  0.2779E+01
    -12.789  0.3709E+02  0.7325E+01
    -12.667  0.6233E+01  0.8089E+01
    -12.544 -0.7219E+00  0.8001E+01
    -12.422 -0.8097E-02  0.8000E+01
    -12.299 -0.3393E-05  0.8000E+01
    -12.176 -0.6645E-10  0.8000E+01
    -12.054  0.0000E+00  0.8000E+01
    -11.931  0.0000E+00  0.8000E+01
    -11.809  0.0000E+00  0.8000E+01
    -11.686  0.0000E+00  0.8000E+01
    -11.564  0.0000E+00  0.8000E+01
    -11.441  0.0000E+00  0.8000E+01
    -11.318  0.0000E+00  0.8000E+01
    -11.196  0.0000E+00  0.8000E+01
    -11.073  0.0000E+00  0.8000E+01
    -10.951  0.0000E+00  0.8000E+01
    -10.828  0.0000E+00  0.8000E+01
    -10.706  0.0000E+00  0.8000E+01
    -10.583  0.0000E+00  0.8000E+01
    -10.461  0.0000E+00  0.8000E+01
    -10.338  0.0000E+00  0.8000E+01
    -10.215  0.0000E+00  0.8000E+01
    -10.093  0.0000E+00  0.8000E+01
     -9.970  0.0000E+00  0.8000E+01
     -9.848  0.0000E+00  0.8000E+01
     -9.725  0.0000E+00  0.8000E+01
     -9.603  0.0000E+00  0.8000E+01
     -9.480  0.0000E+00  0.8000E+01
     -9.357  0.0000E+00  0.8000E+01
     -9.235  0.0000E+00  0.8000E+01
     -9.112  0.0000E+00  0.8000E+01
     -8.990  0.0000E+00  0.8000E+01
     -8.867  0.0000E+00  0.8000E+01
     -8.745  0.0000E+00  0.8000E+01
     -8.622  0.0000E+00  0.8000E+01
     -8.499  0.0000E+00  0.8000E+01
     -8.377  0.0000E+00  0.8000E+01
     -8.254  0.0000E+00  0.8000E+01
     -8.132  0.0000E+00  0.8000E+01
     -8.009  0.0000E+00  0.8000E+01
     -7.887  0.0000E+00  0.8000E+01
     -7.764  0.0000E+00  0.8000E+01
     -7.641  0.0000E+00  0.8000E+01
     -7.519  0.0000E+00  0.8000E+01
     -7.396  0.0000E+00  0.8000E+01
     -7.274  0.0000E+00  0.8000E+01
     -7.151  0.0000E+00  0.8000E+01
     -7.029  0.0000E+00  0.8000E+01
     -6.906  0.0000E+00  0.8000E+01
     -6.784  0.0000E+00  0.8000E+01
     -6.661  0.0000E+00  0.8000E+01
     -6.538  0.0000E+00  0.8000E+01
     -6.416  0.0000E+00  0.8000E+01
     -6.293  0.0000E+00  0.8000E+01
     -6.171  0.0000E+00  0.8000E+01
     -6.048  0.0000E+00  0.8000E+01
     -5.926  0.0000E+00  0.8000E+01
     -5.803  0.0000E+00  0.8000E+01
     -5.680  0.0000E+00  0.8000E+01
     -5.558  0.0000E+00  0.8000E+01
     -5.435  0.0000E+00  0.8000E+01
     -5.313  0.0000E+00  0.8000E+01
     -5.190  0.0000E+00  0.8000E+01
     -5.068  0.0000E+00  0.8000E+01
     -4.945  0.0000E+00  0.8000E+01
     -4.822  0.0000E+00  0.8000E+01
     -4.700  0.0000E+00  0.8000E+01
     -4.577  0.0000E+00  0.8000E+01
     -4.455  0.0000E+00  0.8000E+01
     -4.332  0.0000E+00  0.8000E+01
     -4.210  0.0000E+00  0.8000E+01
     -4.087  0.0000E+00  0.8000E+01
     -3.964  0.0000E+00  0.8000E+01
     -3.842  0.0000E+00  0.8000E+01
     -3.719  0.0000E+00  0.8000E+01
     -3.597  0.0000E+00  0.8000E+01
     -3.474  0.0000E+00  0.8000E+01
     -3.352  0.0000E+00  0.8000E+01
     -3.229  0.0000E+00  0.8000E+01
     -3.107  0.0000E+00  0.8000E+01
     -2.984  0.0000E+00  0.8000E+01
     -2.861  0.0000E+00  0.8000E+01
     -2.739 -0.8712E-30  0.8000E+01
     -2.616 -0.9170E-22  0.8000E+01
     -2.494 -0.4511E-15  0.8000E+01
     -2.371 -0.1057E-09  0.8000E+01
     -2.249 -0.1113E-05  0.8000E+01
     -2.126 -0.4521E-03  0.8000E+01
     -2.003  0.1603E-03  0.8000E+01
     -1.881  0.5971E-01  0.8007E+01
     -1.758  0.3782E-02  0.8008E+01
     -1.636  0.1086E+00  0.8021E+01
     -1.513  0.7672E+00  0.8115E+01
     -1.391  0.3747E-01  0.8120E+01
     -1.268  0.1900E+00  0.8143E+01
     -1.145  0.2670E+00  0.8176E+01
     -1.023  0.6054E-01  0.8183E+01
     -0.900  0.1518E+01  0.8369E+01
     -0.778  0.2378E+00  0.8398E+01
     -0.655  0.5329E+00  0.8464E+01
     -0.533  0.3615E+00  0.8508E+01
     -0.410  0.3831E+00  0.8555E+01
     -0.287  0.1438E+01  0.8731E+01
     -0.165  0.2686E-01  0.8734E+01
     -0.042  0.4426E+00  0.8789E+01
      0.080  0.4359E+00  0.8842E+01
      0.203  0.3055E+01  0.9217E+01
      0.325  0.5181E+00  0.9280E+01
      0.448  0.6160E+00  0.9356E+01
      0.571  0.1939E+00  0.9379E+01
      0.693  0.2082E+01  0.9635E+01
      0.816  0.5037E+00  0.9696E+01
      0.938  0.3712E+00  0.9742E+01
      1.061  0.1705E+01  0.9951E+01
      1.183  0.1554E+01  0.1014E+02
      1.306  0.1997E+01  0.1039E+02
      1.428  0.2553E+01  0.1070E+02
      1.551  0.3606E+01  0.1114E+02
      1.674  0.6406E+00  0.1122E+02
      1.796  0.4219E-01  0.1122E+02
      1.919  0.1200E+01  0.1137E+02
      2.041  0.2663E+01  0.1170E+02
      2.164  0.1771E+01  0.1192E+02
      2.286  0.1253E+01  0.1207E+02
      2.409  0.2553E+01  0.1238E+02
      2.532  0.2825E+01  0.1273E+02
      2.654  0.2129E+00  0.1275E+02
      2.777  0.1149E+01  0.1289E+02
      2.899  0.2839E+01  0.1324E+02
      3.022  0.1613E+01  0.1344E+02
      3.144  0.1122E+01  0.1358E+02
      3.267  0.2312E+01  0.1386E+02
      3.390  0.2752E+01  0.1420E+02
      3.512  0.3214E+01  0.1459E+02
      3.635  0.5951E+00  0.1467E+02
      3.757 -0.1223E+00  0.1465E+02
      3.880  0.1078E+01  0.1478E+02
      4.002  0.1038E+01  0.1491E+02
      4.125  0.3280E+00  0.1495E+02
      4.248  0.2657E+01  0.1528E+02
      4.370  0.3327E+01  0.1568E+02
      4.493  0.1601E+01  0.1588E+02
      4.615  0.2415E+00  0.1591E+02
      4.738  0.7274E+00  0.1600E+02
      4.860  0.2079E-01  0.1600E+02
      4.983 -0.7094E-02  0.1600E+02
      5.105 -0.2191E-04  0.1600E+02
      5.228 -0.2557E-08  0.1600E+02
      5.351 -0.1329E-13  0.1600E+02
      5.473  0.0000E+00  0.1600E+02
      5.596  0.0000E+00  0.1600E+02
      5.718  0.0000E+00  0.1600E+02
      5.841  0.0000E+00  0.1600E+02
      5.963  0.0000E+00  0.1600E+02
      6.086  0.0000E+00  0.1600E+02
      6.209  0.0000E+00  0.1600E+02
      6.331  0.0000E+00  0.1600E+02
