 vasp.6.4.2 20Jul23 (build Mar  2 2025 11:04:54) complex                         
 executed on              LinuxNV date 2026.04.06  23:16:33
 running    1 mpi-ranks, with    2 threads/rank, on    1 nodes
 distrk:  each k-point on    1 cores,    1 groups
 distr:  one band on NCORE=   1 cores,    1 groups
 OpenACC runtime initialized ...    1 GPUs detected


--------------------------------------------------------------------------------------------------------


 INCAR:
   SYSTEM = BCC Rb K-test
   PREC = Accurate
   ISMEAR = 1
   SIGMA = 0.1
   EDIFF = 1E-6
   NSW = 0
   IBRION = -1
   LWAVE = .FALSE.
   LCHARG = .FALSE.
   ENCUT = 400
   KSPACING = 0.30
   KGAMMA = .TRUE.

 POTCAR:    PAW_PBE Rb_sv 06Sep2000               
 POTCAR:    PAW_PBE Rb_sv 06Sep2000               
   SHA256 =  06c38fe1ec7709d96d3959f5f2c66fec330a93b52b042a8fb2dfe6a3a3fb06c1 Rb_sv/POTCAR          
   COPYR  = (c) Copyright 06Sep2000 Georg Kresse                                                    
   COPYR  = This file is part of the software VASP. Any use, copying, and all other rights are regul
   COPYR  = If you do not have a valid VASP license, you may not use, copy or distribute this file. 
   VRHFIN =Rb: 4s4p5s                                                                               
   LEXCH  = PE                                                                                      
   EATOM  =   662.5034 eV,   48.6926 Ry                                                             
                                                                                                    
   TITEL  = PAW_PBE Rb_sv 06Sep2000                                                                 
   LULTRA =        F    use ultrasoft PP ?                                                          
   IUNSCR =        1    unscreen: 0-lin 1-nonlin 2-no                                               
   RPACOR =    2.200    partial core radius                                                         
   POMASS =   85.468; ZVAL   =    9.000    mass and valenz                                          
   RCORE  =    2.500    outmost cutoff radius                                                       
   RWIGS  =    4.570; RWIGS  =    2.418    wigner-seitz radius (au A)                               
   ENMAX  =  220.112; ENMIN  =  165.084 eV                                                          
   RCLOC  =    2.200    cutoff for local pot                                                        
   LCOR   =        T    correct aug charges                                                         
   LPAW   =        T    paw PP                                                                      
   EAUG   =  423.861                                                                                
   DEXC   =    0.000                                                                                
   RMAX   =    2.546    core radius for proj-oper                                                   
   RAUG   =    1.300    factor for augmentation sphere                                              
   RDEP   =    2.541    radius for radial grids                                                     
   RDEPT  =    2.044    core radius for aug-charge                                                  
                                                                                                    
   Atomic configuration                                                                             
   10 entries                                                                                       
     n  l   j            E        occ.                                                              
     1  0  0.50    -15031.5419   2.0000                                                             
     2  0  0.50     -2007.8842   2.0000                                                             
     2  1  1.50     -1779.8144   6.0000                                                             
     3  0  0.50      -297.9619   2.0000                                                             
     3  1  1.50      -224.8335   6.0000                                                             
     3  2  2.50      -103.9539  10.0000                                                             
     4  0  0.50       -31.8932   2.0000                                                             
     5  0  0.50        -2.2327   0.9990                                                             
     4  1  1.50       -15.9645   6.0000                                                             
     4  2  1.50        -0.0020   0.0010                                                             
   Description                                                                                      
     l       E           TYP  RCUT    TYP  RCUT                                                     
     0    -31.8932387     23  2.500                                                                 
     0     -2.2326525     23  2.500                                                                 
     1    -15.9644597     23  2.500                                                                 
     1    -17.3250423     23  2.500                                                                 
     2     -0.0020100     23  2.500                                                                 
  local pseudopotential read in
  partial core-charges read in
  partial kinetic energy density read in
  atomic valenz-charges read in
  non local Contribution for L=            0  read in
    real space projection operators read in
  non local Contribution for L=            0  read in
    real space projection operators read in
  non local Contribution for L=            1  read in
    real space projection operators read in
  non local Contribution for L=            1  read in
    real space projection operators read in
  non local Contribution for L=            2  read in
    real space projection operators read in
    PAW grid and wavefunctions read in
 
   number of l-projection  operators is LMAX  =            5
   number of lm-projection operators is LMMAX =           13
 
  PAW_PBE Rb_sv 06Sep2000               :
 energy of atom  1       EATOM= -662.5034
 kinetic energy error for atom=    0.0021 (will be added to EATOM!!)
 
 
 POSCAR: Rb1
  positions in direct lattice
  No initial velocities read in
 exchange correlation table for  LEXCH =        8
   RHO(1)=    0.500       N(1)  =     2000
   RHO(2)=  100.500       N(2)  =     4000
 


--------------------------------------------------------------------------------------------------------


 ion  position               nearest neighbor table
   1  0.000  0.000  0.000-
 
  LATTYP: Found a body centered cubic cell.
 ALAT       =     5.5850000000
  
  Lattice vectors:
  
 A1 = (  -2.7925000000,   2.7925000000,   2.7925000000)
 A2 = (   2.7925000000,  -2.7925000000,   2.7925000000)
 A3 = (   2.7925000000,   2.7925000000,  -2.7925000000)


Analysis of symmetry for initial positions (statically):
=====================================================================
 Subroutine PRICEL returns:
 Original cell was already a primitive cell.
 

 Routine SETGRP: Setting up the symmetry group for a 
 body centered cubic supercell.


 Subroutine GETGRP returns: Found 48 space group operations
 (whereof 48 operations were pure point group operations)
 out of a pool of 48 trial point group operations.


The static configuration has the point symmetry O_h .


Analysis of symmetry for dynamics (positions and initial velocities):
=====================================================================
 Subroutine PRICEL returns:
 Original cell was already a primitive cell.
 

 Routine SETGRP: Setting up the symmetry group for a 
 body centered cubic supercell.


 Subroutine GETGRP returns: Found 48 space group operations
 (whereof 48 operations were pure point group operations)
 out of a pool of 48 trial point group operations.


The dynamic configuration has the point symmetry O_h .


 Subroutine INISYM returns: Found 48 space group operations
 (whereof 48 operations are pure point group operations),
 and found     1 'primitive' translations


----------------------------------------------------------------------------------------

                                     Primitive cell                                     

  volume of cell :      87.1043

  direct lattice vectors                    reciprocal lattice vectors
    -2.792500000  2.792500000  2.792500000    -0.000000000  0.179051030  0.179051030
     2.792500000 -2.792500000  2.792500000     0.179051030 -0.000000000  0.179051030
     2.792500000  2.792500000 -2.792500000     0.179051030  0.179051030 -0.000000000

  length of vectors
     4.836751880  4.836751880  4.836751880     0.253216394  0.253216394  0.253216394

  position of ions in fractional coordinates (direct lattice)
     0.000000000  0.000000000  0.000000000

  ion indices of the primitive-cell ions
   primitive index   ion index
                 1           1

----------------------------------------------------------------------------------------

 
 -----------------------------------------------------------------------------
|                                                                             |
|           W    W    AA    RRRRR   N    N  II  N    N   GGGG   !!!           |
|           W    W   A  A   R    R  NN   N  II  NN   N  G    G  !!!           |
|           W    W  A    A  R    R  N N  N  II  N N  N  G       !!!           |
|           W WW W  AAAAAA  RRRRR   N  N N  II  N  N N  G  GGG   !            |
|           WW  WW  A    A  R   R   N   NN  II  N   NN  G    G                |
|           W    W  A    A  R    R  N    N  II  N    N   GGGG   !!!           |
|                                                                             |
|     The requested file  could not be found or opened for reading            |
|     k-point information. Automatic k-point generation is used as a          |
|     fallback, which may lead to unwanted results.                           |
|                                                                             |
 -----------------------------------------------------------------------------

 

Automatic generation of k-mesh.
 Grid dimensions derived from KSPACING:
 generate k-points for:    6    6    6

 Generating k-lattice:

  Cartesian coordinates                     Fractional coordinates (reciprocal lattice)
    -0.000000000  0.029841838  0.029841838     0.166666667 -0.000000000  0.000000000
     0.029841838 -0.000000000  0.029841838    -0.000000000  0.166666667  0.000000000
     0.029841838  0.029841838 -0.000000000    -0.000000000 -0.000000000  0.166666667

  Length of vectors
     0.042202732  0.042202732  0.042202732

  Shift w.r.t. Gamma in fractional coordinates (k-lattice)
     0.000000000  0.000000000  0.000000000

 
 Subroutine IBZKPT returns following result:
 ===========================================
 
 Found     16 irreducible k-points:
 
 Following reciprocal coordinates:
            Coordinates               Weight
  0.000000  0.000000  0.000000      1.000000
  0.166667  0.000000  0.000000     12.000000
  0.333333  0.000000  0.000000     12.000000
  0.500000  0.000000  0.000000      6.000000
  0.166667  0.166667  0.000000     24.000000
  0.333333  0.166667  0.000000     48.000000
  0.333333  0.333333  0.000000      8.000000
  0.166667  0.166667  0.166667      8.000000
  0.333333  0.166667  0.166667     12.000000
 -0.166667  0.166667  0.166667      6.000000
 -0.333333  0.333333  0.166667     24.000000
  0.500000  0.500000  0.166667     12.000000
 -0.333333  0.500000  0.166667     24.000000
 -0.333333  0.333333  0.333333      6.000000
  0.500000  0.500000  0.333333     12.000000
  0.500000  0.500000  0.500000      1.000000
 
 Following cartesian coordinates:
            Coordinates               Weight
  0.000000  0.000000  0.000000      1.000000
  0.000000  0.029842  0.029842     12.000000
  0.000000  0.059684  0.059684     12.000000
  0.000000  0.089526  0.089526      6.000000
  0.029842  0.029842  0.059684     24.000000
  0.029842  0.059684  0.089526     48.000000
  0.059684  0.059684  0.119367      8.000000
  0.059684  0.059684  0.059684      8.000000
  0.059684  0.089526  0.089526     12.000000
  0.059684  0.000000  0.000000      6.000000
  0.089526 -0.029842  0.000000     24.000000
  0.119367  0.119367  0.179051     12.000000
  0.119367 -0.029842  0.029842     24.000000
  0.119367  0.000000  0.000000      6.000000
  0.149209  0.149209  0.179051     12.000000
  0.179051  0.179051  0.179051      1.000000
 


--------------------------------------------------------------------------------------------------------




 Dimension of arrays:
   k-points           NKPTS =     16   k-points in BZ     NKDIM =     16   number of bands    NBANDS=      8
   number of dos      NEDOS =    301   number of ions     NIONS =      1
   non local maximal  LDIM  =      5   non local SUM 2l+1 LMDIM =     13
   total plane-waves  NPLWV =  32768
   max r-space proj   IRMAX =      1   max aug-charges    IRDMAX=  17955
   dimension x,y,z NGX =    32 NGY =   32 NGZ =   32
   dimension x,y,z NGXF=    64 NGYF=   64 NGZF=   64
   support grid    NGXF=    64 NGYF=   64 NGZF=   64
   ions per type =               1
   NGX,Y,Z   is equivalent  to a cutoff of  11.00, 11.00, 11.00 a.u.
   NGXF,Y,Z  is equivalent  to a cutoff of  22.00, 22.00, 22.00 a.u.

 SYSTEM =  BCC Rb K-test                           
 POSCAR =  Rb1                                     

 Startparameter for this run:
   NWRITE =      2    write-flag & timer
   PREC   = accura    normal or accurate (medium, high low for compatibility)
   ISTART =      0    job   : 0-new  1-cont  2-samecut
   ICHARG =      2    charge: 1-file 2-atom 10-const
   ISPIN  =      1    spin polarized calculation?
   LNONCOLLINEAR =      F non collinear calculations
   LSORBIT =      F    spin-orbit coupling
   INIWAV =      1    electr: 0-lowe 1-rand  2-diag
   LASPH  =      F    aspherical Exc in radial PAW
 Electronic Relaxation 1
   ENCUT  =  400.0 eV  29.40 Ry    5.42 a.u.   7.89  7.89  7.89*2*pi/ulx,y,z
   ENINI  =  400.0     initial cutoff
   ENAUG  =  423.9 eV  augmentation charge cutoff
   NELM   =     60;   NELMIN=  2; NELMDL= -5     # of ELM steps 
   EDIFF  = 0.1E-05   stopping-criterion for ELM
   LREAL  =      F    real-space projection
   NLSPLINE    = F    spline interpolate recip. space projectors
   LCOMPAT=      F    compatible to vasp.4.4
   GGA_COMPAT  = T    GGA compatible to vasp.4.4-vasp.4.6
   LMAXPAW     = -100 max onsite density
   LMAXMIX     =    2 max onsite mixed and CHGCAR
   VOSKOWN=      0    Vosko Wilk Nusair interpolation
   ROPT   =    0.00000
 Ionic relaxation
   EDIFFG = 0.1E-04   stopping-criterion for IOM
   NSW    =      0    number of steps for IOM
   NBLOCK =      1;   KBLOCK =      1    inner block; outer block 
   IBRION =     -1    ionic relax: 0-MD 1-quasi-New 2-CG
   NFREE  =      0    steps in history (QN), initial steepest desc. (CG)
   ISIF   =      2    stress and relaxation
   IWAVPR =     10    prediction:  0-non 1-charg 2-wave 3-comb
   ISYM   =      2    0-nonsym 1-usesym 2-fastsym
   LCORR  =      T    Harris-Foulkes like correction to forces

   POTIM  = 0.5000    time-step for ionic-motion
   TEIN   =    0.0    initial temperature
   TEBEG  =    0.0;   TEEND  =   0.0 temperature during run
   SMASS  =  -3.00    Nose mass-parameter (am)
   estimated Nose-frequenzy (Omega)   =  0.10E-29 period in steps = 0.13E+47 mass=  -0.535E-27a.u.
   SCALEE = 1.0000    scale energy and forces
   NPACO  =    256;   APACO  = 10.0  distance and # of slots for P.C.
   PSTRESS=    0.0 pullay stress

  Mass of Ions in am
   POMASS =  85.47
  Ionic Valenz
   ZVAL   =   9.00
  Atomic Wigner-Seitz radii
   RWIGS  =  -1.00
  virtual crystal weights 
   VCA    =   1.00
   NELECT =       9.0000    total number of electrons
   NUPDOWN=      -1.0000    fix difference up-down

 DOS related values:
   EMIN   =  10.00;   EMAX   =-10.00  energy-range for DOS
   EFERMI =   0.00;   METHOD = LEGACY      
   ISMEAR =     1;   SIGMA  =   0.10  broadening in eV -4-tet -1-fermi 0-gaus

 Electronic relaxation 2 (details)
   IALGO  =     38    algorithm
   LDIAG  =      T    sub-space diagonalisation (order eigenvalues)
   LSUBROT=      F    optimize rotation matrix (better conditioning)
   TURBO    =      0    0=normal 1=particle mesh
   IRESTART =      0    0=no restart 2=restart with 2 vectors
   NREBOOT  =      0    no. of reboots
   NMIN     =      0    reboot dimension
   EREF     =   0.00    reference energy to select bands
   IMIX   =      4    mixing-type and parameters
     AMIX     =   0.40;   BMIX     =  1.00
     AMIX_MAG =   1.60;   BMIX_MAG =  1.00
     AMIN     =   0.10
     WC   =   100.;   INIMIX=   1;  MIXPRE=   1;  MAXMIX= -45

 Intra band minimization:
   WEIMIN = 0.0000     energy-eigenvalue tresh-hold
   EBREAK =  0.31E-07  absolut break condition
   DEPER  =   0.30     relativ break condition  

   TIME   =   0.40     timestep for ELM

  volume/ion in A,a.u.               =      87.10       587.81
  Fermi-wavevector in a.u.,A,eV,Ry     =   0.768203  1.451693  8.029279  0.590135
  Thomas-Fermi vector in A             =   1.868925
 
 Write flags
   LWAVE        =      F    write WAVECAR
   LDOWNSAMPLE  =      F    k-point downsampling of WAVECAR
   LCHARG       =      F    write CHGCAR
   LVTOT        =      F    write LOCPOT, total local potential
   LVHAR        =      F    write LOCPOT, Hartree potential only
   LELF         =      F    write electronic localiz. function (ELF)
   LORBIT       =      0    0 simple, 1 ext, 2 COOP (PROOUT), +10 PAW based schemes


 Dipole corrections
   LMONO  =      F    monopole corrections only (constant potential shift)
   LDIPOL =      F    correct potential (dipole corrections)
   IDIPOL =      0    1-x, 2-y, 3-z, 4-all directions 
   EPSILON=  1.0000000 bulk dielectric constant

 Exchange correlation treatment:
   GGA     =    --    GGA type
   LEXCH   =     8    internal setting for exchange type
   LIBXC   =     F    Libxc                    
   VOSKOWN =     0    Vosko Wilk Nusair interpolation
   LHFCALC =     F    Hartree Fock is set to
   LHFONE  =     F    Hartree Fock one center treatment
   AEXX    =    0.0000 exact exchange contribution

 Linear response parameters
   LEPSILON=     F    determine dielectric tensor
   LRPA    =     F    only Hartree local field effects (RPA)
   LNABLA  =     F    use nabla operator in PAW spheres
   LVEL    =     F    velocity operator in full k-point grid
   CSHIFT  =0.1000    complex shift for real part using Kramers Kronig
   OMEGAMAX=  -1.0    maximum frequency
   DEG_THRESHOLD= 0.2000000E-02 threshold for treating states as degnerate
   RTIME   =   -0.100 relaxation time in fs
  (WPLASMAI=    0.000 imaginary part of plasma frequency in eV, 0.658/RTIME)
   DFIELD  = 0.0000000 0.0000000 0.0000000 field for delta impulse in time
 
  Optional k-point grid parameters
   LKPOINTS_OPT  =     F    use optional k-point grid
   KPOINTS_OPT_MODE=     1    mode for optional k-point grid
 
 Orbital magnetization related:
   ORBITALMAG=     F  switch on orbital magnetization
   LCHIMAG   =     F  perturbation theory with respect to B field
   DQ        =  0.001000  dq finite difference perturbation B field
   LLRAUG    =     F  two centre corrections for induced B field
   LBONE     =     F  B-component reconstruction in AE one-centre
   LVGVCALC  =     T  calculate vGv susceptibility
   LVGVAPPL  =     F  apply vGv susceptibility instead of pGv for G=0

 Random number generation:
   RANDOM_GENERATOR = DEFAULT
   PCG_SEED         = not used


--------------------------------------------------------------------------------------------------------


 Static calculation
 charge density and potential will be updated during run
 non-spin polarized calculation
 Variant of blocked Davidson
 Davidson routine will perform the subspace rotation
 perform sub-space diagonalisation
    after iterative eigenvector-optimisation
 modified Broyden-mixing scheme, WC =      100.0
 initial mixing is a Kerker type mixing with AMIX =  0.4000 and BMIX =      1.0000
 Hartree-type preconditioning will be used
 using additional bands             3
 reciprocal scheme for non local part
 use partial core corrections
 calculate Harris-corrections to forces 
   (improved forces if not selfconsistent)
 use gradient corrections 
 use of overlap-Matrix (Vanderbilt PP)
 Methfessel and Paxton  Order N= 1 SIGMA  =   0.10


--------------------------------------------------------------------------------------------------------


  energy-cutoff  :      400.00
  volume of cell :       87.10
      direct lattice vectors                 reciprocal lattice vectors
    -2.792500000  2.792500000  2.792500000    -0.000000000  0.179051030  0.179051030
     2.792500000 -2.792500000  2.792500000     0.179051030 -0.000000000  0.179051030
     2.792500000  2.792500000 -2.792500000     0.179051030  0.179051030 -0.000000000

  length of vectors
     4.836751880  4.836751880  4.836751880     0.253216394  0.253216394  0.253216394


 
 k-points in units of 2pi/SCALE and weight: read from INCAR                         
   0.00000000  0.00000000  0.00000000       0.005
   0.00000000  0.02984184  0.02984184       0.056
   0.00000000  0.05968368  0.05968368       0.056
   0.00000000  0.08952551  0.08952551       0.028
   0.02984184  0.02984184  0.05968368       0.111
   0.02984184  0.05968368  0.08952551       0.222
   0.05968368  0.05968368  0.11936735       0.037
   0.05968368  0.05968368  0.05968368       0.037
   0.05968368  0.08952551  0.08952551       0.056
   0.05968368  0.00000000  0.00000000       0.028
   0.08952551 -0.02984184  0.00000000       0.111
   0.11936735  0.11936735  0.17905103       0.056
   0.11936735 -0.02984184  0.02984184       0.111
   0.11936735  0.00000000  0.00000000       0.028
   0.14920919  0.14920919  0.17905103       0.056
   0.17905103  0.17905103  0.17905103       0.005
 
 k-points in reciprocal lattice and weights: read from INCAR                         
   0.00000000  0.00000000  0.00000000       0.005
   0.16666667  0.00000000  0.00000000       0.056
   0.33333333  0.00000000  0.00000000       0.056
   0.50000000  0.00000000  0.00000000       0.028
   0.16666667  0.16666667  0.00000000       0.111
   0.33333333  0.16666667  0.00000000       0.222
   0.33333333  0.33333333  0.00000000       0.037
   0.16666667  0.16666667  0.16666667       0.037
   0.33333333  0.16666667  0.16666667       0.056
  -0.16666667  0.16666667  0.16666667       0.028
  -0.33333333  0.33333333  0.16666667       0.111
   0.50000000  0.50000000  0.16666667       0.056
  -0.33333333  0.50000000  0.16666667       0.111
  -0.33333333  0.33333333  0.33333333       0.028
   0.50000000  0.50000000  0.33333333       0.056
   0.50000000  0.50000000  0.50000000       0.005
 
 position of ions in fractional coordinates (direct lattice) 
   0.00000000  0.00000000  0.00000000
 
 position of ions in cartesian coordinates  (Angst):
   0.00000000  0.00000000  0.00000000
 


--------------------------------------------------------------------------------------------------------


 k-point   1 :   0.0000 0.0000 0.0000  plane waves:    1553
 k-point   2 :   0.1667 0.0000 0.0000  plane waves:    1571
 k-point   3 :   0.3333 0.0000 0.0000  plane waves:    1605
 k-point   4 :   0.5000 0.0000 0.0000  plane waves:    1584
 k-point   5 :   0.1667 0.1667 0.0000  plane waves:    1571
 k-point   6 :   0.3333 0.1667 0.0000  plane waves:    1586
 k-point   7 :   0.3333 0.3333 0.0000  plane waves:    1580
 k-point   8 :   0.1667 0.1667 0.1667  plane waves:    1583
 k-point   9 :   0.3333 0.1667 0.1667  plane waves:    1586
 k-point  10 :  -0.1667 0.1667 0.1667  plane waves:    1593
 k-point  11 :  -0.3333 0.3333 0.1667  plane waves:    1594
 k-point  12 :   0.5000 0.5000 0.1667  plane waves:    1566
 k-point  13 :  -0.3333 0.5000 0.1667  plane waves:    1582
 k-point  14 :  -0.3333 0.3333 0.3333  plane waves:    1573
 k-point  15 :   0.5000 0.5000 0.3333  plane waves:    1588
 k-point  16 :   0.5000 0.5000 0.5000  plane waves:    1566

 maximum and minimum number of plane-waves per node :      1605     1553

 maximum number of plane-waves:      1605
 maximum index in each direction: 
   IXMAX=    8   IYMAX=    7   IZMAX=    7
   IXMIN=   -8   IYMIN=   -8   IZMIN=   -8


 serial   3D FFT for wavefunctions
 parallel 3D FFT for charge:
    minimum data exchange during FFTs selected (reduces bandwidth)


 total amount of memory used by VASP MPI-rank0    59393. kBytes
=======================================================================

   base      :      30000. kBytes
   nonl-proj :       2696. kBytes
   fftplans  :       9204. kBytes
   grid      :      14172. kBytes
   one-center:          8. kBytes
   wavefun   :       3313. kBytes
 
     INWAV:  cpu time      0.0000: real time      0.0000
 Broyden mixing: mesh for mixing (old mesh)
   NGX = 15   NGY = 15   NGZ = 15
  (NGX  = 64   NGY  = 64   NGZ  = 64)
  gives a total of   3375 points

 initial charge density was supplied:
 charge density of overlapping atoms calculated
 number of electron       9.0000000 magnetization 
 keeping initial charge density in first step


--------------------------------------------------------------------------------------------------------


 Maximum index for augmentation-charges         17153 (set IRDMAX)


--------------------------------------------------------------------------------------------------------


 First call to EWALD:  gamma=   0.400
 Maximum number of real-space cells 3x 3x 3
 Maximum number of reciprocal cells 3x 3x 3

    FEWALD:  cpu time      0.0009: real time      0.0006


--------------------------------------- Ionic step        1  -------------------------------------------




--------------------------------------- Iteration      1(   1)  ---------------------------------------


    POTLOK:  cpu time      0.0209: real time      0.0207
    SETDIJ:  cpu time      0.0070: real time      0.0035
     EDDAV:  cpu time      0.2996: real time      0.2990
       DOS:  cpu time      0.0002: real time      0.0002
    --------------------------------------------
      LOOP:  cpu time      0.3278: real time      0.3234

 eigenvalue-minimisations  :   256
 total energy-change (2. order) : 0.4329204E+02  (-0.3013823E+03)
 number of electron       9.0000000 magnetization 
 augmentation part        9.0000000 magnetization 

 Free energy of the ion-electron system (eV)
  ---------------------------------------------------
  alpha Z        PSCENC =        17.94185143
  Ewald energy   TEWEN  =      -380.01245805
  -Hartree energ DENC   =      -200.39246933
  -exchange      EXHF   =         0.00000000
  -V(xc)+E(xc)   XCENC  =        28.49103105
  PAW double counting   =       505.12165471     -500.59792104
  entropy T*S    EENTRO =        -0.00219908
  eigenvalues    EBANDS =       -89.75878737
  atomic energy  EATOM  =       662.50133934
  Solvation  Ediel_sol  =         0.00000000
  ---------------------------------------------------
  free energy    TOTEN  =        43.29204166 eV

  energy without entropy =       43.29424074  energy(sigma->0) =       43.29277469


--------------------------------------------------------------------------------------------------------




--------------------------------------- Iteration      1(   2)  ---------------------------------------


     EDDAV:  cpu time      0.1760: real time      0.1760
       DOS:  cpu time      0.0002: real time      0.0002
    --------------------------------------------
      LOOP:  cpu time      0.1762: real time      0.1762

 eigenvalue-minimisations  :   296
 total energy-change (2. order) :-0.4202397E+02  (-0.3925395E+02)
 number of electron       9.0000000 magnetization 
 augmentation part        9.0000000 magnetization 

 Free energy of the ion-electron system (eV)
  ---------------------------------------------------
  alpha Z        PSCENC =        17.94185143
  Ewald energy   TEWEN  =      -380.01245805
  -Hartree energ DENC   =      -200.39246933
  -exchange      EXHF   =         0.00000000
  -V(xc)+E(xc)   XCENC  =        28.49103105
  PAW double counting   =       505.12165471     -500.59792104
  entropy T*S    EENTRO =        -0.00588543
  eigenvalues    EBANDS =      -131.77906633
  atomic energy  EATOM  =       662.50133934
  Solvation  Ediel_sol  =         0.00000000
  ---------------------------------------------------
  free energy    TOTEN  =         1.26807636 eV

  energy without entropy =        1.27396179  energy(sigma->0) =        1.27003817


--------------------------------------------------------------------------------------------------------




--------------------------------------- Iteration      1(   3)  ---------------------------------------


     EDDAV:  cpu time      0.1977: real time      0.1977
       DOS:  cpu time      0.0002: real time      0.0002
    --------------------------------------------
      LOOP:  cpu time      0.1980: real time      0.1979

 eigenvalue-minimisations  :   352
 total energy-change (2. order) :-0.2148314E+01  (-0.2148347E+01)
 number of electron       9.0000000 magnetization 
 augmentation part        9.0000000 magnetization 

 Free energy of the ion-electron system (eV)
  ---------------------------------------------------
  alpha Z        PSCENC =        17.94185143
  Ewald energy   TEWEN  =      -380.01245805
  -Hartree energ DENC   =      -200.39246933
  -exchange      EXHF   =         0.00000000
  -V(xc)+E(xc)   XCENC  =        28.49103105
  PAW double counting   =       505.12165471     -500.59792104
  entropy T*S    EENTRO =        -0.00600149
  eigenvalues    EBANDS =      -133.92726437
  atomic energy  EATOM  =       662.50133934
  Solvation  Ediel_sol  =         0.00000000
  ---------------------------------------------------
  free energy    TOTEN  =        -0.88023774 eV

  energy without entropy =       -0.87423625  energy(sigma->0) =       -0.87823725


--------------------------------------------------------------------------------------------------------




--------------------------------------- Iteration      1(   4)  ---------------------------------------


     EDDAV:  cpu time      0.2374: real time      0.2375
       DOS:  cpu time      0.0002: real time      0.0002
    --------------------------------------------
      LOOP:  cpu time      0.2376: real time      0.2377

 eigenvalue-minimisations  :   424
 total energy-change (2. order) :-0.3455378E-01  (-0.3455443E-01)
 number of electron       9.0000000 magnetization 
 augmentation part        9.0000000 magnetization 

 Free energy of the ion-electron system (eV)
  ---------------------------------------------------
  alpha Z        PSCENC =        17.94185143
  Ewald energy   TEWEN  =      -380.01245805
  -Hartree energ DENC   =      -200.39246933
  -exchange      EXHF   =         0.00000000
  -V(xc)+E(xc)   XCENC  =        28.49103105
  PAW double counting   =       505.12165471     -500.59792104
  entropy T*S    EENTRO =        -0.00599631
  eigenvalues    EBANDS =      -133.96182334
  atomic energy  EATOM  =       662.50133934
  Solvation  Ediel_sol  =         0.00000000
  ---------------------------------------------------
  free energy    TOTEN  =        -0.91479153 eV

  energy without entropy =       -0.90879522  energy(sigma->0) =       -0.91279276


--------------------------------------------------------------------------------------------------------




--------------------------------------- Iteration      1(   5)  ---------------------------------------


     EDDAV:  cpu time      0.2192: real time      0.2193
       DOS:  cpu time      0.0002: real time      0.0002
    CHARGE:  cpu time      0.0307: real time      0.0285
    MIXING:  cpu time      0.0034: real time      0.0024
    --------------------------------------------
      LOOP:  cpu time      0.2535: real time      0.2503

 eigenvalue-minimisations  :   392
 total energy-change (2. order) :-0.2163468E-03  (-0.2163469E-03)
 number of electron       9.0000000 magnetization 
 augmentation part       -0.2120885 magnetization 

 Broyden mixing:
  rms(total) = 0.12532E+00    rms(broyden)= 0.12531E+00
  rms(prec ) = 0.14216E+00
  weight for this iteration     100.00

 Free energy of the ion-electron system (eV)
  ---------------------------------------------------
  alpha Z        PSCENC =        17.94185143
  Ewald energy   TEWEN  =      -380.01245805
  -Hartree energ DENC   =      -200.39246933
  -exchange      EXHF   =         0.00000000
  -V(xc)+E(xc)   XCENC  =        28.49103105
  PAW double counting   =       505.12165471     -500.59792104
  entropy T*S    EENTRO =        -0.00599615
  eigenvalues    EBANDS =      -133.96203984
  atomic energy  EATOM  =       662.50133934
  Solvation  Ediel_sol  =         0.00000000
  ---------------------------------------------------
  free energy    TOTEN  =        -0.91500787 eV

  energy without entropy =       -0.90901173  energy(sigma->0) =       -0.91300916


--------------------------------------------------------------------------------------------------------




--------------------------------------- Iteration      1(   6)  ---------------------------------------


    POTLOK:  cpu time      0.0065: real time      0.0055
    SETDIJ:  cpu time      0.0060: real time      0.0030
     EDDAV:  cpu time      0.2452: real time      0.2443
       DOS:  cpu time      0.0002: real time      0.0002
    CHARGE:  cpu time      0.0260: real time      0.0239
    MIXING:  cpu time      0.0032: real time      0.0021
    --------------------------------------------
      LOOP:  cpu time      0.2872: real time      0.2791

 eigenvalue-minimisations  :   432
 total energy-change (2. order) :-0.4057850E-03  (-0.1863560E-03)
 number of electron       9.0000000 magnetization 
 augmentation part       -0.2131413 magnetization 

 Broyden mixing:
  rms(total) = 0.75648E-01    rms(broyden)= 0.75647E-01
  rms(prec ) = 0.87330E-01
  weight for this iteration     100.00

 eigenvalues of (default mixing * dielectric matrix)
  average eigenvalue GAMMA=   2.5094
  2.5094

 Free energy of the ion-electron system (eV)
  ---------------------------------------------------
  alpha Z        PSCENC =        17.94185143
  Ewald energy   TEWEN  =      -380.01245805
  -Hartree energ DENC   =      -199.78464436
  -exchange      EXHF   =         0.00000000
  -V(xc)+E(xc)   XCENC  =        28.46275690
  PAW double counting   =       506.04771823     -501.59371812
  entropy T*S    EENTRO =        -0.00600028
  eigenvalues    EBANDS =      -134.47225874
  atomic energy  EATOM  =       662.50133934
  Solvation  Ediel_sol  =         0.00000000
  ---------------------------------------------------
  free energy    TOTEN  =        -0.91541366 eV

  energy without entropy =       -0.90941337  energy(sigma->0) =       -0.91341356


--------------------------------------------------------------------------------------------------------




--------------------------------------- Iteration      1(   7)  ---------------------------------------


    POTLOK:  cpu time      0.0061: real time      0.0050
    SETDIJ:  cpu time      0.0049: real time      0.0024
     EDDAV:  cpu time      0.1778: real time      0.1769
       DOS:  cpu time      0.0002: real time      0.0002
    CHARGE:  cpu time      0.0261: real time      0.0240
    MIXING:  cpu time      0.0032: real time      0.0021
    --------------------------------------------
      LOOP:  cpu time      0.2184: real time      0.2107

 eigenvalue-minimisations  :   312
 total energy-change (2. order) :-0.7825488E-03  (-0.3403430E-03)
 number of electron       9.0000000 magnetization 
 augmentation part       -0.2133059 magnetization 

 Broyden mixing:
  rms(total) = 0.46320E-02    rms(broyden)= 0.46316E-02
  rms(prec ) = 0.12552E-01
  weight for this iteration     100.00

 eigenvalues of (default mixing * dielectric matrix)
  average eigenvalue GAMMA=   2.3378
  1.9543  2.7213

 Free energy of the ion-electron system (eV)
  ---------------------------------------------------
  alpha Z        PSCENC =        17.94185143
  Ewald energy   TEWEN  =      -380.01245805
  -Hartree energ DENC   =      -198.92193950
  -exchange      EXHF   =         0.00000000
  -V(xc)+E(xc)   XCENC  =        28.42575957
  PAW double counting   =       508.30668078     -503.94411102
  entropy T*S    EENTRO =        -0.00600619
  eigenvalues    EBANDS =      -135.20731255
  atomic energy  EATOM  =       662.50133934
  Solvation  Ediel_sol  =         0.00000000
  ---------------------------------------------------
  free energy    TOTEN  =        -0.91619621 eV

  energy without entropy =       -0.91019001  energy(sigma->0) =       -0.91419414


--------------------------------------------------------------------------------------------------------




--------------------------------------- Iteration      1(   8)  ---------------------------------------


    POTLOK:  cpu time      0.0062: real time      0.0051
    SETDIJ:  cpu time      0.0049: real time      0.0024
     EDDAV:  cpu time      0.2201: real time      0.2191
       DOS:  cpu time      0.0002: real time      0.0002
    CHARGE:  cpu time      0.0259: real time      0.0238
    MIXING:  cpu time      0.0033: real time      0.0021
    --------------------------------------------
      LOOP:  cpu time      0.2605: real time      0.2528

 eigenvalue-minimisations  :   384
 total energy-change (2. order) :-0.1061165E-03  (-0.1185063E-04)
 number of electron       9.0000000 magnetization 
 augmentation part       -0.2134138 magnetization 

 Broyden mixing:
  rms(total) = 0.16097E-02    rms(broyden)= 0.16097E-02
  rms(prec ) = 0.27875E-02
  weight for this iteration     100.00

 eigenvalues of (default mixing * dielectric matrix)
  average eigenvalue GAMMA=   2.1396
  1.1471  2.9454  2.3263

 Free energy of the ion-electron system (eV)
  ---------------------------------------------------
  alpha Z        PSCENC =        17.94185143
  Ewald energy   TEWEN  =      -380.01245805
  -Hartree energ DENC   =      -198.91844047
  -exchange      EXHF   =         0.00000000
  -V(xc)+E(xc)   XCENC  =        28.42930416
  PAW double counting   =       509.42718748     -505.05414226
  entropy T*S    EENTRO =        -0.00600787
  eigenvalues    EBANDS =      -135.22493607
  atomic energy  EATOM  =       662.50133934
  Solvation  Ediel_sol  =         0.00000000
  ---------------------------------------------------
  free energy    TOTEN  =        -0.91630232 eV

  energy without entropy =       -0.91029445  energy(sigma->0) =       -0.91429970


--------------------------------------------------------------------------------------------------------




--------------------------------------- Iteration      1(   9)  ---------------------------------------


    POTLOK:  cpu time      0.0062: real time      0.0051
    SETDIJ:  cpu time      0.0048: real time      0.0024
     EDDAV:  cpu time      0.2079: real time      0.2070
       DOS:  cpu time      0.0002: real time      0.0002
    CHARGE:  cpu time      0.0256: real time      0.0235
    MIXING:  cpu time      0.0033: real time      0.0021
    --------------------------------------------
      LOOP:  cpu time      0.2480: real time      0.2403

 eigenvalue-minimisations  :   368
 total energy-change (2. order) :-0.8931231E-05  (-0.7465646E-06)
 number of electron       9.0000000 magnetization 
 augmentation part       -0.2132353 magnetization 

 Broyden mixing:
  rms(total) = 0.45411E-03    rms(broyden)= 0.45410E-03
  rms(prec ) = 0.98765E-03
  weight for this iteration     100.00

 eigenvalues of (default mixing * dielectric matrix)
  average eigenvalue GAMMA=   2.2546
  3.5337  0.9389  2.5485  1.9973

 Free energy of the ion-electron system (eV)
  ---------------------------------------------------
  alpha Z        PSCENC =        17.94185143
  Ewald energy   TEWEN  =      -380.01245805
  -Hartree energ DENC   =      -198.91593829
  -exchange      EXHF   =         0.00000000
  -V(xc)+E(xc)   XCENC  =        28.43005023
  PAW double counting   =       509.56020451     -505.18212003
  entropy T*S    EENTRO =        -0.00600829
  eigenvalues    EBANDS =      -135.23323210
  atomic energy  EATOM  =       662.50133934
  Solvation  Ediel_sol  =         0.00000000
  ---------------------------------------------------
  free energy    TOTEN  =        -0.91631125 eV

  energy without entropy =       -0.91030296  energy(sigma->0) =       -0.91430849


--------------------------------------------------------------------------------------------------------




--------------------------------------- Iteration      1(  10)  ---------------------------------------


    POTLOK:  cpu time      0.0062: real time      0.0051
    SETDIJ:  cpu time      0.0049: real time      0.0025
     EDDAV:  cpu time      0.2208: real time      0.2198
       DOS:  cpu time      0.0002: real time      0.0002
    --------------------------------------------
      LOOP:  cpu time      0.2321: real time      0.2276

 eigenvalue-minimisations  :   392
 total energy-change (2. order) : 0.5612442E-06  (-0.3015844E-06)
 number of electron       9.0000000 magnetization 
 augmentation part       -0.2132353 magnetization 

 Free energy of the ion-electron system (eV)
  ---------------------------------------------------
  alpha Z        PSCENC =        17.94185143
  Ewald energy   TEWEN  =      -380.01245805
  -Hartree energ DENC   =      -198.89699615
  -exchange      EXHF   =         0.00000000
  -V(xc)+E(xc)   XCENC  =        28.42920690
  PAW double counting   =       509.46661880     -505.08872149
  entropy T*S    EENTRO =        -0.00600841
  eigenvalues    EBANDS =      -135.25114306
  atomic energy  EATOM  =       662.50133934
  Solvation  Ediel_sol  =         0.00000000
  ---------------------------------------------------
  free energy    TOTEN  =        -0.91631069 eV

  energy without entropy =       -0.91030228  energy(sigma->0) =       -0.91430789


--------------------------------------------------------------------------------------------------------




 average (electrostatic) potential at core
  the test charge radii are     1.1097
  (the norm of the test charge is              1.0000)
       1 -41.0995
 
 
 
 E-fermi :   0.1330     XC(G=0):  -5.5722     alpha+bet : -3.4208

 Fermi energy:         0.1330083924

 k-point     1 :       0.0000    0.0000    0.0000
  band No.  band energies     occupation 
      1     -28.7676      2.00000
      2     -12.8054      2.00000
      3     -12.8054      2.00000
      4     -12.8054      2.00000
      5      -1.9174      2.00000
      6       3.8319      0.00000
      7       3.8319      0.00000
      8       3.8319      0.00000

 k-point     2 :       0.1667    0.0000    0.0000
  band No.  band energies     occupation 
      1     -28.7663      2.00000
      2     -12.8338      2.00000
      3     -12.8147      2.00000
      4     -12.8054      2.00000
      5      -1.5812      2.00000
      6       3.2331      0.00000
      7       3.4399      0.00000
      8       4.1485      0.00000

 k-point     3 :       0.3333    0.0000    0.0000
  band No.  band energies     occupation 
      1     -28.7637      2.00000
      2     -12.8894      2.00000
      3     -12.8331      2.00000
      4     -12.8055      2.00000
      5      -0.6658      2.00000
      6       1.9643     -0.00000
      7       2.9093      0.00000
      8       4.6598      0.00000

 k-point     4 :       0.5000    0.0000    0.0000
  band No.  band energies     occupation 
      1     -28.7624      2.00000
      2     -12.9166      2.00000
      3     -12.8423      2.00000
      4     -12.8055      2.00000
      5       0.3423     -0.01171
      6       0.9254     -0.00000
      7       2.7054     -0.00000
      8       4.4599      0.00000

 k-point     5 :       0.1667    0.1667    0.0000
  band No.  band energies     occupation 
      1     -28.7643      2.00000
      2     -12.8716      2.00000
      3     -12.8263      2.00000
      4     -12.8119      2.00000
      5      -0.9504      2.00000
      6       2.4863     -0.00000
      7       2.8273      0.00000
      8       4.3977      0.00000

 k-point     6 :       0.3333    0.1667    0.0000
  band No.  band energies     occupation 
      1     -28.7624      2.00000
      2     -12.9025      2.00000
      3     -12.8481      2.00000
      4     -12.8142      2.00000
      5       0.1404      0.87552
      6       1.4435     -0.00000
      7       2.3898     -0.00000
      8       4.2740      0.00000

 k-point     7 :       0.3333    0.3333    0.0000
  band No.  band energies     occupation 
      1     -28.7618      2.00000
      2     -12.8819      2.00000
      3     -12.8819      2.00000
      4     -12.8194      2.00000
      5       1.2303     -0.00000
      6       1.2303     -0.00000
      7       1.3844     -0.00000
      8       4.2096      0.00000

 k-point     8 :       0.1667    0.1667    0.1667
  band No.  band energies     occupation 
      1     -28.7629      2.00000
      2     -12.8930      2.00000
      3     -12.8303      2.00000
      4     -12.8303      2.00000
      5      -0.0894      2.00727
      6       2.0156     -0.00000
      7       2.0156     -0.00000
      8       4.1522      0.00000

 k-point     9 :       0.3333    0.1667    0.1667
  band No.  band energies     occupation 
      1     -28.7622      2.00000
      2     -12.8879      2.00000
      3     -12.8554      2.00000
      4     -12.8323      2.00000
      5       1.0124     -0.00000
      6       1.1314     -0.00000
      7       1.8681     -0.00000
      8       3.4370      0.00000

 k-point    10 :      -0.1667    0.1667    0.1667
  band No.  band energies     occupation 
      1     -28.7651      2.00000
      2     -12.8392      2.00000
      3     -12.8243      2.00000
      4     -12.8243      2.00000
      5      -1.2569      2.00000
      6       3.2626      0.00000
      7       3.3686      0.00000
      8       3.3686      0.00000

 k-point    11 :      -0.3333    0.3333    0.1667
  band No.  band energies     occupation 
      1     -28.7626      2.00000
      2     -12.8844      2.00000
      3     -12.8435      2.00000
      4     -12.8267      2.00000
      5      -0.3724      2.00000
      6       2.0437     -0.00000
      7       3.0437      0.00000
      8       3.4827      0.00000

 k-point    12 :       0.5000    0.5000    0.1667
  band No.  band energies     occupation 
      1     -28.7614      2.00000
      2     -12.9087      2.00000
      3     -12.8530      2.00000
      4     -12.8256      2.00000
      5       0.6845     -0.00000
      6       0.9927     -0.00000
      7       2.8864      0.00000
      8       3.2893      0.00000

 k-point    13 :      -0.3333    0.5000    0.1667
  band No.  band energies     occupation 
      1     -28.7609      2.00000
      2     -12.8949      2.00000
      3     -12.8700      2.00000
      4     -12.8339      2.00000
      5       0.6272     -0.00000
      6       1.5386     -0.00000
      7       2.2037     -0.00000
      8       3.8850      0.00000

 k-point    14 :      -0.3333    0.3333    0.3333
  band No.  band energies     occupation 
      1     -28.7604      2.00000
      2     -12.8786      2.00000
      3     -12.8640      2.00000
      4     -12.8640      2.00000
      5       0.3847     -0.00214
      6       1.8359     -0.00000
      7       3.2329      0.00000
      8       3.2329      0.00000

 k-point    15 :       0.5000    0.5000    0.3333
  band No.  band energies     occupation 
      1     -28.7593      2.00000
      2     -12.8927      2.00000
      3     -12.8742      2.00000
      4     -12.8653      2.00000
      5       1.1879     -0.00000
      6       1.3111     -0.00000
      7       2.7607     -0.00000
      8       3.2738      0.00000

 k-point    16 :       0.5000    0.5000    0.5000
  band No.  band energies     occupation 
      1     -28.7583      2.00000
      2     -12.8847      2.00000
      3     -12.8847      2.00000
      4     -12.8847      2.00000
      5       1.3409     -0.00000
      6       1.3409     -0.00000
      7       3.4792      0.00000
      8       3.4792      0.00000


--------------------------------------------------------------------------------------------------------


 soft charge-density along one line, spin component            1
         0         1         2         3         4         5         6         7         8         9
 total charge-density along one line
 
 pseudopotential strength for first ion, spin component:            1
 -3.862  -3.051  -0.000   0.000  -0.000  -0.000   0.000  -0.000
 -3.051   0.080   0.000  -0.000   0.000   0.000  -0.000   0.000
 -0.000   0.000 -10.865  -0.000  -0.000 -10.828  -0.000  -0.000
  0.000  -0.000  -0.000 -10.865  -0.000  -0.000 -10.828  -0.000
 -0.000   0.000  -0.000  -0.000 -10.865  -0.000  -0.000 -10.828
 -0.000   0.000 -10.828  -0.000  -0.000 -10.786  -0.000  -0.000
  0.000  -0.000  -0.000 -10.828  -0.000  -0.000 -10.786  -0.000
 -0.000   0.000  -0.000  -0.000 -10.828  -0.000  -0.000 -10.786
  0.000  -0.000   0.000   0.000   0.000   0.000   0.000   0.000
  0.000  -0.000  -0.000   0.000   0.000  -0.000   0.000   0.000
 -0.000   0.000  -0.000  -0.000  -0.000  -0.000  -0.000  -0.000
  0.000  -0.000   0.000  -0.000  -0.000   0.000  -0.000  -0.000
  0.000  -0.000  -0.000   0.000   0.000  -0.000   0.000   0.000
 total augmentation occupancy for first ion, spin component:            1
  2.000  -0.007   0.000   0.000   0.000   0.000   0.000   0.000   0.000  -0.000  -0.000   0.000   0.000
 -0.007   0.795   0.000   0.000   0.000   0.000   0.000   0.000  -0.000   0.000   0.000  -0.000  -0.000
  0.000   0.000   2.608  -0.000   0.000  -0.611   0.000  -0.000   0.000   0.000   0.000   0.000   0.000
  0.000   0.000  -0.000   2.608   0.000   0.000  -0.611  -0.000   0.000   0.000   0.000   0.000   0.000
  0.000   0.000   0.000   0.000   2.608  -0.000  -0.000  -0.611   0.000   0.000   0.000   0.000   0.000
  0.000   0.000  -0.611   0.000  -0.000   0.617  -0.000   0.000   0.000   0.000   0.000   0.000   0.000
  0.000   0.000   0.000  -0.611  -0.000  -0.000   0.617   0.000   0.000   0.000   0.000   0.000   0.000
  0.000   0.000  -0.000  -0.000  -0.611   0.000   0.000   0.617   0.000   0.000   0.000   0.000   0.000
 -0.000  -0.000   0.000   0.000   0.000   0.000   0.000   0.000   0.036   0.000  -0.000  -0.000   0.000
 -0.000   0.000   0.000   0.000   0.000   0.000   0.000   0.000   0.000   0.036   0.000   0.000   0.000
 -0.000   0.000   0.000   0.000   0.000   0.000   0.000   0.000  -0.000  -0.000   0.027   0.000  -0.000
  0.000  -0.000   0.000   0.000   0.000   0.000   0.000   0.000  -0.000   0.000   0.000   0.036   0.000
  0.000  -0.000   0.000   0.000   0.000   0.000   0.000   0.000   0.000   0.000  -0.000   0.000   0.027


------------------------ aborting loop because EDIFF is reached ----------------------------------------


    CHARGE:  cpu time      0.0306: real time      0.0281
    FORLOC:  cpu time      0.0017: real time      0.0017
    FORNL :  cpu time      0.0691: real time      0.0619
    STRESS:  cpu time      0.4324: real time      0.3923
    FORCOR:  cpu time      0.0063: real time      0.0053
    FORHAR:  cpu time      0.0015: real time      0.0015
    MIXING:  cpu time      0.0034: real time      0.0021
    OFIELD:  cpu time      0.0000: real time      0.0000

  FORCE on cell =-STRESS in cart. coord.  units (eV):
  Direction    XX          YY          ZZ          XY          YZ          ZX
  --------------------------------------------------------------------------------------
  Alpha Z    17.94185    17.94185    17.94185
  Ewald    -126.67082  -126.67082  -126.67082    -0.00000     0.00000     0.00000
  Hartree    66.29988    66.29988    66.29988    -0.00000     0.00000     0.00000
  E(xc)     -31.76758   -31.76758   -31.76758    -0.00000    -0.00000    -0.00000
  Local      -4.52186    -4.52186    -4.52186    -0.00000    -0.00000    -0.00000
  n-local   -44.22929   -44.25208   -44.13908    -0.02789     0.32999     0.14996
  augment    -1.10331    -1.10331    -1.10331     0.00000     0.00000     0.00000
  Kinetic   124.23945   123.93394   124.16494     0.23449    -0.09550     0.03564
  Fock        0.00000     0.00000     0.00000     0.00000     0.00000     0.00000
  -------------------------------------------------------------------------------------
  Total       0.08412     0.08412     0.08412     0.00000    -0.00000     0.00000
  in kB       1.54733     1.54733     1.54733     0.00000    -0.00000     0.00000
  external pressure =        1.55 kB  Pullay stress =        0.00 kB


 VOLUME and BASIS-vectors are now :
 -----------------------------------------------------------------------------
  energy-cutoff  :      400.00
  volume of cell :       87.10
      direct lattice vectors                 reciprocal lattice vectors
    -2.792500000  2.792500000  2.792500000    -0.000000000  0.179051030  0.179051030
     2.792500000 -2.792500000  2.792500000     0.179051030 -0.000000000  0.179051030
     2.792500000  2.792500000 -2.792500000     0.179051030  0.179051030 -0.000000000

  length of vectors
     4.836751880  4.836751880  4.836751880     0.253216394  0.253216394  0.253216394


 FORCES acting on ions
    electron-ion (+dipol)            ewald-force                    non-local-force                 convergence-correction
 -----------------------------------------------------------------------------------------------
   0.678E-15 0.542E-15 -.933E-15   -.611E-15 -.581E-15 -.688E-15   0.000E+00 0.331E-23 0.827E-24   0.363E-15 0.705E-14 -.290E-13
 -----------------------------------------------------------------------------------------------
   0.678E-15 0.542E-15 -.933E-15   -.611E-15 -.581E-15 -.688E-15   0.000E+00 0.331E-23 0.827E-24   0.363E-15 0.705E-14 -.290E-13
 
 
 POSITION                                       TOTAL-FORCE (eV/Angst)
 -----------------------------------------------------------------------------------
      0.00000      0.00000      0.00000         0.000000      0.000000      0.000000
 -----------------------------------------------------------------------------------
    total drift:                                0.000000      0.000000     -0.000000


--------------------------------------------------------------------------------------------------------



  FREE ENERGIE OF THE ION-ELECTRON SYSTEM (eV)
  ---------------------------------------------------
  free  energy   TOTEN  =        -0.91631069 eV

  energy  without entropy=       -0.91030228  energy(sigma->0) =       -0.91430789
 


--------------------------------------------------------------------------------------------------------


    POTLOK:  cpu time      0.0136: real time      0.0096


--------------------------------------------------------------------------------------------------------


     LOOP+:  cpu time      3.0300: real time      2.9269
    4ORBIT:  cpu time      0.0000: real time      0.0000

 total amount of memory used by VASP MPI-rank0    59393. kBytes
=======================================================================

   base      :      30000. kBytes
   nonl-proj :       2696. kBytes
   fftplans  :       9204. kBytes
   grid      :      14172. kBytes
   one-center:          8. kBytes
   wavefun   :       3313. kBytes
 
  
  
 General timing and accounting informations for this job:
 ========================================================
  
                  Total CPU time used (sec):        4.113
                            User time (sec):        3.409
                          System time (sec):        0.704
                         Elapsed time (sec):        3.892
  
                   Maximum memory used (kb):     1536168.
                   Average memory used (kb):          N/A
  
                          Minor page faults:       343745
                          Major page faults:            0
                 Voluntary context switches:         3339
