   2   2   0   0
  0.3784348E+02  0.4230000E-09  0.4230000E-09  0.4230000E-09  0.5000000E-15
   1.0000000000000000E-004
  CAR 
 unknown system                          
      8.81926459     -3.26997809  301      0.47868695      1.00000000
     -3.270  0.0000E+00  0.0000E+00
     -3.230  0.0000E+00  0.0000E+00
     -3.189  0.0000E+00  0.0000E+00
     -3.149  0.0000E+00  0.0000E+00
     -3.109  0.0000E+00  0.0000E+00
     -3.068  0.0000E+00  0.0000E+00
     -3.028  0.0000E+00  0.0000E+00
     -2.988  0.7286E-15  0.2936E-16
     -2.948  0.2470E-11  0.9957E-13
     -2.907  0.2348E-08  0.9473E-10
     -2.867  0.6322E-06  0.2557E-07
     -2.827  0.4896E-04  0.1998E-05
     -2.786  0.1121E-02  0.4718E-04
     -2.746  0.8246E-02  0.3795E-03
     -2.706  0.2753E-01  0.1489E-02
     -2.666  0.7321E-01  0.4439E-02
     -2.625  0.1359E+00  0.9916E-02
     -2.585  0.2004E+00  0.1799E-01
     -2.545  0.2274E+00  0.2716E-01
     -2.504  0.1901E+00  0.3481E-01
     -2.464  0.1588E+00  0.4121E-01
     -2.424  0.1662E+00  0.4791E-01
     -2.383  0.2994E+00  0.5998E-01
     -2.343  0.4685E+00  0.7886E-01
     -2.303  0.4918E+00  0.9867E-01
     -2.263  0.4030E+00  0.1149E+00
     -2.222  0.1605E+00  0.1214E+00
     -2.182  0.1002E+00  0.1254E+00
     -2.142  0.2353E+00  0.1349E+00
     -2.101  0.4146E+00  0.1516E+00
     -2.061  0.5794E+00  0.1750E+00
     -2.021  0.5581E+00  0.1974E+00
     -1.980  0.5218E+00  0.2185E+00
     -1.940  0.4974E+00  0.2385E+00
     -1.900  0.4059E+00  0.2549E+00
     -1.860  0.2657E+00  0.2656E+00
     -1.819  0.3294E+00  0.2789E+00
     -1.779  0.5403E+00  0.3006E+00
     -1.739  0.7779E+00  0.3320E+00
     -1.698  0.7771E+00  0.3633E+00
     -1.658  0.3103E+00  0.3758E+00
     -1.618  0.8300E-01  0.3791E+00
     -1.577  0.1769E+00  0.3863E+00
     -1.537  0.5268E+00  0.4075E+00
     -1.497  0.8939E+00  0.4435E+00
     -1.457  0.8594E+00  0.4781E+00
     -1.416  0.7337E+00  0.5077E+00
     -1.376  0.5891E+00  0.5315E+00
     -1.336  0.5254E+00  0.5526E+00
     -1.295  0.5657E+00  0.5754E+00
     -1.255  0.7533E+00  0.6058E+00
     -1.215  0.9036E+00  0.6422E+00
     -1.175  0.6915E+00  0.6701E+00
     -1.134  0.4166E+00  0.6869E+00
     -1.094  0.1621E+00  0.6934E+00
     -1.054  0.2125E+00  0.7019E+00
     -1.013  0.4558E+00  0.7203E+00
     -0.973  0.5919E+00  0.7442E+00
     -0.933  0.8103E+00  0.7768E+00
     -0.892  0.1219E+01  0.8260E+00
     -0.852  0.1255E+01  0.8766E+00
     -0.812  0.8283E+00  0.9099E+00
     -0.772  0.4231E+00  0.9270E+00
     -0.731  0.3060E+00  0.9393E+00
     -0.691  0.9069E+00  0.9759E+00
     -0.651  0.1337E+01  0.1030E+01
     -0.610  0.1127E+01  0.1075E+01
     -0.570  0.6836E+00  0.1103E+01
     -0.530  0.2062E+00  0.1111E+01
     -0.489  0.1619E+00  0.1118E+01
     -0.449  0.3850E+00  0.1133E+01
     -0.409  0.7787E+00  0.1164E+01
     -0.369  0.1012E+01  0.1205E+01
     -0.328  0.1052E+01  0.1248E+01
     -0.288  0.1039E+01  0.1289E+01
     -0.248  0.9971E+00  0.1330E+01
     -0.207  0.8058E+00  0.1362E+01
     -0.167  0.6490E+00  0.1388E+01
     -0.127  0.6242E+00  0.1413E+01
     -0.086  0.9315E+00  0.1451E+01
     -0.046  0.1239E+01  0.1501E+01
     -0.006  0.7050E+00  0.1529E+01
      0.034  0.2437E+00  0.1539E+01
      0.075  0.4589E+00  0.1558E+01
      0.115  0.1069E+01  0.1601E+01
      0.155  0.1744E+01  0.1671E+01
      0.196  0.1545E+01  0.1733E+01
      0.236  0.1057E+01  0.1776E+01
      0.276  0.6989E+00  0.1804E+01
      0.316  0.5544E+00  0.1826E+01
      0.357  0.6424E+00  0.1852E+01
      0.397  0.1061E+01  0.1895E+01
      0.437  0.1395E+01  0.1951E+01
      0.478  0.1187E+01  0.1999E+01
      0.518  0.7533E+00  0.2029E+01
      0.558  0.2377E+00  0.2039E+01
      0.599  0.1239E+00  0.2044E+01
      0.639  0.3469E+00  0.2058E+01
      0.679  0.8744E+00  0.2093E+01
      0.719  0.1381E+01  0.2149E+01
      0.760  0.1688E+01  0.2217E+01
      0.800  0.1487E+01  0.2277E+01
      0.840  0.1092E+01  0.2321E+01
      0.881  0.8157E+00  0.2354E+01
      0.921  0.9607E+00  0.2392E+01
      0.961  0.1457E+01  0.2451E+01
      1.002  0.1760E+01  0.2522E+01
      1.042  0.1637E+01  0.2588E+01
      1.082  0.7718E+00  0.2619E+01
      1.122  0.5808E+00  0.2642E+01
      1.163  0.8978E+00  0.2679E+01
      1.203  0.9555E+00  0.2717E+01
      1.243  0.1005E+01  0.2758E+01
      1.284  0.1005E+01  0.2798E+01
      1.324  0.1400E+01  0.2855E+01
      1.364  0.1651E+01  0.2921E+01
      1.405  0.9135E+00  0.2958E+01
      1.445  0.5690E+00  0.2981E+01
      1.485  0.9579E+00  0.3019E+01
      1.525  0.1317E+01  0.3073E+01
      1.566  0.1474E+01  0.3132E+01
      1.606  0.9604E+00  0.3171E+01
      1.646  0.4996E+00  0.3191E+01
      1.687  0.2829E+00  0.3202E+01
      1.727  0.4601E+00  0.3221E+01
      1.767  0.1065E+01  0.3264E+01
      1.808  0.1788E+01  0.3336E+01
      1.848  0.1906E+01  0.3412E+01
      1.888  0.1413E+01  0.3469E+01
      1.928  0.1126E+01  0.3515E+01
      1.969  0.1101E+01  0.3559E+01
      2.009  0.1398E+01  0.3615E+01
      2.049  0.1365E+01  0.3670E+01
      2.090  0.1116E+01  0.3715E+01
      2.130  0.1218E+01  0.3765E+01
      2.170  0.1024E+01  0.3806E+01
      2.210  0.5875E+00  0.3830E+01
      2.251  0.4327E+00  0.3847E+01
      2.291  0.1002E+01  0.3887E+01
      2.331  0.1727E+01  0.3957E+01
      2.372  0.1572E+01  0.4020E+01
      2.412  0.8897E+00  0.4056E+01
      2.452  0.7093E+00  0.4085E+01
      2.493  0.9507E+00  0.4123E+01
      2.533  0.1213E+01  0.4172E+01
      2.573  0.1437E+01  0.4230E+01
      2.613  0.1295E+01  0.4282E+01
      2.654  0.1184E+01  0.4330E+01
      2.694  0.1199E+01  0.4378E+01
      2.734  0.1046E+01  0.4420E+01
      2.775  0.1038E+01  0.4462E+01
      2.815  0.1219E+01  0.4511E+01
      2.855  0.1943E+01  0.4589E+01
      2.896  0.2552E+01  0.4692E+01
      2.936  0.1909E+01  0.4769E+01
      2.976  0.1171E+01  0.4816E+01
      3.016  0.1040E+01  0.4858E+01
      3.057  0.1176E+01  0.4906E+01
      3.097  0.1281E+01  0.4957E+01
      3.137  0.1226E+01  0.5007E+01
      3.178  0.1236E+01  0.5056E+01
      3.218  0.1149E+01  0.5103E+01
      3.258  0.8310E+00  0.5136E+01
      3.299  0.5761E+00  0.5159E+01
      3.339  0.7536E+00  0.5190E+01
      3.379  0.1531E+01  0.5252E+01
      3.419  0.2050E+01  0.5334E+01
      3.460  0.2057E+01  0.5417E+01
      3.500  0.1926E+01  0.5495E+01
      3.540  0.1189E+01  0.5543E+01
      3.581  0.7685E+00  0.5574E+01
      3.621  0.1304E+01  0.5626E+01
      3.661  0.1676E+01  0.5694E+01
      3.701  0.1324E+01  0.5747E+01
      3.742  0.4780E+00  0.5766E+01
      3.782  0.1100E+00  0.5771E+01
      3.822  0.5144E+00  0.5791E+01
      3.863  0.1664E+01  0.5858E+01
      3.903  0.2133E+01  0.5944E+01
      3.943  0.1801E+01  0.6017E+01
      3.984  0.1306E+01  0.6070E+01
      4.024  0.9589E+00  0.6108E+01
      4.064  0.1127E+01  0.6154E+01
      4.104  0.1370E+01  0.6209E+01
      4.145  0.1657E+01  0.6276E+01
      4.185  0.1701E+01  0.6344E+01
      4.225  0.1578E+01  0.6408E+01
      4.266  0.1341E+01  0.6462E+01
      4.306  0.1290E+01  0.6514E+01
      4.346  0.1403E+01  0.6570E+01
      4.387  0.1251E+01  0.6621E+01
      4.427  0.1308E+01  0.6673E+01
      4.467  0.1562E+01  0.6736E+01
      4.507  0.1734E+01  0.6806E+01
      4.548  0.1730E+01  0.6876E+01
      4.588  0.1565E+01  0.6939E+01
      4.628  0.1466E+01  0.6998E+01
      4.669  0.1388E+01  0.7054E+01
      4.709  0.9433E+00  0.7092E+01
      4.749  0.3485E+00  0.7106E+01
      4.790  0.3279E+00  0.7119E+01
      4.830  0.7373E+00  0.7149E+01
      4.870  0.8829E+00  0.7185E+01
      4.910  0.7384E+00  0.7214E+01
      4.951  0.6413E+00  0.7240E+01
      4.991  0.8829E+00  0.7276E+01
      5.031  0.1420E+01  0.7333E+01
      5.072  0.1924E+01  0.7410E+01
      5.112  0.2157E+01  0.7497E+01
      5.152  0.2328E+01  0.7591E+01
      5.192  0.2734E+01  0.7701E+01
      5.233  0.2914E+01  0.7819E+01
      5.273  0.2065E+01  0.7902E+01
      5.313  0.7034E+00  0.7930E+01
      5.354  0.2802E+00  0.7942E+01
      5.394  0.5538E+00  0.7964E+01
      5.434  0.7119E+00  0.7993E+01
      5.475  0.6900E+00  0.8020E+01
      5.515  0.7914E+00  0.8052E+01
      5.555  0.1195E+01  0.8100E+01
      5.595  0.1624E+01  0.8166E+01
      5.636  0.1917E+01  0.8243E+01
      5.676  0.1459E+01  0.8302E+01
      5.716  0.4725E+00  0.8321E+01
      5.757  0.1400E+00  0.8327E+01
      5.797  0.5111E+00  0.8347E+01
      5.837  0.1145E+01  0.8393E+01
      5.878  0.1104E+01  0.8438E+01
      5.918  0.8390E+00  0.8472E+01
      5.958  0.9688E+00  0.8511E+01
      5.998  0.1108E+01  0.8555E+01
      6.039  0.1339E+01  0.8609E+01
      6.079  0.2209E+01  0.8698E+01
      6.119  0.2961E+01  0.8818E+01
      6.160  0.2428E+01  0.8916E+01
      6.200  0.1355E+01  0.8970E+01
      6.240  0.7166E+00  0.8999E+01
      6.281  0.6592E+00  0.9026E+01
      6.321  0.7622E+00  0.9056E+01
      6.361  0.1219E+01  0.9105E+01
      6.401  0.1855E+01  0.9180E+01
      6.442  0.1513E+01  0.9241E+01
      6.482  0.5993E+00  0.9265E+01
      6.522  0.3843E+00  0.9281E+01
      6.563  0.3459E+00  0.9295E+01
      6.603  0.1135E+00  0.9299E+01
      6.643  0.1338E-01  0.9300E+01
      6.683  0.3167E-01  0.9301E+01
      6.724  0.2035E+00  0.9309E+01
      6.764  0.6492E+00  0.9335E+01
      6.804  0.1337E+01  0.9389E+01
      6.845  0.1677E+01  0.9457E+01
      6.885  0.1295E+01  0.9509E+01
      6.925  0.9968E+00  0.9549E+01
      6.966  0.9370E+00  0.9587E+01
      7.006  0.1299E+01  0.9639E+01
      7.046  0.1669E+01  0.9707E+01
      7.086  0.1197E+01  0.9755E+01
      7.127  0.3691E+00  0.9770E+01
      7.167  0.5470E-01  0.9772E+01
      7.207  0.8293E-01  0.9775E+01
      7.248  0.2386E+00  0.9785E+01
      7.288  0.5000E+00  0.9805E+01
      7.328  0.9212E+00  0.9842E+01
      7.369  0.8929E+00  0.9878E+01
      7.409  0.4137E+00  0.9895E+01
      7.449  0.1720E+00  0.9902E+01
      7.489  0.3284E+00  0.9915E+01
      7.530  0.3435E+00  0.9929E+01
      7.570  0.1134E+00  0.9933E+01
      7.610  0.1147E-01  0.9934E+01
      7.651  0.7490E-03  0.9934E+01
      7.691  0.1278E-01  0.9934E+01
      7.731  0.1208E+00  0.9939E+01
      7.772  0.3499E+00  0.9953E+01
      7.812  0.3151E+00  0.9966E+01
      7.852  0.8814E-01  0.9970E+01
      7.892  0.7516E-02  0.9970E+01
      7.933  0.2712E-03  0.9970E+01
      7.973  0.2973E-02  0.9970E+01
      8.013  0.3257E-01  0.9971E+01
      8.054  0.1090E+00  0.9976E+01
      8.094  0.1133E+00  0.9980E+01
      8.134  0.3666E-01  0.9982E+01
      8.175  0.5172E-02  0.9982E+01
      8.215  0.2540E-01  0.9983E+01
      8.255  0.1249E+00  0.9988E+01
      8.295  0.1909E+00  0.9996E+01
      8.336  0.9085E-01  0.9999E+01
      8.376  0.1331E-01  0.1000E+02
      8.416  0.5868E-03  0.1000E+02
      8.457  0.7585E-05  0.1000E+02
      8.497  0.2818E-07  0.1000E+02
      8.537  0.2964E-10  0.1000E+02
      8.577  0.8743E-14  0.1000E+02
      8.618  0.0000E+00  0.1000E+02
      8.658  0.0000E+00  0.1000E+02
      8.698  0.0000E+00  0.1000E+02
      8.739  0.0000E+00  0.1000E+02
      8.779  0.0000E+00  0.1000E+02
      8.819  0.0000E+00  0.1000E+02
