       N       E                     dE             d eps       ncg     rms          rms(c)
DAV:   1     0.905684557775E+02    0.90568E+02   -0.14900E+04  3780   0.138E+03
DAV:   2    -0.601872786586E+02   -0.15076E+03   -0.14250E+03  5298   0.219E+02
DAV:   3    -0.675629794895E+02   -0.73757E+01   -0.73301E+01  4696   0.503E+01
DAV:   4    -0.676835085196E+02   -0.12053E+00   -0.12029E+00  4672   0.727E+00
DAV:   5    -0.676863841520E+02   -0.28756E-02   -0.28748E-02  4598   0.108E+00    0.177E+01
DAV:   6    -0.604572173877E+02    0.72292E+01   -0.24426E+01  4420   0.239E+01    0.785E+00
DAV:   7    -0.602612390173E+02    0.19598E+00   -0.17927E+00  5135   0.682E+00    0.341E+00
DAV:   8    -0.602320507548E+02    0.29188E-01   -0.10322E-01  4455   0.185E+00    0.860E-01
DAV:   9    -0.602307452926E+02    0.13055E-02   -0.12735E-02  4610   0.701E-01    0.165E-01
DAV:  10    -0.602312471844E+02   -0.50189E-03   -0.12784E-03  4734   0.205E-01    0.723E-02
DAV:  11    -0.602313056304E+02   -0.58446E-04   -0.18806E-04  4565   0.954E-02    0.167E-02
DAV:  12    -0.602313080961E+02   -0.24657E-05   -0.83157E-06  4672   0.182E-02    0.533E-03
DAV:  13    -0.602313090605E+02   -0.96437E-06   -0.52565E-07  3125   0.502E-03
   1 F= -.60231309E+02 E0= -.60231309E+02  d E =-.154290E-15
