 running    1 mpi-ranks, with    2 threads/rank, on    1 nodes
 distrk:  each k-point on    1 cores,    1 groups
 distr:  one band on    1 cores,    1 groups
 OpenACC runtime initialized ...    1 GPUs detected
 vasp.6.4.2 20Jul23 (build Mar  2 2025 11:04:54) complex                         
 POSCAR found type information on POSCAR Ta
 POSCAR found :  1 types and       1 ions
 scaLAPACK will be used selectively (only on CPU)
 LDA part: xc-table for Pade appr. of Perdew
 -----------------------------------------------------------------------------
|                                                                             |
|           W    W    AA    RRRRR   N    N  II  N    N   GGGG   !!!           |
|           W    W   A  A   R    R  NN   N  II  NN   N  G    G  !!!           |
|           W    W  A    A  R    R  N N  N  II  N N  N  G       !!!           |
|           W WW W  AAAAAA  RRRRR   N  N N  II  N  N N  G  GGG   !            |
|           WW  WW  A    A  R   R   N   NN  II  N   NN  G    G                |
|           W    W  A    A  R    R  N    N  II  N    N   GGGG   !!!           |
|                                                                             |
|     The requested file  could not be found or opened for reading            |
|     k-point information. Automatic k-point generation is used as a          |
|     fallback, which may lead to unwanted results.                           |
|                                                                             |
 -----------------------------------------------------------------------------

 POSCAR, INCAR and KPOINTS ok, starting setup
 FFT: planning ... GRIDC
 FFT: planning ... GRID_SOFT
 FFT: planning ... GRID
 WAVECAR not read
 entering main loop
       N       E                     dE             d eps       ncg     rms          rms(c)
DAV:   1    -0.137814942236E+01   -0.13781E+01   -0.17391E+03  2364   0.531E+02
DAV:   2    -0.122998176146E+02   -0.10922E+02   -0.10365E+02  4188   0.766E+01
DAV:   3    -0.123547991106E+02   -0.54981E-01   -0.54921E-01  2388   0.757E+00
DAV:   4    -0.123549133281E+02   -0.11422E-03   -0.11422E-03  3162   0.261E-01
DAV:   5    -0.123549134805E+02   -0.15245E-06   -0.15220E-06  2430   0.832E-03    0.133E+01
DAV:   6    -0.120160616541E+02    0.33885E+00   -0.20970E-01  2664   0.346E+00    0.665E+00
DAV:   7    -0.118648187274E+02    0.15124E+00   -0.29091E-01  2778   0.395E+00    0.395E-01
DAV:   8    -0.118637919948E+02    0.10267E-02   -0.96074E-04  2550   0.276E-01    0.980E-02
DAV:   9    -0.118637441239E+02    0.47871E-04   -0.16311E-04  3030   0.905E-02    0.176E-02
DAV:  10    -0.118637411251E+02    0.29988E-05   -0.66590E-06  2496   0.197E-02    0.108E-02
DAV:  11    -0.118637416870E+02   -0.56194E-06   -0.62765E-07  1344   0.618E-03
   1 F= -.11863742E+02 E0= -.11862976E+02  d E =-.153083E-02
Warning: ieee_invalid is signaling
Warning: ieee_divide_by_zero is signaling
Warning: ieee_underflow is signaling
Warning: ieee_inexact is signaling
FORTRAN STOP
