 running    1 mpi-ranks, with    2 threads/rank, on    1 nodes
 distrk:  each k-point on    1 cores,    1 groups
 distr:  one band on    1 cores,    1 groups
 OpenACC runtime initialized ...    1 GPUs detected
 vasp.6.4.2 20Jul23 (build Mar  2 2025 11:04:54) complex                         
 POSCAR found type information on POSCAR Ca
 POSCAR found :  1 types and       1 ions
 scaLAPACK will be used selectively (only on CPU)
 LDA part: xc-table for Pade appr. of Perdew
 -----------------------------------------------------------------------------
|                                                                             |
|           W    W    AA    RRRRR   N    N  II  N    N   GGGG   !!!           |
|           W    W   A  A   R    R  NN   N  II  NN   N  G    G  !!!           |
|           W    W  A    A  R    R  N N  N  II  N N  N  G       !!!           |
|           W WW W  AAAAAA  RRRRR   N  N N  II  N  N N  G  GGG   !            |
|           WW  WW  A    A  R   R   N   NN  II  N   NN  G    G                |
|           W    W  A    A  R    R  N    N  II  N    N   GGGG   !!!           |
|                                                                             |
|     The requested file  could not be found or opened for reading            |
|     k-point information. Automatic k-point generation is used as a          |
|     fallback, which may lead to unwanted results.                           |
|                                                                             |
 -----------------------------------------------------------------------------

 POSCAR, INCAR and KPOINTS ok, starting setup
 FFT: planning ... GRIDC
 FFT: planning ... GRID_SOFT
 FFT: planning ... GRID
 WAVECAR not read
 WARNING: random wavefunctions but no delay for mixing, default for NELMDL
 entering main loop
       N       E                     dE             d eps       ncg     rms          rms(c)
DAV:   1     0.176839603682E+02    0.17684E+02   -0.34213E+03  1664   0.105E+03
DAV:   2    -0.114676331342E+01   -0.18831E+02   -0.18804E+02  2072   0.122E+02
DAV:   3    -0.190498615220E+01   -0.75822E+00   -0.75303E+00  2544   0.305E+01
DAV:   4    -0.191075819772E+01   -0.57720E-02   -0.57713E-02  2368   0.240E+00
DAV:   5    -0.191080436472E+01   -0.46167E-04   -0.46165E-04  2600   0.196E-01    0.738E-01
DAV:   6    -0.191581443634E+01   -0.50101E-02   -0.69323E-03  1912   0.170E+00    0.428E-01
DAV:   7    -0.191968495298E+01   -0.38705E-02   -0.81218E-03  1912   0.183E+00    0.508E-02
DAV:   8    -0.191962950553E+01    0.55447E-04   -0.40535E-04  2040   0.376E-01    0.824E-03
DAV:   9    -0.191963527727E+01   -0.57717E-05   -0.13874E-05  2776   0.336E-02    0.675E-03
DAV:  10    -0.191963767220E+01   -0.23949E-05   -0.13000E-06  1984   0.228E-02    0.295E-03
DAV:  11    -0.191963901075E+01   -0.13385E-05   -0.15896E-07  1056   0.765E-03    0.320E-04
DAV:  12    -0.191963903538E+01   -0.24626E-07   -0.23830E-08   944   0.170E-03
   1 F= -.19196390E+01 E0= -.19190940E+01  d E =-.163498E-02
Warning: ieee_invalid is signaling
Warning: ieee_divide_by_zero is signaling
Warning: ieee_underflow is signaling
Warning: ieee_inexact is signaling
FORTRAN STOP
