       N       E                     dE             d eps       ncg     rms          rms(c)
DAV:   1     0.594733869391E+02    0.59473E+02   -0.60926E+03  9350   0.115E+03
DAV:   2    -0.854007502803E+01   -0.68013E+02   -0.66126E+02 11253   0.339E+02
DAV:   3    -0.104453719984E+02   -0.19053E+01   -0.17729E+01 13468   0.489E+01
DAV:   4    -0.104892712313E+02   -0.43899E-01   -0.43117E-01 12624   0.572E+00
DAV:   5    -0.104895063745E+02   -0.23514E-03   -0.23494E-03 11434   0.337E-01    0.125E+01
DAV:   6    -0.993316221102E+01    0.55634E+00   -0.94294E-01 14091   0.145E+01    0.447E+00
DAV:   7    -0.983540881260E+01    0.97753E-01   -0.34526E-01 14115   0.836E+00    0.428E-01
DAV:   8    -0.983359534670E+01    0.18135E-02   -0.37448E-03 11250   0.931E-01    0.171E-01
DAV:   9    -0.983361412560E+01   -0.18779E-04   -0.29741E-04 13985   0.237E-01    0.165E-02
DAV:  10    -0.983360250446E+01    0.11621E-04   -0.16065E-05 11618   0.388E-02    0.434E-03
DAV:  11    -0.983360264282E+01   -0.13835E-06   -0.19602E-07  8107   0.524E-03    0.170E-03
DAV:  12    -0.983360238160E+01    0.26121E-06   -0.88905E-08  5014   0.488E-03    0.174E-04
DAV:  13    -0.983360237821E+01    0.33961E-08   -0.16782E-08  4916   0.256E-03
   1 F= -.98336024E+01 E0= -.98332777E+01  d E =-.974095E-03
