  39  39   0   0
  0.1320398E+02  0.1133282E-08  0.1133282E-08  0.5668374E-09  0.5000000E-15
   1.0000000000000000E-004
  CAR 
 BaTiO3 Full Structural Relaxation (atoms
      9.09047498    -33.64487085  301      2.39788394      1.00000000
    -33.645  0.0000E+00  0.0000E+00
    -33.502  0.0000E+00  0.0000E+00
    -33.360  0.0000E+00  0.0000E+00
    -33.218  0.0000E+00  0.0000E+00
    -33.075  0.0000E+00  0.0000E+00
    -32.933  0.0000E+00  0.0000E+00
    -32.790  0.0000E+00  0.0000E+00
    -32.648  0.0000E+00  0.0000E+00
    -32.505  0.0000E+00  0.0000E+00
    -32.363  0.0000E+00  0.0000E+00
    -32.220  0.0000E+00  0.0000E+00
    -32.078  0.0000E+00  0.0000E+00
    -31.935  0.3196E-11  0.4552E-12
    -31.793  0.9985E-03  0.1422E-03
    -31.651  0.6169E+00  0.8802E-01
    -31.508  0.1055E+01  0.2383E+00
    -31.366  0.1225E-01  0.2400E+00
    -31.223  0.7337E-09  0.2400E+00
    -31.081  0.0000E+00  0.2400E+00
    -30.938  0.0000E+00  0.2400E+00
    -30.796  0.0000E+00  0.2400E+00
    -30.653  0.0000E+00  0.2400E+00
    -30.511  0.0000E+00  0.2400E+00
    -30.368  0.0000E+00  0.2400E+00
    -30.226  0.0000E+00  0.2400E+00
    -30.084  0.0000E+00  0.2400E+00
    -29.941  0.0000E+00  0.2400E+00
    -29.799  0.0000E+00  0.2400E+00
    -29.656  0.0000E+00  0.2400E+00
    -29.514  0.0000E+00  0.2400E+00
    -29.371  0.0000E+00  0.2400E+00
    -29.229  0.0000E+00  0.2400E+00
    -29.086  0.0000E+00  0.2400E+00
    -28.944  0.0000E+00  0.2400E+00
    -28.802  0.0000E+00  0.2400E+00
    -28.659  0.0000E+00  0.2400E+00
    -28.517  0.0000E+00  0.2400E+00
    -28.374  0.0000E+00  0.2400E+00
    -28.232  0.0000E+00  0.2400E+00
    -28.089  0.0000E+00  0.2400E+00
    -27.947  0.0000E+00  0.2400E+00
    -27.804  0.0000E+00  0.2400E+00
    -27.662  0.0000E+00  0.2400E+00
    -27.519  0.0000E+00  0.2400E+00
    -27.377  0.0000E+00  0.2400E+00
    -27.235  0.0000E+00  0.2400E+00
    -27.092  0.0000E+00  0.2400E+00
    -26.950  0.0000E+00  0.2400E+00
    -26.807  0.0000E+00  0.2400E+00
    -26.665  0.0000E+00  0.2400E+00
    -26.522  0.0000E+00  0.2400E+00
    -26.380  0.0000E+00  0.2400E+00
    -26.237  0.0000E+00  0.2400E+00
    -26.095  0.0000E+00  0.2400E+00
    -25.953  0.0000E+00  0.2400E+00
    -25.810  0.0000E+00  0.2400E+00
    -25.668  0.0000E+00  0.2400E+00
    -25.525  0.0000E+00  0.2400E+00
    -25.383  0.0000E+00  0.2400E+00
    -25.240  0.0000E+00  0.2400E+00
    -25.098  0.0000E+00  0.2400E+00
    -24.955  0.0000E+00  0.2400E+00
    -24.813  0.0000E+00  0.2400E+00
    -24.670  0.0000E+00  0.2400E+00
    -24.528  0.0000E+00  0.2400E+00
    -24.386  0.0000E+00  0.2400E+00
    -24.243  0.0000E+00  0.2400E+00
    -24.101  0.0000E+00  0.2400E+00
    -23.958  0.0000E+00  0.2400E+00
    -23.816  0.0000E+00  0.2400E+00
    -23.673  0.0000E+00  0.2400E+00
    -23.531  0.0000E+00  0.2400E+00
    -23.388  0.0000E+00  0.2400E+00
    -23.246  0.0000E+00  0.2400E+00
    -23.103  0.0000E+00  0.2400E+00
    -22.961  0.0000E+00  0.2400E+00
    -22.819  0.0000E+00  0.2400E+00
    -22.676  0.0000E+00  0.2400E+00
    -22.534  0.8615E-12  0.2400E+00
    -22.391  0.1449E-03  0.2400E+00
    -22.249  0.1443E+00  0.2606E+00
    -22.106  0.3047E+00  0.3040E+00
    -21.964  0.4225E-01  0.3100E+00
    -21.821  0.6820E-06  0.3100E+00
    -21.679  0.0000E+00  0.3100E+00
    -21.537  0.0000E+00  0.3100E+00
    -21.394  0.0000E+00  0.3100E+00
    -21.252  0.0000E+00  0.3100E+00
    -21.109  0.0000E+00  0.3100E+00
    -20.967  0.0000E+00  0.3100E+00
    -20.824  0.0000E+00  0.3100E+00
    -20.682  0.0000E+00  0.3100E+00
    -20.539  0.0000E+00  0.3100E+00
    -20.397  0.0000E+00  0.3100E+00
    -20.254  0.0000E+00  0.3100E+00
    -20.112  0.0000E+00  0.3100E+00
    -19.970  0.0000E+00  0.3100E+00
    -19.827  0.0000E+00  0.3100E+00
    -19.685  0.0000E+00  0.3100E+00
    -19.542  0.0000E+00  0.3100E+00
    -19.400  0.0000E+00  0.3100E+00
    -19.257  0.0000E+00  0.3100E+00
    -19.115  0.0000E+00  0.3100E+00
    -18.972  0.0000E+00  0.3100E+00
    -18.830  0.0000E+00  0.3100E+00
    -18.687  0.0000E+00  0.3100E+00
    -18.545  0.0000E+00  0.3100E+00
    -18.403  0.0000E+00  0.3100E+00
    -18.260  0.0000E+00  0.3100E+00
    -18.118  0.0000E+00  0.3100E+00
    -17.975  0.0000E+00  0.3100E+00
    -17.833  0.0000E+00  0.3100E+00
    -17.690  0.0000E+00  0.3100E+00
    -17.548  0.0000E+00  0.3100E+00
    -17.405  0.0000E+00  0.3100E+00
    -17.263  0.0000E+00  0.3100E+00
    -17.121  0.0000E+00  0.3100E+00
    -16.978  0.0000E+00  0.3100E+00
    -16.836  0.0000E+00  0.3100E+00
    -16.693  0.0000E+00  0.3100E+00
    -16.551  0.0000E+00  0.3100E+00
    -16.408  0.0000E+00  0.3100E+00
    -16.266  0.0000E+00  0.3100E+00
    -16.123  0.0000E+00  0.3100E+00
    -15.981  0.0000E+00  0.3100E+00
    -15.838  0.0000E+00  0.3100E+00
    -15.696  0.0000E+00  0.3100E+00
    -15.554  0.0000E+00  0.3100E+00
    -15.411  0.0000E+00  0.3100E+00
    -15.269  0.0000E+00  0.3100E+00
    -15.126  0.0000E+00  0.3100E+00
    -14.984  0.0000E+00  0.3100E+00
    -14.841  0.0000E+00  0.3100E+00
    -14.699  0.1653E-11  0.3100E+00
    -14.556  0.6063E-04  0.3100E+00
    -14.414  0.3788E-01  0.3154E+00
    -14.272  0.1710E+00  0.3398E+00
    -14.129  0.1352E+00  0.3590E+00
    -13.987  0.9968E-01  0.3732E+00
    -13.844  0.6288E-01  0.3822E+00
    -13.702  0.6867E-01  0.3920E+00
    -13.559  0.5522E+00  0.4706E+00
    -13.417  0.5507E+00  0.5491E+00
    -13.274  0.6462E-02  0.5500E+00
    -13.132  0.1095E-07  0.5500E+00
    -12.989  0.0000E+00  0.5500E+00
    -12.847  0.0000E+00  0.5500E+00
    -12.705  0.0000E+00  0.5500E+00
    -12.562  0.0000E+00  0.5500E+00
    -12.420  0.0000E+00  0.5500E+00
    -12.277  0.0000E+00  0.5500E+00
    -12.135  0.0000E+00  0.5500E+00
    -11.992  0.0000E+00  0.5500E+00
    -11.850  0.0000E+00  0.5500E+00
    -11.707  0.0000E+00  0.5500E+00
    -11.565  0.0000E+00  0.5500E+00
    -11.422  0.0000E+00  0.5500E+00
    -11.280  0.0000E+00  0.5500E+00
    -11.138  0.0000E+00  0.5500E+00
    -10.995  0.0000E+00  0.5500E+00
    -10.853  0.0000E+00  0.5500E+00
    -10.710  0.0000E+00  0.5500E+00
    -10.568  0.0000E+00  0.5500E+00
    -10.425  0.0000E+00  0.5500E+00
    -10.283  0.0000E+00  0.5500E+00
    -10.140  0.0000E+00  0.5500E+00
     -9.998  0.0000E+00  0.5500E+00
     -9.856  0.0000E+00  0.5500E+00
     -9.713  0.0000E+00  0.5500E+00
     -9.571  0.0000E+00  0.5500E+00
     -9.428  0.0000E+00  0.5500E+00
     -9.286  0.0000E+00  0.5500E+00
     -9.143  0.0000E+00  0.5500E+00
     -9.001  0.0000E+00  0.5500E+00
     -8.858  0.0000E+00  0.5500E+00
     -8.716  0.0000E+00  0.5500E+00
     -8.573  0.0000E+00  0.5500E+00
     -8.431  0.0000E+00  0.5500E+00
     -8.289  0.1520E-13  0.5500E+00
     -8.146  0.4846E-05  0.5500E+00
     -8.004  0.8466E-02  0.5512E+00
     -7.861  0.6167E-01  0.5600E+00
     -7.719  0.1141E+00  0.5762E+00
     -7.576  0.2235E+00  0.6081E+00
     -7.434  0.4030E+00  0.6655E+00
     -7.291  0.3665E+00  0.7177E+00
     -7.149  0.2805E+00  0.7577E+00
     -7.007  0.1642E-01  0.7600E+00
     -6.864  0.5572E-06  0.7600E+00
     -6.722  0.0000E+00  0.7600E+00
     -6.579  0.0000E+00  0.7600E+00
     -6.437  0.0000E+00  0.7600E+00
     -6.294  0.0000E+00  0.7600E+00
     -6.152  0.0000E+00  0.7600E+00
     -6.009  0.0000E+00  0.7600E+00
     -5.867  0.0000E+00  0.7600E+00
     -5.724  0.0000E+00  0.7600E+00
     -5.582  0.0000E+00  0.7600E+00
     -5.440  0.0000E+00  0.7600E+00
     -5.297  0.0000E+00  0.7600E+00
     -5.155  0.0000E+00  0.7600E+00
     -5.012  0.0000E+00  0.7600E+00
     -4.870  0.0000E+00  0.7600E+00
     -4.727  0.0000E+00  0.7600E+00
     -4.585  0.0000E+00  0.7600E+00
     -4.442  0.0000E+00  0.7600E+00
     -4.300  0.0000E+00  0.7600E+00
     -4.157  0.0000E+00  0.7600E+00
     -4.015  0.0000E+00  0.7600E+00
     -3.873  0.0000E+00  0.7600E+00
     -3.730  0.0000E+00  0.7600E+00
     -3.588  0.0000E+00  0.7600E+00
     -3.445  0.0000E+00  0.7600E+00
     -3.303  0.0000E+00  0.7600E+00
     -3.160  0.0000E+00  0.7600E+00
     -3.018  0.0000E+00  0.7600E+00
     -2.875  0.0000E+00  0.7600E+00
     -2.733  0.0000E+00  0.7600E+00
     -2.591  0.0000E+00  0.7600E+00
     -2.448  0.0000E+00  0.7600E+00
     -2.306  0.1347E-14  0.7600E+00
     -2.163  0.1094E-05  0.7600E+00
     -2.021  0.9584E-03  0.7601E+00
     -1.878  0.9762E-02  0.7615E+00
     -1.736  0.4610E-01  0.7681E+00
     -1.593  0.8072E-01  0.7796E+00
     -1.451  0.1242E+00  0.7973E+00
     -1.308  0.1066E+00  0.8125E+00
     -1.166  0.7771E-01  0.8235E+00
     -1.024  0.1639E+00  0.8469E+00
     -0.881  0.1202E+00  0.8640E+00
     -0.739  0.1732E+00  0.8887E+00
     -0.596  0.1453E+00  0.9094E+00
     -0.454  0.1972E+00  0.9375E+00
     -0.311  0.1973E+00  0.9656E+00
     -0.169  0.2773E+00  0.1005E+01
     -0.026  0.2406E+00  0.1039E+01
      0.116  0.1823E+00  0.1065E+01
      0.259  0.2262E+00  0.1098E+01
      0.401  0.1957E+00  0.1125E+01
      0.543  0.1278E+00  0.1144E+01
      0.686  0.1671E+00  0.1167E+01
      0.828  0.1182E+00  0.1184E+01
      0.971  0.1146E+00  0.1201E+01
      1.113  0.1273E+00  0.1219E+01
      1.256  0.1272E+00  0.1237E+01
      1.398  0.1425E+00  0.1257E+01
      1.541  0.2402E+00  0.1291E+01
      1.683  0.3189E+00  0.1337E+01
      1.825  0.2450E+00  0.1372E+01
      1.968  0.2475E+00  0.1407E+01
      2.110  0.1896E+00  0.1434E+01
      2.253  0.1478E+00  0.1455E+01
      2.395  0.1030E+00  0.1470E+01
      2.538  0.7010E-01  0.1480E+01
      2.680  0.2098E-02  0.1480E+01
      2.823  0.1166E-07  0.1480E+01
      2.965  0.0000E+00  0.1480E+01
      3.108  0.0000E+00  0.1480E+01
      3.250  0.0000E+00  0.1480E+01
      3.392  0.0000E+00  0.1480E+01
      3.535  0.0000E+00  0.1480E+01
      3.677  0.0000E+00  0.1480E+01
      3.820  0.0000E+00  0.1480E+01
      3.962  0.0000E+00  0.1480E+01
      4.105  0.0000E+00  0.1480E+01
      4.247  0.0000E+00  0.1480E+01
      4.390  0.0000E+00  0.1480E+01
      4.532  0.2033E-14  0.1480E+01
      4.674  0.2851E-05  0.1480E+01
      4.817  0.4675E-02  0.1481E+01
      4.959  0.3628E-01  0.1486E+01
      5.102  0.6082E-01  0.1494E+01
      5.244  0.4689E-01  0.1501E+01
      5.387  0.8469E-01  0.1513E+01
      5.529  0.6155E-01  0.1522E+01
      5.672  0.1017E+00  0.1537E+01
      5.814  0.1029E+00  0.1551E+01
      5.957  0.1276E+00  0.1569E+01
      6.099  0.1894E+00  0.1596E+01
      6.241  0.2446E+00  0.1631E+01
      6.384  0.3364E+00  0.1679E+01
      6.526  0.1668E+00  0.1703E+01
      6.669  0.1760E+00  0.1728E+01
      6.811  0.1571E+00  0.1750E+01
      6.954  0.5004E-01  0.1757E+01
      7.096  0.1455E-01  0.1760E+01
      7.239  0.3464E-02  0.1760E+01
      7.381  0.6226E-05  0.1760E+01
      7.524  0.2362E-13  0.1760E+01
      7.666  0.0000E+00  0.1760E+01
      7.808  0.0000E+00  0.1760E+01
      7.951  0.0000E+00  0.1760E+01
      8.093  0.0000E+00  0.1760E+01
      8.236  0.0000E+00  0.1760E+01
      8.378  0.0000E+00  0.1760E+01
      8.521  0.0000E+00  0.1760E+01
      8.663  0.0000E+00  0.1760E+01
      8.806  0.0000E+00  0.1760E+01
      8.948  0.0000E+00  0.1760E+01
      9.090  0.0000E+00  0.1760E+01
