       N       E                     dE             d eps       ncg     rms          rms(c)
DAV:   1    -0.186171764834E+01   -0.18617E+01   -0.44697E+02   200   0.199E+02
DAV:   2    -0.259364663175E+01   -0.73193E+00   -0.70528E+00   250   0.130E+01
DAV:   3    -0.260486831114E+01   -0.11222E-01   -0.11221E-01   275   0.201E+00
DAV:   4    -0.260504676499E+01   -0.17845E-03   -0.17845E-03   310   0.184E-01
DAV:   5    -0.260504700097E+01   -0.23598E-06   -0.23603E-06   265   0.542E-03    0.291E-01
DAV:   6    -0.260504439489E+01    0.26061E-05   -0.10232E-04   235   0.869E-02    0.195E-01
DAV:   7    -0.260463937976E+01    0.40502E-03   -0.27045E-04   205   0.156E-01    0.113E-02
DAV:   8    -0.260463139913E+01    0.79806E-05   -0.32662E-06   260   0.114E-02    0.239E-03
DAV:   9    -0.260463108495E+01    0.31418E-06   -0.30084E-07   170   0.385E-03
   1 F= -.26046311E+01 E0= -.26042418E+01  d E =-.778549E-03
