 vasp.6.4.2 20Jul23 (build Mar  2 2025 11:04:54) complex                         
 executed on              LinuxNV date 2026.04.06  22:18:25
 running    1 mpi-ranks, with    2 threads/rank, on    1 nodes
 distrk:  each k-point on    1 cores,    1 groups
 distr:  one band on NCORE=   1 cores,    1 groups
 OpenACC runtime initialized ...    1 GPUs detected


--------------------------------------------------------------------------------------------------------


 INCAR:
   SYSTEM = K EOS production
   PREC = Accurate
   ISMEAR = 1
   SIGMA = 0.1
   ENCUT = 450
   NSW = 0
   ISIF = 2
   IBRION = -1
   EDIFF = 1E-7
   POTCAR = /mnt/data_x3/xiazeyu/newvaspagent/POTCAR_dir/POT_GGA_PAW_PBE/K_sv/POTCAR

 POTCAR:    PAW_PBE K_sv 06Sep2000                
 POTCAR:    PAW_PBE K_sv 06Sep2000                
   SHA256 =  bf8373ef592e31d27efa2dcc68371be6d6a25ce4db6c2ffaf9e92c44050ba21a K_sv/POTCAR           
   COPYR  = (c) Copyright 06Sep2000 Georg Kresse                                                    
   COPYR  = This file is part of the software VASP. Any use, copying, and all other rights are regul
   COPYR  = If you do not have a valid VASP license, you may not use, copy or distribute this file. 
   VRHFIN =K:  3s3p4s                                                                               
   LEXCH  = PE                                                                                      
   EATOM  =   775.0067 eV,   56.9614 Ry                                                             
                                                                                                    
   TITEL  = PAW_PBE K_sv 06Sep2000                                                                  
   LULTRA =        F    use ultrasoft PP ?                                                          
   IUNSCR =        1    unscreen: 0-lin 1-nonlin 2-no                                               
   RPACOR =    2.200    partial core radius                                                         
   POMASS =   39.098; ZVAL   =    9.000    mass and valenz                                          
   RCORE  =    2.300    outmost cutoff radius                                                       
   RWIGS  =    3.000; RWIGS  =    1.588    wigner-seitz radius (au A)                               
   ENMAX  =  259.264; ENMIN  =  194.448 eV                                                          
   RCLOC  =    2.005    cutoff for local pot                                                        
   LCOR   =        T    correct aug charges                                                         
   LPAW   =        T    paw PP                                                                      
   EAUG   =  427.853                                                                                
   DEXC   =    0.000                                                                                
   RMAX   =    2.358    core radius for proj-oper                                                   
   RAUG   =    1.300    factor for augmentation sphere                                              
   RDEP   =    2.372    radius for radial grids                                                     
   RDEPT  =    2.002    core radius for aug-charge                                                  
                                                                                                    
   Atomic configuration                                                                             
    7 entries                                                                                       
     n  l   j            E        occ.                                                              
     1  0  0.50     -3522.0595   2.0000                                                             
     2  0  0.50      -353.3851   2.0000                                                             
     2  1  1.50      -280.0935   6.0000                                                             
     3  0  0.50       -35.3419   2.0000                                                             
     4  0  0.50        -2.3190   1.0000                                                             
     3  1  1.50       -18.8125   6.0000                                                             
     3  2  1.50        -1.3606   0.0000                                                             
   Description                                                                                      
     l       E           TYP  RCUT    TYP  RCUT                                                     
     0    -35.3418873     23  2.300                                                                 
     0     -2.3190215     23  2.300                                                                 
     1    -18.8124623     23  2.300                                                                 
     1    -20.4087390     23  2.300                                                                 
     2     -1.3605826     23  2.300                                                                 
  local pseudopotential read in
  partial core-charges read in
  partial kinetic energy density read in
  atomic valenz-charges read in
  non local Contribution for L=            0  read in
    real space projection operators read in
  non local Contribution for L=            0  read in
    real space projection operators read in
  non local Contribution for L=            1  read in
    real space projection operators read in
  non local Contribution for L=            1  read in
    real space projection operators read in
  non local Contribution for L=            2  read in
    real space projection operators read in
    PAW grid and wavefunctions read in
 
   number of l-projection  operators is LMAX  =            5
   number of lm-projection operators is LMMAX =           13
 
  PAW_PBE K_sv 06Sep2000                :
 energy of atom  1       EATOM= -775.0067
 kinetic energy error for atom=    0.0026 (will be added to EATOM!!)
 
 
 POSCAR: K1
  positions in direct lattice
  No initial velocities read in
 exchange correlation table for  LEXCH =        8
   RHO(1)=    0.500       N(1)  =     2000
   RHO(2)=  100.500       N(2)  =     4000
 


--------------------------------------------------------------------------------------------------------


 ion  position               nearest neighbor table
   1  0.000  0.000  0.000-
 
  LATTYP: Found a body centered cubic cell.
 ALAT       =     5.7188241321
  
  Lattice vectors:
  
 A1 = (   4.6693999156,  -0.0000000424,  -1.6508819480)
 A2 = (  -2.3347010814,   4.0438195460,  -1.6508819480)
 A3 = (   0.0000000106,   0.0000000212,   4.9526469782)


Analysis of symmetry for initial positions (statically):
=====================================================================
 Subroutine PRICEL returns:
 Original cell was already a primitive cell.
 

 Routine SETGRP: Setting up the symmetry group for a 
 body centered cubic supercell.


 Subroutine GETGRP returns: Found 48 space group operations
 (whereof 48 operations were pure point group operations)
 out of a pool of 48 trial point group operations.


The static configuration has the point symmetry O_h .


Analysis of symmetry for dynamics (positions and initial velocities):
=====================================================================
 Subroutine PRICEL returns:
 Original cell was already a primitive cell.
 

 Routine SETGRP: Setting up the symmetry group for a 
 body centered cubic supercell.


 Subroutine GETGRP returns: Found 48 space group operations
 (whereof 48 operations were pure point group operations)
 out of a pool of 48 trial point group operations.


The dynamic configuration has the point symmetry O_h .


 Subroutine INISYM returns: Found 48 space group operations
 (whereof 48 operations are pure point group operations),
 and found     1 'primitive' translations


----------------------------------------------------------------------------------------

                                     Primitive cell                                     

  volume of cell :      93.5169

  direct lattice vectors                    reciprocal lattice vectors
     4.669399916 -0.000000042 -1.650881948     0.214160282  0.123645537 -0.000000001
    -2.334701081  4.043819546 -1.650881948     0.000000002  0.247290956 -0.000000001
     0.000000011  0.000000021  4.952646978     0.071386745  0.123645470  0.201912230

  length of vectors
     4.952646442  4.952647460  4.952646978     0.247291014  0.247290956  0.247290959

  position of ions in fractional coordinates (direct lattice)
     0.000000000  0.000000000  0.000000000

  ion indices of the primitive-cell ions
   primitive index   ion index
                 1           1

----------------------------------------------------------------------------------------

 
 
 KPOINTS: Kpoints production                      

Automatic generation of k-mesh.
 Grid dimensions read from file:
 generate k-points for:   12   12   12

 Generating k-lattice:

  Cartesian coordinates                     Fractional coordinates (reciprocal lattice)
     0.017846690  0.010303795 -0.000000000     0.083333333 -0.000000000 -0.000000000
     0.000000000  0.020607580 -0.000000000    -0.000000000  0.083333333  0.000000000
     0.005948895  0.010303789  0.016826019     0.000000000 -0.000000000  0.083333333

  Length of vectors
     0.020607584  0.020607580  0.020607580

  Shift w.r.t. Gamma in fractional coordinates (k-lattice)
     0.500000000  0.500000000  0.500000000

 
 Subroutine IBZKPT returns following result:
 ===========================================
 
 Found     68 irreducible k-points:
 
 Following reciprocal coordinates:
            Coordinates               Weight
  0.041667  0.041667  0.041667      8.000000
  0.125000  0.041667  0.041667     24.000000
  0.208333  0.041667  0.041667     24.000000
  0.291667  0.041667  0.041667     24.000000
  0.375000  0.041667  0.041667     24.000000
  0.458333  0.041667  0.041667     12.000000
 -0.041667  0.041667  0.041667      6.000000
  0.125000  0.125000  0.041667     24.000000
  0.208333  0.125000  0.041667     48.000000
  0.291667  0.125000  0.041667     48.000000
  0.375000  0.125000  0.041667     48.000000
 -0.125000  0.125000  0.041667     24.000000
  0.208333  0.208333  0.041667     24.000000
  0.291667  0.208333  0.041667     48.000000
  0.375000  0.208333  0.041667     24.000000
 -0.208333  0.208333  0.041667     24.000000
 -0.125000  0.208333  0.041667     24.000000
  0.291667  0.291667  0.041667     24.000000
 -0.291667  0.291667  0.041667     24.000000
 -0.208333  0.291667  0.041667     48.000000
 -0.375000  0.375000  0.041667     24.000000
 -0.291667  0.375000  0.041667     48.000000
 -0.208333  0.375000  0.041667     24.000000
 -0.458333  0.458333  0.041667     24.000000
 -0.375000  0.458333  0.041667     48.000000
 -0.291667  0.458333  0.041667     48.000000
 -0.458333 -0.458333  0.041667     24.000000
 -0.375000 -0.458333  0.041667     48.000000
 -0.291667 -0.458333  0.041667     24.000000
 -0.375000 -0.375000  0.041667     24.000000
  0.125000  0.125000  0.125000      8.000000
  0.208333  0.125000  0.125000     24.000000
  0.291667  0.125000  0.125000     24.000000
  0.375000  0.125000  0.125000     12.000000
 -0.125000  0.125000  0.125000      6.000000
  0.208333  0.208333  0.125000     24.000000
  0.291667  0.208333  0.125000     48.000000
 -0.208333  0.208333  0.125000     24.000000
  0.291667  0.291667  0.125000      8.000000
 -0.291667  0.291667  0.125000     24.000000
 -0.208333  0.291667  0.125000     24.000000
 -0.375000  0.375000  0.125000     24.000000
 -0.291667  0.375000  0.125000     48.000000
 -0.458333  0.458333  0.125000     24.000000
 -0.375000  0.458333  0.125000     48.000000
 -0.291667  0.458333  0.125000     24.000000
 -0.458333 -0.458333  0.125000     24.000000
 -0.375000 -0.458333  0.125000     48.000000
 -0.375000 -0.375000  0.125000      8.000000
  0.208333  0.208333  0.208333      8.000000
  0.291667  0.208333  0.208333     12.000000
 -0.208333  0.208333  0.208333      6.000000
 -0.291667  0.291667  0.208333     24.000000
 -0.375000  0.375000  0.208333     24.000000
 -0.291667  0.375000  0.208333     24.000000
 -0.458333  0.458333  0.208333     24.000000
 -0.375000  0.458333  0.208333     48.000000
 -0.458333 -0.458333  0.208333     24.000000
 -0.375000 -0.458333  0.208333     24.000000
 -0.291667  0.291667  0.291667      6.000000
 -0.375000  0.375000  0.291667     24.000000
 -0.458333  0.458333  0.291667     24.000000
 -0.375000  0.458333  0.291667     24.000000
 -0.458333 -0.458333  0.291667     24.000000
 -0.375000  0.375000  0.375000      6.000000
 -0.458333  0.458333  0.375000     24.000000
 -0.458333 -0.458333  0.375000      8.000000
 -0.458333  0.458333  0.458333      6.000000
 
 Following cartesian coordinates:
            Coordinates               Weight
  0.012612  0.021844  0.008918      8.000000
  0.031529  0.032766  0.008918     24.000000
  0.050447  0.043688  0.008918     24.000000
  0.069364  0.054610  0.008918     24.000000
  0.088282  0.065532  0.008918     24.000000
  0.107199  0.076454  0.008918     12.000000
 -0.006306  0.010922  0.008918      6.000000
  0.031529  0.054610  0.008918     24.000000
  0.050447  0.065532  0.008918     48.000000
  0.069364  0.076454  0.008918     48.000000
  0.088282  0.087376  0.008918     48.000000
 -0.025223  0.021844  0.008918     24.000000
  0.050447  0.087376  0.008918     24.000000
  0.069364  0.098298  0.008918     48.000000
  0.088282  0.109220  0.008918     24.000000
 -0.044141  0.032766  0.008918     24.000000
 -0.025223  0.043688  0.008918     24.000000
  0.069364  0.120142  0.008918     24.000000
 -0.063058  0.043688  0.008918     24.000000
 -0.044141  0.054610  0.008918     48.000000
 -0.081976  0.054610  0.008918     24.000000
 -0.063058  0.065532  0.008918     48.000000
 -0.044141  0.076454  0.008918     24.000000
 -0.100893  0.065532  0.008918     24.000000
 -0.081976  0.076454  0.008918     48.000000
 -0.063058  0.087376  0.008918     48.000000
 -0.100893 -0.174752  0.008918     24.000000
 -0.081976 -0.163830  0.008918     48.000000
 -0.063058 -0.152908  0.008918     24.000000
 -0.081976 -0.141986  0.008918     24.000000
  0.037835  0.065532  0.026753      8.000000
  0.056752  0.076454  0.026753     24.000000
  0.075670  0.087376  0.026753     24.000000
  0.094587  0.098298  0.026753     12.000000
 -0.018917  0.032766  0.026753      6.000000
  0.056752  0.098298  0.026753     24.000000
  0.075670  0.109220  0.026753     48.000000
 -0.037835  0.043688  0.026753     24.000000
  0.075670  0.131064  0.026753      8.000000
 -0.056752  0.054610  0.026753     24.000000
 -0.037835  0.065532  0.026753     24.000000
 -0.075670  0.065532  0.026753     24.000000
 -0.056752  0.076454  0.026753     48.000000
 -0.094587  0.076454  0.026753     24.000000
 -0.075670  0.087376  0.026753     48.000000
 -0.056752  0.098298  0.026753     24.000000
 -0.094587 -0.163830  0.026753     24.000000
 -0.075670 -0.152908  0.026753     48.000000
 -0.075670 -0.131064  0.026753      8.000000
  0.063058  0.109220  0.044589      8.000000
  0.081976  0.120142  0.044589     12.000000
 -0.031529  0.054610  0.044589      6.000000
 -0.050447  0.065532  0.044589     24.000000
 -0.069364  0.076454  0.044589     24.000000
 -0.050447  0.087376  0.044589     24.000000
 -0.088282  0.087376  0.044589     24.000000
 -0.069364  0.098298  0.044589     48.000000
 -0.088282 -0.152908  0.044589     24.000000
 -0.069364 -0.141986  0.044589     24.000000
 -0.044141  0.076454  0.062425      6.000000
 -0.063058  0.087376  0.062425     24.000000
 -0.081976  0.098298  0.062425     24.000000
 -0.063058  0.109220  0.062425     24.000000
 -0.081976 -0.141986  0.062425     24.000000
 -0.056752  0.098298  0.080260      6.000000
 -0.075670  0.109220  0.080260     24.000000
 -0.075670 -0.131064  0.080260      8.000000
 -0.069364  0.120142  0.098096      6.000000
 


--------------------------------------------------------------------------------------------------------




 Dimension of arrays:
   k-points           NKPTS =     68   k-points in BZ     NKDIM =     68   number of bands    NBANDS=      8
   number of dos      NEDOS =    301   number of ions     NIONS =      1
   non local maximal  LDIM  =      5   non local SUM 2l+1 LMDIM =     13
   total plane-waves  NPLWV =  46656
   max r-space proj   IRMAX =      1   max aug-charges    IRDMAX=  23418
   dimension x,y,z NGX =    36 NGY =   36 NGZ =   36
   dimension x,y,z NGXF=    72 NGYF=   72 NGZF=   72
   support grid    NGXF=    72 NGYF=   72 NGZF=   72
   ions per type =               1
   NGX,Y,Z   is equivalent  to a cutoff of  12.08, 12.08, 12.08 a.u.
   NGXF,Y,Z  is equivalent  to a cutoff of  24.17, 24.17, 24.17 a.u.

 SYSTEM =  K EOS production                        
 POSCAR =  K1                                      

 Startparameter for this run:
   NWRITE =      2    write-flag & timer
   PREC   = accura    normal or accurate (medium, high low for compatibility)
   ISTART =      0    job   : 0-new  1-cont  2-samecut
   ICHARG =      2    charge: 1-file 2-atom 10-const
   ISPIN  =      1    spin polarized calculation?
   LNONCOLLINEAR =      F non collinear calculations
   LSORBIT =      F    spin-orbit coupling
   INIWAV =      1    electr: 0-lowe 1-rand  2-diag
   LASPH  =      F    aspherical Exc in radial PAW
 Electronic Relaxation 1
   ENCUT  =  450.0 eV  33.07 Ry    5.75 a.u.   8.57  8.57  8.57*2*pi/ulx,y,z
   ENINI  =  450.0     initial cutoff
   ENAUG  =  427.9 eV  augmentation charge cutoff
   NELM   =     60;   NELMIN=  2; NELMDL= -5     # of ELM steps 
   EDIFF  = 0.1E-06   stopping-criterion for ELM
   LREAL  =      F    real-space projection
   NLSPLINE    = F    spline interpolate recip. space projectors
   LCOMPAT=      F    compatible to vasp.4.4
   GGA_COMPAT  = T    GGA compatible to vasp.4.4-vasp.4.6
   LMAXPAW     = -100 max onsite density
   LMAXMIX     =    2 max onsite mixed and CHGCAR
   VOSKOWN=      0    Vosko Wilk Nusair interpolation
   ROPT   =    0.00000
 Ionic relaxation
   EDIFFG = 0.1E-05   stopping-criterion for IOM
   NSW    =      0    number of steps for IOM
   NBLOCK =      1;   KBLOCK =      1    inner block; outer block 
   IBRION =     -1    ionic relax: 0-MD 1-quasi-New 2-CG
   NFREE  =      0    steps in history (QN), initial steepest desc. (CG)
   ISIF   =      2    stress and relaxation
   IWAVPR =     10    prediction:  0-non 1-charg 2-wave 3-comb
   ISYM   =      2    0-nonsym 1-usesym 2-fastsym
   LCORR  =      T    Harris-Foulkes like correction to forces

   POTIM  = 0.5000    time-step for ionic-motion
   TEIN   =    0.0    initial temperature
   TEBEG  =    0.0;   TEEND  =   0.0 temperature during run
   SMASS  =  -3.00    Nose mass-parameter (am)
   estimated Nose-frequenzy (Omega)   =  0.10E-29 period in steps = 0.13E+47 mass=  -0.561E-27a.u.
   SCALEE = 1.0000    scale energy and forces
   NPACO  =    256;   APACO  = 10.0  distance and # of slots for P.C.
   PSTRESS=    0.0 pullay stress

  Mass of Ions in am
   POMASS =  39.10
  Ionic Valenz
   ZVAL   =   9.00
  Atomic Wigner-Seitz radii
   RWIGS  =  -1.00
  virtual crystal weights 
   VCA    =   1.00
   NELECT =       9.0000    total number of electrons
   NUPDOWN=      -1.0000    fix difference up-down

 DOS related values:
   EMIN   =  10.00;   EMAX   =-10.00  energy-range for DOS
   EFERMI =   0.00;   METHOD = LEGACY      
   ISMEAR =     1;   SIGMA  =   0.10  broadening in eV -4-tet -1-fermi 0-gaus

 Electronic relaxation 2 (details)
   IALGO  =     38    algorithm
   LDIAG  =      T    sub-space diagonalisation (order eigenvalues)
   LSUBROT=      F    optimize rotation matrix (better conditioning)
   TURBO    =      0    0=normal 1=particle mesh
   IRESTART =      0    0=no restart 2=restart with 2 vectors
   NREBOOT  =      0    no. of reboots
   NMIN     =      0    reboot dimension
   EREF     =   0.00    reference energy to select bands
   IMIX   =      4    mixing-type and parameters
     AMIX     =   0.40;   BMIX     =  1.00
     AMIX_MAG =   1.60;   BMIX_MAG =  1.00
     AMIN     =   0.10
     WC   =   100.;   INIMIX=   1;  MIXPRE=   1;  MAXMIX= -45

 Intra band minimization:
   WEIMIN = 0.0000     energy-eigenvalue tresh-hold
   EBREAK =  0.31E-08  absolut break condition
   DEPER  =   0.30     relativ break condition  

   TIME   =   0.40     timestep for ELM

  volume/ion in A,a.u.               =      93.52       631.08
  Fermi-wavevector in a.u.,A,eV,Ry     =   0.750226  1.417722  7.657896  0.562839
  Thomas-Fermi vector in A             =   1.846928
 
 Write flags
   LWAVE        =      T    write WAVECAR
   LDOWNSAMPLE  =      F    k-point downsampling of WAVECAR
   LCHARG       =      T    write CHGCAR
   LVTOT        =      F    write LOCPOT, total local potential
   LVHAR        =      F    write LOCPOT, Hartree potential only
   LELF         =      F    write electronic localiz. function (ELF)
   LORBIT       =      0    0 simple, 1 ext, 2 COOP (PROOUT), +10 PAW based schemes


 Dipole corrections
   LMONO  =      F    monopole corrections only (constant potential shift)
   LDIPOL =      F    correct potential (dipole corrections)
   IDIPOL =      0    1-x, 2-y, 3-z, 4-all directions 
   EPSILON=  1.0000000 bulk dielectric constant

 Exchange correlation treatment:
   GGA     =    --    GGA type
   LEXCH   =     8    internal setting for exchange type
   LIBXC   =     F    Libxc                    
   VOSKOWN =     0    Vosko Wilk Nusair interpolation
   LHFCALC =     F    Hartree Fock is set to
   LHFONE  =     F    Hartree Fock one center treatment
   AEXX    =    0.0000 exact exchange contribution

 Linear response parameters
   LEPSILON=     F    determine dielectric tensor
   LRPA    =     F    only Hartree local field effects (RPA)
   LNABLA  =     F    use nabla operator in PAW spheres
   LVEL    =     F    velocity operator in full k-point grid
   CSHIFT  =0.1000    complex shift for real part using Kramers Kronig
   OMEGAMAX=  -1.0    maximum frequency
   DEG_THRESHOLD= 0.2000000E-02 threshold for treating states as degnerate
   RTIME   =   -0.100 relaxation time in fs
  (WPLASMAI=    0.000 imaginary part of plasma frequency in eV, 0.658/RTIME)
   DFIELD  = 0.0000000 0.0000000 0.0000000 field for delta impulse in time
 
  Optional k-point grid parameters
   LKPOINTS_OPT  =     F    use optional k-point grid
   KPOINTS_OPT_MODE=     1    mode for optional k-point grid
 
 Orbital magnetization related:
   ORBITALMAG=     F  switch on orbital magnetization
   LCHIMAG   =     F  perturbation theory with respect to B field
   DQ        =  0.001000  dq finite difference perturbation B field
   LLRAUG    =     F  two centre corrections for induced B field
   LBONE     =     F  B-component reconstruction in AE one-centre
   LVGVCALC  =     T  calculate vGv susceptibility
   LVGVAPPL  =     F  apply vGv susceptibility instead of pGv for G=0

 Random number generation:
   RANDOM_GENERATOR = DEFAULT
   PCG_SEED         = not used


--------------------------------------------------------------------------------------------------------


 Static calculation
 charge density and potential will be updated during run
 non-spin polarized calculation
 Variant of blocked Davidson
 Davidson routine will perform the subspace rotation
 perform sub-space diagonalisation
    after iterative eigenvector-optimisation
 modified Broyden-mixing scheme, WC =      100.0
 initial mixing is a Kerker type mixing with AMIX =  0.4000 and BMIX =      1.0000
 Hartree-type preconditioning will be used
 using additional bands             3
 reciprocal scheme for non local part
 use partial core corrections
 calculate Harris-corrections to forces 
   (improved forces if not selfconsistent)
 use gradient corrections 
 use of overlap-Matrix (Vanderbilt PP)
 Methfessel and Paxton  Order N= 1 SIGMA  =   0.10


--------------------------------------------------------------------------------------------------------


  energy-cutoff  :      450.00
  volume of cell :       93.52
      direct lattice vectors                 reciprocal lattice vectors
     4.669399916 -0.000000042 -1.650881948     0.214160282  0.123645537 -0.000000001
    -2.334701081  4.043819546 -1.650881948     0.000000002  0.247290956 -0.000000001
     0.000000011  0.000000021  4.952646978     0.071386745  0.123645470  0.201912230

  length of vectors
     4.952646442  4.952647460  4.952646978     0.247291014  0.247290956  0.247290959


 
 k-points in units of 2pi/SCALE and weight: Kpoints production                      
   0.01261166  0.02184404  0.00891779       0.005
   0.03152915  0.03276606  0.00891779       0.014
   0.05044664  0.04368808  0.00891779       0.014
   0.06936414  0.05461010  0.00891779       0.014
   0.08828163  0.06553213  0.00891779       0.014
   0.10719912  0.07645415  0.00891779       0.007
  -0.00630583  0.01092201  0.00891779       0.003
   0.03152915  0.05461009  0.00891779       0.014
   0.05044664  0.06553212  0.00891779       0.028
   0.06936414  0.07645414  0.00891779       0.028
   0.08828163  0.08737616  0.00891779       0.028
  -0.02522332  0.02184403  0.00891779       0.014
   0.05044664  0.08737615  0.00891779       0.014
   0.06936414  0.09829817  0.00891779       0.028
   0.08828163  0.10922020  0.00891779       0.014
  -0.04414081  0.03276604  0.00891779       0.014
  -0.02522332  0.04368806  0.00891779       0.014
   0.06936414  0.12014221  0.00891779       0.014
  -0.06305831  0.04368805  0.00891779       0.014
  -0.04414081  0.05461007  0.00891779       0.028
  -0.08197580  0.05461006  0.00891779       0.014
  -0.06305831  0.06553208  0.00891779       0.028
  -0.04414081  0.07645411  0.00891779       0.014
  -0.10089329  0.06553207  0.00891779       0.014
  -0.08197580  0.07645410  0.00891779       0.028
  -0.06305831  0.08737612  0.00891779       0.028
  -0.10089329 -0.17475230  0.00891779       0.014
  -0.08197580 -0.16383028  0.00891779       0.028
  -0.06305831 -0.15290826  0.00891779       0.014
  -0.08197580 -0.14198625  0.00891779       0.014
   0.03783498  0.06553211  0.02675337       0.005
   0.05675247  0.07645413  0.02675337       0.014
   0.07566996  0.08737616  0.02675337       0.014
   0.09458746  0.09829818  0.02675337       0.007
  -0.01891749  0.03276604  0.02675337       0.003
   0.05675247  0.09829817  0.02675337       0.014
   0.07566996  0.10922019  0.02675337       0.028
  -0.03783498  0.04368805  0.02675337       0.014
   0.07566996  0.13106422  0.02675337       0.005
  -0.05675248  0.05461007  0.02675337       0.014
  -0.03783498  0.06553209  0.02675337       0.014
  -0.07566997  0.06553208  0.02675337       0.014
  -0.05675248  0.07645410  0.02675337       0.028
  -0.09458746  0.07645409  0.02675337       0.014
  -0.07566997  0.08737611  0.02675337       0.028
  -0.05675248  0.09829814  0.02675337       0.014
  -0.09458746 -0.16383029  0.02675337       0.014
  -0.07566997 -0.15290827  0.02675337       0.028
  -0.07566997 -0.13106423  0.02675337       0.005
   0.06305830  0.10922018  0.04458895       0.005
   0.08197579  0.12014221  0.04458895       0.007
  -0.03152916  0.05461007  0.04458895       0.003
  -0.05044665  0.06553208  0.04458895       0.014
  -0.06936414  0.07645410  0.04458895       0.014
  -0.05044665  0.08737612  0.04458895       0.014
  -0.08828163  0.08737611  0.04458895       0.014
  -0.06936414  0.09829813  0.04458895       0.028
  -0.08828163 -0.15290827  0.04458895       0.014
  -0.06936414 -0.14198625  0.04458895       0.014
  -0.04414082  0.07645410  0.06242453       0.003
  -0.06305831  0.08737611  0.06242453       0.014
  -0.08197580  0.09829812  0.06242453       0.014
  -0.06305831  0.10922015  0.06242453       0.014
  -0.08197580 -0.14198626  0.06242453       0.014
  -0.05675248  0.09829813  0.08026011       0.003
  -0.07566997  0.10922014  0.08026011       0.014
  -0.07566997 -0.13106424  0.08026011       0.005
  -0.06936414  0.12014216  0.09809569       0.003
 
 k-points in reciprocal lattice and weights: Kpoints production                      
   0.04166667  0.04166667  0.04166667       0.005
   0.12500000  0.04166667  0.04166667       0.014
   0.20833333  0.04166667  0.04166667       0.014
   0.29166667  0.04166667  0.04166667       0.014
   0.37500000  0.04166667  0.04166667       0.014
   0.45833333  0.04166667  0.04166667       0.007
  -0.04166667  0.04166667  0.04166667       0.003
   0.12500000  0.12500000  0.04166667       0.014
   0.20833333  0.12500000  0.04166667       0.028
   0.29166667  0.12500000  0.04166667       0.028
   0.37500000  0.12500000  0.04166667       0.028
  -0.12500000  0.12500000  0.04166667       0.014
   0.20833333  0.20833333  0.04166667       0.014
   0.29166667  0.20833333  0.04166667       0.028
   0.37500000  0.20833333  0.04166667       0.014
  -0.20833333  0.20833333  0.04166667       0.014
  -0.12500000  0.20833333  0.04166667       0.014
   0.29166667  0.29166667  0.04166667       0.014
  -0.29166667  0.29166667  0.04166667       0.014
  -0.20833333  0.29166667  0.04166667       0.028
  -0.37500000  0.37500000  0.04166667       0.014
  -0.29166667  0.37500000  0.04166667       0.028
  -0.20833333  0.37500000  0.04166667       0.014
  -0.45833333  0.45833333  0.04166667       0.014
  -0.37500000  0.45833333  0.04166667       0.028
  -0.29166667  0.45833333  0.04166667       0.028
  -0.45833333 -0.45833333  0.04166667       0.014
  -0.37500000 -0.45833333  0.04166667       0.028
  -0.29166667 -0.45833333  0.04166667       0.014
  -0.37500000 -0.37500000  0.04166667       0.014
   0.12500000  0.12500000  0.12500000       0.005
   0.20833333  0.12500000  0.12500000       0.014
   0.29166667  0.12500000  0.12500000       0.014
   0.37500000  0.12500000  0.12500000       0.007
  -0.12500000  0.12500000  0.12500000       0.003
   0.20833333  0.20833333  0.12500000       0.014
   0.29166667  0.20833333  0.12500000       0.028
  -0.20833333  0.20833333  0.12500000       0.014
   0.29166667  0.29166667  0.12500000       0.005
  -0.29166667  0.29166667  0.12500000       0.014
  -0.20833333  0.29166667  0.12500000       0.014
  -0.37500000  0.37500000  0.12500000       0.014
  -0.29166667  0.37500000  0.12500000       0.028
  -0.45833333  0.45833333  0.12500000       0.014
  -0.37500000  0.45833333  0.12500000       0.028
  -0.29166667  0.45833333  0.12500000       0.014
  -0.45833333 -0.45833333  0.12500000       0.014
  -0.37500000 -0.45833333  0.12500000       0.028
  -0.37500000 -0.37500000  0.12500000       0.005
   0.20833333  0.20833333  0.20833333       0.005
   0.29166667  0.20833333  0.20833333       0.007
  -0.20833333  0.20833333  0.20833333       0.003
  -0.29166667  0.29166667  0.20833333       0.014
  -0.37500000  0.37500000  0.20833333       0.014
  -0.29166667  0.37500000  0.20833333       0.014
  -0.45833333  0.45833333  0.20833333       0.014
  -0.37500000  0.45833333  0.20833333       0.028
  -0.45833333 -0.45833333  0.20833333       0.014
  -0.37500000 -0.45833333  0.20833333       0.014
  -0.29166667  0.29166667  0.29166667       0.003
  -0.37500000  0.37500000  0.29166667       0.014
  -0.45833333  0.45833333  0.29166667       0.014
  -0.37500000  0.45833333  0.29166667       0.014
  -0.45833333 -0.45833333  0.29166667       0.014
  -0.37500000  0.37500000  0.37500000       0.003
  -0.45833333  0.45833333  0.37500000       0.014
  -0.45833333 -0.45833333  0.37500000       0.005
  -0.45833333  0.45833333  0.45833333       0.003
 
 position of ions in fractional coordinates (direct lattice) 
   0.00000000  0.00000000  0.00000000
 
 position of ions in cartesian coordinates  (Angst):
   0.00000000  0.00000000  0.00000000
 


--------------------------------------------------------------------------------------------------------


 k-point   1 :   0.0417 0.0417 0.0417  plane waves:    2033
 k-point   2 :   0.1250 0.0417 0.0417  plane waves:    2027
 k-point   3 :   0.2083 0.0417 0.0417  plane waves:    2032
 k-point   4 :   0.2917 0.0417 0.0417  plane waves:    2030
 k-point   5 :   0.3750 0.0417 0.0417  plane waves:    2028
 k-point   6 :   0.4583 0.0417 0.0417  plane waves:    2034
 k-point   7 :  -0.0417 0.0417 0.0417  plane waves:    2037
 k-point   8 :   0.1250 0.1250 0.0417  plane waves:    2029
 k-point   9 :   0.2083 0.1250 0.0417  plane waves:    2027
 k-point  10 :   0.2917 0.1250 0.0417  plane waves:    2026
 k-point  11 :   0.3750 0.1250 0.0417  plane waves:    2031
 k-point  12 :  -0.1250 0.1250 0.0417  plane waves:    2032
 k-point  13 :   0.2083 0.2083 0.0417  plane waves:    2032
 k-point  14 :   0.2917 0.2083 0.0417  plane waves:    2028
 k-point  15 :   0.3750 0.2083 0.0417  plane waves:    2023
 k-point  16 :  -0.2083 0.2083 0.0417  plane waves:    2023
 k-point  17 :  -0.1250 0.2083 0.0417  plane waves:    2035
 k-point  18 :   0.2917 0.2917 0.0417  plane waves:    2023
 k-point  19 :  -0.2917 0.2917 0.0417  plane waves:    2043
 k-point  20 :  -0.2083 0.2917 0.0417  plane waves:    2029
 k-point  21 :  -0.3750 0.3750 0.0417  plane waves:    2037
 k-point  22 :  -0.2917 0.3750 0.0417  plane waves:    2031
 k-point  23 :  -0.2083 0.3750 0.0417  plane waves:    2024
 k-point  24 :  -0.4583 0.4583 0.0417  plane waves:    2027
 k-point  25 :  -0.3750 0.4583 0.0417  plane waves:    2030
 k-point  26 :  -0.2917 0.4583 0.0417  plane waves:    2032
 k-point  27 :  -0.4583-0.4583 0.0417  plane waves:    2020
 k-point  28 :  -0.3750-0.4583 0.0417  plane waves:    2035
 k-point  29 :  -0.2917-0.4583 0.0417  plane waves:    2029
 k-point  30 :  -0.3750-0.3750 0.0417  plane waves:    2014
 k-point  31 :   0.1250 0.1250 0.1250  plane waves:    2015
 k-point  32 :   0.2083 0.1250 0.1250  plane waves:    2031
 k-point  33 :   0.2917 0.1250 0.1250  plane waves:    2036
 k-point  34 :   0.3750 0.1250 0.1250  plane waves:    2032
 k-point  35 :  -0.1250 0.1250 0.1250  plane waves:    2030
 k-point  36 :   0.2083 0.2083 0.1250  plane waves:    2032
 k-point  37 :   0.2917 0.2083 0.1250  plane waves:    2031
 k-point  38 :  -0.2083 0.2083 0.1250  plane waves:    2034
 k-point  39 :   0.2917 0.2917 0.1250  plane waves:    2028
 k-point  40 :  -0.2917 0.2917 0.1250  plane waves:    2028
 k-point  41 :  -0.2083 0.2917 0.1250  plane waves:    2021
 k-point  42 :  -0.3750 0.3750 0.1250  plane waves:    2036
 k-point  43 :  -0.2917 0.3750 0.1250  plane waves:    2027
 k-point  44 :  -0.4583 0.4583 0.1250  plane waves:    2022
 k-point  45 :  -0.3750 0.4583 0.1250  plane waves:    2035
 k-point  46 :  -0.2917 0.4583 0.1250  plane waves:    2030
 k-point  47 :  -0.4583-0.4583 0.1250  plane waves:    2027
 k-point  48 :  -0.3750-0.4583 0.1250  plane waves:    2029
 k-point  49 :  -0.3750-0.3750 0.1250  plane waves:    2028
 k-point  50 :   0.2083 0.2083 0.2083  plane waves:    2016
 k-point  51 :   0.2917 0.2083 0.2083  plane waves:    2032
 k-point  52 :  -0.2083 0.2083 0.2083  plane waves:    2034
 k-point  53 :  -0.2917 0.2917 0.2083  plane waves:    2025
 k-point  54 :  -0.3750 0.3750 0.2083  plane waves:    2032
 k-point  55 :  -0.2917 0.3750 0.2083  plane waves:    2024
 k-point  56 :  -0.4583 0.4583 0.2083  plane waves:    2032
 k-point  57 :  -0.3750 0.4583 0.2083  plane waves:    2025
 k-point  58 :  -0.4583-0.4583 0.2083  plane waves:    2022
 k-point  59 :  -0.3750-0.4583 0.2083  plane waves:    2017
 k-point  60 :  -0.2917 0.2917 0.2917  plane waves:    2038
 k-point  61 :  -0.3750 0.3750 0.2917  plane waves:    2024
 k-point  62 :  -0.4583 0.4583 0.2917  plane waves:    2015
 k-point  63 :  -0.3750 0.4583 0.2917  plane waves:    2011
 k-point  64 :  -0.4583-0.4583 0.2917  plane waves:    2011
 k-point  65 :  -0.3750 0.3750 0.3750  plane waves:    2014
 k-point  66 :  -0.4583 0.4583 0.3750  plane waves:    1992
 k-point  67 :  -0.4583-0.4583 0.3750  plane waves:    1968
 k-point  68 :  -0.4583 0.4583 0.4583  plane waves:    1978

 maximum and minimum number of plane-waves per node :      2043     1968

 maximum number of plane-waves:      2043
 maximum index in each direction: 
   IXMAX=    9   IYMAX=    9   IZMAX=    8
   IXMIN=   -9   IYMIN=   -9   IZMIN=   -9


 serial   3D FFT for wavefunctions
 parallel 3D FFT for charge:
    minimum data exchange during FFTs selected (reduces bandwidth)


 total amount of memory used by VASP MPI-rank0    95577. kBytes
=======================================================================

   base      :      30000. kBytes
   nonl-proj :      14480. kBytes
   fftplans  :      13060. kBytes
   grid      :      20134. kBytes
   one-center:          8. kBytes
   wavefun   :      17895. kBytes
 
     INWAV:  cpu time      0.0000: real time      0.0000
 Broyden mixing: mesh for mixing (old mesh)
   NGX = 17   NGY = 17   NGZ = 17
  (NGX  = 72   NGY  = 72   NGZ  = 72)
  gives a total of   4913 points

 initial charge density was supplied:
 charge density of overlapping atoms calculated
 number of electron       9.0000000 magnetization 
 keeping initial charge density in first step


--------------------------------------------------------------------------------------------------------


 Maximum index for augmentation-charges         22419 (set IRDMAX)


--------------------------------------------------------------------------------------------------------


 First call to EWALD:  gamma=   0.390
 Maximum number of real-space cells 3x 3x 3
 Maximum number of reciprocal cells 3x 3x 3

    FEWALD:  cpu time      0.0009: real time      0.0006


--------------------------------------- Ionic step        1  -------------------------------------------




--------------------------------------- Iteration      1(   1)  ---------------------------------------


    POTLOK:  cpu time      0.0225: real time      0.0223
    SETDIJ:  cpu time      0.0083: real time      0.0042
     EDDAV:  cpu time      0.7976: real time      0.7971
       DOS:  cpu time      0.0008: real time      0.0008
    --------------------------------------------
      LOOP:  cpu time      0.8292: real time      0.8244

 eigenvalue-minimisations  :  1088
 total energy-change (2. order) : 0.4048967E+02  (-0.3358711E+03)
 number of electron       9.0000000 magnetization 
 augmentation part        9.0000000 magnetization 

 Free energy of the ion-electron system (eV)
  ---------------------------------------------------
  alpha Z        PSCENC =        13.26916675
  Ewald energy   TEWEN  =      -371.11992914
  -Hartree energ DENC   =      -294.39989727
  -exchange      EXHF   =         0.00000000
  -V(xc)+E(xc)   XCENC  =        34.85465917
  PAW double counting   =       594.02447662     -588.97960290
  entropy T*S    EENTRO =        -0.00018365
  eigenvalues    EBANDS =      -122.16316686
  atomic energy  EATOM  =       775.00414775
  Solvation  Ediel_sol  =         0.00000000
  ---------------------------------------------------
  free energy    TOTEN  =        40.48967047 eV

  energy without entropy =       40.48985412  energy(sigma->0) =       40.48973169


--------------------------------------------------------------------------------------------------------




--------------------------------------- Iteration      1(   2)  ---------------------------------------


     EDDAV:  cpu time      0.6406: real time      0.6407
       DOS:  cpu time      0.0007: real time      0.0007
    --------------------------------------------
      LOOP:  cpu time      0.6413: real time      0.6414

 eigenvalue-minimisations  :  1096
 total energy-change (2. order) :-0.4024946E+02  (-0.4014256E+02)
 number of electron       9.0000000 magnetization 
 augmentation part        9.0000000 magnetization 

 Free energy of the ion-electron system (eV)
  ---------------------------------------------------
  alpha Z        PSCENC =        13.26916675
  Ewald energy   TEWEN  =      -371.11992914
  -Hartree energ DENC   =      -294.39989727
  -exchange      EXHF   =         0.00000000
  -V(xc)+E(xc)   XCENC  =        34.85465917
  PAW double counting   =       594.02447662     -588.97960290
  entropy T*S    EENTRO =        -0.00130658
  eigenvalues    EBANDS =      -162.41150365
  atomic energy  EATOM  =       775.00414775
  Solvation  Ediel_sol  =         0.00000000
  ---------------------------------------------------
  free energy    TOTEN  =         0.24021075 eV

  energy without entropy =        0.24151733  energy(sigma->0) =        0.24064628


--------------------------------------------------------------------------------------------------------




--------------------------------------- Iteration      1(   3)  ---------------------------------------


     EDDAV:  cpu time      1.0096: real time      1.0098
       DOS:  cpu time      0.0007: real time      0.0007
    --------------------------------------------
      LOOP:  cpu time      1.0103: real time      1.0105

 eigenvalue-minimisations  :  1792
 total energy-change (2. order) :-0.1212478E+01  (-0.1204035E+01)
 number of electron       9.0000000 magnetization 
 augmentation part        9.0000000 magnetization 

 Free energy of the ion-electron system (eV)
  ---------------------------------------------------
  alpha Z        PSCENC =        13.26916675
  Ewald energy   TEWEN  =      -371.11992914
  -Hartree energ DENC   =      -294.39989727
  -exchange      EXHF   =         0.00000000
  -V(xc)+E(xc)   XCENC  =        34.85465917
  PAW double counting   =       594.02447662     -588.97960290
  entropy T*S    EENTRO =         0.00110092
  eigenvalues    EBANDS =      -163.62638877
  atomic energy  EATOM  =       775.00414775
  Solvation  Ediel_sol  =         0.00000000
  ---------------------------------------------------
  free energy    TOTEN  =        -0.97226686 eV

  energy without entropy =       -0.97336778  energy(sigma->0) =       -0.97263384


--------------------------------------------------------------------------------------------------------




--------------------------------------- Iteration      1(   4)  ---------------------------------------


     EDDAV:  cpu time      0.9439: real time      0.9441
       DOS:  cpu time      0.0007: real time      0.0007
    --------------------------------------------
      LOOP:  cpu time      0.9446: real time      0.9448

 eigenvalue-minimisations  :  1656
 total energy-change (2. order) :-0.3298545E-01  (-0.3298494E-01)
 number of electron       9.0000000 magnetization 
 augmentation part        9.0000000 magnetization 

 Free energy of the ion-electron system (eV)
  ---------------------------------------------------
  alpha Z        PSCENC =        13.26916675
  Ewald energy   TEWEN  =      -371.11992914
  -Hartree energ DENC   =      -294.39989727
  -exchange      EXHF   =         0.00000000
  -V(xc)+E(xc)   XCENC  =        34.85465917
  PAW double counting   =       594.02447662     -588.97960290
  entropy T*S    EENTRO =         0.00103634
  eigenvalues    EBANDS =      -163.65930964
  atomic energy  EATOM  =       775.00414775
  Solvation  Ediel_sol  =         0.00000000
  ---------------------------------------------------
  free energy    TOTEN  =        -1.00525231 eV

  energy without entropy =       -1.00628866  energy(sigma->0) =       -1.00559776


--------------------------------------------------------------------------------------------------------




--------------------------------------- Iteration      1(   5)  ---------------------------------------


     EDDAV:  cpu time      1.0900: real time      1.0902
       DOS:  cpu time      0.0007: real time      0.0007
    CHARGE:  cpu time      0.0927: real time      0.0904
    MIXING:  cpu time      0.0046: real time      0.0030
    --------------------------------------------
      LOOP:  cpu time      1.1879: real time      1.1842

 eigenvalue-minimisations  :  1912
 total energy-change (2. order) :-0.2834094E-03  (-0.2834084E-03)
 number of electron       8.9999998 magnetization 
 augmentation part        1.4209500 magnetization 

 Broyden mixing:
  rms(total) = 0.14791E+00    rms(broyden)= 0.14791E+00
  rms(prec ) = 0.16609E+00
  weight for this iteration     100.00

 Free energy of the ion-electron system (eV)
  ---------------------------------------------------
  alpha Z        PSCENC =        13.26916675
  Ewald energy   TEWEN  =      -371.11992914
  -Hartree energ DENC   =      -294.39989727
  -exchange      EXHF   =         0.00000000
  -V(xc)+E(xc)   XCENC  =        34.85465917
  PAW double counting   =       594.02447662     -588.97960290
  entropy T*S    EENTRO =         0.00103535
  eigenvalues    EBANDS =      -163.65959205
  atomic energy  EATOM  =       775.00414775
  Solvation  Ediel_sol  =         0.00000000
  ---------------------------------------------------
  free energy    TOTEN  =        -1.00553572 eV

  energy without entropy =       -1.00657107  energy(sigma->0) =       -1.00588084


--------------------------------------------------------------------------------------------------------




--------------------------------------- Iteration      1(   6)  ---------------------------------------


    POTLOK:  cpu time      0.0083: real time      0.0073
    SETDIJ:  cpu time      0.0079: real time      0.0040
     EDDAV:  cpu time      0.9699: real time      0.9691
       DOS:  cpu time      0.0007: real time      0.0007
    CHARGE:  cpu time      0.0842: real time      0.0820
    MIXING:  cpu time      0.0045: real time      0.0029
    --------------------------------------------
      LOOP:  cpu time      1.0756: real time      1.0660

 eigenvalue-minimisations  :  1712
 total energy-change (2. order) :-0.9681912E-03  (-0.1049882E-03)
 number of electron       8.9999998 magnetization 
 augmentation part        1.4210203 magnetization 

 Broyden mixing:
  rms(total) = 0.89991E-01    rms(broyden)= 0.89990E-01
  rms(prec ) = 0.10337E+00
  weight for this iteration     100.00

 eigenvalues of (default mixing * dielectric matrix)
  average eigenvalue GAMMA=   2.5467
  2.5467

 Free energy of the ion-electron system (eV)
  ---------------------------------------------------
  alpha Z        PSCENC =        13.26916675
  Ewald energy   TEWEN  =      -371.11992914
  -Hartree energ DENC   =      -293.62360801
  -exchange      EXHF   =         0.00000000
  -V(xc)+E(xc)   XCENC  =        34.82602151
  PAW double counting   =       590.38057837     -585.56171752
  entropy T*S    EENTRO =         0.00103363
  eigenvalues    EBANDS =      -164.18219724
  atomic energy  EATOM  =       775.00414775
  Solvation  Ediel_sol  =         0.00000000
  ---------------------------------------------------
  free energy    TOTEN  =        -1.00650391 eV

  energy without entropy =       -1.00753754  energy(sigma->0) =       -1.00684845


--------------------------------------------------------------------------------------------------------




--------------------------------------- Iteration      1(   7)  ---------------------------------------


    POTLOK:  cpu time      0.0078: real time      0.0067
    SETDIJ:  cpu time      0.0084: real time      0.0042
     EDDAV:  cpu time      0.9301: real time      0.9293
       DOS:  cpu time      0.0007: real time      0.0007
    CHARGE:  cpu time      0.0863: real time      0.0841
    MIXING:  cpu time      0.0050: real time      0.0032
    --------------------------------------------
      LOOP:  cpu time      1.0382: real time      1.0282

 eigenvalue-minimisations  :  1672
 total energy-change (2. order) :-0.7949083E-03  (-0.2603042E-03)
 number of electron       8.9999998 magnetization 
 augmentation part        1.4207921 magnetization 

 Broyden mixing:
  rms(total) = 0.51332E-02    rms(broyden)= 0.51327E-02
  rms(prec ) = 0.13149E-01
  weight for this iteration     100.00

 eigenvalues of (default mixing * dielectric matrix)
  average eigenvalue GAMMA=   2.3120
  2.3120  2.3120

 Free energy of the ion-electron system (eV)
  ---------------------------------------------------
  alpha Z        PSCENC =        13.26916675
  Ewald energy   TEWEN  =      -371.11992914
  -Hartree energ DENC   =      -292.37095366
  -exchange      EXHF   =         0.00000000
  -V(xc)+E(xc)   XCENC  =        34.78502225
  PAW double counting   =       585.23860083     -580.76086962
  entropy T*S    EENTRO =         0.00103127
  eigenvalues    EBANDS =      -165.05351525
  atomic energy  EATOM  =       775.00414775
  Solvation  Ediel_sol  =         0.00000000
  ---------------------------------------------------
  free energy    TOTEN  =        -1.00729882 eV

  energy without entropy =       -1.00833009  energy(sigma->0) =       -1.00764258


--------------------------------------------------------------------------------------------------------




--------------------------------------- Iteration      1(   8)  ---------------------------------------


    POTLOK:  cpu time      0.0084: real time      0.0074
    SETDIJ:  cpu time      0.0079: real time      0.0040
     EDDAV:  cpu time      0.9262: real time      0.9253
       DOS:  cpu time      0.0007: real time      0.0007
    CHARGE:  cpu time      0.0864: real time      0.0842
    MIXING:  cpu time      0.0048: real time      0.0031
    --------------------------------------------
      LOOP:  cpu time      1.0345: real time      1.0247

 eigenvalue-minimisations  :  1608
 total energy-change (2. order) :-0.1009129E-03  (-0.1215402E-04)
 number of electron       8.9999998 magnetization 
 augmentation part        1.4199696 magnetization 

 Broyden mixing:
  rms(total) = 0.12197E-02    rms(broyden)= 0.12196E-02
  rms(prec ) = 0.30547E-02
  weight for this iteration     100.00

 eigenvalues of (default mixing * dielectric matrix)
  average eigenvalue GAMMA=   2.5204
  3.5028  1.5119  2.5464

 Free energy of the ion-electron system (eV)
  ---------------------------------------------------
  alpha Z        PSCENC =        13.26916675
  Ewald energy   TEWEN  =      -371.11992914
  -Hartree energ DENC   =      -292.32360041
  -exchange      EXHF   =         0.00000000
  -V(xc)+E(xc)   XCENC  =        34.78986575
  PAW double counting   =       586.40797462     -581.89227624
  entropy T*S    EENTRO =         0.00103081
  eigenvalues    EBANDS =      -165.14377963
  atomic energy  EATOM  =       775.00414775
  Solvation  Ediel_sol  =         0.00000000
  ---------------------------------------------------
  free energy    TOTEN  =        -1.00739973 eV

  energy without entropy =       -1.00843055  energy(sigma->0) =       -1.00774334


--------------------------------------------------------------------------------------------------------




--------------------------------------- Iteration      1(   9)  ---------------------------------------


    POTLOK:  cpu time      0.0085: real time      0.0075
    SETDIJ:  cpu time      0.0083: real time      0.0042
     EDDAV:  cpu time      0.9903: real time      0.9895
       DOS:  cpu time      0.0007: real time      0.0007
    CHARGE:  cpu time      0.0836: real time      0.0814
    MIXING:  cpu time      0.0047: real time      0.0030
    --------------------------------------------
      LOOP:  cpu time      1.0959: real time      1.0862

 eigenvalue-minimisations  :  1768
 total energy-change (2. order) :-0.4505311E-05  (-0.1133571E-05)
 number of electron       8.9999998 magnetization 
 augmentation part        1.4199817 magnetization 

 Broyden mixing:
  rms(total) = 0.36611E-03    rms(broyden)= 0.36610E-03
  rms(prec ) = 0.60004E-03
  weight for this iteration     100.00

 eigenvalues of (default mixing * dielectric matrix)
  average eigenvalue GAMMA=   2.1816
  3.3330  1.0781  2.4888  1.8263

 Free energy of the ion-electron system (eV)
  ---------------------------------------------------
  alpha Z        PSCENC =        13.26916675
  Ewald energy   TEWEN  =      -371.11992914
  -Hartree energ DENC   =      -292.27087082
  -exchange      EXHF   =         0.00000000
  -V(xc)+E(xc)   XCENC  =        34.78911492
  PAW double counting   =       586.48041337     -581.96272535
  entropy T*S    EENTRO =         0.00103061
  eigenvalues    EBANDS =      -165.19775233
  atomic energy  EATOM  =       775.00414775
  Solvation  Ediel_sol  =         0.00000000
  ---------------------------------------------------
  free energy    TOTEN  =        -1.00740424 eV

  energy without entropy =       -1.00843485  energy(sigma->0) =       -1.00774778


--------------------------------------------------------------------------------------------------------




--------------------------------------- Iteration      1(  10)  ---------------------------------------


    POTLOK:  cpu time      0.0079: real time      0.0069
    SETDIJ:  cpu time      0.0075: real time      0.0038
     EDDAV:  cpu time      1.0355: real time      1.0348
       DOS:  cpu time      0.0007: real time      0.0007
    CHARGE:  cpu time      0.0865: real time      0.0843
    MIXING:  cpu time      0.0050: real time      0.0032
    --------------------------------------------
      LOOP:  cpu time      1.1431: real time      1.1336

 eigenvalue-minimisations  :  1816
 total energy-change (2. order) : 0.5531622E-06  (-0.6950594E-07)
 number of electron       8.9999998 magnetization 
 augmentation part        1.4200142 magnetization 

 Broyden mixing:
  rms(total) = 0.57446E-04    rms(broyden)= 0.57445E-04
  rms(prec ) = 0.12234E-03
  weight for this iteration     100.00

 eigenvalues of (default mixing * dielectric matrix)
  average eigenvalue GAMMA=   2.2035
  3.3149  2.6156  2.4733  0.9338  1.6798

 Free energy of the ion-electron system (eV)
  ---------------------------------------------------
  alpha Z        PSCENC =        13.26916675
  Ewald energy   TEWEN  =      -371.11992914
  -Hartree energ DENC   =      -292.25906926
  -exchange      EXHF   =         0.00000000
  -V(xc)+E(xc)   XCENC  =        34.78846279
  PAW double counting   =       586.40193664     -581.88660174
  entropy T*S    EENTRO =         0.00103058
  eigenvalues    EBANDS =      -165.20654804
  atomic energy  EATOM  =       775.00414775
  Solvation  Ediel_sol  =         0.00000000
  ---------------------------------------------------
  free energy    TOTEN  =        -1.00740369 eV

  energy without entropy =       -1.00843426  energy(sigma->0) =       -1.00774721


--------------------------------------------------------------------------------------------------------




--------------------------------------- Iteration      1(  11)  ---------------------------------------


    POTLOK:  cpu time      0.0085: real time      0.0075
    SETDIJ:  cpu time      0.0081: real time      0.0040
     EDDAV:  cpu time      0.8104: real time      0.8096
       DOS:  cpu time      0.0006: real time      0.0006
    --------------------------------------------
      LOOP:  cpu time      0.8276: real time      0.8218

 eigenvalue-minimisations  :  1416
 total energy-change (2. order) :-0.8639972E-08  (-0.6165990E-08)
 number of electron       8.9999998 magnetization 
 augmentation part        1.4200142 magnetization 

 Free energy of the ion-electron system (eV)
  ---------------------------------------------------
  alpha Z        PSCENC =        13.26916675
  Ewald energy   TEWEN  =      -371.11992914
  -Hartree energ DENC   =      -292.26068474
  -exchange      EXHF   =         0.00000000
  -V(xc)+E(xc)   XCENC  =        34.78852805
  PAW double counting   =       586.40360634     -581.88774111
  entropy T*S    EENTRO =         0.00103056
  eigenvalues    EBANDS =      -165.20552815
  atomic energy  EATOM  =       775.00414775
  Solvation  Ediel_sol  =         0.00000000
  ---------------------------------------------------
  free energy    TOTEN  =        -1.00740369 eV

  energy without entropy =       -1.00843425  energy(sigma->0) =       -1.00774721


--------------------------------------------------------------------------------------------------------




 average (electrostatic) potential at core
  the test charge radii are     1.1045
  (the norm of the test charge is              1.0000)
       1 -40.1961
 
 
 
 E-fermi :  -0.5530     XC(G=0):  -5.1060     alpha+bet : -2.6887

 Fermi energy:        -0.5529533140

 k-point     1 :       0.0417    0.0417    0.0417
  band No.  band energies     occupation 
      1     -32.8875      2.00000
      2     -16.3493      2.00000
      3     -16.3466      2.00000
      4     -16.3466      2.00000
      5      -2.3086      2.00000
      6       3.2731      0.00000
      7       3.2731      0.00000
      8       3.5247      0.00000

 k-point     2 :       0.1250    0.0417    0.0417
  band No.  band energies     occupation 
      1     -32.8873      2.00000
      2     -16.3542      2.00000
      3     -16.3482      2.00000
      4     -16.3465      2.00000
      5      -2.0970      2.00000
      6       2.8211      0.00000
      7       3.0081      0.00000
      8       3.6468      0.00000

 k-point     3 :       0.2083    0.0417    0.0417
  band No.  band energies     occupation 
      1     -32.8870      2.00000
      2     -16.3607      2.00000
      3     -16.3508      2.00000
      4     -16.3465      2.00000
      5      -1.7514      2.00000
      6       2.1610      0.00000
      7       2.7425      0.00000
      8       3.8147      0.00000

 k-point     4 :       0.2917    0.0417    0.0417
  band No.  band energies     occupation 
      1     -32.8867      2.00000
      2     -16.3670      2.00000
      3     -16.3535      2.00000
      4     -16.3465      2.00000
      5      -1.2825      2.00000
      6       1.4319     -0.00000
      7       2.5310      0.00000
      8       3.8546      0.00000

 k-point     5 :       0.3750    0.0417    0.0417
  band No.  band energies     occupation 
      1     -32.8865      2.00000
      2     -16.3715      2.00000
      3     -16.3555      2.00000
      4     -16.3465      2.00000
      5      -0.7068      2.05179
      6       0.6888     -0.00000
      7       2.3972      0.00000
      8       3.7090      0.00000

 k-point     6 :       0.4583    0.0417    0.0417
  band No.  band energies     occupation 
      1     -32.8864      2.00000
      2     -16.3732      2.00000
      3     -16.3562      2.00000
      4     -16.3465      2.00000
      5      -0.1154     -0.00000
      6       0.0394     -0.00000
      7       2.3517      0.00000
      8       3.6340      0.00000

 k-point     7 :      -0.0417    0.0417    0.0417
  band No.  band energies     occupation 
      1     -32.8876      2.00000
      2     -16.3468      2.00000
      3     -16.3466      2.00000
      4     -16.3466      2.00000
      5      -2.3798      2.00000
      6       3.4044      0.00000
      7       3.4044      0.00000
      8       3.4768      0.00000

 k-point     8 :       0.1250    0.1250    0.0417
  band No.  band energies     occupation 
      1     -32.8871      2.00000
      2     -16.3596      2.00000
      3     -16.3493      2.00000
      4     -16.3474      2.00000
      5      -1.8197      2.00000
      6       2.4214      0.00000
      7       2.6117      0.00000
      8       3.7101      0.00000

 k-point     9 :       0.2083    0.1250    0.0417
  band No.  band energies     occupation 
      1     -32.8868      2.00000
      2     -16.3649      2.00000
      3     -16.3521      2.00000
      4     -16.3478      2.00000
      5      -1.4139      2.00000
      6       1.8259     -0.00000
      7       2.3187      0.00000
      8       3.6660      0.00000

 k-point    10 :       0.2917    0.1250    0.0417
  band No.  band energies     occupation 
      1     -32.8866      2.00000
      2     -16.3691      2.00000
      3     -16.3551      2.00000
      4     -16.3479      2.00000
      5      -0.8926      2.00002
      6       1.1320     -0.00000
      7       2.1332      0.00000
      8       3.4777      0.00000

 k-point    11 :       0.3750    0.1250    0.0417
  band No.  band energies     occupation 
      1     -32.8864      2.00000
      2     -16.3714      2.00000
      3     -16.3570      2.00000
      4     -16.3479      2.00000
      5      -0.2766     -0.00066
      6       0.4181     -0.00000
      7       2.0397     -0.00000
      8       3.3277      0.00000

 k-point    12 :      -0.1250    0.1250    0.0417
  band No.  band energies     occupation 
      1     -32.8875      2.00000
      2     -16.3503      2.00000
      3     -16.3478      2.00000
      4     -16.3466      2.00000
      5      -2.2377      2.00000
      6       3.1305      0.00000
      7       3.2298      0.00000
      8       3.5714      0.00000

 k-point    13 :       0.2083    0.2083    0.0417
  band No.  band energies     occupation 
      1     -32.8866      2.00000
      2     -16.3678      2.00000
      3     -16.3548      2.00000
      4     -16.3489      2.00000
      5      -0.9551      2.00000
      6       1.4766     -0.00000
      7       1.8410     -0.00000
      8       3.3810      0.00000

 k-point    14 :       0.2917    0.2083    0.0417
  band No.  band energies     occupation 
      1     -32.8864      2.00000
      2     -16.3690      2.00000
      3     -16.3581      2.00000
      4     -16.3494      2.00000
      5      -0.3914     -0.04470
      6       0.9177     -0.00000
      7       1.5762     -0.00000
      8       3.1486      0.00000

 k-point    15 :       0.3750    0.2083    0.0417
  band No.  band energies     occupation 
      1     -32.8864      2.00000
      2     -16.3691      2.00000
      3     -16.3597      2.00000
      4     -16.3495      2.00000
      5       0.2440     -0.00000
      6       0.2565     -0.00000
      7       1.5070     -0.00000
      8       3.0656      0.00000

 k-point    16 :      -0.2083    0.2083    0.0417
  band No.  band energies     occupation 
      1     -32.8872      2.00000
      2     -16.3564      2.00000
      3     -16.3500      2.00000
      4     -16.3466      2.00000
      5      -1.9577      2.00000
      6       2.5232      0.00000
      7       2.9797      0.00000
      8       3.7601      0.00000

 k-point    17 :      -0.1250    0.2083    0.0417
  band No.  band energies     occupation 
      1     -32.8872      2.00000
      2     -16.3545      2.00000
      3     -16.3492      2.00000
      4     -16.3475      2.00000
      5      -2.0271      2.00000
      6       2.7851      0.00000
      7       2.9624      0.00000
      8       3.6889      0.00000

 k-point    18 :       0.2917    0.2917    0.0417
  band No.  band energies     occupation 
      1     -32.8863      2.00000
      2     -16.3668      2.00000
      3     -16.3621      2.00000
      4     -16.3501      2.00000
      5       0.1948     -0.00000
      6       0.7371     -0.00000
      7       1.0007     -0.00000
      8       2.9856      0.00000

 k-point    19 :      -0.2917    0.2917    0.0417
  band No.  band energies     occupation 
      1     -32.8869      2.00000
      2     -16.3635      2.00000
      3     -16.3526      2.00000
      4     -16.3465      2.00000
      5      -1.5484      2.00000
      6       1.8006     -0.00000
      7       2.7440      0.00000
      8       3.8212      0.00000

 k-point    20 :      -0.2083    0.2917    0.0417
  band No.  band energies     occupation 
      1     -32.8870      2.00000
      2     -16.3606      2.00000
      3     -16.3516      2.00000
      4     -16.3477      2.00000
      5      -1.6830      2.00000
      6       2.1807      0.00000
      7       2.6803      0.00000
      8       3.6720      0.00000

 k-point    21 :      -0.3750    0.3750    0.0417
  band No.  band energies     occupation 
      1     -32.8866      2.00000
      2     -16.3696      2.00000
      3     -16.3547      2.00000
      4     -16.3464      2.00000
      5      -1.0231      2.00000
      6       1.0502     -0.00000
      7       2.5696      0.00000
      8       3.7409      0.00000

 k-point    22 :      -0.2917    0.3750    0.0417
  band No.  band energies     occupation 
      1     -32.8867      2.00000
      2     -16.3667      2.00000
      3     -16.3544      2.00000
      4     -16.3477      2.00000
      5      -1.2162      2.00000
      6       1.4727     -0.00000
      7       2.4648      0.00000
      8       3.6170      0.00000

 k-point    23 :      -0.2083    0.3750    0.0417
  band No.  band energies     occupation 
      1     -32.8867      2.00000
      2     -16.3652      2.00000
      3     -16.3542      2.00000
      4     -16.3487      2.00000
      5      -1.2810      2.00000
      6       1.7845     -0.00000
      7       2.2212      0.00000
      8       3.7194      0.00000

 k-point    24 :      -0.4583    0.4583    0.0417
  band No.  band energies     occupation 
      1     -32.8864      2.00000
      2     -16.3731      2.00000
      3     -16.3560      2.00000
      4     -16.3464      2.00000
      5      -0.4042     -0.05640
      6       0.3137     -0.00000
      7       2.4782      0.00000
      8       3.6354      0.00000

 k-point    25 :      -0.3750    0.4583    0.0417
  band No.  band energies     occupation 
      1     -32.8865      2.00000
      2     -16.3711      2.00000
      3     -16.3564      2.00000
      4     -16.3477      2.00000
      5      -0.6427      2.02194
      6       0.7398     -0.00000
      7       2.3276      0.00000
      8       3.4832      0.00000

 k-point    26 :      -0.2917    0.4583    0.0417
  band No.  band energies     occupation 
      1     -32.8865      2.00000
      2     -16.3687      2.00000
      3     -16.3573      2.00000
      4     -16.3490      2.00000
      5      -0.7646      2.01077
      6       1.2079     -0.00000
      7       1.9095     -0.00000
      8       3.6088      0.00000

 k-point    27 :      -0.4583   -0.4583    0.0417
  band No.  band energies     occupation 
      1     -32.8864      2.00000
      2     -16.3728      2.00000
      3     -16.3571      2.00000
      4     -16.3477      2.00000
      5      -0.0411     -0.00000
      6       0.0823     -0.00000
      7       2.2805      0.00000
      8       3.4169      0.00000

 k-point    28 :      -0.3750   -0.4583    0.0417
  band No.  band energies     occupation 
      1     -32.8863      2.00000
      2     -16.3706      2.00000
      3     -16.3593      2.00000
      4     -16.3491      2.00000
      5      -0.1535     -0.00000
      6       0.5237     -0.00000
      7       1.7766     -0.00000
      8       3.4649      0.00000

 k-point    29 :      -0.2917   -0.4583    0.0417
  band No.  band energies     occupation 
      1     -32.8863      2.00000
      2     -16.3688      2.00000
      3     -16.3611      2.00000
      4     -16.3496      2.00000
      5      -0.2102     -0.00001
      6       0.9562     -0.00000
      7       1.3164     -0.00000
      8       3.5846      0.00000

 k-point    30 :      -0.3750   -0.3750    0.0417
  band No.  band energies     occupation 
      1     -32.8862      2.00000
      2     -16.3680      2.00000
      3     -16.3633      2.00000
      4     -16.3498      2.00000
      5       0.3863     -0.00000
      6       0.4438     -0.00000
      7       1.1256     -0.00000
      8       3.5437      0.00000

 k-point    31 :       0.1250    0.1250    0.1250
  band No.  band energies     occupation 
      1     -32.8869      2.00000
      2     -16.3643      2.00000
      3     -16.3495      2.00000
      4     -16.3495      2.00000
      5      -1.4804      2.00000
      6       2.1246      0.00000
      7       2.1246      0.00000
      8       3.5293      0.00000

 k-point    32 :       0.2083    0.1250    0.1250
  band No.  band energies     occupation 
      1     -32.8866      2.00000
      2     -16.3676      2.00000
      3     -16.3530      2.00000
      4     -16.3497      2.00000
      5      -1.0193      2.00000
      6       1.5381     -0.00000
      7       1.9082     -0.00000
      8       3.1889      0.00000

 k-point    33 :       0.2917    0.1250    0.1250
  band No.  band energies     occupation 
      1     -32.8865      2.00000
      2     -16.3692      2.00000
      3     -16.3563      2.00000
      4     -16.3499      2.00000
      5      -0.4529     -0.05032
      6       0.8770     -0.00000
      7       1.7772     -0.00000
      8       2.9073      0.00000

 k-point    34 :       0.3750    0.1250    0.1250
  band No.  band energies     occupation 
      1     -32.8864      2.00000
      2     -16.3695      2.00000
      3     -16.3578      2.00000
      4     -16.3499      2.00000
      5       0.1735     -0.00000
      6       0.2132     -0.00000
      7       1.7334     -0.00000
      8       2.8060      0.00000

 k-point    35 :      -0.1250    0.1250    0.1250
  band No.  band energies     occupation 
      1     -32.8873      2.00000
      2     -16.3511      2.00000
      3     -16.3491      2.00000
      4     -16.3491      2.00000
      5      -2.0968      2.00000
      6       3.1012      0.00000
      7       3.1012      0.00000
      8       3.3572      0.00000

 k-point    36 :       0.2083    0.2083    0.1250
  band No.  band energies     occupation 
      1     -32.8865      2.00000
      2     -16.3681      2.00000
      3     -16.3554      2.00000
      4     -16.3516      2.00000
      5      -0.5127      0.37558
      6       1.2559     -0.00000
      7       1.4928     -0.00000
      8       2.7148      0.00000

 k-point    37 :       0.2917    0.2083    0.1250
  band No.  band energies     occupation 
      1     -32.8864      2.00000
      2     -16.3669      2.00000
      3     -16.3588      2.00000
      4     -16.3521      2.00000
      5       0.0820     -0.00000
      6       0.7183     -0.00000
      7       1.3222     -0.00000
      8       2.4632      0.00000

 k-point    38 :      -0.2083    0.2083    0.1250
  band No.  band energies     occupation 
      1     -32.8870      2.00000
      2     -16.3564      2.00000
      3     -16.3513      2.00000
      4     -16.3496      2.00000
      5      -1.8193      2.00000
      6       2.5757      0.00000
      7       2.8975      0.00000
      8       3.2542      0.00000

 k-point    39 :       0.2917    0.2917    0.1250
  band No.  band energies     occupation 
      1     -32.8864      2.00000
      2     -16.3629      2.00000
      3     -16.3629      2.00000
      4     -16.3529      2.00000
      5       0.6054     -0.00000
      6       0.6054     -0.00000
      7       0.8734     -0.00000
      8       2.3179      0.00000

 k-point    40 :      -0.2917    0.2917    0.1250
  band No.  band energies     occupation 
      1     -32.8867      2.00000
      2     -16.3631      2.00000
      3     -16.3539      2.00000
      4     -16.3494      2.00000
      5      -1.4137      2.00000
      6       1.8740     -0.00000
      7       2.6944      0.00000
      8       3.2516      0.00000

 k-point    41 :      -0.2083    0.2917    0.1250
  band No.  band energies     occupation 
      1     -32.8868      2.00000
      2     -16.3609      2.00000
      3     -16.3538      2.00000
      4     -16.3509      2.00000
      5      -1.4800      2.00000
      6       2.1736      0.00000
      7       2.5835      0.00000
      8       3.1885      0.00000

 k-point    42 :      -0.3750    0.3750    0.1250
  band No.  band energies     occupation 
      1     -32.8865      2.00000
      2     -16.3689      2.00000
      3     -16.3561      2.00000
      4     -16.3492      2.00000
      5      -0.8930      2.00002
      6       1.1447     -0.00000
      7       2.5398      0.00000
      8       3.1636      0.00000

 k-point    43 :      -0.2917    0.3750    0.1250
  band No.  band energies     occupation 
      1     -32.8865      2.00000
      2     -16.3661      2.00000
      3     -16.3566      2.00000
      4     -16.3510      2.00000
      5      -1.0198      2.00000
      6       1.5757     -0.00000
      7       2.3026      0.00000
      8       3.2144      0.00000

 k-point    44 :      -0.4583    0.4583    0.1250
  band No.  band energies     occupation 
      1     -32.8863      2.00000
      2     -16.3723      2.00000
      3     -16.3574      2.00000
      4     -16.3491      2.00000
      5      -0.2773     -0.00068
      6       0.4194     -0.00000
      7       2.4578      0.00000
      8       3.0637      0.00000

 k-point    45 :      -0.3750    0.4583    0.1250
  band No.  band energies     occupation 
      1     -32.8863      2.00000
      2     -16.3701      2.00000
      3     -16.3587      2.00000
      4     -16.3510      2.00000
      5      -0.4544     -0.04705
      6       0.8878     -0.00000
      7       2.1350      0.00000
      8       3.1443      0.00000

 k-point    46 :      -0.2917    0.4583    0.1250
  band No.  band energies     occupation 
      1     -32.8863      2.00000
      2     -16.3684      2.00000
      3     -16.3600      2.00000
      4     -16.3516      2.00000
      5      -0.5145      0.39898
      6       1.2588     -0.00000
      7       1.7409     -0.00000
      8       3.3957      0.00000

 k-point    47 :      -0.4583   -0.4583    0.1250
  band No.  band energies     occupation 
      1     -32.8862      2.00000
      2     -16.3715      2.00000
      3     -16.3595      2.00000
      4     -16.3509      2.00000
      5       0.1759     -0.00000
      6       0.2105     -0.00000
      7       2.0780     -0.00000
      8       3.0971      0.00000

 k-point    48 :      -0.3750   -0.4583    0.1250
  band No.  band energies     occupation 
      1     -32.8861      2.00000
      2     -16.3693      2.00000
      3     -16.3626      2.00000
      4     -16.3518      2.00000
      5       0.0803     -0.00000
      6       0.7240     -0.00000
      7       1.4647     -0.00000
      8       3.4413      0.00000

 k-point    49 :      -0.3750   -0.3750    0.1250
  band No.  band energies     occupation 
      1     -32.8861      2.00000
      2     -16.3666      2.00000
      3     -16.3666      2.00000
      4     -16.3520      2.00000
      5       0.6007     -0.00000
      6       0.6007     -0.00000
      7       0.9557     -0.00000
      8       3.7809      0.00000

 k-point    50 :       0.2083    0.2083    0.2083
  band No.  band energies     occupation 
      1     -32.8864      2.00000
      2     -16.3659      2.00000
      3     -16.3558      2.00000
      4     -16.3558      2.00000
      5       0.0249     -0.00000
      6       1.1236     -0.00000
      7       1.1236     -0.00000
      8       2.1375      0.00000

 k-point    51 :       0.2917    0.2083    0.2083
  band No.  band energies     occupation 
      1     -32.8864      2.00000
      2     -16.3632      2.00000
      3     -16.3593      2.00000
      4     -16.3560      2.00000
      5       0.5615     -0.00000
      6       0.6608     -0.00000
      7       1.0796     -0.00000
      8       1.9187     -0.00000

 k-point    52 :      -0.2083    0.2083    0.2083
  band No.  band energies     occupation 
      1     -32.8868      2.00000
      2     -16.3573      2.00000
      3     -16.3536      2.00000
      4     -16.3536      2.00000
      5      -1.5469      2.00000
      6       2.5498      0.00000
      7       2.7582      0.00000
      8       2.7582      0.00000

 k-point    53 :      -0.2917    0.2917    0.2083
  band No.  band energies     occupation 
      1     -32.8865      2.00000
      2     -16.3624      2.00000
      3     -16.3563      2.00000
      4     -16.3543      2.00000
      5      -1.1490      2.00000
      6       1.9759     -0.00000
      7       2.6082      0.00000
      8       2.7549      0.00000

 k-point    54 :      -0.3750    0.3750    0.2083
  band No.  band energies     occupation 
      1     -32.8862      2.00000
      2     -16.3677      2.00000
      3     -16.3585      2.00000
      4     -16.3540      2.00000
      5      -0.6390      2.00807
      6       1.3153     -0.00000
      7       2.4882      0.00000
      8       2.6610      0.00000

 k-point    55 :      -0.2917    0.3750    0.2083
  band No.  band energies     occupation 
      1     -32.8862      2.00000
      2     -16.3657      2.00000
      3     -16.3592      2.00000
      4     -16.3555      2.00000
      5      -0.7012      2.05686
      6       1.6253     -0.00000
      7       2.2162      0.00000
      8       2.8419      0.00000

 k-point    56 :      -0.4583    0.4583    0.2083
  band No.  band energies     occupation 
      1     -32.8861      2.00000
      2     -16.3708      2.00000
      3     -16.3598      2.00000
      4     -16.3538      2.00000
      5      -0.0368     -0.00000
      6       0.6289     -0.00000
      7       2.4227      0.00000
      8       2.5420      0.00000

 k-point    57 :      -0.3750    0.4583    0.2083
  band No.  band energies     occupation 
      1     -32.8860      2.00000
      2     -16.3687      2.00000
      3     -16.3617      2.00000
      4     -16.3555      2.00000
      5      -0.1544     -0.00000
      6       1.1002     -0.00000
      7       1.9143     -0.00000
      8       2.8912      0.00000

 k-point    58 :      -0.4583   -0.4583    0.2083
  band No.  band energies     occupation 
      1     -32.8860      2.00000
      2     -16.3698      2.00000
      3     -16.3625      2.00000
      4     -16.3555      2.00000
      5       0.4213     -0.00000
      6       0.5105     -0.00000
      7       1.8230     -0.00000
      8       2.8756      0.00000

 k-point    59 :      -0.3750   -0.4583    0.2083
  band No.  band energies     occupation 
      1     -32.8859      2.00000
      2     -16.3682      2.00000
      3     -16.3651      2.00000
      4     -16.3558      2.00000
      5       0.3995     -0.00000
      6       0.8921     -0.00000
      7       1.3492     -0.00000
      8       3.1980      0.00000

 k-point    60 :      -0.2917    0.2917    0.2917
  band No.  band energies     occupation 
      1     -32.8862      2.00000
      2     -16.3626      2.00000
      3     -16.3590      2.00000
      4     -16.3590      2.00000
      5      -0.7640      2.01100
      6       1.8886     -0.00000
      7       2.5106      0.00000
      8       2.5106      0.00000

 k-point    61 :      -0.3750    0.3750    0.2917
  band No.  band energies     occupation 
      1     -32.8860      2.00000
      2     -16.3663      2.00000
      3     -16.3613      2.00000
      4     -16.3595      2.00000
      5      -0.2746     -0.00059
      6       1.4775     -0.00000
      7       2.3657      0.00000
      8       2.4288      0.00000

 k-point    62 :      -0.4583    0.4583    0.2917
  band No.  band energies     occupation 
      1     -32.8858      2.00000
      2     -16.3690      2.00000
      3     -16.3626      2.00000
      4     -16.3592      2.00000
      5       0.2916     -0.00000
      6       0.9175     -0.00000
      7       2.1813      0.00000
      8       2.3828      0.00000

 k-point    63 :      -0.3750    0.4583    0.2917
  band No.  band energies     occupation 
      1     -32.8858      2.00000
      2     -16.3676      2.00000
      3     -16.3641      2.00000
      4     -16.3603      2.00000
      5       0.2352     -0.00000
      6       1.2272     -0.00000
      7       1.8971     -0.00000
      8       2.6565      0.00000

 k-point    64 :      -0.4583   -0.4583    0.2917
  band No.  band energies     occupation 
      1     -32.8857      2.00000
      2     -16.3682      2.00000
      3     -16.3653      2.00000
      4     -16.3603      2.00000
      5       0.7045     -0.00000
      6       0.8702     -0.00000
      7       1.6867     -0.00000
      8       2.7260      0.00000

 k-point    65 :      -0.3750    0.3750    0.3750
  band No.  band energies     occupation 
      1     -32.8857      2.00000
      2     -16.3657      2.00000
      3     -16.3637      2.00000
      4     -16.3637      2.00000
      5       0.1780     -0.00000
      6       1.4320     -0.00000
      7       2.3779      0.00000
      8       2.3779      0.00000

 k-point    66 :      -0.4583    0.4583    0.3750
  band No.  band energies     occupation 
      1     -32.8856      2.00000
      2     -16.3675      2.00000
      3     -16.3651      2.00000
      4     -16.3639      2.00000
      5       0.6702     -0.00000
      6       1.1635     -0.00000
      7       2.1009     -0.00000
      8       2.3488      0.00000

 k-point    67 :      -0.4583   -0.4583    0.3750
  band No.  band energies     occupation 
      1     -32.8855      2.00000
      2     -16.3669      2.00000
      3     -16.3669      2.00000
      4     -16.3642      2.00000
      5       1.0203     -0.00000
      6       1.0203     -0.00000
      7       1.9143     -0.00000
      8       2.5855      0.00000

 k-point    68 :      -0.4583    0.4583    0.4583
  band No.  band energies     occupation 
      1     -32.8855      2.00000
      2     -16.3667      2.00000
      3     -16.3665      2.00000
      4     -16.3665      2.00000
      5       1.0221     -0.00000
      6       1.2003     -0.00000
      7       2.3294      0.00000
      8       2.3301      0.00000


--------------------------------------------------------------------------------------------------------


 soft charge-density along one line, spin component            1
         0         1         2         3         4         5         6         7         8         9
 total charge-density along one line
 
 pseudopotential strength for first ion, spin component:            1
-14.695  -0.828   0.000  -0.000   0.000   0.000  -0.000   0.000
 -0.828  -1.505   0.000  -0.000   0.000   0.000  -0.000   0.000
  0.000   0.000 -18.072   0.000  -0.000 -17.780   0.000  -0.000
 -0.000  -0.000   0.000 -18.072   0.000   0.000 -17.780   0.000
  0.000   0.000  -0.000   0.000 -18.072  -0.000   0.000 -17.780
  0.000   0.000 -17.780   0.000  -0.000 -17.485   0.000  -0.000
 -0.000  -0.000   0.000 -17.780   0.000   0.000 -17.485   0.000
  0.000   0.000  -0.000   0.000 -17.780  -0.000   0.000 -17.485
 -0.000  -0.000   0.000  -0.000   0.000   0.000  -0.000   0.000
  0.000   0.000  -0.000   0.000  -0.000  -0.000   0.000  -0.000
 -0.000  -0.000  -0.000  -0.000  -0.000  -0.000  -0.000  -0.000
  0.000   0.000  -0.000   0.000  -0.000  -0.000   0.000  -0.000
 -0.000  -0.000  -0.000   0.000   0.000  -0.000   0.000   0.000
 total augmentation occupancy for first ion, spin component:            1
  1.999  -0.008   0.000   0.000   0.000   0.000   0.000   0.000   0.000  -0.000  -0.000  -0.000   0.000
 -0.008   0.689   0.000   0.000   0.000   0.000   0.000   0.000  -0.000   0.000   0.000   0.000  -0.000
  0.000   0.000   2.729   0.000  -0.000  -0.694  -0.000   0.000   0.000   0.000   0.000   0.000   0.000
  0.000   0.000   0.000   2.729   0.000  -0.000  -0.694  -0.000   0.000   0.000   0.000   0.000   0.000
  0.000   0.000  -0.000   0.000   2.729   0.000  -0.000  -0.694   0.000   0.000   0.000   0.000   0.000
  0.000   0.000  -0.694  -0.000   0.000   0.661   0.000  -0.000   0.000   0.000   0.000   0.000   0.000
  0.000   0.000  -0.000  -0.694  -0.000   0.000   0.661   0.000   0.000   0.000   0.000   0.000   0.000
  0.000   0.000   0.000  -0.000  -0.694  -0.000   0.000   0.661   0.000   0.000   0.000   0.000   0.000
  0.000  -0.000   0.000   0.000   0.000   0.000   0.000   0.000   0.001  -0.000   0.000   0.000   0.000
 -0.000   0.000   0.000   0.000   0.000   0.000   0.000   0.000  -0.000   0.001   0.000  -0.000  -0.000
 -0.000   0.000   0.000   0.000   0.000   0.000   0.000   0.000   0.000   0.000   0.001   0.000   0.000
 -0.000   0.000   0.000   0.000   0.000   0.000   0.000   0.000   0.000  -0.000   0.000   0.001   0.000
  0.000  -0.000   0.000   0.000   0.000   0.000   0.000   0.000   0.000  -0.000   0.000   0.000   0.001


------------------------ aborting loop because EDIFF is reached ----------------------------------------


    CHARGE:  cpu time      0.0940: real time      0.0913
    FORLOC:  cpu time      0.0027: real time      0.0027
    FORNL :  cpu time      0.2781: real time      0.2683
    STRESS:  cpu time      1.7910: real time      1.6865
    FORCOR:  cpu time      0.0083: real time      0.0074
    FORHAR:  cpu time      0.0020: real time      0.0019
    MIXING:  cpu time      0.0054: real time      0.0034
    OFIELD:  cpu time      0.0000: real time      0.0000

  FORCE on cell =-STRESS in cart. coord.  units (eV):
  Direction    XX          YY          ZZ          XY          YZ          ZX
  --------------------------------------------------------------------------------------
  Alpha Z    13.26917    13.26917    13.26917
  Ewald    -123.70663  -123.70665  -123.70664     0.00001     0.00000    -0.00001
  Hartree    97.41969    97.41970    97.41969    -0.00001     0.00001     0.00000
  E(xc)     -36.65650   -36.65649   -36.65649    -0.00000     0.00000     0.00000
  Local     -22.05577   -22.05578   -22.05578     0.00002    -0.00003    -0.00000
  n-local   -56.79777   -56.72568   -57.14797    -0.13027     0.10991    -0.04988
  augment     8.34808     8.34808     8.34808    -0.00000     0.00000     0.00000
  Kinetic   119.92450   120.14941   119.77395    -0.15150     0.15938    -0.06291
  Fock        0.00000     0.00000     0.00000     0.00000     0.00000     0.00000
  -------------------------------------------------------------------------------------
  Total      -0.32316    -0.32316    -0.32316     0.00000    -0.00000    -0.00000
  in kB      -5.53650    -5.53650    -5.53650     0.00000    -0.00000    -0.00000
  external pressure =       -5.54 kB  Pullay stress =        0.00 kB


 VOLUME and BASIS-vectors are now :
 -----------------------------------------------------------------------------
  energy-cutoff  :      450.00
  volume of cell :       93.52
      direct lattice vectors                 reciprocal lattice vectors
     4.669399916 -0.000000042 -1.650881948     0.214160282  0.123645537 -0.000000001
    -2.334701081  4.043819546 -1.650881948     0.000000002  0.247290956 -0.000000001
     0.000000011  0.000000021  4.952646978     0.071386745  0.123645470  0.201912230

  length of vectors
     4.952646442  4.952647460  4.952646978     0.247291014  0.247290956  0.247290959


 FORCES acting on ions
    electron-ion (+dipol)            ewald-force                    non-local-force                 convergence-correction
 -----------------------------------------------------------------------------------------------
   -.211E-14 -.112E-14 -.777E-14   -.243E-15 0.139E-15 -.660E-16   0.124E-23 0.000E+00 -.414E-24   -.836E-15 -.526E-14 0.477E-14
 -----------------------------------------------------------------------------------------------
   -.211E-14 -.112E-14 -.777E-14   -.243E-15 0.139E-15 -.660E-16   0.124E-23 0.000E+00 -.414E-24   -.836E-15 -.526E-14 0.477E-14
 
 
 POSITION                                       TOTAL-FORCE (eV/Angst)
 -----------------------------------------------------------------------------------
      0.00000      0.00000      0.00000         0.000000      0.000000      0.000000
 -----------------------------------------------------------------------------------
    total drift:                               -0.000000     -0.000000     -0.000000


--------------------------------------------------------------------------------------------------------



  FREE ENERGIE OF THE ION-ELECTRON SYSTEM (eV)
  ---------------------------------------------------
  free  energy   TOTEN  =        -1.00740369 eV

  energy  without entropy=       -1.00843425  energy(sigma->0) =       -1.00774721
 


--------------------------------------------------------------------------------------------------------


    POTLOK:  cpu time      0.0201: real time      0.0148


--------------------------------------------------------------------------------------------------------


 writing wavefunctions
     LOOP+:  cpu time     13.2471: real time     13.0857
    4ORBIT:  cpu time      0.0000: real time      0.0000

 total amount of memory used by VASP MPI-rank0    95577. kBytes
=======================================================================

   base      :      30000. kBytes
   nonl-proj :      14480. kBytes
   fftplans  :      13060. kBytes
   grid      :      20134. kBytes
   one-center:          8. kBytes
   wavefun   :      17895. kBytes
 
  
  
 General timing and accounting informations for this job:
 ========================================================
  
                  Total CPU time used (sec):       14.680
                            User time (sec):       13.880
                          System time (sec):        0.800
                         Elapsed time (sec):       14.426
  
                   Maximum memory used (kb):     1577780.
                   Average memory used (kb):          N/A
  
                          Minor page faults:       428660
                          Major page faults:            0
                 Voluntary context switches:        11583
