Te11 Pb12                               
    1.000000000000000     
    11.9301990829179498    0.0061084857651188    6.8978797475332252
     2.6543646720364684    7.5198873411544582    4.5996061956550518
    -0.0051481477997631   -0.0023454061686347    9.2060147094309261
   Te   Pb
    11    12
Direct
 -0.0000000000000000 -0.0000000000000000  0.5000000000000000
 -0.0000000000000000  0.5000000000000000  0.0000000000000000
 -0.0000000000000000  0.5000000000000000  0.5000000000000000
  0.3332854174717843 -0.0007702125700170 -0.0007702125676977
  0.3325486356056768 -0.0014714638743573  0.5024483515340052
  0.3325486356063564  0.5024483515325364 -0.0014714638736023
  0.3219919237469212  0.5059772244663201  0.5059772244797454
  0.6667145825282158  0.0007702125700170  0.0007702125676977
  0.6674513643943233  0.0014714638743573  0.4975516484659949
  0.6674513643936436  0.4975516484674637  0.0014714638736023
  0.6780080762530786  0.4940227755336797  0.4940227755202546
  0.1670345931395761  0.2490192485862719  0.2490192485860559
  0.1598292183729400  0.2392992229584764  0.7613608356021231
  0.1598292183771981  0.7613608355943305  0.2392992229617180
  0.1587330127920831  0.7609285227381914  0.7609285227469889
  0.4971953478914087  0.2536543794205354  0.2536543794159615
  0.5000000000013666  0.2566019118503449  0.7433980881477661
  0.4999999999986335  0.7433980881496551  0.2566019118522336
  0.5028046521085913  0.7463456205794646  0.7463456205840386
  0.8412669872079168  0.2390714772618086  0.2390714772530110
  0.8401707816228020  0.2386391644056696  0.7607007770382819
  0.8401707816270602  0.7607007770415236  0.2386391643978769
  0.8329654068604239  0.7509807514137283  0.7509807514139442
 
  0.00000000E+00  0.00000000E+00  0.00000000E+00
  0.00000000E+00  0.00000000E+00  0.00000000E+00
  0.00000000E+00  0.00000000E+00  0.00000000E+00
  0.00000000E+00  0.00000000E+00  0.00000000E+00
  0.00000000E+00  0.00000000E+00  0.00000000E+00
  0.00000000E+00  0.00000000E+00  0.00000000E+00
  0.00000000E+00  0.00000000E+00  0.00000000E+00
  0.00000000E+00  0.00000000E+00  0.00000000E+00
  0.00000000E+00  0.00000000E+00  0.00000000E+00
  0.00000000E+00  0.00000000E+00  0.00000000E+00
  0.00000000E+00  0.00000000E+00  0.00000000E+00
  0.00000000E+00  0.00000000E+00  0.00000000E+00
  0.00000000E+00  0.00000000E+00  0.00000000E+00
  0.00000000E+00  0.00000000E+00  0.00000000E+00
  0.00000000E+00  0.00000000E+00  0.00000000E+00
  0.00000000E+00  0.00000000E+00  0.00000000E+00
  0.00000000E+00  0.00000000E+00  0.00000000E+00
  0.00000000E+00  0.00000000E+00  0.00000000E+00
  0.00000000E+00  0.00000000E+00  0.00000000E+00
  0.00000000E+00  0.00000000E+00  0.00000000E+00
  0.00000000E+00  0.00000000E+00  0.00000000E+00
  0.00000000E+00  0.00000000E+00  0.00000000E+00
  0.00000000E+00  0.00000000E+00  0.00000000E+00
