   1   1   0   0
  0.1144776E+02  0.2529755E-09  0.2529755E-09  0.2529755E-09  0.5000000E-15
   1.0000000000000000E-004
  CAR 
 Rh FCC EOS static single-point          
     37.05194399      4.12119913  301     15.47433508      1.00000000
      4.121  0.0000E+00  0.0000E+00
      4.231  0.0000E+00  0.0000E+00
      4.341  0.0000E+00  0.0000E+00
      4.451 -0.2296E-32 -0.2520E-33
      4.560 -0.1525E-28 -0.1675E-29
      4.670 -0.5519E-25 -0.6060E-26
      4.780 -0.1088E-21 -0.1195E-22
      4.890 -0.1168E-18 -0.1283E-19
      4.999 -0.6623E-16 -0.7283E-17
      5.109 -0.2094E-13 -0.2306E-14
      5.219 -0.3611E-11 -0.3987E-12
      5.329 -0.3406E-09 -0.3778E-10
      5.438 -0.1770E-07 -0.1981E-08
      5.548 -0.5131E-06 -0.5830E-07
      5.658 -0.8378E-05 -0.9779E-06
      5.768 -0.7633E-04 -0.9357E-05
      5.878 -0.3572E-03 -0.4857E-04
      5.987 -0.5511E-03 -0.1091E-03
      6.097  0.1644E-02  0.7140E-04
      6.207  0.8112E-02  0.9619E-03
      6.317  0.1607E-01  0.2726E-02
      6.426  0.2569E-01  0.5546E-02
      6.536  0.3340E-01  0.9212E-02
      6.646  0.3207E-01  0.1273E-01
      6.756  0.3824E-01  0.1693E-01
      6.865  0.5284E-01  0.2273E-01
      6.975  0.5295E-01  0.2854E-01
      7.085  0.4495E-01  0.3348E-01
      7.195  0.6642E-01  0.4077E-01
      7.305  0.1300E+00  0.5504E-01
      7.414  0.1842E+00  0.7527E-01
      7.524  0.2142E+00  0.9878E-01
      7.634  0.2742E+00  0.1289E+00
      7.744  0.4343E+00  0.1765E+00
      7.853  0.6705E+00  0.2501E+00
      7.963  0.8274E+00  0.3410E+00
      8.073  0.9089E+00  0.4407E+00
      8.183  0.1115E+01  0.5631E+00
      8.292  0.1319E+01  0.7079E+00
      8.402  0.1355E+01  0.8566E+00
      8.512  0.1521E+01  0.1024E+01
      8.622  0.1837E+01  0.1225E+01
      8.732  0.1902E+01  0.1434E+01
      8.841  0.1760E+01  0.1627E+01
      8.951  0.1573E+01  0.1800E+01
      9.061  0.1353E+01  0.1948E+01
      9.171  0.1243E+01  0.2085E+01
      9.280  0.1173E+01  0.2214E+01
      9.390  0.1048E+01  0.2329E+01
      9.500  0.8956E+00  0.2427E+01
      9.610  0.8139E+00  0.2516E+01
      9.719  0.9447E+00  0.2620E+01
      9.829  0.1127E+01  0.2744E+01
      9.939  0.1095E+01  0.2864E+01
     10.049  0.1019E+01  0.2976E+01
     10.159  0.1060E+01  0.3092E+01
     10.268  0.1095E+01  0.3212E+01
     10.378  0.1086E+01  0.3331E+01
     10.488  0.1016E+01  0.3443E+01
     10.598  0.9068E+00  0.3542E+01
     10.707  0.8904E+00  0.3640E+01
     10.817  0.9932E+00  0.3749E+01
     10.927  0.1060E+01  0.3866E+01
     11.037  0.1006E+01  0.3976E+01
     11.146  0.9837E+00  0.4084E+01
     11.256  0.1115E+01  0.4206E+01
     11.366  0.1240E+01  0.4343E+01
     11.476  0.1286E+01  0.4484E+01
     11.586  0.1393E+01  0.4637E+01
     11.695  0.1585E+01  0.4811E+01
     11.805  0.1829E+01  0.5011E+01
     11.915  0.2007E+01  0.5232E+01
     12.025  0.1882E+01  0.5438E+01
     12.134  0.1586E+01  0.5612E+01
     12.244  0.1346E+01  0.5760E+01
     12.354  0.1163E+01  0.5888E+01
     12.464  0.1023E+01  0.6000E+01
     12.573  0.9277E+00  0.6102E+01
     12.683  0.9785E+00  0.6209E+01
     12.793  0.1128E+01  0.6333E+01
     12.903  0.1069E+01  0.6450E+01
     13.013  0.8409E+00  0.6543E+01
     13.122  0.7985E+00  0.6630E+01
     13.232  0.9546E+00  0.6735E+01
     13.342  0.1109E+01  0.6857E+01
     13.452  0.1182E+01  0.6987E+01
     13.561  0.1203E+01  0.7119E+01
     13.671  0.1203E+01  0.7251E+01
     13.781  0.1182E+01  0.7380E+01
     13.891  0.1117E+01  0.7503E+01
     14.000  0.1046E+01  0.7618E+01
     14.110  0.1062E+01  0.7734E+01
     14.220  0.1138E+01  0.7859E+01
     14.330  0.1154E+01  0.7986E+01
     14.439  0.9910E+00  0.8095E+01
     14.549  0.7993E+00  0.8183E+01
     14.659  0.7760E+00  0.8268E+01
     14.769  0.8421E+00  0.8360E+01
     14.879  0.9116E+00  0.8460E+01
     14.988  0.9485E+00  0.8564E+01
     15.098  0.9167E+00  0.8665E+01
     15.208  0.9008E+00  0.8764E+01
     15.318  0.9080E+00  0.8864E+01
     15.427  0.8757E+00  0.8960E+01
     15.537  0.8709E+00  0.9055E+01
     15.647  0.9748E+00  0.9162E+01
     15.757  0.1160E+01  0.9290E+01
     15.866  0.1271E+01  0.9429E+01
     15.976  0.1304E+01  0.9572E+01
     16.086  0.1396E+01  0.9725E+01
     16.196  0.1468E+01  0.9887E+01
     16.306  0.1452E+01  0.1005E+02
     16.415  0.1333E+01  0.1019E+02
     16.525  0.1139E+01  0.1032E+02
     16.635  0.9609E+00  0.1042E+02
     16.745  0.7039E+00  0.1050E+02
     16.854  0.3849E+00  0.1054E+02
     16.964  0.1516E+00  0.1056E+02
     17.074  0.7578E-01  0.1057E+02
     17.184  0.9127E-01  0.1058E+02
     17.293  0.9553E-01  0.1059E+02
     17.403  0.9397E-01  0.1060E+02
     17.513  0.1714E+00  0.1062E+02
     17.623  0.3637E+00  0.1066E+02
     17.733  0.4718E+00  0.1071E+02
     17.842  0.3235E+00  0.1074E+02
     17.952  0.1259E+00  0.1076E+02
     18.062  0.9009E-01  0.1077E+02
     18.172  0.1557E+00  0.1078E+02
     18.281  0.1712E+00  0.1080E+02
     18.391  0.1105E+00  0.1082E+02
     18.501  0.8494E-01  0.1083E+02
     18.611  0.1190E+00  0.1084E+02
     18.720  0.1864E+00  0.1086E+02
     18.830  0.2800E+00  0.1089E+02
     18.940  0.3502E+00  0.1093E+02
     19.050  0.3582E+00  0.1097E+02
     19.160  0.2851E+00  0.1100E+02
     19.269  0.1875E+00  0.1102E+02
     19.379  0.1349E+00  0.1103E+02
     19.489  0.1250E+00  0.1105E+02
     19.599  0.1372E+00  0.1106E+02
     19.708  0.1446E+00  0.1108E+02
     19.818  0.1959E+00  0.1110E+02
     19.928  0.2725E+00  0.1113E+02
     20.038  0.2535E+00  0.1116E+02
     20.147  0.1721E+00  0.1118E+02
     20.257  0.1632E+00  0.1119E+02
     20.367  0.2514E+00  0.1122E+02
     20.477  0.3133E+00  0.1126E+02
     20.587  0.2708E+00  0.1129E+02
     20.696  0.1640E+00  0.1130E+02
     20.806  0.1226E+00  0.1132E+02
     20.916  0.1920E+00  0.1134E+02
     21.026  0.2402E+00  0.1137E+02
     21.135  0.2164E+00  0.1139E+02
     21.245  0.1804E+00  0.1141E+02
     21.355  0.1536E+00  0.1143E+02
     21.465  0.1351E+00  0.1144E+02
     21.574  0.1451E+00  0.1146E+02
     21.684  0.2239E+00  0.1148E+02
     21.794  0.3018E+00  0.1151E+02
     21.904  0.2680E+00  0.1154E+02
     22.014  0.1613E+00  0.1156E+02
     22.123  0.1428E+00  0.1158E+02
     22.233  0.1844E+00  0.1160E+02
     22.343  0.1832E+00  0.1162E+02
     22.453  0.1834E+00  0.1164E+02
     22.562  0.1717E+00  0.1166E+02
     22.672  0.1453E+00  0.1167E+02
     22.782  0.1439E+00  0.1169E+02
     22.892  0.1335E+00  0.1170E+02
     23.001  0.1342E+00  0.1172E+02
     23.111  0.1536E+00  0.1173E+02
     23.221  0.1817E+00  0.1175E+02
     23.331  0.2174E+00  0.1178E+02
     23.441  0.2083E+00  0.1180E+02
     23.550  0.1597E+00  0.1182E+02
     23.660  0.1222E+00  0.1183E+02
     23.770  0.1039E+00  0.1184E+02
     23.880  0.1009E+00  0.1185E+02
     23.989  0.1041E+00  0.1187E+02
     24.099  0.1012E+00  0.1188E+02
     24.209  0.9082E-01  0.1189E+02
     24.319  0.9790E-01  0.1190E+02
     24.428  0.1138E+00  0.1191E+02
     24.538  0.1085E+00  0.1192E+02
     24.648  0.1078E+00  0.1193E+02
     24.758  0.1422E+00  0.1195E+02
     24.868  0.1454E+00  0.1197E+02
     24.977  0.7660E-01  0.1197E+02
     25.087  0.1361E-01  0.1198E+02
     25.197  0.4735E-02  0.1198E+02
     25.307  0.1283E-01  0.1198E+02
     25.416  0.2810E-01  0.1198E+02
     25.526  0.8732E-01  0.1199E+02
     25.636  0.2314E+00  0.1202E+02
     25.746  0.4423E+00  0.1206E+02
     25.855  0.5371E+00  0.1212E+02
     25.965  0.4351E+00  0.1217E+02
     26.075  0.3236E+00  0.1221E+02
     26.185  0.3471E+00  0.1224E+02
     26.295  0.4610E+00  0.1229E+02
     26.404  0.4707E+00  0.1235E+02
     26.514  0.3479E+00  0.1238E+02
     26.624  0.2535E+00  0.1241E+02
     26.734  0.2401E+00  0.1244E+02
     26.843  0.2386E+00  0.1246E+02
     26.953  0.2618E+00  0.1249E+02
     27.063  0.3566E+00  0.1253E+02
     27.173  0.4144E+00  0.1258E+02
     27.282  0.3896E+00  0.1262E+02
     27.392  0.3163E+00  0.1266E+02
     27.502  0.2126E+00  0.1268E+02
     27.612  0.1302E+00  0.1269E+02
     27.722  0.1298E+00  0.1271E+02
     27.831  0.2334E+00  0.1273E+02
     27.941  0.3829E+00  0.1278E+02
     28.051  0.4291E+00  0.1282E+02
     28.161  0.3165E+00  0.1286E+02
     28.270  0.2093E+00  0.1288E+02
     28.380  0.1812E+00  0.1290E+02
     28.490  0.1783E+00  0.1292E+02
     28.600  0.2222E+00  0.1294E+02
     28.709  0.2866E+00  0.1298E+02
     28.819  0.3402E+00  0.1301E+02
     28.929  0.3909E+00  0.1306E+02
     29.039  0.3646E+00  0.1310E+02
     29.149  0.2742E+00  0.1313E+02
     29.258  0.2373E+00  0.1315E+02
     29.368  0.2956E+00  0.1318E+02
     29.478  0.4042E+00  0.1323E+02
     29.588  0.4882E+00  0.1328E+02
     29.697  0.5502E+00  0.1334E+02
     29.807  0.5949E+00  0.1341E+02
     29.917  0.5701E+00  0.1347E+02
     30.027  0.5088E+00  0.1353E+02
     30.136  0.4798E+00  0.1358E+02
     30.246  0.4256E+00  0.1363E+02
     30.356  0.4034E+00  0.1367E+02
     30.466  0.4694E+00  0.1372E+02
     30.576  0.4123E+00  0.1377E+02
     30.685  0.4710E+00  0.1382E+02
     30.795  0.2131E+01  0.1405E+02
     30.905  0.5319E+01  0.1464E+02
     31.015  0.5701E+01  0.1526E+02
     31.124  0.2476E+01  0.1553E+02
     31.234  0.1820E+00  0.1555E+02
     31.344 -0.6047E-01  0.1555E+02
     31.454  0.1757E+00  0.1557E+02
     31.563  0.2422E+00  0.1559E+02
     31.673  0.1886E+00  0.1561E+02
     31.783  0.1610E+00  0.1563E+02
     31.893  0.1832E+00  0.1565E+02
     32.003  0.1846E+00  0.1567E+02
     32.112  0.1711E+00  0.1569E+02
     32.222  0.1872E+00  0.1571E+02
     32.332  0.1783E+00  0.1573E+02
     32.442  0.1403E+00  0.1575E+02
     32.551  0.1666E+00  0.1576E+02
     32.661  0.2073E+00  0.1579E+02
     32.771  0.1749E+00  0.1581E+02
     32.881  0.1423E+00  0.1582E+02
     32.990  0.1741E+00  0.1584E+02
     33.100  0.1952E+00  0.1586E+02
     33.210  0.1640E+00  0.1588E+02
     33.320  0.1393E+00  0.1590E+02
     33.430  0.1275E+00  0.1591E+02
     33.539  0.1118E+00  0.1592E+02
     33.649  0.1088E+00  0.1593E+02
     33.759  0.1018E+00  0.1595E+02
     33.869  0.9797E-01  0.1596E+02
     33.978  0.1022E+00  0.1597E+02
     34.088  0.6594E-01  0.1597E+02
     34.198  0.2185E-01  0.1598E+02
     34.308  0.2114E-01  0.1598E+02
     34.417  0.3545E-01  0.1598E+02
     34.527  0.4056E-01  0.1599E+02
     34.637  0.4176E-01  0.1599E+02
     34.747  0.3680E-01  0.1600E+02
     34.857  0.2070E-01  0.1600E+02
     34.966  0.6537E-02  0.1600E+02
     35.076  0.3777E-02  0.1600E+02
     35.186  0.3261E-02  0.1600E+02
     35.296  0.8536E-03  0.1600E+02
     35.405 -0.2493E-03  0.1600E+02
     35.515 -0.1565E-03  0.1600E+02
     35.625 -0.2759E-04  0.1600E+02
     35.735 -0.2208E-05  0.1600E+02
     35.844 -0.8867E-07  0.1600E+02
     35.954 -0.1854E-08  0.1600E+02
     36.064 -0.2057E-10  0.1600E+02
     36.174 -0.1222E-12  0.1600E+02
     36.284 -0.3905E-15  0.1600E+02
     36.393  0.0000E+00  0.1600E+02
     36.503  0.0000E+00  0.1600E+02
     36.613  0.0000E+00  0.1600E+02
     36.723  0.0000E+00  0.1600E+02
     36.832  0.0000E+00  0.1600E+02
     36.942  0.0000E+00  0.1600E+02
     37.052  0.0000E+00  0.1600E+02
