Sb15 Te24                               
    1.000000000000000     
     8.4383219421345270    0.0185553195930348   19.1635883344066009
     4.0472722735850288    7.4044047291823976   19.1635883381466350
     0.0312118722533410    0.0185553306188209   20.9391378105143744
   Sb   Te
    15    24
Direct
  0.3010195232372903  0.3010195232377403  0.8011831142592707
  0.3010195232372713  0.8011831142639835  0.3010195232323211
  0.2897232949755601  0.8031815276656100  0.8031815276403608
  0.8011831142639805  0.3010195232375141  0.3010195232321140
  0.8031815276646734  0.2897232949711984  0.8031815276455281
  0.8031815276603205  0.8031815276664247  0.2897232949575709
  0.8005704605157543  0.8005704605160298  0.8005704605098937
  0.1992675082382636  0.1992675082380427  0.1992675082429682
  0.1993762995607543  0.1993762995612713  0.6972125667903336
  0.1993762995615884  0.6972125667871023  0.1993762995642073
  0.1968609513495358  0.7027110475047854  0.7027110475108049
  0.6972125667878585  0.1993762995614567  0.1993762995635586
  0.7027110475051194  0.1968609513480797  0.7027110475119609
  0.7027110475037029  0.7027110475045258  0.1968609513561931
  0.6946845058711240  0.6946845058722665  0.6946845058467669
  0.3940228261570407  0.3940228261569274  0.3940228261594508
  0.3939848550723415  0.3939848550720833  0.8970194126197388
  0.3939848550718695  0.8970194126143398  0.3939848550766438
  0.3980710831628757  0.8904861867710206  0.8904861867736035
  0.8970194126145491  0.3939848550716650  0.3939848550766909
  0.8904861867710021  0.3980710831640330  0.8904861867722453
  0.8904861867739965  0.8904861867726569  0.3980710831656777
  0.8968406417091442  0.8968406417087127  0.8968406417185046
  0.1057126375097950  0.1057126375100152  0.1057126375051030
  0.1119435528471429  0.1119435528481499  0.5969338568683481
  0.1119435528515880  0.5969338568620270  0.1119435528591778
  0.1061052641001601  0.6057782136770522  0.6057782136726970
  0.5969338568636123  0.1119435528510936  0.1119435528576765
  0.6057782136768556  0.1061052641002988  0.6057782136727444
  0.6057782136768822  0.6057782136771266  0.1061052640961188
  0.6050278323476491  0.6050278323478356  0.6050278323436679
 -0.0004242496225301 -0.0004242496225641 -0.0004242496218054
  0.0002614722642744  0.0002614722643327  0.5009301854627467
  0.0002614722641900  0.5009301854616562  0.0002614722649642
  0.0065917861580790  0.4967278592197774  0.4967278592342494
  0.5009301854617955  0.0002614722641616  0.0002614722648776
  0.4967278592202886  0.0065917861598919  0.4967278592318399
  0.4967278592233560  0.4967278592204354  0.0065917861701325
  0.5006238608912305  0.5006238608912382  0.5006238608910614
 
  0.00000000E+00  0.00000000E+00  0.00000000E+00
  0.00000000E+00  0.00000000E+00  0.00000000E+00
  0.00000000E+00  0.00000000E+00  0.00000000E+00
  0.00000000E+00  0.00000000E+00  0.00000000E+00
  0.00000000E+00  0.00000000E+00  0.00000000E+00
  0.00000000E+00  0.00000000E+00  0.00000000E+00
  0.00000000E+00  0.00000000E+00  0.00000000E+00
  0.00000000E+00  0.00000000E+00  0.00000000E+00
  0.00000000E+00  0.00000000E+00  0.00000000E+00
  0.00000000E+00  0.00000000E+00  0.00000000E+00
  0.00000000E+00  0.00000000E+00  0.00000000E+00
  0.00000000E+00  0.00000000E+00  0.00000000E+00
  0.00000000E+00  0.00000000E+00  0.00000000E+00
  0.00000000E+00  0.00000000E+00  0.00000000E+00
  0.00000000E+00  0.00000000E+00  0.00000000E+00
  0.00000000E+00  0.00000000E+00  0.00000000E+00
  0.00000000E+00  0.00000000E+00  0.00000000E+00
  0.00000000E+00  0.00000000E+00  0.00000000E+00
  0.00000000E+00  0.00000000E+00  0.00000000E+00
  0.00000000E+00  0.00000000E+00  0.00000000E+00
  0.00000000E+00  0.00000000E+00  0.00000000E+00
  0.00000000E+00  0.00000000E+00  0.00000000E+00
  0.00000000E+00  0.00000000E+00  0.00000000E+00
  0.00000000E+00  0.00000000E+00  0.00000000E+00
  0.00000000E+00  0.00000000E+00  0.00000000E+00
  0.00000000E+00  0.00000000E+00  0.00000000E+00
  0.00000000E+00  0.00000000E+00  0.00000000E+00
  0.00000000E+00  0.00000000E+00  0.00000000E+00
  0.00000000E+00  0.00000000E+00  0.00000000E+00
  0.00000000E+00  0.00000000E+00  0.00000000E+00
  0.00000000E+00  0.00000000E+00  0.00000000E+00
  0.00000000E+00  0.00000000E+00  0.00000000E+00
  0.00000000E+00  0.00000000E+00  0.00000000E+00
  0.00000000E+00  0.00000000E+00  0.00000000E+00
  0.00000000E+00  0.00000000E+00  0.00000000E+00
  0.00000000E+00  0.00000000E+00  0.00000000E+00
  0.00000000E+00  0.00000000E+00  0.00000000E+00
  0.00000000E+00  0.00000000E+00  0.00000000E+00
  0.00000000E+00  0.00000000E+00  0.00000000E+00
