 running    1 mpi-ranks, with    2 threads/rank, on    1 nodes
 distrk:  each k-point on    1 cores,    1 groups
 distr:  one band on    1 cores,    1 groups
 OpenACC runtime initialized ...    1 GPUs detected
 vasp.6.4.2 20Jul23 (build Mar  2 2025 11:04:54) complex                         
 POSCAR found type information on POSCAR Na
 POSCAR found :  1 types and       2 ions
 scaLAPACK will be used selectively (only on CPU)
 LDA part: xc-table for Pade appr. of Perdew
 POSCAR, INCAR and KPOINTS ok, starting setup
 FFT: planning ... GRIDC
 FFT: planning ... GRID_SOFT
 FFT: planning ... GRID
 WAVECAR not read
 entering main loop
       N       E                     dE             d eps       ncg     rms          rms(c)
DAV:   1    -0.190094889840E+01   -0.19009E+01   -0.37470E+02  1200   0.173E+02
DAV:   2    -0.259199255049E+01   -0.69104E+00   -0.63103E+00  1440   0.119E+01
DAV:   3    -0.260101716319E+01   -0.90246E-02   -0.90111E-02  1725   0.186E+00
DAV:   4    -0.260108155643E+01   -0.64393E-04   -0.64390E-04  1730   0.119E-01
DAV:   5    -0.260108263374E+01   -0.10773E-05   -0.10773E-05  1745   0.107E-02    0.289E-01
DAV:   6    -0.260131218213E+01   -0.22955E-03   -0.11162E-04  1555   0.868E-02    0.194E-01
DAV:   7    -0.260103069775E+01    0.28148E-03   -0.31325E-04  1340   0.160E-01    0.121E-02
DAV:   8    -0.260102801264E+01    0.26851E-05   -0.35787E-06  1640   0.116E-02    0.249E-03
DAV:   9    -0.260102801642E+01   -0.37832E-08   -0.28724E-07  1160   0.380E-03
   1 F= -.26010280E+01 E0= -.26004673E+01  d E =-.112152E-02
