Cd1 Te1                                 
    1.000000000000000     
     4.0197509199999999   -0.0000000100000000    2.3208040500000000
     1.3399166300000001    3.7898585300000001    2.3208040500000000
    -0.0000000100000000   -0.0000000100000000    4.6416101500000000
   Cd   Te
     1     1
Direct
  0.0000000000000000  0.0000000000000000  0.0000000000000000
  0.2500000000000000  0.2500000000000000  0.2500000000000000
 
  0.00000000E+00  0.00000000E+00  0.00000000E+00
  0.00000000E+00  0.00000000E+00  0.00000000E+00
