<?xml version="1.0" encoding="ISO-8859-1"?>
<modeling>
 <generator>
  <i name="program" type="string">vasp </i>
  <i name="version" type="string">6.4.2  </i>
  <i name="subversion" type="string">20Jul23 (build Mar  2 2025 11:04:54) complex                          parallel </i>
  <i name="platform" type="string">LinuxNV </i>
  <i name="date" type="string">2026 04 21 </i>
  <i name="time" type="string">00:49:10 </i>
 </generator>
 <incar>
  <i type="string" name="SYSTEM">PBE Static SCF for Cu2O Band Structure Pre-calculation</i>
  <i type="int" name="ISTART">     0</i>
  <i type="string" name="PREC">Accurate</i>
  <i type="string" name="ALGO">Normal</i>
  <i type="int" name="ICHARG">     2</i>
  <i type="int" name="NELM">   100</i>
  <i name="EDIFF">      0.00000100</i>
  <i name="ENCUT">    500.00000000</i>
  <i type="int" name="ISMEAR">     0</i>
  <i name="SIGMA">      0.05000000</i>
  <i name="KSPACING">      0.20000000</i>
  <i type="logical" name="KGAMMA"> T  </i>
  <i type="logical" name="LWAVE"> T  </i>
  <i type="logical" name="LCHARG"> T  </i>
  <i type="string" name="GGA">PE</i>
 </incar>
 <primitive_cell>
  <structure name="primitive_cell" >
   <crystal>
    <varray name="basis" >
     <v>       4.24669932      -0.00000000      -0.00000000 </v>
     <v>       0.00000000       4.24669932      -0.00000000 </v>
     <v>      -0.00000000       0.00000000       4.24669932 </v>
    </varray>
    <i name="volume">     76.58690827 </i>
    <varray name="rec_basis" >
     <v>       0.23547700       0.00000000       0.00000000 </v>
     <v>       0.00000000       0.23547700       0.00000000 </v>
     <v>       0.00000000       0.00000000       0.23547700 </v>
    </varray>
   </crystal>
   <varray name="positions" >
    <v>       0.50000000       0.50000000       0.00000000 </v>
    <v>       0.00000000       0.50000000       0.50000000 </v>
    <v>       0.50000000       0.00000000       0.50000000 </v>
    <v>       0.00000000       0.00000000       0.00000000 </v>
    <v>       0.75000000       0.75000000       0.75000000 </v>
    <v>       0.25000000       0.25000000       0.25000000 </v>
   </varray>
  </structure>
  <varray name="primitive_index" >
   <v type="int" >        1 </v>
   <v type="int" >        2 </v>
   <v type="int" >        3 </v>
   <v type="int" >        4 </v>
   <v type="int" >        5 </v>
   <v type="int" >        6 </v>
  </varray>
 </primitive_cell>
 <kpoints>
  <generation param="Gamma">
   <v type="int" name="divisions">       8        8        8 </v>
   <v name="usershift">      0.00000000       0.00000000       0.00000000 </v>
   <v name="genvec1">      0.12500000       0.00000000       0.00000000 </v>
   <v name="genvec2">      0.00000000       0.12500000       0.00000000 </v>
   <v name="genvec3">      0.00000000       0.00000000       0.12500000 </v>
   <v name="shift">      0.00000000       0.00000000       0.00000000 </v>
  </generation>
  <varray name="kpointlist" >
   <v>       0.00000000       0.00000000       0.00000000 </v>
   <v>       0.12500000       0.00000000       0.00000000 </v>
   <v>       0.25000000       0.00000000       0.00000000 </v>
   <v>       0.37500000       0.00000000       0.00000000 </v>
   <v>       0.50000000       0.00000000       0.00000000 </v>
   <v>       0.12500000       0.12500000       0.00000000 </v>
   <v>       0.25000000       0.12500000       0.00000000 </v>
   <v>       0.37500000       0.12500000       0.00000000 </v>
   <v>       0.50000000       0.12500000       0.00000000 </v>
   <v>       0.25000000       0.25000000       0.00000000 </v>
   <v>       0.37500000       0.25000000       0.00000000 </v>
   <v>       0.50000000       0.25000000       0.00000000 </v>
   <v>       0.37500000       0.37500000       0.00000000 </v>
   <v>       0.50000000       0.37500000       0.00000000 </v>
   <v>       0.50000000       0.50000000       0.00000000 </v>
   <v>       0.12500000       0.12500000       0.12500000 </v>
   <v>       0.25000000       0.12500000       0.12500000 </v>
   <v>       0.37500000       0.12500000       0.12500000 </v>
   <v>       0.50000000       0.12500000       0.12500000 </v>
   <v>       0.25000000       0.25000000       0.12500000 </v>
   <v>       0.37500000       0.25000000       0.12500000 </v>
   <v>       0.50000000       0.25000000       0.12500000 </v>
   <v>       0.37500000       0.37500000       0.12500000 </v>
   <v>       0.50000000       0.37500000       0.12500000 </v>
   <v>       0.50000000       0.50000000       0.12500000 </v>
   <v>       0.25000000       0.25000000       0.25000000 </v>
   <v>       0.37500000       0.25000000       0.25000000 </v>
   <v>       0.50000000       0.25000000       0.25000000 </v>
   <v>       0.37500000       0.37500000       0.25000000 </v>
   <v>       0.50000000       0.37500000       0.25000000 </v>
   <v>       0.50000000       0.50000000       0.25000000 </v>
   <v>       0.37500000       0.37500000       0.37500000 </v>
   <v>       0.50000000       0.37500000       0.37500000 </v>
   <v>       0.50000000       0.50000000       0.37500000 </v>
   <v>       0.50000000       0.50000000       0.50000000 </v>
  </varray>
  <varray name="weights" >
   <v>       0.00195313 </v>
   <v>       0.01171875 </v>
   <v>       0.01171875 </v>
   <v>       0.01171875 </v>
   <v>       0.00585938 </v>
   <v>       0.02343750 </v>
   <v>       0.04687500 </v>
   <v>       0.04687500 </v>
   <v>       0.02343750 </v>
   <v>       0.02343750 </v>
   <v>       0.04687500 </v>
   <v>       0.02343750 </v>
   <v>       0.02343750 </v>
   <v>       0.02343750 </v>
   <v>       0.00585938 </v>
   <v>       0.01562500 </v>
   <v>       0.04687500 </v>
   <v>       0.04687500 </v>
   <v>       0.02343750 </v>
   <v>       0.04687500 </v>
   <v>       0.09375000 </v>
   <v>       0.04687500 </v>
   <v>       0.04687500 </v>
   <v>       0.04687500 </v>
   <v>       0.01171875 </v>
   <v>       0.01562500 </v>
   <v>       0.04687500 </v>
   <v>       0.02343750 </v>
   <v>       0.04687500 </v>
   <v>       0.04687500 </v>
   <v>       0.01171875 </v>
   <v>       0.01562500 </v>
   <v>       0.02343750 </v>
   <v>       0.01171875 </v>
   <v>       0.00195313 </v>
  </varray>
 </kpoints>
 <parameters>
  <separator name="general" >
   <i type="string" name="SYSTEM">PBE Static SCF for Cu2O Band Structure P</i>
   <i type="logical" name="LCOMPAT"> F  </i>
  </separator>
  <separator name="electronic" >
   <i type="string" name="PREC">accura</i>
   <i name="ENMAX">    500.00000000</i>
   <i name="ENAUG">    605.39200000</i>
   <i name="EDIFF">      0.00000100</i>
   <i type="int" name="IALGO">    38</i>
   <i type="int" name="IWAVPR">    10</i>
   <i type="int" name="NBANDS">    33</i>
   <i type="int" name="NBANDSLOW">    -1</i>
   <i type="int" name="NBANDSHIGH">    -1</i>
   <i name="NELECT">     56.00000000</i>
   <i type="int" name="TURBO">     0</i>
   <i type="int" name="IRESTART">     0</i>
   <i type="int" name="NREBOOT">     0</i>
   <i type="int" name="NMIN">     0</i>
   <i name="EREF">      0.00000000</i>
   <separator name="electronic smearing" >
    <i type="int" name="ISMEAR">     0</i>
    <i name="SIGMA">      0.05000000</i>
    <i name="KSPACING">      0.20000000</i>
    <i type="logical" name="KGAMMA"> T  </i>
    <i type="logical" name="KBLOWUP"> T  </i>
   </separator>
   <separator name="electronic projectors" >
    <i type="logical" name="LREAL"> F  </i>
    <v name="ROPT">      0.00000000      0.00000000</v>
    <i type="int" name="LMAXPAW">  -100</i>
    <i type="int" name="LMAXMIX">     2</i>
    <i type="logical" name="NLSPLINE"> F  </i>
   </separator>
   <separator name="electronic startup" >
    <i type="int" name="ISTART">     0</i>
    <i type="int" name="ICHARG">     2</i>
    <i type="int" name="INIWAV">     1</i>
   </separator>
   <separator name="electronic spin" >
    <i type="int" name="ISPIN">     1</i>
    <i type="logical" name="LNONCOLLINEAR"> F  </i>
    <v name="MAGMOM">      1.00000000      1.00000000      1.00000000      1.00000000      1.00000000      1.00000000</v>
    <i name="NUPDOWN">     -1.00000000</i>
    <i type="logical" name="LSORBIT"> F  </i>
    <v name="SAXIS">      0.00000000      0.00000000      1.00000000</v>
    <i type="logical" name="LSPIRAL"> F  </i>
    <v name="QSPIRAL">      0.00000000      0.00000000      0.00000000</v>
    <i type="logical" name="LZEROZ"> F  </i>
   </separator>
   <separator name="electronic exchange-correlation" >
    <i type="logical" name="LASPH"> F  </i>
    <i type="logical" name="LMETAGGA"> F  </i>
   </separator>
   <separator name="electronic convergence" >
    <i type="int" name="NELM">   100</i>
    <i type="int" name="NELMDL">    -5</i>
    <i type="int" name="NELMIN">     2</i>
    <i name="ENINI">    500.00000000</i>
    <separator name="electronic convergence detail" >
     <i type="logical" name="LDIAG"> T  </i>
     <i type="logical" name="LSUBROT"> F  </i>
     <i name="WEIMIN">      0.00000000</i>
     <i name="EBREAK">      0.00000001</i>
     <i name="DEPER">      0.30000000</i>
     <i type="int" name="NRMM">     4</i>
     <i name="TIME">      0.40000000</i>
    </separator>
   </separator>
   <separator name="electronic mixer" >
    <i name="AMIX">      0.40000000</i>
    <i name="BMIX">      1.00000000</i>
    <i name="AMIN">      0.10000000</i>
    <i name="AMIX_MAG">      1.60000000</i>
    <i name="BMIX_MAG">      1.00000000</i>
    <separator name="electronic mixer details" >
     <i type="int" name="IMIX">     4</i>
     <i type="logical" name="MIXFIRST"> F  </i>
     <i type="int" name="MAXMIX">   -45</i>
     <i name="WC">    100.00000000</i>
     <i type="int" name="INIMIX">     1</i>
     <i type="int" name="MIXPRE">     1</i>
     <i type="int" name="MREMOVE">     5</i>
    </separator>
   </separator>
   <separator name="electronic dipolcorrection" >
    <i type="logical" name="LDIPOL"> F  </i>
    <i type="logical" name="LMONO"> F  </i>
    <i type="int" name="IDIPOL">     0</i>
    <i name="EPSILON">      1.00000000</i>
    <v name="DIPOL">   -100.00000000   -100.00000000   -100.00000000</v>
    <i name="EFIELD">      0.00000000</i>
   </separator>
  </separator>
  <separator name="grids" >
   <i type="int" name="NGX">    32</i>
   <i type="int" name="NGY">    32</i>
   <i type="int" name="NGZ">    32</i>
   <i type="int" name="NGXF">    64</i>
   <i type="int" name="NGYF">    64</i>
   <i type="int" name="NGZF">    64</i>
   <i type="logical" name="ADDGRID"> F  </i>
  </separator>
  <separator name="ionic" >
   <i type="int" name="NSW">     0</i>
   <i type="int" name="IBRION">    -1</i>
   <i type="int" name="MDALGO">     0</i>
   <i type="int" name="ISIF">     2</i>
   <i name="PSTRESS">      0.00000000</i>
   <i name="EDIFFG">      0.00001000</i>
   <i type="int" name="NFREE">     0</i>
   <i name="POTIM">      0.50000000</i>
   <i name="SMASS">     -3.00000000</i>
   <i name="SCALEE">      1.00000000</i>
  </separator>
  <separator name="ionic md" >
   <i name="TEBEG">      0.00010000</i>
   <i name="TEEND">      0.00010000</i>
   <i type="int" name="NBLOCK">     1</i>
   <i type="int" name="KBLOCK">     1</i>
   <i type="int" name="NPACO">   256</i>
   <i name="APACO">     10.00000000</i>
  </separator>
  <separator name="symmetry" >
   <i type="int" name="ISYM">     2</i>
   <i name="SYMPREC">      0.00001000</i>
  </separator>
  <separator name="dos" >
   <i type="int" name="LORBIT">     0</i>
   <v name="RWIGS">     -1.00000000     -1.00000000</v>
   <i type="int" name="NEDOS">   301</i>
   <i name="EMIN">     10.00000000</i>
   <i name="EMAX">    -10.00000000</i>
   <i name="EFERMI">      0.00000000</i>
  </separator>
  <separator name="writing" >
   <i type="int" name="NWRITE">     2</i>
   <i type="logical" name="LWAVE"> T  </i>
   <i type="logical" name="LDOWNSAMPLE"> F  </i>
   <i type="logical" name="LCHARG"> T  </i>
   <i type="logical" name="LPARD"> F  </i>
   <i type="logical" name="LVTOT"> F  </i>
   <i type="logical" name="LVHAR"> F  </i>
   <i type="logical" name="LELF"> F  </i>
   <i type="logical" name="LOPTICS"> F  </i>
   <v name="STM">      0.00000000      0.00000000      0.00000000      0.00000000      0.00000000      0.00000000      0.00000000</v>
  </separator>
  <separator name="performance" >
   <i type="int" name="NPAR">     1</i>
   <i type="int" name="NSIM">     4</i>
   <i type="int" name="NBLK">    -1</i>
   <i type="logical" name="LPLANE"> T  </i>
   <i type="logical" name="LSCALAPACK"> T  </i>
   <i type="logical" name="LSCAAWARE"> F  </i>
   <i type="logical" name="LSCALU"> F  </i>
   <i type="logical" name="LASYNC"> F  </i>
   <i type="logical" name="LORBITALREAL"> F  </i>
  </separator>
  <separator name="miscellaneous" >
   <i type="int" name="IDIOT">     3</i>
   <i type="int" name="PHON_NSTRUCT">    -1</i>
   <i type="logical" name="LMUSIC"> F  </i>
   <v name="POMASS">     63.54600000     16.00000000</v>
   <v name="DARWINR">      0.00000000      0.00000000</v>
   <v name="DARWINV">      1.00000000      1.00000000</v>
   <i type="logical" name="LCORR"> T  </i>
  </separator>
  <i type="logical" name="GGA_COMPAT"> T  </i>
  <i type="logical" name="LBERRY"> F  </i>
  <i type="int" name="ICORELEVEL">     0</i>
  <i type="logical" name="LDAU"> F  </i>
  <i type="int" name="I_CONSTRAINED_M">     0</i>
  <separator name="electronic exchange-correlation" >
   <i type="string" name="GGA">PE</i>
   <i type="int" name="VOSKOWN">     0</i>
   <i type="logical" name="LHFCALC"> F  </i>
   <i type="string" name="PRECFOCK"></i>
   <i type="logical" name="LSYMGRAD"> F  </i>
   <i type="logical" name="LHFONE"> F  </i>
   <i type="logical" name="LRHFCALC"> F  </i>
   <i type="logical" name="LTHOMAS"> F  </i>
   <i type="logical" name="LMODELHF"> F  </i>
   <i type="logical" name="LFOCKACE"> F  </i>
   <i name="ENCUT4O">     -1.00000000</i>
   <i type="int" name="EXXOEP">     0</i>
   <i type="int" name="FOURORBIT">     0</i>
   <i name="AEXX">      0.00000000</i>
   <i name="HFALPHA">      0.00000000</i>
   <i name="MCALPHA">      0.00000000</i>
   <i name="ALDAX">      1.00000000</i>
   <i name="AGGAX">      1.00000000</i>
   <i name="ALDAC">      1.00000000</i>
   <i name="AGGAC">      1.00000000</i>
   <i type="int" name="NKREDX">     1</i>
   <i type="int" name="NKREDY">     1</i>
   <i type="int" name="NKREDZ">     1</i>
   <i type="logical" name="SHIFTRED"> F  </i>
   <i type="logical" name="ODDONLY"> F  </i>
   <i type="logical" name="EVENONLY"> F  </i>
   <i type="int" name="LMAXFOCK">     0</i>
   <i type="int" name="NMAXFOCKAE">     0</i>
   <i type="logical" name="LFOCKAEDFT"> F  </i>
   <i name="HFSCREEN">      0.00000000</i>
   <i name="HFSCREENC">      0.00000000</i>
   <i type="int" name="NBANDSGWLOW">     0</i>
  </separator>
  <separator name="vdW DFT" >
   <i type="logical" name="LUSE_VDW"> F  </i>
   <i type="int" name="IVDW_NL">     1</i>
   <i type="logical" name="LSPIN_VDW"> F  </i>
   <i name="Zab_VDW">     -0.84910000</i>
   <i name="PARAM1">      0.12340000</i>
   <i name="PARAM2">      1.00000000</i>
   <i name="PARAM3">      0.00000000</i>
  </separator>
  <separator name="model GW" >
   <i type="int" name="MODEL_GW">     0</i>
   <i name="MODEL_EPS0">      7.65869083</i>
   <i name="MODEL_ALPHA">      1.00000000</i>
  </separator>
  <separator name="linear response parameters" >
   <i type="logical" name="LEPSILON"> F  </i>
   <i type="logical" name="LRPA"> F  </i>
   <i type="logical" name="LNABLA"> F  </i>
   <i type="logical" name="LVEL"> F  </i>
   <i name="CSHIFT">      0.10000000</i>
   <i name="OMEGAMAX">     -1.00000000</i>
   <i name="DEG_THRESHOLD">      0.00200000</i>
   <i name="RTIME">     -0.10000000</i>
   <i name="WPLASMAI">      0.00000000</i>
   <v name="DFIELD">      0.00000000      0.00000000      0.00000000</v>
   <v name="WPLASMA">      0.00000000      0.00000000      0.00000000      0.00000000      0.00000000      0.00000000      0.00000000      0.00000000      0.00000000</v>
  </separator>
  <separator name="orbital magnetization" >
   <i type="logical" name="NUCIND"> F  </i>
   <v name="MAGPOS">      0.00000000      0.00000000      0.00000000</v>
   <i type="logical" name="LNICSALL"> T  </i>
   <i type="logical" name="ORBITALMAG"> F  </i>
   <i type="logical" name="LMAGBLOCH"> F  </i>
   <i type="logical" name="LCHIMAG"> F  </i>
   <i type="logical" name="LGAUGE"> T  </i>
   <i type="int" name="MAGATOM">     0</i>
   <v name="MAGDIPOL">      0.00000000      0.00000000      0.00000000</v>
   <v name="AVECCONST">      0.00000000      0.00000000      0.00000000</v>
  </separator>
  <separator name="response functions" >
   <i type="logical" name="LALL_IN_ONE"> F  </i>
   <i type="int" name="IALL_IN_ONE">    -1</i>
   <i type="int" name="NBANDS_WAVE">    -1</i>
   <i type="logical" name="LFINITE_TEMPERATURE"> F  </i>
   <i type="logical" name="LADDER"> F  </i>
   <i type="logical" name="LRPAFORCE"> F  </i>
   <i type="logical" name="LFXC"> F  </i>
   <i type="logical" name="LHARTREE"> T  </i>
   <i type="int" name="IBSE">     0</i>
   <v type="int" name="KPOINT">    -1     0     0     0</v>
   <i type="logical" name="LTCTC"> F  </i>
   <i type="logical" name="LTCTE"> F  </i>
   <i type="logical" name="LTETE"> F  </i>
   <i type="logical" name="LTRIPLET"> F  </i>
   <i type="logical" name="LFXCEPS"> F  </i>
   <i type="logical" name="LFXHEG"> F  </i>
   <i type="int" name="NATURALO">     2</i>
   <i type="logical" name="LHOLEGF"> F  </i>
   <i type="logical" name="L2ORDER"> F  </i>
   <i type="logical" name="LDMP1"> F  </i>
   <i type="logical" name="LMP2LT"> F  </i>
   <i type="logical" name="LSMP2LT"> F  </i>
   <i type="logical" name="LGWLF"> F  </i>
   <i name="ENCUTGW">     -1.60000002</i>
   <i name="ENCUTGWSOFT">     -1.60000002</i>
   <i name="ENCUTLF">     -1.00000000</i>
   <i type="logical" name="LESF_SPLINES"> F  </i>
   <i type="int" name="LMAXMP2">    -1</i>
   <i name="SCISSOR">      0.00000000</i>
   <i type="int" name="NOMEGA">     0</i>
   <i type="int" name="NOMEGAR">     0</i>
   <i type="int" name="NBANDSGW">    -1</i>
   <i type="int" name="NBANDSO">    -1</i>
   <i type="int" name="NBANDSV">    -1</i>
   <i type="int" name="NELMGW">     1</i>
   <i type="int" name="NELMHF">     1</i>
   <i type="int" name="DIM">     3</i>
   <i type="int" name="IESPILON">     4</i>
   <i type="int" name="ANTIRES">     0</i>
   <i name="OMEGAMAX">    -30.00000000</i>
   <i name="OMEGAMIN">    -30.00000000</i>
   <i name="OMEGATL">   -200.00000000</i>
   <i type="int" name="OMEGAGRID">     0</i>
   <i name="CSHIFT">     -0.10000000</i>
   <i type="logical" name="LSELFENERGY"> F  </i>
   <i type="logical" name="LSPECTRAL"> F  </i>
   <i type="logical" name="LSPECTRALGW"> F  </i>
   <i type="logical" name="LSINGLES"> F  </i>
   <i type="logical" name="LFERMIGW"> F  </i>
   <i type="logical" name="ODDONLYGW"> F  </i>
   <i type="logical" name="EVENONLYGW"> F  </i>
   <i type="int" name="NKREDLFX">     1</i>
   <i type="int" name="NKREDLFY">     1</i>
   <i type="int" name="NKREDLFZ">     1</i>
   <i type="int" name="MAXMEM">  2800</i>
   <i type="int" name="TELESCOPE">     0</i>
   <i type="int" name="NTAUPAR">    -1</i>
   <i type="int" name="NOMEGAPAR">    -1</i>
   <i name="DAMP_NEWTON">      0.80000001</i>
   <i name="LAMBDA">      1.00000000</i>
  </separator>
  <separator name="External order field" >
   <i name="OFIELD_KAPPA">      0.00000000</i>
   <v name="OFIELD_K">      0.00000000      0.00000000      0.00000000</v>
   <i name="OFIELD_Q6_NEAR">      0.00000000</i>
   <i name="OFIELD_Q6_FAR">      0.00000000</i>
   <i name="OFIELD_A">      0.00000000</i>
  </separator>
  <separator name="optional k-points parameters" >
   <i type="int" name="KPOINTS_OPT_MODE">     1</i>
   <i type="logical" name="LKPOINTS_OPT"> F  </i>
  </separator>
 </parameters>
 <atominfo>
  <atoms>       6 </atoms>
  <types>       2 </types>
  <array name="atoms" >
   <dimension dim="1">ion</dimension>
   <field type="string">element</field>
   <field type="int">atomtype</field>
   <set>
    <rc><c>Cu</c><c>   1</c></rc>
    <rc><c>Cu</c><c>   1</c></rc>
    <rc><c>Cu</c><c>   1</c></rc>
    <rc><c>Cu</c><c>   1</c></rc>
    <rc><c>O </c><c>   2</c></rc>
    <rc><c>O </c><c>   2</c></rc>
   </set>
  </array>
  <array name="atomtypes" >
   <dimension dim="1">type</dimension>
   <field type="int">atomspertype</field>
   <field type="string">element</field>
   <field>mass</field>
   <field>valence</field>
   <field type="string">pseudopotential</field>
   <set>
    <rc><c>   4</c><c>Cu</c><c>     63.54600000</c><c>     11.00000000</c><c>  PAW_PBE Cu 22Jun2005                  </c></rc>
    <rc><c>   2</c><c>O </c><c>     16.00000000</c><c>      6.00000000</c><c>  PAW_PBE O 08Apr2002                   </c></rc>
   </set>
  </array>
 </atominfo>
 <structure name="initialpos" >
  <crystal>
   <varray name="basis" >
    <v>       4.24669932      -0.00000000      -0.00000000 </v>
    <v>       0.00000000       4.24669932      -0.00000000 </v>
    <v>      -0.00000000       0.00000000       4.24669932 </v>
   </varray>
   <i name="volume">     76.58690827 </i>
   <varray name="rec_basis" >
    <v>       0.23547700       0.00000000       0.00000000 </v>
    <v>       0.00000000       0.23547700       0.00000000 </v>
    <v>       0.00000000       0.00000000       0.23547700 </v>
   </varray>
  </crystal>
  <varray name="positions" >
   <v>       0.50000000       0.50000000       0.00000000 </v>
   <v>       0.00000000       0.50000000       0.50000000 </v>
   <v>       0.50000000       0.00000000       0.50000000 </v>
   <v>       0.00000000       0.00000000       0.00000000 </v>
   <v>       0.75000000       0.75000000       0.75000000 </v>
   <v>       0.25000000       0.25000000       0.25000000 </v>
  </varray>
 </structure>
 <calculation>
  <scstep>
   <time name="dav">    0.99    0.99</time>
   <time name="total">    1.03    1.02</time>
   <energy>
    <i name="alphaZ">    228.31989324 </i>
    <i name="ewald">  -4565.41384850 </i>
    <i name="hartreedc">  -2003.93564794 </i>
    <i name="XCdc">    237.11341687 </i>
    <i name="pawpsdc">   5605.92559329 </i>
    <i name="pawaedc">  -6032.89016362 </i>
    <i name="eentropy">     -0.00156436 </i>
    <i name="bandstr">    651.03929224 </i>
    <i name="atom">   6428.61905018 </i>
    <i name="e_fr_energy">    548.77602140 </i>
    <i name="e_wo_entrp">    548.77758576 </i>
    <i name="e_0_energy">    548.77680358 </i>
   </energy>
  </scstep>
  <scstep>
   <time name="dav">    0.77    0.77</time>
   <time name="total">    0.77    0.77</time>
   <energy>
    <i name="e_fr_energy">     64.05983709 </i>
    <i name="e_wo_entrp">     64.06232593 </i>
    <i name="e_0_energy">     64.06108151 </i>
   </energy>
  </scstep>
  <scstep>
   <time name="dav">    1.04    1.04</time>
   <time name="total">    1.04    1.04</time>
   <energy>
    <i name="e_fr_energy">    -27.53034893 </i>
    <i name="e_wo_entrp">    -27.53007030 </i>
    <i name="e_0_energy">    -27.53020962 </i>
   </energy>
  </scstep>
  <scstep>
   <time name="dav">    1.11    1.11</time>
   <time name="total">    1.11    1.11</time>
   <energy>
    <i name="e_fr_energy">    -33.30936852 </i>
    <i name="e_wo_entrp">    -33.30926113 </i>
    <i name="e_0_energy">    -33.30931483 </i>
   </energy>
  </scstep>
  <scstep>
   <time name="dav">    1.04    1.04</time>
   <time name="total">    1.13    1.13</time>
   <energy>
    <i name="e_fr_energy">    -33.38192089 </i>
    <i name="e_wo_entrp">    -33.38181666 </i>
    <i name="e_0_energy">    -33.38186878 </i>
   </energy>
  </scstep>
  <scstep>
   <time name="dav">    1.04    1.04</time>
   <time name="total">    1.15    1.14</time>
   <energy>
    <i name="e_fr_energy">    -30.36559413 </i>
    <i name="e_wo_entrp">    -30.36559413 </i>
    <i name="e_0_energy">    -30.36559413 </i>
   </energy>
  </scstep>
  <scstep>
   <time name="dav">    1.01    1.01</time>
   <time name="total">    1.12    1.11</time>
   <energy>
    <i name="e_fr_energy">    -27.13546921 </i>
    <i name="e_wo_entrp">    -27.13546921 </i>
    <i name="e_0_energy">    -27.13546921 </i>
   </energy>
  </scstep>
  <scstep>
   <time name="dav">    0.95    0.95</time>
   <time name="total">    1.06    1.05</time>
   <energy>
    <i name="e_fr_energy">    -27.23106838 </i>
    <i name="e_wo_entrp">    -27.23106838 </i>
    <i name="e_0_energy">    -27.23106838 </i>
   </energy>
  </scstep>
  <scstep>
   <time name="dav">    1.09    1.09</time>
   <time name="total">    1.19    1.18</time>
   <energy>
    <i name="e_fr_energy">    -27.20490404 </i>
    <i name="e_wo_entrp">    -27.20490404 </i>
    <i name="e_0_energy">    -27.20490404 </i>
   </energy>
  </scstep>
  <scstep>
   <time name="dav">    1.04    1.04</time>
   <time name="total">    1.15    1.14</time>
   <energy>
    <i name="e_fr_energy">    -27.19975103 </i>
    <i name="e_wo_entrp">    -27.19975103 </i>
    <i name="e_0_energy">    -27.19975103 </i>
   </energy>
  </scstep>
  <scstep>
   <time name="dav">    1.22    1.22</time>
   <time name="total">    1.33    1.31</time>
   <energy>
    <i name="e_fr_energy">    -27.19873029 </i>
    <i name="e_wo_entrp">    -27.19873029 </i>
    <i name="e_0_energy">    -27.19873029 </i>
   </energy>
  </scstep>
  <scstep>
   <time name="dav">    1.10    1.10</time>
   <time name="total">    1.21    1.20</time>
   <energy>
    <i name="e_fr_energy">    -27.19859428 </i>
    <i name="e_wo_entrp">    -27.19859428 </i>
    <i name="e_0_energy">    -27.19859428 </i>
   </energy>
  </scstep>
  <scstep>
   <time name="dav">    1.05    1.05</time>
   <time name="total">    1.16    1.14</time>
   <energy>
    <i name="e_fr_energy">    -27.19860699 </i>
    <i name="e_wo_entrp">    -27.19860699 </i>
    <i name="e_0_energy">    -27.19860699 </i>
   </energy>
  </scstep>
  <scstep>
   <time name="dav">    0.90    0.90</time>
   <time name="total">    0.92    0.91</time>
   <energy>
    <i name="alphaZ">    228.31989324 </i>
    <i name="ewald">  -4565.41384850 </i>
    <i name="hartreedc">  -1953.39589730 </i>
    <i name="XCdc">    235.35662425 </i>
    <i name="pawpsdc">   6223.38927104 </i>
    <i name="pawaedc">  -6661.04387657 </i>
    <i name="eentropy">     -0.00000000 </i>
    <i name="bandstr">     36.97017688 </i>
    <i name="atom">   6428.61905018 </i>
    <i name="e_fr_energy">    -27.19860677 </i>
    <i name="e_wo_entrp">    -27.19860677 </i>
    <i name="e_0_energy">    -27.19860677 </i>
   </energy>
  </scstep>
  <structure>
   <crystal>
    <varray name="basis" >
     <v>       4.24669932      -0.00000000      -0.00000000 </v>
     <v>       0.00000000       4.24669932      -0.00000000 </v>
     <v>      -0.00000000       0.00000000       4.24669932 </v>
    </varray>
    <i name="volume">     76.58690827 </i>
    <varray name="rec_basis" >
     <v>       0.23547700       0.00000000       0.00000000 </v>
     <v>       0.00000000       0.23547700       0.00000000 </v>
     <v>       0.00000000       0.00000000       0.23547700 </v>
    </varray>
   </crystal>
   <varray name="positions" >
    <v>       0.50000000       0.50000000       0.00000000 </v>
    <v>       0.00000000       0.50000000       0.50000000 </v>
    <v>       0.50000000       0.00000000       0.50000000 </v>
    <v>       0.00000000       0.00000000       0.00000000 </v>
    <v>       0.75000000       0.75000000       0.75000000 </v>
    <v>       0.25000000       0.25000000       0.25000000 </v>
   </varray>
  </structure>
  <varray name="forces" >
   <v>       0.00000000       0.00000000      -0.00000000 </v>
   <v>      -0.00000000       0.00000000      -0.00000000 </v>
   <v>      -0.00000000       0.00000000      -0.00000000 </v>
   <v>       0.00000000       0.00000000      -0.00000000 </v>
   <v>       0.00000000      -0.00000000       0.00000000 </v>
   <v>       0.00000000       0.00000000      -0.00000000 </v>
  </varray>
  <varray name="stress" >
   <v>      54.04758147      -0.00000000       0.00000000 </v>
   <v>      -0.00000000      54.04758147       0.00000000 </v>
   <v>      -0.00000000       0.00000000      54.04758147 </v>
  </varray>
  <energy>
   <i name="e_fr_energy">    -27.19860677 </i>
   <i name="e_wo_entrp">    -27.19860677 </i>
   <i name="e_0_energy">    -27.19860677 </i>
  </energy>
  <time name="totalsc">   17.95   17.72</time>
  <eigenvalues>
   <array>
    <dimension dim="1">band</dimension>
    <dimension dim="2">kpoint</dimension>
    <dimension dim="3">spin</dimension>
    <field>eigene</field>
    <field>occ</field>
    <set>
     <set comment="spin 1">
      <set comment="kpoint 1">
       <r>  -15.3564    1.0000 </r>
       <r>  -14.5999    1.0000 </r>
       <r>   -2.4487    1.0000 </r>
       <r>   -2.4487    1.0000 </r>
       <r>   -2.4487    1.0000 </r>
       <r>   -0.0427    1.0000 </r>
       <r>    0.0211    1.0000 </r>
       <r>    0.0211    1.0000 </r>
       <r>    0.0211    1.0000 </r>
       <r>    1.8165    1.0000 </r>
       <r>    1.8165    1.0000 </r>
       <r>    1.9420    1.0000 </r>
       <r>    1.9420    1.0000 </r>
       <r>    1.9420    1.0000 </r>
       <r>    2.8398    1.0000 </r>
       <r>    2.8398    1.0000 </r>
       <r>    2.9494    1.0000 </r>
       <r>    2.9494    1.0000 </r>
       <r>    2.9494    1.0000 </r>
       <r>    3.1117    1.0000 </r>
       <r>    3.1117    1.0000 </r>
       <r>    3.1117    1.0000 </r>
       <r>    3.2804    1.0000 </r>
       <r>    3.2804    1.0000 </r>
       <r>    3.2804    1.0000 </r>
       <r>    4.8847    1.0000 </r>
       <r>    4.8847    1.0000 </r>
       <r>    4.8847    1.0000 </r>
       <r>    5.4238    0.0000 </r>
       <r>    6.0991    0.0000 </r>
       <r>    6.0991    0.0000 </r>
       <r>   12.8826    0.0000 </r>
       <r>   12.8826    0.0000 </r>
      </set>
      <set comment="kpoint 2">
       <r>  -15.3273    1.0000 </r>
       <r>  -14.6281    1.0000 </r>
       <r>   -2.4091    1.0000 </r>
       <r>   -2.3899    1.0000 </r>
       <r>   -2.3899    1.0000 </r>
       <r>   -0.4280    1.0000 </r>
       <r>   -0.1372    1.0000 </r>
       <r>   -0.1372    1.0000 </r>
       <r>    0.3184    1.0000 </r>
       <r>    1.8442    1.0000 </r>
       <r>    1.9136    1.0000 </r>
       <r>    1.9445    1.0000 </r>
       <r>    2.0609    1.0000 </r>
       <r>    2.0609    1.0000 </r>
       <r>    2.8337    1.0000 </r>
       <r>    2.8510    1.0000 </r>
       <r>    2.9153    1.0000 </r>
       <r>    2.9797    1.0000 </r>
       <r>    2.9797    1.0000 </r>
       <r>    3.0699    1.0000 </r>
       <r>    3.1359    1.0000 </r>
       <r>    3.1359    1.0000 </r>
       <r>    3.1852    1.0000 </r>
       <r>    3.2674    1.0000 </r>
       <r>    3.2674    1.0000 </r>
       <r>    4.2892    1.0000 </r>
       <r>    4.8454    1.0000 </r>
       <r>    4.8454    1.0000 </r>
       <r>    5.5621    0.0000 </r>
       <r>    6.3544    0.0000 </r>
       <r>    6.7361    0.0000 </r>
       <r>   12.5501    0.0000 </r>
       <r>   12.8047    0.0000 </r>
      </set>
      <set comment="kpoint 3">
       <r>  -15.2448    1.0000 </r>
       <r>  -14.7089    1.0000 </r>
       <r>   -2.2872    1.0000 </r>
       <r>   -2.2225    1.0000 </r>
       <r>   -2.2225    1.0000 </r>
       <r>   -0.9059    1.0000 </r>
       <r>   -0.4973    1.0000 </r>
       <r>   -0.4973    1.0000 </r>
       <r>    0.6317    1.0000 </r>
       <r>    1.9246    1.0000 </r>
       <r>    1.9286    1.0000 </r>
       <r>    2.1158    1.0000 </r>
       <r>    2.3012    1.0000 </r>
       <r>    2.3012    1.0000 </r>
       <r>    2.8126    1.0000 </r>
       <r>    2.8166    1.0000 </r>
       <r>    2.8387    1.0000 </r>
       <r>    2.8831    1.0000 </r>
       <r>    2.9854    1.0000 </r>
       <r>    2.9854    1.0000 </r>
       <r>    3.1033    1.0000 </r>
       <r>    3.1978    1.0000 </r>
       <r>    3.1978    1.0000 </r>
       <r>    3.3174    1.0000 </r>
       <r>    3.3174    1.0000 </r>
       <r>    3.5075    1.0000 </r>
       <r>    4.7327    1.0000 </r>
       <r>    4.7327    1.0000 </r>
       <r>    5.9563    0.0000 </r>
       <r>    7.0225    0.0000 </r>
       <r>    7.4831    0.0000 </r>
       <r>   11.8974    0.0000 </r>
       <r>   12.3106    0.0000 </r>
      </set>
      <set comment="kpoint 4">
       <r>  -15.1209    1.0000 </r>
       <r>  -14.8306    1.0000 </r>
       <r>   -2.0757    1.0000 </r>
       <r>   -1.9845    1.0000 </r>
       <r>   -1.9845    1.0000 </r>
       <r>   -1.3708    1.0000 </r>
       <r>   -0.8880    1.0000 </r>
       <r>   -0.8880    1.0000 </r>
       <r>    1.0004    1.0000 </r>
       <r>    1.7777    1.0000 </r>
       <r>    2.0726    1.0000 </r>
       <r>    2.3095    1.0000 </r>
       <r>    2.5278    1.0000 </r>
       <r>    2.5278    1.0000 </r>
       <r>    2.5415    1.0000 </r>
       <r>    2.6362    1.0000 </r>
       <r>    2.8021    1.0000 </r>
       <r>    2.9102    1.0000 </r>
       <r>    2.9102    1.0000 </r>
       <r>    2.9314    1.0000 </r>
       <r>    3.0122    1.0000 </r>
       <r>    3.0481    1.0000 </r>
       <r>    3.1784    1.0000 </r>
       <r>    3.1784    1.0000 </r>
       <r>    3.5487    1.0000 </r>
       <r>    3.5487    1.0000 </r>
       <r>    4.5752    1.0000 </r>
       <r>    4.5752    1.0000 </r>
       <r>    6.5340    0.0000 </r>
       <r>    7.6026    0.0000 </r>
       <r>    7.9673    0.0000 </r>
       <r>   10.4405    0.0000 </r>
       <r>   12.4344    0.0000 </r>
      </set>
      <set comment="kpoint 5">
       <r>  -14.9753    1.0000 </r>
       <r>  -14.9753    1.0000 </r>
       <r>   -1.8284    1.0000 </r>
       <r>   -1.8284    1.0000 </r>
       <r>   -1.7688    1.0000 </r>
       <r>   -1.7688    1.0000 </r>
       <r>   -1.0995    1.0000 </r>
       <r>   -1.0995    1.0000 </r>
       <r>    1.4203    1.0000 </r>
       <r>    1.4203    1.0000 </r>
       <r>    2.2782    1.0000 </r>
       <r>    2.2782    1.0000 </r>
       <r>    2.4656    1.0000 </r>
       <r>    2.4656    1.0000 </r>
       <r>    2.6619    1.0000 </r>
       <r>    2.6619    1.0000 </r>
       <r>    2.8220    1.0000 </r>
       <r>    2.8220    1.0000 </r>
       <r>    2.8359    1.0000 </r>
       <r>    2.8359    1.0000 </r>
       <r>    2.9891    1.0000 </r>
       <r>    2.9891    1.0000 </r>
       <r>    3.1701    1.0000 </r>
       <r>    3.1701    1.0000 </r>
       <r>    3.6832    1.0000 </r>
       <r>    3.6832    1.0000 </r>
       <r>    4.4807    1.0000 </r>
       <r>    4.4807    1.0000 </r>
       <r>    7.1605    0.0000 </r>
       <r>    7.1605    0.0000 </r>
       <r>    9.1183    0.0000 </r>
       <r>    9.1183    0.0000 </r>
       <r>   12.3743    0.0000 </r>
      </set>
      <set comment="kpoint 6">
       <r>  -15.3001    1.0000 </r>
       <r>  -14.6537    1.0000 </r>
       <r>   -2.4613    1.0000 </r>
       <r>   -2.3361    1.0000 </r>
       <r>   -2.2460    1.0000 </r>
       <r>   -0.7072    1.0000 </r>
       <r>   -0.2651    1.0000 </r>
       <r>   -0.1301    1.0000 </r>
       <r>    0.4034    1.0000 </r>
       <r>    1.8762    1.0000 </r>
       <r>    1.9677    1.0000 </r>
       <r>    1.9751    1.0000 </r>
       <r>    2.1133    1.0000 </r>
       <r>    2.1671    1.0000 </r>
       <r>    2.8302    1.0000 </r>
       <r>    2.8413    1.0000 </r>
       <r>    2.9110    1.0000 </r>
       <r>    2.9600    1.0000 </r>
       <r>    3.0286    1.0000 </r>
       <r>    3.0813    1.0000 </r>
       <r>    3.1174    1.0000 </r>
       <r>    3.1434    1.0000 </r>
       <r>    3.1674    1.0000 </r>
       <r>    3.1750    1.0000 </r>
       <r>    3.2612    1.0000 </r>
       <r>    4.1647    1.0000 </r>
       <r>    4.5750    1.0000 </r>
       <r>    4.8072    1.0000 </r>
       <r>    5.6955    0.0000 </r>
       <r>    6.7344    0.0000 </r>
       <r>    7.0178    0.0000 </r>
       <r>   11.9509    0.0000 </r>
       <r>   12.4897    0.0000 </r>
      </set>
      <set comment="kpoint 7">
       <r>  -15.2226    1.0000 </r>
       <r>  -14.7271    1.0000 </r>
       <r>   -2.4245    1.0000 </r>
       <r>   -2.1870    1.0000 </r>
       <r>   -2.0133    1.0000 </r>
       <r>   -1.1387    1.0000 </r>
       <r>   -0.5709    1.0000 </r>
       <r>   -0.3921    1.0000 </r>
       <r>    0.6809    1.0000 </r>
       <r>    1.9463    1.0000 </r>
       <r>    1.9672    1.0000 </r>
       <r>    2.1415    1.0000 </r>
       <r>    2.2743    1.0000 </r>
       <r>    2.3664    1.0000 </r>
       <r>    2.7940    1.0000 </r>
       <r>    2.7981    1.0000 </r>
       <r>    2.8070    1.0000 </r>
       <r>    2.8618    1.0000 </r>
       <r>    3.0000    1.0000 </r>
       <r>    3.0527    1.0000 </r>
       <r>    3.0722    1.0000 </r>
       <r>    3.1074    1.0000 </r>
       <r>    3.1791    1.0000 </r>
       <r>    3.2875    1.0000 </r>
       <r>    3.3239    1.0000 </r>
       <r>    3.6368    1.0000 </r>
       <r>    4.5244    1.0000 </r>
       <r>    4.6981    1.0000 </r>
       <r>    6.0688    0.0000 </r>
       <r>    7.2455    0.0000 </r>
       <r>    7.6279    0.0000 </r>
       <r>   11.2730    0.0000 </r>
       <r>   11.5463    0.0000 </r>
      </set>
      <set comment="kpoint 8">
       <r>  -15.1072    1.0000 </r>
       <r>  -14.8387    1.0000 </r>
       <r>   -2.2892    1.0000 </r>
       <r>   -2.0120    1.0000 </r>
       <r>   -1.7339    1.0000 </r>
       <r>   -1.4997    1.0000 </r>
       <r>   -0.9122    1.0000 </r>
       <r>   -0.7609    1.0000 </r>
       <r>    1.0489    1.0000 </r>
       <r>    1.8169    1.0000 </r>
       <r>    2.0740    1.0000 </r>
       <r>    2.3193    1.0000 </r>
       <r>    2.4271    1.0000 </r>
       <r>    2.5415    1.0000 </r>
       <r>    2.5476    1.0000 </r>
       <r>    2.6207    1.0000 </r>
       <r>    2.7618    1.0000 </r>
       <r>    2.9141    1.0000 </r>
       <r>    2.9179    1.0000 </r>
       <r>    2.9702    1.0000 </r>
       <r>    2.9880    1.0000 </r>
       <r>    3.0499    1.0000 </r>
       <r>    3.1839    1.0000 </r>
       <r>    3.2797    1.0000 </r>
       <r>    3.5326    1.0000 </r>
       <r>    3.5555    1.0000 </r>
       <r>    4.4687    1.0000 </r>
       <r>    4.5443    1.0000 </r>
       <r>    6.6055    0.0000 </r>
       <r>    7.6010    0.0000 </r>
       <r>    8.0795    0.0000 </r>
       <r>   10.0853    0.0000 </r>
       <r>   11.7847    0.0000 </r>
      </set>
      <set comment="kpoint 9">
       <r>  -14.9720    1.0000 </r>
       <r>  -14.9720    1.0000 </r>
       <r>   -2.0814    1.0000 </r>
       <r>   -2.0814    1.0000 </r>
       <r>   -1.5688    1.0000 </r>
       <r>   -1.5688    1.0000 </r>
       <r>   -1.0429    1.0000 </r>
       <r>   -1.0429    1.0000 </r>
       <r>    1.4630    1.0000 </r>
       <r>    1.4630    1.0000 </r>
       <r>    2.2597    1.0000 </r>
       <r>    2.2597    1.0000 </r>
       <r>    2.4547    1.0000 </r>
       <r>    2.4547    1.0000 </r>
       <r>    2.6016    1.0000 </r>
       <r>    2.6016    1.0000 </r>
       <r>    2.8019    1.0000 </r>
       <r>    2.8019    1.0000 </r>
       <r>    2.9270    1.0000 </r>
       <r>    2.9270    1.0000 </r>
       <r>    2.9858    1.0000 </r>
       <r>    2.9858    1.0000 </r>
       <r>    3.2017    1.0000 </r>
       <r>    3.2017    1.0000 </r>
       <r>    3.6630    1.0000 </r>
       <r>    3.6630    1.0000 </r>
       <r>    4.4351    1.0000 </r>
       <r>    4.4351    1.0000 </r>
       <r>    7.1887    0.0000 </r>
       <r>    7.1887    0.0000 </r>
       <r>    8.9979    0.0000 </r>
       <r>    8.9979    0.0000 </r>
       <r>   12.2946    0.0000 </r>
      </set>
      <set comment="kpoint 10">
       <r>  -15.1603    1.0000 </r>
       <r>  -14.7803    1.0000 </r>
       <r>   -2.4987    1.0000 </r>
       <r>   -2.1124    1.0000 </r>
       <r>   -1.7296    1.0000 </r>
       <r>   -1.4697    1.0000 </r>
       <r>   -0.7596    1.0000 </r>
       <r>   -0.4191    1.0000 </r>
       <r>    0.8778    1.0000 </r>
       <r>    1.9922    1.0000 </r>
       <r>    2.0359    1.0000 </r>
       <r>    2.2422    1.0000 </r>
       <r>    2.2476    1.0000 </r>
       <r>    2.4850    1.0000 </r>
       <r>    2.6514    1.0000 </r>
       <r>    2.6935    1.0000 </r>
       <r>    2.7770    1.0000 </r>
       <r>    2.8365    1.0000 </r>
       <r>    2.9298    1.0000 </r>
       <r>    3.0245    1.0000 </r>
       <r>    3.0895    1.0000 </r>
       <r>    3.1033    1.0000 </r>
       <r>    3.1873    1.0000 </r>
       <r>    3.3752    1.0000 </r>
       <r>    3.3845    1.0000 </r>
       <r>    3.6235    1.0000 </r>
       <r>    4.3009    1.0000 </r>
       <r>    4.5999    1.0000 </r>
       <r>    6.3633    0.0000 </r>
       <r>    7.4308    0.0000 </r>
       <r>    8.0606    0.0000 </r>
       <r>   10.3001    0.0000 </r>
       <r>   11.1566    0.0000 </r>
      </set>
      <set comment="kpoint 11">
       <r>  -15.0687    1.0000 </r>
       <r>  -14.8628    1.0000 </r>
       <r>   -2.4685    1.0000 </r>
       <r>   -2.1531    1.0000 </r>
       <r>   -1.5836    1.0000 </r>
       <r>   -1.4603    1.0000 </r>
       <r>   -0.9648    1.0000 </r>
       <r>   -0.6343    1.0000 </r>
       <r>    1.2064    1.0000 </r>
       <r>    1.9119    1.0000 </r>
       <r>    2.0772    1.0000 </r>
       <r>    2.2824    1.0000 </r>
       <r>    2.3789    1.0000 </r>
       <r>    2.4962    1.0000 </r>
       <r>    2.5588    1.0000 </r>
       <r>    2.5657    1.0000 </r>
       <r>    2.7399    1.0000 </r>
       <r>    2.8582    1.0000 </r>
       <r>    2.8900    1.0000 </r>
       <r>    2.9802    1.0000 </r>
       <r>    3.0316    1.0000 </r>
       <r>    3.0538    1.0000 </r>
       <r>    3.2419    1.0000 </r>
       <r>    3.4169    1.0000 </r>
       <r>    3.5213    1.0000 </r>
       <r>    3.5705    1.0000 </r>
       <r>    4.2861    1.0000 </r>
       <r>    4.4607    1.0000 </r>
       <r>    6.7481    0.0000 </r>
       <r>    7.4121    0.0000 </r>
       <r>    8.3843    0.0000 </r>
       <r>    9.4472    0.0000 </r>
       <r>   11.5604    0.0000 </r>
      </set>
      <set comment="kpoint 12">
       <r>  -14.9638    1.0000 </r>
       <r>  -14.9638    1.0000 </r>
       <r>   -2.3350    1.0000 </r>
       <r>   -2.3350    1.0000 </r>
       <r>   -1.4494    1.0000 </r>
       <r>   -1.4494    1.0000 </r>
       <r>   -0.9039    1.0000 </r>
       <r>   -0.9039    1.0000 </r>
       <r>    1.5844    1.0000 </r>
       <r>    1.5844    1.0000 </r>
       <r>    2.2000    1.0000 </r>
       <r>    2.2000    1.0000 </r>
       <r>    2.4713    1.0000 </r>
       <r>    2.4713    1.0000 </r>
       <r>    2.5342    1.0000 </r>
       <r>    2.5342    1.0000 </r>
       <r>    2.7785    1.0000 </r>
       <r>    2.7785    1.0000 </r>
       <r>    2.9688    1.0000 </r>
       <r>    2.9688    1.0000 </r>
       <r>    2.9854    1.0000 </r>
       <r>    2.9854    1.0000 </r>
       <r>    3.2979    1.0000 </r>
       <r>    3.2979    1.0000 </r>
       <r>    3.6311    1.0000 </r>
       <r>    3.6311    1.0000 </r>
       <r>    4.3368    1.0000 </r>
       <r>    4.3368    1.0000 </r>
       <r>    7.1359    0.0000 </r>
       <r>    7.1359    0.0000 </r>
       <r>    8.8026    0.0000 </r>
       <r>    8.8026    0.0000 </r>
       <r>   12.0701    0.0000 </r>
      </set>
      <set comment="kpoint 13">
       <r>  -15.0146    1.0000 </r>
       <r>  -14.9028    1.0000 </r>
       <r>   -2.5469    1.0000 </r>
       <r>   -2.3609    1.0000 </r>
       <r>   -1.5184    1.0000 </r>
       <r>   -1.3294    1.0000 </r>
       <r>   -0.9383    1.0000 </r>
       <r>   -0.6486    1.0000 </r>
       <r>    1.4623    1.0000 </r>
       <r>    1.9447    1.0000 </r>
       <r>    2.0941    1.0000 </r>
       <r>    2.1565    1.0000 </r>
       <r>    2.4687    1.0000 </r>
       <r>    2.4727    1.0000 </r>
       <r>    2.5365    1.0000 </r>
       <r>    2.5690    1.0000 </r>
       <r>    2.7067    1.0000 </r>
       <r>    2.7834    1.0000 </r>
       <r>    2.9047    1.0000 </r>
       <r>    2.9584    1.0000 </r>
       <r>    2.9921    1.0000 </r>
       <r>    3.0245    1.0000 </r>
       <r>    3.3172    1.0000 </r>
       <r>    3.4430    1.0000 </r>
       <r>    3.5784    1.0000 </r>
       <r>    3.6170    1.0000 </r>
       <r>    4.2109    1.0000 </r>
       <r>    4.3495    1.0000 </r>
       <r>    6.8440    0.0000 </r>
       <r>    7.1221    0.0000 </r>
       <r>    8.6036    0.0000 </r>
       <r>    8.9777    0.0000 </r>
       <r>   11.9329    0.0000 </r>
      </set>
      <set comment="kpoint 14">
       <r>  -14.9558    1.0000 </r>
       <r>  -14.9558    1.0000 </r>
       <r>   -2.5087    1.0000 </r>
       <r>   -2.5087    1.0000 </r>
       <r>   -1.4022    1.0000 </r>
       <r>   -1.4022    1.0000 </r>
       <r>   -0.7790    1.0000 </r>
       <r>   -0.7790    1.0000 </r>
       <r>    1.7459    1.0000 </r>
       <r>    1.7459    1.0000 </r>
       <r>    2.1240    1.0000 </r>
       <r>    2.1240    1.0000 </r>
       <r>    2.5204    1.0000 </r>
       <r>    2.5204    1.0000 </r>
       <r>    2.5314    1.0000 </r>
       <r>    2.5314    1.0000 </r>
       <r>    2.7169    1.0000 </r>
       <r>    2.7169    1.0000 </r>
       <r>    2.9446    1.0000 </r>
       <r>    2.9446    1.0000 </r>
       <r>    2.9660    1.0000 </r>
       <r>    2.9660    1.0000 </r>
       <r>    3.3765    1.0000 </r>
       <r>    3.3765    1.0000 </r>
       <r>    3.6438    1.0000 </r>
       <r>    3.6438    1.0000 </r>
       <r>    4.2503    1.0000 </r>
       <r>    4.2503    1.0000 </r>
       <r>    6.9237    0.0000 </r>
       <r>    6.9237    0.0000 </r>
       <r>    8.7461    0.0000 </r>
       <r>    8.7461    0.0000 </r>
       <r>   11.8240    0.0000 </r>
      </set>
      <set comment="kpoint 15">
       <r>  -14.9525    1.0000 </r>
       <r>  -14.9525    1.0000 </r>
       <r>   -2.5702    1.0000 </r>
       <r>   -2.5702    1.0000 </r>
       <r>   -1.3895    1.0000 </r>
       <r>   -1.3895    1.0000 </r>
       <r>   -0.7327    1.0000 </r>
       <r>   -0.7327    1.0000 </r>
       <r>    1.8387    1.0000 </r>
       <r>    1.8387    1.0000 </r>
       <r>    2.0765    1.0000 </r>
       <r>    2.0765    1.0000 </r>
       <r>    2.5387    1.0000 </r>
       <r>    2.5387    1.0000 </r>
       <r>    2.5727    1.0000 </r>
       <r>    2.5727    1.0000 </r>
       <r>    2.6702    1.0000 </r>
       <r>    2.6702    1.0000 </r>
       <r>    2.9307    1.0000 </r>
       <r>    2.9307    1.0000 </r>
       <r>    2.9348    1.0000 </r>
       <r>    2.9348    1.0000 </r>
       <r>    3.3950    1.0000 </r>
       <r>    3.3950    1.0000 </r>
       <r>    3.6690    1.0000 </r>
       <r>    3.6690    1.0000 </r>
       <r>    4.2170    1.0000 </r>
       <r>    4.2170    1.0000 </r>
       <r>    6.8022    0.0000 </r>
       <r>    6.8022    0.0000 </r>
       <r>    8.7508    0.0000 </r>
       <r>    8.7508    0.0000 </r>
       <r>   11.7272    0.0000 </r>
      </set>
      <set comment="kpoint 16">
       <r>  -15.2748    1.0000 </r>
       <r>  -14.6766    1.0000 </r>
       <r>   -2.4057    1.0000 </r>
       <r>   -2.4057    1.0000 </r>
       <r>   -2.0981    1.0000 </r>
       <r>   -0.9258    1.0000 </r>
       <r>   -0.2578    1.0000 </r>
       <r>   -0.2578    1.0000 </r>
       <r>    0.4868    1.0000 </r>
       <r>    1.9183    1.0000 </r>
       <r>    1.9183    1.0000 </r>
       <r>    2.1395    1.0000 </r>
       <r>    2.1395    1.0000 </r>
       <r>    2.2084    1.0000 </r>
       <r>    2.8195    1.0000 </r>
       <r>    2.8195    1.0000 </r>
       <r>    2.9216    1.0000 </r>
       <r>    2.9216    1.0000 </r>
       <r>    3.0665    1.0000 </r>
       <r>    3.0779    1.0000 </r>
       <r>    3.1170    1.0000 </r>
       <r>    3.1170    1.0000 </r>
       <r>    3.1634    1.0000 </r>
       <r>    3.1634    1.0000 </r>
       <r>    3.2067    1.0000 </r>
       <r>    4.2531    1.0000 </r>
       <r>    4.2531    1.0000 </r>
       <r>    4.7579    1.0000 </r>
       <r>    5.8256    0.0000 </r>
       <r>    7.1337    0.0000 </r>
       <r>    7.1337    0.0000 </r>
       <r>   11.4002    0.0000 </r>
       <r>   12.3471    0.0000 </r>
      </set>
      <set comment="kpoint 17">
       <r>  -15.2032    1.0000 </r>
       <r>  -14.7422    1.0000 </r>
       <r>   -2.4194    1.0000 </r>
       <r>   -2.2497    1.0000 </r>
       <r>   -1.8634    1.0000 </r>
       <r>   -1.2988    1.0000 </r>
       <r>   -0.5617    1.0000 </r>
       <r>   -0.4287    1.0000 </r>
       <r>    0.7413    1.0000 </r>
       <r>    1.9592    1.0000 </r>
       <r>    1.9688    1.0000 </r>
       <r>    2.1983    1.0000 </r>
       <r>    2.3363    1.0000 </r>
       <r>    2.3582    1.0000 </r>
       <r>    2.7568    1.0000 </r>
       <r>    2.7591    1.0000 </r>
       <r>    2.7909    1.0000 </r>
       <r>    2.8369    1.0000 </r>
       <r>    2.9933    1.0000 </r>
       <r>    3.0668    1.0000 </r>
       <r>    3.0840    1.0000 </r>
       <r>    3.1066    1.0000 </r>
       <r>    3.1638    1.0000 </r>
       <r>    3.2817    1.0000 </r>
       <r>    3.2930    1.0000 </r>
       <r>    3.7470    1.0000 </r>
       <r>    4.3737    1.0000 </r>
       <r>    4.6443    1.0000 </r>
       <r>    6.1832    0.0000 </r>
       <r>    7.4900    0.0000 </r>
       <r>    7.6959    0.0000 </r>
       <r>   10.9043    0.0000 </r>
       <r>   11.0638    0.0000 </r>
      </set>
      <set comment="kpoint 18">
       <r>  -15.0982    1.0000 </r>
       <r>  -14.8414    1.0000 </r>
       <r>   -2.3428    1.0000 </r>
       <r>   -2.0363    1.0000 </r>
       <r>   -1.7866    1.0000 </r>
       <r>   -1.4430    1.0000 </r>
       <r>   -0.8974    1.0000 </r>
       <r>   -0.7278    1.0000 </r>
       <r>    1.0971    1.0000 </r>
       <r>    1.8426    1.0000 </r>
       <r>    2.0650    1.0000 </r>
       <r>    2.3159    1.0000 </r>
       <r>    2.4631    1.0000 </r>
       <r>    2.4745    1.0000 </r>
       <r>    2.5852    1.0000 </r>
       <r>    2.5931    1.0000 </r>
       <r>    2.7109    1.0000 </r>
       <r>    2.8836    1.0000 </r>
       <r>    2.9154    1.0000 </r>
       <r>    2.9981    1.0000 </r>
       <r>    3.0557    1.0000 </r>
       <r>    3.0653    1.0000 </r>
       <r>    3.1367    1.0000 </r>
       <r>    3.3564    1.0000 </r>
       <r>    3.4825    1.0000 </r>
       <r>    3.5987    1.0000 </r>
       <r>    4.4068    1.0000 </r>
       <r>    4.4885    1.0000 </r>
       <r>    6.6883    0.0000 </r>
       <r>    7.7045    0.0000 </r>
       <r>    8.0757    0.0000 </r>
       <r>    9.9391    0.0000 </r>
       <r>   10.9973    0.0000 </r>
      </set>
      <set comment="kpoint 19">
       <r>  -15.0041    1.0000 </r>
       <r>  -14.9329    1.0000 </r>
       <r>   -2.2509    1.0000 </r>
       <r>   -1.9405    1.0000 </r>
       <r>   -1.9076    1.0000 </r>
       <r>   -1.2573    1.0000 </r>
       <r>   -1.0713    1.0000 </r>
       <r>   -0.9623    1.0000 </r>
       <r>    1.4591    1.0000 </r>
       <r>    1.5408    1.0000 </r>
       <r>    2.1779    1.0000 </r>
       <r>    2.3183    1.0000 </r>
       <r>    2.3891    1.0000 </r>
       <r>    2.5145    1.0000 </r>
       <r>    2.5426    1.0000 </r>
       <r>    2.6524    1.0000 </r>
       <r>    2.6741    1.0000 </r>
       <r>    2.8350    1.0000 </r>
       <r>    2.9705    1.0000 </r>
       <r>    2.9848    1.0000 </r>
       <r>    3.0015    1.0000 </r>
       <r>    3.0120    1.0000 </r>
       <r>    3.1278    1.0000 </r>
       <r>    3.3035    1.0000 </r>
       <r>    3.5793    1.0000 </r>
       <r>    3.7014    1.0000 </r>
       <r>    4.3939    1.0000 </r>
       <r>    4.3959    1.0000 </r>
       <r>    7.1870    0.0000 </r>
       <r>    7.3132    0.0000 </r>
       <r>    8.6618    0.0000 </r>
       <r>    9.1820    0.0000 </r>
       <r>   11.2547    0.0000 </r>
      </set>
      <set comment="kpoint 20">
       <r>  -15.1493    1.0000 </r>
       <r>  -14.7859    1.0000 </r>
       <r>   -2.4524    1.0000 </r>
       <r>   -2.1972    1.0000 </r>
       <r>   -1.7332    1.0000 </r>
       <r>   -1.4665    1.0000 </r>
       <r>   -0.7189    1.0000 </r>
       <r>   -0.4955    1.0000 </r>
       <r>    0.9384    1.0000 </r>
       <r>    1.9809    1.0000 </r>
       <r>    1.9931    1.0000 </r>
       <r>    2.3042    1.0000 </r>
       <r>    2.3492    1.0000 </r>
       <r>    2.4785    1.0000 </r>
       <r>    2.6266    1.0000 </r>
       <r>    2.6527    1.0000 </r>
       <r>    2.7343    1.0000 </r>
       <r>    2.8104    1.0000 </r>
       <r>    2.9407    1.0000 </r>
       <r>    3.0237    1.0000 </r>
       <r>    3.0963    1.0000 </r>
       <r>    3.1299    1.0000 </r>
       <r>    3.2144    1.0000 </r>
       <r>    3.2948    1.0000 </r>
       <r>    3.3631    1.0000 </r>
       <r>    3.7711    1.0000 </r>
       <r>    4.2134    1.0000 </r>
       <r>    4.5348    1.0000 </r>
       <r>    6.4770    0.0000 </r>
       <r>    7.6589    0.0000 </r>
       <r>    8.0598    0.0000 </r>
       <r>   10.2214    0.0000 </r>
       <r>   10.4464    0.0000 </r>
      </set>
      <set comment="kpoint 21">
       <r>  -15.0754    1.0000 </r>
       <r>  -14.8495    1.0000 </r>
       <r>   -2.4473    1.0000 </r>
       <r>   -2.1606    1.0000 </r>
       <r>   -1.8334    1.0000 </r>
       <r>   -1.2635    1.0000 </r>
       <r>   -0.9351    1.0000 </r>
       <r>   -0.6663    1.0000 </r>
       <r>    1.2432    1.0000 </r>
       <r>    1.8932    1.0000 </r>
       <r>    2.0344    1.0000 </r>
       <r>    2.3217    1.0000 </r>
       <r>    2.4403    1.0000 </r>
       <r>    2.4960    1.0000 </r>
       <r>    2.5507    1.0000 </r>
       <r>    2.5775    1.0000 </r>
       <r>    2.6727    1.0000 </r>
       <r>    2.8561    1.0000 </r>
       <r>    2.8807    1.0000 </r>
       <r>    2.9988    1.0000 </r>
       <r>    3.0703    1.0000 </r>
       <r>    3.0831    1.0000 </r>
       <r>    3.2138    1.0000 </r>
       <r>    3.3950    1.0000 </r>
       <r>    3.4899    1.0000 </r>
       <r>    3.6637    1.0000 </r>
       <r>    4.2657    1.0000 </r>
       <r>    4.3964    1.0000 </r>
       <r>    6.8395    0.0000 </r>
       <r>    7.6123    0.0000 </r>
       <r>    8.2910    0.0000 </r>
       <r>    9.4686    0.0000 </r>
       <r>   10.5009    0.0000 </r>
      </set>
      <set comment="kpoint 22">
       <r>  -15.0262    1.0000 </r>
       <r>  -14.8944    1.0000 </r>
       <r>   -2.4008    1.0000 </r>
       <r>   -2.2445    1.0000 </r>
       <r>   -1.7992    1.0000 </r>
       <r>   -1.1572    1.0000 </r>
       <r>   -0.9388    1.0000 </r>
       <r>   -0.8642    1.0000 </r>
       <r>    1.5297    1.0000 </r>
       <r>    1.6634    1.0000 </r>
       <r>    2.0762    1.0000 </r>
       <r>    2.3090    1.0000 </r>
       <r>    2.4306    1.0000 </r>
       <r>    2.5026    1.0000 </r>
       <r>    2.5649    1.0000 </r>
       <r>    2.5742    1.0000 </r>
       <r>    2.6615    1.0000 </r>
       <r>    2.8119    1.0000 </r>
       <r>    2.9566    1.0000 </r>
       <r>    3.0043    1.0000 </r>
       <r>    3.0140    1.0000 </r>
       <r>    3.0484    1.0000 </r>
       <r>    3.2024    1.0000 </r>
       <r>    3.4035    1.0000 </r>
       <r>    3.5212    1.0000 </r>
       <r>    3.7113    1.0000 </r>
       <r>    4.2860    1.0000 </r>
       <r>    4.3275    1.0000 </r>
       <r>    7.0820    0.0000 </r>
       <r>    7.4526    0.0000 </r>
       <r>    8.4343    0.0000 </r>
       <r>    9.0760    0.0000 </r>
       <r>   10.7417    0.0000 </r>
      </set>
      <set comment="kpoint 23">
       <r>  -15.0502    1.0000 </r>
       <r>  -14.8601    1.0000 </r>
       <r>   -2.5115    1.0000 </r>
       <r>   -2.3533    1.0000 </r>
       <r>   -1.7682    1.0000 </r>
       <r>   -1.1426    1.0000 </r>
       <r>   -0.9289    1.0000 </r>
       <r>   -0.6850    1.0000 </r>
       <r>    1.4636    1.0000 </r>
       <r>    1.8900    1.0000 </r>
       <r>    1.9736    1.0000 </r>
       <r>    2.2998    1.0000 </r>
       <r>    2.4633    1.0000 </r>
       <r>    2.5467    1.0000 </r>
       <r>    2.5532    1.0000 </r>
       <r>    2.5779    1.0000 </r>
       <r>    2.6392    1.0000 </r>
       <r>    2.7900    1.0000 </r>
       <r>    2.8966    1.0000 </r>
       <r>    2.9604    1.0000 </r>
       <r>    3.0534    1.0000 </r>
       <r>    3.0633    1.0000 </r>
       <r>    3.2999    1.0000 </r>
       <r>    3.3579    1.0000 </r>
       <r>    3.6126    1.0000 </r>
       <r>    3.6974    1.0000 </r>
       <r>    4.1963    1.0000 </r>
       <r>    4.3046    1.0000 </r>
       <r>    6.8077    0.0000 </r>
       <r>    7.4839    0.0000 </r>
       <r>    8.5147    0.0000 </r>
       <r>    8.9325    0.0000 </r>
       <r>   10.6162    0.0000 </r>
      </set>
      <set comment="kpoint 24">
       <r>  -15.0386    1.0000 </r>
       <r>  -14.8658    1.0000 </r>
       <r>   -2.5033    1.0000 </r>
       <r>   -2.4623    1.0000 </r>
       <r>   -1.7253    1.0000 </r>
       <r>   -1.1512    1.0000 </r>
       <r>   -0.8001    1.0000 </r>
       <r>   -0.7842    1.0000 </r>
       <r>    1.6604    1.0000 </r>
       <r>    1.7597    1.0000 </r>
       <r>    1.9600    1.0000 </r>
       <r>    2.3003    1.0000 </r>
       <r>    2.4970    1.0000 </r>
       <r>    2.5124    1.0000 </r>
       <r>    2.5868    1.0000 </r>
       <r>    2.6104    1.0000 </r>
       <r>    2.6265    1.0000 </r>
       <r>    2.7489    1.0000 </r>
       <r>    2.9294    1.0000 </r>
       <r>    2.9481    1.0000 </r>
       <r>    3.0129    1.0000 </r>
       <r>    3.0483    1.0000 </r>
       <r>    3.3057    1.0000 </r>
       <r>    3.3666    1.0000 </r>
       <r>    3.6531    1.0000 </r>
       <r>    3.7249    1.0000 </r>
       <r>    4.1795    1.0000 </r>
       <r>    4.2738    1.0000 </r>
       <r>    6.7039    0.0000 </r>
       <r>    7.4986    0.0000 </r>
       <r>    8.5364    0.0000 </r>
       <r>    8.7645    0.0000 </r>
       <r>   10.8081    0.0000 </r>
      </set>
      <set comment="kpoint 25">
       <r>  -15.0425    1.0000 </r>
       <r>  -14.8551    1.0000 </r>
       <r>   -2.5397    1.0000 </r>
       <r>   -2.5397    1.0000 </r>
       <r>   -1.7010    1.0000 </r>
       <r>   -1.1496    1.0000 </r>
       <r>   -0.7537    1.0000 </r>
       <r>   -0.7537    1.0000 </r>
       <r>    1.7902    1.0000 </r>
       <r>    1.7902    1.0000 </r>
       <r>    1.8465    1.0000 </r>
       <r>    2.3025    1.0000 </r>
       <r>    2.5284    1.0000 </r>
       <r>    2.5284    1.0000 </r>
       <r>    2.5525    1.0000 </r>
       <r>    2.6651    1.0000 </r>
       <r>    2.6651    1.0000 </r>
       <r>    2.6988    1.0000 </r>
       <r>    2.9069    1.0000 </r>
       <r>    2.9244    1.0000 </r>
       <r>    2.9985    1.0000 </r>
       <r>    3.0304    1.0000 </r>
       <r>    3.3440    1.0000 </r>
       <r>    3.3440    1.0000 </r>
       <r>    3.7355    1.0000 </r>
       <r>    3.7355    1.0000 </r>
       <r>    4.1351    1.0000 </r>
       <r>    4.2540    1.0000 </r>
       <r>    6.4968    0.0000 </r>
       <r>    7.4946    0.0000 </r>
       <r>    8.6263    0.0000 </r>
       <r>    8.6263    0.0000 </r>
       <r>   10.8870    0.0000 </r>
      </set>
      <set comment="kpoint 26">
       <r>  -15.1207    1.0000 </r>
       <r>  -14.8011    1.0000 </r>
       <r>   -2.3272    1.0000 </r>
       <r>   -2.3272    1.0000 </r>
       <r>   -1.9164    1.0000 </r>
       <r>   -1.2943    1.0000 </r>
       <r>   -0.6859    1.0000 </r>
       <r>   -0.6859    1.0000 </r>
       <r>    1.1070    1.0000 </r>
       <r>    1.9539    1.0000 </r>
       <r>    1.9539    1.0000 </r>
       <r>    2.4202    1.0000 </r>
       <r>    2.4785    1.0000 </r>
       <r>    2.4785    1.0000 </r>
       <r>    2.5630    1.0000 </r>
       <r>    2.5630    1.0000 </r>
       <r>    2.7437    1.0000 </r>
       <r>    2.7437    1.0000 </r>
       <r>    2.8579    1.0000 </r>
       <r>    3.0942    1.0000 </r>
       <r>    3.0942    1.0000 </r>
       <r>    3.1486    1.0000 </r>
       <r>    3.2428    1.0000 </r>
       <r>    3.2428    1.0000 </r>
       <r>    3.3882    1.0000 </r>
       <r>    4.0127    1.0000 </r>
       <r>    4.0127    1.0000 </r>
       <r>    4.4033    1.0000 </r>
       <r>    6.7589    0.0000 </r>
       <r>    8.0469    0.0000 </r>
       <r>    8.0469    0.0000 </r>
       <r>    9.5347    0.0000 </r>
       <r>   10.3564    0.0000 </r>
      </set>
      <set comment="kpoint 27">
       <r>  -15.0888    1.0000 </r>
       <r>  -14.8201    1.0000 </r>
       <r>   -2.4130    1.0000 </r>
       <r>   -2.1730    1.0000 </r>
       <r>   -2.1049    1.0000 </r>
       <r>   -1.0787    1.0000 </r>
       <r>   -0.8971    1.0000 </r>
       <r>   -0.7355    1.0000 </r>
       <r>    1.3429    1.0000 </r>
       <r>    1.8521    1.0000 </r>
       <r>    1.9428    1.0000 </r>
       <r>    2.4287    1.0000 </r>
       <r>    2.4418    1.0000 </r>
       <r>    2.5170    1.0000 </r>
       <r>    2.5579    1.0000 </r>
       <r>    2.5855    1.0000 </r>
       <r>    2.6803    1.0000 </r>
       <r>    2.7806    1.0000 </r>
       <r>    2.8620    1.0000 </r>
       <r>    3.0876    1.0000 </r>
       <r>    3.0926    1.0000 </r>
       <r>    3.1134    1.0000 </r>
       <r>    3.1921    1.0000 </r>
       <r>    3.3104    1.0000 </r>
       <r>    3.5315    1.0000 </r>
       <r>    3.8338    1.0000 </r>
       <r>    4.2198    1.0000 </r>
       <r>    4.2563    1.0000 </r>
       <r>    7.0619    0.0000 </r>
       <r>    7.9829    0.0000 </r>
       <r>    8.0038    0.0000 </r>
       <r>    9.4682    0.0000 </r>
       <r>    9.6387    0.0000 </r>
      </set>
      <set comment="kpoint 28">
       <r>  -15.0740    1.0000 </r>
       <r>  -14.8296    1.0000 </r>
       <r>   -2.4396    1.0000 </r>
       <r>   -2.1808    1.0000 </r>
       <r>   -2.0942    1.0000 </r>
       <r>   -0.9974    1.0000 </r>
       <r>   -0.9248    1.0000 </r>
       <r>   -0.8318    1.0000 </r>
       <r>    1.5339    1.0000 </r>
       <r>    1.7046    1.0000 </r>
       <r>    1.9427    1.0000 </r>
       <r>    2.3929    1.0000 </r>
       <r>    2.4671    1.0000 </r>
       <r>    2.5014    1.0000 </r>
       <r>    2.5636    1.0000 </r>
       <r>    2.6027    1.0000 </r>
       <r>    2.6838    1.0000 </r>
       <r>    2.7437    1.0000 </r>
       <r>    2.9454    1.0000 </r>
       <r>    3.0654    1.0000 </r>
       <r>    3.0924    1.0000 </r>
       <r>    3.1111    1.0000 </r>
       <r>    3.1392    1.0000 </r>
       <r>    3.3497    1.0000 </r>
       <r>    3.5994    1.0000 </r>
       <r>    3.7848    1.0000 </r>
       <r>    4.1715    1.0000 </r>
       <r>    4.3047    1.0000 </r>
       <r>    7.2159    0.0000 </r>
       <r>    7.8031    0.0000 </r>
       <r>    7.9693    0.0000 </r>
       <r>    9.4025    0.0000 </r>
       <r>    9.6073    0.0000 </r>
      </set>
      <set comment="kpoint 29">
       <r>  -15.0994    1.0000 </r>
       <r>  -14.7934    1.0000 </r>
       <r>   -2.4207    1.0000 </r>
       <r>   -2.3361    1.0000 </r>
       <r>   -2.0861    1.0000 </r>
       <r>   -0.9703    1.0000 </r>
       <r>   -0.9031    1.0000 </r>
       <r>   -0.7751    1.0000 </r>
       <r>    1.4817    1.0000 </r>
       <r>    1.7961    1.0000 </r>
       <r>    1.8435    1.0000 </r>
       <r>    2.4079    1.0000 </r>
       <r>    2.4441    1.0000 </r>
       <r>    2.5474    1.0000 </r>
       <r>    2.5583    1.0000 </r>
       <r>    2.6520    1.0000 </r>
       <r>    2.7026    1.0000 </r>
       <r>    2.7548    1.0000 </r>
       <r>    2.8859    1.0000 </r>
       <r>    3.0586    1.0000 </r>
       <r>    3.1122    1.0000 </r>
       <r>    3.1247    1.0000 </r>
       <r>    3.2300    1.0000 </r>
       <r>    3.2400    1.0000 </r>
       <r>    3.6728    1.0000 </r>
       <r>    3.9243    1.0000 </r>
       <r>    4.1202    1.0000 </r>
       <r>    4.2348    1.0000 </r>
       <r>    7.0536    0.0000 </r>
       <r>    7.8551    0.0000 </r>
       <r>    8.1953    0.0000 </r>
       <r>    8.8736    0.0000 </r>
       <r>    9.8410    0.0000 </r>
      </set>
      <set comment="kpoint 30">
       <r>  -15.1033    1.0000 </r>
       <r>  -14.7830    1.0000 </r>
       <r>   -2.4582    1.0000 </r>
       <r>   -2.3797    1.0000 </r>
       <r>   -2.0507    1.0000 </r>
       <r>   -0.9911    1.0000 </r>
       <r>   -0.8356    1.0000 </r>
       <r>   -0.8112    1.0000 </r>
       <r>    1.5964    1.0000 </r>
       <r>    1.7041    1.0000 </r>
       <r>    1.8154    1.0000 </r>
       <r>    2.3983    1.0000 </r>
       <r>    2.4478    1.0000 </r>
       <r>    2.5214    1.0000 </r>
       <r>    2.5637    1.0000 </r>
       <r>    2.6680    1.0000 </r>
       <r>    2.7180    1.0000 </r>
       <r>    2.7674    1.0000 </r>
       <r>    2.9229    1.0000 </r>
       <r>    3.0418    1.0000 </r>
       <r>    3.1001    1.0000 </r>
       <r>    3.1292    1.0000 </r>
       <r>    3.2061    1.0000 </r>
       <r>    3.2624    1.0000 </r>
       <r>    3.8027    1.0000 </r>
       <r>    3.8749    1.0000 </r>
       <r>    4.0582    1.0000 </r>
       <r>    4.2874    1.0000 </r>
       <r>    6.9132    0.0000 </r>
       <r>    8.0318    0.0000 </r>
       <r>    8.0351    0.0000 </r>
       <r>    8.7552    0.0000 </r>
       <r>    9.9048    0.0000 </r>
      </set>
      <set comment="kpoint 31">
       <r>  -15.1132    1.0000 </r>
       <r>  -14.7659    1.0000 </r>
       <r>   -2.4636    1.0000 </r>
       <r>   -2.4636    1.0000 </r>
       <r>   -2.0211    1.0000 </r>
       <r>   -0.9925    1.0000 </r>
       <r>   -0.8040    1.0000 </r>
       <r>   -0.8040    1.0000 </r>
       <r>    1.6963    1.0000 </r>
       <r>    1.6989    1.0000 </r>
       <r>    1.6989    1.0000 </r>
       <r>    2.3933    1.0000 </r>
       <r>    2.4406    1.0000 </r>
       <r>    2.5392    1.0000 </r>
       <r>    2.5392    1.0000 </r>
       <r>    2.6287    1.0000 </r>
       <r>    2.8051    1.0000 </r>
       <r>    2.8051    1.0000 </r>
       <r>    2.9005    1.0000 </r>
       <r>    3.0167    1.0000 </r>
       <r>    3.1032    1.0000 </r>
       <r>    3.1302    1.0000 </r>
       <r>    3.2361    1.0000 </r>
       <r>    3.2361    1.0000 </r>
       <r>    3.9230    1.0000 </r>
       <r>    3.9230    1.0000 </r>
       <r>    4.0056    1.0000 </r>
       <r>    4.2794    1.0000 </r>
       <r>    6.6661    0.0000 </r>
       <r>    8.1868    0.0000 </r>
       <r>    8.1868    0.0000 </r>
       <r>    8.3892    0.0000 </r>
       <r>   10.1343    0.0000 </r>
      </set>
      <set comment="kpoint 32">
       <r>  -15.1327    1.0000 </r>
       <r>  -14.7428    1.0000 </r>
       <r>   -2.3205    1.0000 </r>
       <r>   -2.3202    1.0000 </r>
       <r>   -2.3202    1.0000 </r>
       <r>   -0.8747    1.0000 </r>
       <r>   -0.8710    1.0000 </r>
       <r>   -0.8710    1.0000 </r>
       <r>    1.5307    1.0000 </r>
       <r>    1.7270    1.0000 </r>
       <r>    1.7270    1.0000 </r>
       <r>    2.4024    1.0000 </r>
       <r>    2.4024    1.0000 </r>
       <r>    2.5450    1.0000 </r>
       <r>    2.5450    1.0000 </r>
       <r>    2.6348    1.0000 </r>
       <r>    2.7809    1.0000 </r>
       <r>    2.8773    1.0000 </r>
       <r>    2.8773    1.0000 </r>
       <r>    3.1285    1.0000 </r>
       <r>    3.1445    1.0000 </r>
       <r>    3.1445    1.0000 </r>
       <r>    3.1722    1.0000 </r>
       <r>    3.1722    1.0000 </r>
       <r>    3.8387    1.0000 </r>
       <r>    4.0156    1.0000 </r>
       <r>    4.1760    1.0000 </r>
       <r>    4.1760    1.0000 </r>
       <r>    7.3378    0.0000 </r>
       <r>    7.7259    0.0000 </r>
       <r>    7.7259    0.0000 </r>
       <r>    9.1015    0.0000 </r>
       <r>    9.7648    0.0000 </r>
      </set>
      <set comment="kpoint 33">
       <r>  -15.1440    1.0000 </r>
       <r>  -14.7241    1.0000 </r>
       <r>   -2.4059    1.0000 </r>
       <r>   -2.3144    1.0000 </r>
       <r>   -2.2749    1.0000 </r>
       <r>   -0.9133    1.0000 </r>
       <r>   -0.8593    1.0000 </r>
       <r>   -0.8412    1.0000 </r>
       <r>    1.5871    1.0000 </r>
       <r>    1.6490    1.0000 </r>
       <r>    1.7024    1.0000 </r>
       <r>    2.3855    1.0000 </r>
       <r>    2.3875    1.0000 </r>
       <r>    2.5347    1.0000 </r>
       <r>    2.5522    1.0000 </r>
       <r>    2.6021    1.0000 </r>
       <r>    2.8488    1.0000 </r>
       <r>    2.8541    1.0000 </r>
       <r>    2.9192    1.0000 </r>
       <r>    3.1114    1.0000 </r>
       <r>    3.1295    1.0000 </r>
       <r>    3.1678    1.0000 </r>
       <r>    3.1753    1.0000 </r>
       <r>    3.1810    1.0000 </r>
       <r>    3.9352    1.0000 </r>
       <r>    4.0523    1.0000 </r>
       <r>    4.0711    1.0000 </r>
       <r>    4.2982    1.0000 </r>
       <r>    7.2573    0.0000 </r>
       <r>    7.4954    0.0000 </r>
       <r>    7.8088    0.0000 </r>
       <r>    9.1861    0.0000 </r>
       <r>    9.6769    0.0000 </r>
      </set>
      <set comment="kpoint 34">
       <r>  -15.1579    1.0000 </r>
       <r>  -14.7027    1.0000 </r>
       <r>   -2.3830    1.0000 </r>
       <r>   -2.3830    1.0000 </r>
       <r>   -2.2601    1.0000 </r>
       <r>   -0.9040    1.0000 </r>
       <r>   -0.8541    1.0000 </r>
       <r>   -0.8541    1.0000 </r>
       <r>    1.6229    1.0000 </r>
       <r>    1.6278    1.0000 </r>
       <r>    1.6278    1.0000 </r>
       <r>    2.3647    1.0000 </r>
       <r>    2.3657    1.0000 </r>
       <r>    2.5465    1.0000 </r>
       <r>    2.5465    1.0000 </r>
       <r>    2.5683    1.0000 </r>
       <r>    2.8898    1.0000 </r>
       <r>    2.8898    1.0000 </r>
       <r>    2.9052    1.0000 </r>
       <r>    3.0937    1.0000 </r>
       <r>    3.1481    1.0000 </r>
       <r>    3.1481    1.0000 </r>
       <r>    3.1928    1.0000 </r>
       <r>    3.1996    1.0000 </r>
       <r>    3.9036    1.0000 </r>
       <r>    4.1749    1.0000 </r>
       <r>    4.1749    1.0000 </r>
       <r>    4.2995    1.0000 </r>
       <r>    7.0933    0.0000 </r>
       <r>    7.6012    0.0000 </r>
       <r>    7.6012    0.0000 </r>
       <r>    9.2996    0.0000 </r>
       <r>    9.8586    0.0000 </r>
      </set>
      <set comment="kpoint 35">
       <r>  -15.1730    1.0000 </r>
       <r>  -14.6797    1.0000 </r>
       <r>   -2.3481    1.0000 </r>
       <r>   -2.3481    1.0000 </r>
       <r>   -2.3481    1.0000 </r>
       <r>   -0.8749    1.0000 </r>
       <r>   -0.8749    1.0000 </r>
       <r>   -0.8749    1.0000 </r>
       <r>    1.6020    1.0000 </r>
       <r>    1.6020    1.0000 </r>
       <r>    1.6020    1.0000 </r>
       <r>    2.3381    1.0000 </r>
       <r>    2.3381    1.0000 </r>
       <r>    2.5462    1.0000 </r>
       <r>    2.5462    1.0000 </r>
       <r>    2.5462    1.0000 </r>
       <r>    2.9087    1.0000 </r>
       <r>    2.9087    1.0000 </r>
       <r>    2.9087    1.0000 </r>
       <r>    3.1219    1.0000 </r>
       <r>    3.1219    1.0000 </r>
       <r>    3.1219    1.0000 </r>
       <r>    3.2243    1.0000 </r>
       <r>    3.2243    1.0000 </r>
       <r>    3.8696    1.0000 </r>
       <r>    4.3077    1.0000 </r>
       <r>    4.3077    1.0000 </r>
       <r>    4.3077    1.0000 </r>
       <r>    7.3292    0.0000 </r>
       <r>    7.3292    0.0000 </r>
       <r>    7.3292    0.0000 </r>
       <r>    9.7997    0.0000 </r>
       <r>    9.7997    0.0000 </r>
      </set>
     </set>
    </set>
   </array>
  </eigenvalues>
  <separator name="orbital magnetization" >
   <v name="MAGDIPOLOUT">      0.00000000      0.00000000      0.00000000</v>
  </separator>
  <dos>
   <i name="efermi">      5.09213201 </i>
   <total>
    <array>
     <dimension dim="1">gridpoints</dimension>
     <dimension dim="2">spin</dimension>
     <field>energy</field>
     <field>total</field>
     <field>integrated</field>
     <set>
      <set comment="spin 1">
       <r>   -16.7684     0.0000     0.0000 </r>
       <r>   -16.6649     0.0000     0.0000 </r>
       <r>   -16.5613     0.0000     0.0000 </r>
       <r>   -16.4578     0.0000     0.0000 </r>
       <r>   -16.3542     0.0000     0.0000 </r>
       <r>   -16.2507     0.0000     0.0000 </r>
       <r>   -16.1471     0.0000     0.0000 </r>
       <r>   -16.0436     0.0000     0.0000 </r>
       <r>   -15.9400     0.0000     0.0000 </r>
       <r>   -15.8365     0.0000     0.0000 </r>
       <r>   -15.7330     0.0000     0.0000 </r>
       <r>   -15.6294     0.0000     0.0000 </r>
       <r>   -15.5259     0.0000     0.0000 </r>
       <r>   -15.4223     0.0021     0.0002 </r>
       <r>   -15.3188     0.3400     0.0354 </r>
       <r>   -15.2152     1.7879     0.2206 </r>
       <r>   -15.1117     5.5424     0.7944 </r>
       <r>   -15.0082     9.2489     1.7521 </r>
       <r>   -14.9046     5.2730     2.2981 </r>
       <r>   -14.8011     9.0766     3.2379 </r>
       <r>   -14.6975     5.8331     3.8419 </r>
       <r>   -14.5940     1.4486     3.9919 </r>
       <r>   -14.4904     0.0786     4.0000 </r>
       <r>   -14.3869     0.0000     4.0000 </r>
       <r>   -14.2834     0.0000     4.0000 </r>
       <r>   -14.1798     0.0000     4.0000 </r>
       <r>   -14.0763     0.0000     4.0000 </r>
       <r>   -13.9727     0.0000     4.0000 </r>
       <r>   -13.8692     0.0000     4.0000 </r>
       <r>   -13.7656     0.0000     4.0000 </r>
       <r>   -13.6621     0.0000     4.0000 </r>
       <r>   -13.5586     0.0000     4.0000 </r>
       <r>   -13.4550     0.0000     4.0000 </r>
       <r>   -13.3515     0.0000     4.0000 </r>
       <r>   -13.2479     0.0000     4.0000 </r>
       <r>   -13.1444     0.0000     4.0000 </r>
       <r>   -13.0408     0.0000     4.0000 </r>
       <r>   -12.9373     0.0000     4.0000 </r>
       <r>   -12.8338     0.0000     4.0000 </r>
       <r>   -12.7302     0.0000     4.0000 </r>
       <r>   -12.6267     0.0000     4.0000 </r>
       <r>   -12.5231     0.0000     4.0000 </r>
       <r>   -12.4196     0.0000     4.0000 </r>
       <r>   -12.3160     0.0000     4.0000 </r>
       <r>   -12.2125     0.0000     4.0000 </r>
       <r>   -12.1090     0.0000     4.0000 </r>
       <r>   -12.0054     0.0000     4.0000 </r>
       <r>   -11.9019     0.0000     4.0000 </r>
       <r>   -11.7983     0.0000     4.0000 </r>
       <r>   -11.6948     0.0000     4.0000 </r>
       <r>   -11.5912     0.0000     4.0000 </r>
       <r>   -11.4877     0.0000     4.0000 </r>
       <r>   -11.3842     0.0000     4.0000 </r>
       <r>   -11.2806     0.0000     4.0000 </r>
       <r>   -11.1771     0.0000     4.0000 </r>
       <r>   -11.0735     0.0000     4.0000 </r>
       <r>   -10.9700     0.0000     4.0000 </r>
       <r>   -10.8664     0.0000     4.0000 </r>
       <r>   -10.7629     0.0000     4.0000 </r>
       <r>   -10.6594     0.0000     4.0000 </r>
       <r>   -10.5558     0.0000     4.0000 </r>
       <r>   -10.4523     0.0000     4.0000 </r>
       <r>   -10.3487     0.0000     4.0000 </r>
       <r>   -10.2452     0.0000     4.0000 </r>
       <r>   -10.1416     0.0000     4.0000 </r>
       <r>   -10.0381     0.0000     4.0000 </r>
       <r>    -9.9346     0.0000     4.0000 </r>
       <r>    -9.8310     0.0000     4.0000 </r>
       <r>    -9.7275     0.0000     4.0000 </r>
       <r>    -9.6239     0.0000     4.0000 </r>
       <r>    -9.5204     0.0000     4.0000 </r>
       <r>    -9.4168     0.0000     4.0000 </r>
       <r>    -9.3133     0.0000     4.0000 </r>
       <r>    -9.2098     0.0000     4.0000 </r>
       <r>    -9.1062     0.0000     4.0000 </r>
       <r>    -9.0027     0.0000     4.0000 </r>
       <r>    -8.8991     0.0000     4.0000 </r>
       <r>    -8.7956     0.0000     4.0000 </r>
       <r>    -8.6920     0.0000     4.0000 </r>
       <r>    -8.5885     0.0000     4.0000 </r>
       <r>    -8.4850     0.0000     4.0000 </r>
       <r>    -8.3814     0.0000     4.0000 </r>
       <r>    -8.2779     0.0000     4.0000 </r>
       <r>    -8.1743     0.0000     4.0000 </r>
       <r>    -8.0708     0.0000     4.0000 </r>
       <r>    -7.9672     0.0000     4.0000 </r>
       <r>    -7.8637     0.0000     4.0000 </r>
       <r>    -7.7601     0.0000     4.0000 </r>
       <r>    -7.6566     0.0000     4.0000 </r>
       <r>    -7.5531     0.0000     4.0000 </r>
       <r>    -7.4495     0.0000     4.0000 </r>
       <r>    -7.3460     0.0000     4.0000 </r>
       <r>    -7.2424     0.0000     4.0000 </r>
       <r>    -7.1389     0.0000     4.0000 </r>
       <r>    -7.0353     0.0000     4.0000 </r>
       <r>    -6.9318     0.0000     4.0000 </r>
       <r>    -6.8283     0.0000     4.0000 </r>
       <r>    -6.7247     0.0000     4.0000 </r>
       <r>    -6.6212     0.0000     4.0000 </r>
       <r>    -6.5176     0.0000     4.0000 </r>
       <r>    -6.4141     0.0000     4.0000 </r>
       <r>    -6.3105     0.0000     4.0000 </r>
       <r>    -6.2070     0.0000     4.0000 </r>
       <r>    -6.1035     0.0000     4.0000 </r>
       <r>    -5.9999     0.0000     4.0000 </r>
       <r>    -5.8964     0.0000     4.0000 </r>
       <r>    -5.7928     0.0000     4.0000 </r>
       <r>    -5.6893     0.0000     4.0000 </r>
       <r>    -5.5857     0.0000     4.0000 </r>
       <r>    -5.4822     0.0000     4.0000 </r>
       <r>    -5.3787     0.0000     4.0000 </r>
       <r>    -5.2751     0.0000     4.0000 </r>
       <r>    -5.1716     0.0000     4.0000 </r>
       <r>    -5.0680     0.0000     4.0000 </r>
       <r>    -4.9645     0.0000     4.0000 </r>
       <r>    -4.8609     0.0000     4.0000 </r>
       <r>    -4.7574     0.0000     4.0000 </r>
       <r>    -4.6539     0.0000     4.0000 </r>
       <r>    -4.5503     0.0000     4.0000 </r>
       <r>    -4.4468     0.0000     4.0000 </r>
       <r>    -4.3432     0.0000     4.0000 </r>
       <r>    -4.2397     0.0000     4.0000 </r>
       <r>    -4.1361     0.0000     4.0000 </r>
       <r>    -4.0326     0.0000     4.0000 </r>
       <r>    -3.9291     0.0000     4.0000 </r>
       <r>    -3.8255     0.0000     4.0000 </r>
       <r>    -3.7220     0.0000     4.0000 </r>
       <r>    -3.6184     0.0000     4.0000 </r>
       <r>    -3.5149     0.0000     4.0000 </r>
       <r>    -3.4113     0.0000     4.0000 </r>
       <r>    -3.3078     0.0000     4.0000 </r>
       <r>    -3.2043     0.0000     4.0000 </r>
       <r>    -3.1007     0.0000     4.0000 </r>
       <r>    -2.9972     0.0000     4.0000 </r>
       <r>    -2.8936     0.0000     4.0000 </r>
       <r>    -2.7901     0.0000     4.0000 </r>
       <r>    -2.6865     0.0001     4.0000 </r>
       <r>    -2.5830     0.2526     4.0262 </r>
       <r>    -2.4795     5.2841     4.5733 </r>
       <r>    -2.3759    12.5506     5.8728 </r>
       <r>    -2.2724     8.8611     6.7903 </r>
       <r>    -2.1688     6.6424     7.4781 </r>
       <r>    -2.0653     6.5454     8.1558 </r>
       <r>    -1.9617     4.5058     8.6224 </r>
       <r>    -1.8582     2.3098     8.8616 </r>
       <r>    -1.7547     5.0048     9.3798 </r>
       <r>    -1.6511     3.2497     9.7163 </r>
       <r>    -1.5476     1.6457     9.8867 </r>
       <r>    -1.4440     4.1905    10.3206 </r>
       <r>    -1.3405     3.0252    10.6338 </r>
       <r>    -1.2369     3.1220    10.9571 </r>
       <r>    -1.1334     3.1932    11.2877 </r>
       <r>    -1.0299     3.5900    11.6594 </r>
       <r>    -0.9263     8.0608    12.4940 </r>
       <r>    -0.8228    11.2803    13.6620 </r>
       <r>    -0.7192     8.7013    14.5630 </r>
       <r>    -0.6157     5.7655    15.1600 </r>
       <r>    -0.5121     2.5271    15.4216 </r>
       <r>    -0.4086     2.3889    15.6690 </r>
       <r>    -0.3050     1.2283    15.7962 </r>
       <r>    -0.2015     0.9254    15.8920 </r>
       <r>    -0.0980     0.7893    15.9737 </r>
       <r>     0.0056     0.2124    15.9957 </r>
       <r>     0.1091     0.0783    16.0038 </r>
       <r>     0.2127     0.0010    16.0039 </r>
       <r>     0.3162     0.1104    16.0154 </r>
       <r>     0.4198     0.4309    16.0600 </r>
       <r>     0.5233     0.3938    16.1008 </r>
       <r>     0.6268     0.2040    16.1219 </r>
       <r>     0.7304     1.2426    16.2505 </r>
       <r>     0.8339     0.6822    16.3212 </r>
       <r>     0.9375     0.8385    16.4080 </r>
       <r>     1.0410     1.1033    16.5222 </r>
       <r>     1.1446     1.6223    16.6902 </r>
       <r>     1.2481     1.8936    16.8863 </r>
       <r>     1.3516     1.4572    17.0372 </r>
       <r>     1.4552     1.9203    17.2360 </r>
       <r>     1.5587     4.3518    17.6866 </r>
       <r>     1.6623     4.5043    18.1530 </r>
       <r>     1.7658     5.5006    18.7225 </r>
       <r>     1.8694     7.3022    19.4786 </r>
       <r>     1.9729    11.8231    20.7028 </r>
       <r>     2.0764     9.5547    21.6922 </r>
       <r>     2.1800     6.7284    22.3888 </r>
       <r>     2.2835     6.8827    23.1015 </r>
       <r>     2.3871    14.0801    24.5594 </r>
       <r>     2.4906    20.4146    26.6732 </r>
       <r>     2.5942    32.3332    30.0211 </r>
       <r>     2.6977    19.8808    32.0796 </r>
       <r>     2.8012    19.3128    34.0793 </r>
       <r>     2.9048    23.2603    36.4877 </r>
       <r>     3.0083    28.3498    39.4231 </r>
       <r>     3.1119    33.2852    42.8696 </r>
       <r>     3.2154    24.4273    45.3989 </r>
       <r>     3.3190    16.3388    47.0906 </r>
       <r>     3.4225    11.7490    48.3072 </r>
       <r>     3.5260     6.5236    48.9826 </r>
       <r>     3.6296     9.0915    49.9240 </r>
       <r>     3.7331     9.6249    50.9206 </r>
       <r>     3.8367     4.4543    51.3818 </r>
       <r>     3.9402     2.9527    51.6875 </r>
       <r>     4.0438     2.2057    51.9159 </r>
       <r>     4.1473     3.0448    52.2312 </r>
       <r>     4.2508     8.6814    53.1301 </r>
       <r>     4.3544    11.0885    54.2782 </r>
       <r>     4.4579     6.6407    54.9658 </r>
       <r>     4.5615     4.7875    55.4615 </r>
       <r>     4.6650     2.4217    55.7123 </r>
       <r>     4.7686     1.6224    55.8803 </r>
       <r>     4.8721     0.9669    55.9804 </r>
       <r>     4.9756     0.1889    55.9999 </r>
       <r>     5.0792     0.0006    56.0000 </r>
       <r>     5.1827     0.0000    56.0000 </r>
       <r>     5.2863     0.0000    56.0000 </r>
       <r>     5.3898     0.0063    56.0007 </r>
       <r>     5.4934     0.0363    56.0044 </r>
       <r>     5.5969     0.1859    56.0237 </r>
       <r>     5.7004     0.2871    56.0534 </r>
       <r>     5.8040     0.2822    56.0826 </r>
       <r>     5.9075     0.2366    56.1071 </r>
       <r>     6.0111     0.2437    56.1324 </r>
       <r>     6.1146     0.8583    56.2212 </r>
       <r>     6.2182     0.8486    56.3091 </r>
       <r>     6.3217     0.2406    56.3340 </r>
       <r>     6.4252     0.6315    56.3994 </r>
       <r>     6.5288     1.0924    56.5125 </r>
       <r>     6.6323     1.0319    56.6194 </r>
       <r>     6.7359     2.6615    56.8949 </r>
       <r>     6.8394     3.4081    57.2478 </r>
       <r>     6.9430     2.7137    57.5288 </r>
       <r>     7.0465     1.8290    57.7182 </r>
       <r>     7.1501     3.8408    58.1159 </r>
       <r>     7.2536     3.0470    58.4314 </r>
       <r>     7.3571     1.4719    58.5838 </r>
       <r>     7.4607     2.5385    58.8466 </r>
       <r>     7.5642     3.7941    59.2395 </r>
       <r>     7.6678     4.5798    59.7137 </r>
       <r>     7.7713     2.7443    59.9978 </r>
       <r>     7.8749     1.4758    60.1506 </r>
       <r>     7.9784     1.4572    60.3015 </r>
       <r>     8.0819     5.4493    60.8658 </r>
       <r>     8.1855     2.0209    61.0750 </r>
       <r>     8.2890     1.6483    61.2457 </r>
       <r>     8.3926     1.7091    61.4226 </r>
       <r>     8.4961     1.6249    61.5909 </r>
       <r>     8.5997     1.7466    61.7717 </r>
       <r>     8.7032     1.2359    61.8997 </r>
       <r>     8.8067     3.0780    62.2184 </r>
       <r>     8.9103     1.6339    62.3876 </r>
       <r>     9.0138     1.8055    62.5745 </r>
       <r>     9.1174     1.4730    62.7271 </r>
       <r>     9.2209     1.0696    62.8378 </r>
       <r>     9.3245     0.3109    62.8700 </r>
       <r>     9.4280     1.0029    62.9739 </r>
       <r>     9.5315     3.1594    63.3010 </r>
       <r>     9.6351     1.0858    63.4134 </r>
       <r>     9.7386     1.0410    63.5212 </r>
       <r>     9.8422     0.8850    63.6128 </r>
       <r>     9.9457     1.8801    63.8075 </r>
       <r>    10.0493     0.6412    63.8739 </r>
       <r>    10.1528     0.9217    63.9693 </r>
       <r>    10.2563     0.8781    64.0603 </r>
       <r>    10.3599     0.7009    64.1328 </r>
       <r>    10.4634     1.1998    64.2571 </r>
       <r>    10.5670     1.9113    64.4550 </r>
       <r>    10.6705     0.8511    64.5431 </r>
       <r>    10.7741     0.9312    64.6395 </r>
       <r>    10.8776     1.1869    64.7624 </r>
       <r>    10.9811     1.1489    64.8814 </r>
       <r>    11.0847     1.2750    65.0134 </r>
       <r>    11.1882     0.6374    65.0794 </r>
       <r>    11.2918     1.0850    65.1917 </r>
       <r>    11.3953     0.4705    65.2404 </r>
       <r>    11.4989     0.2855    65.2700 </r>
       <r>    11.6024     1.5361    65.4291 </r>
       <r>    11.7059     0.1999    65.4498 </r>
       <r>    11.8095     0.9114    65.5441 </r>
       <r>    11.9130     0.8602    65.6332 </r>
       <r>    12.0166     0.7995    65.7160 </r>
       <r>    12.1201     0.4062    65.7580 </r>
       <r>    12.2237     0.0474    65.7629 </r>
       <r>    12.3272     0.6115    65.8263 </r>
       <r>    12.4307     0.5872    65.8871 </r>
       <r>    12.5343     0.5894    65.9481 </r>
       <r>    12.6378     0.1982    65.9686 </r>
       <r>    12.7414     0.0098    65.9696 </r>
       <r>    12.8449     0.2000    65.9903 </r>
       <r>    12.9485     0.0912    65.9998 </r>
       <r>    13.0520     0.0024    66.0000 </r>
       <r>    13.1555     0.0000    66.0000 </r>
       <r>    13.2591     0.0000    66.0000 </r>
       <r>    13.3626     0.0000    66.0000 </r>
       <r>    13.4662     0.0000    66.0000 </r>
       <r>    13.5697     0.0000    66.0000 </r>
       <r>    13.6733     0.0000    66.0000 </r>
       <r>    13.7768     0.0000    66.0000 </r>
       <r>    13.8803     0.0000    66.0000 </r>
       <r>    13.9839     0.0000    66.0000 </r>
       <r>    14.0874     0.0000    66.0000 </r>
       <r>    14.1910     0.0000    66.0000 </r>
       <r>    14.2945     0.0000    66.0000 </r>
      </set>
     </set>
    </array>
   </total>
  </dos>
 </calculation>
 <structure name="finalpos" >
  <crystal>
   <varray name="basis" >
    <v>       4.24669932      -0.00000000      -0.00000000 </v>
    <v>       0.00000000       4.24669932      -0.00000000 </v>
    <v>      -0.00000000       0.00000000       4.24669932 </v>
   </varray>
   <i name="volume">     76.58690827 </i>
   <varray name="rec_basis" >
    <v>       0.23547700       0.00000000       0.00000000 </v>
    <v>       0.00000000       0.23547700       0.00000000 </v>
    <v>       0.00000000       0.00000000       0.23547700 </v>
   </varray>
  </crystal>
  <varray name="positions" >
   <v>       0.50000000       0.50000000       0.00000000 </v>
   <v>       0.00000000       0.50000000       0.50000000 </v>
   <v>       0.50000000       0.00000000       0.50000000 </v>
   <v>       0.00000000       0.00000000       0.00000000 </v>
   <v>       0.75000000       0.75000000       0.75000000 </v>
   <v>       0.25000000       0.25000000       0.25000000 </v>
  </varray>
 </structure>
</modeling>
