[1776314162.194897] [d01:1467245:f]        vfs_fuse.c:281  UCX  ERROR inotify_add_watch(/tmp) failed: No space left on device
 running    1 mpi-ranks, with    1 threads/rank, on    1 nodes
 distrk:  each k-point on    1 cores,    1 groups
 distr:  one band on    1 cores,    1 groups
 OpenACC runtime initialized ...    1 GPUs detected
 vasp.6.4.2 20Jul23 (build Mar  2 2025 11:04:54) complex                         
 POSCAR found type information on POSCAR Pt
 POSCAR found :  1 types and       1 ions
 scaLAPACK will be used selectively (only on CPU)
 LDA part: xc-table for Pade appr. of Perdew
 -----------------------------------------------------------------------------
|                                                                             |
|           W    W    AA    RRRRR   N    N  II  N    N   GGGG   !!!           |
|           W    W   A  A   R    R  NN   N  II  NN   N  G    G  !!!           |
|           W    W  A    A  R    R  N N  N  II  N N  N  G       !!!           |
|           W WW W  AAAAAA  RRRRR   N  N N  II  N  N N  G  GGG   !            |
|           WW  WW  A    A  R   R   N   NN  II  N   NN  G    G                |
|           W    W  A    A  R    R  N    N  II  N    N   GGGG   !!!           |
|                                                                             |
|     The requested file  could not be found or opened for reading            |
|     k-point information. Automatic k-point generation is used as a          |
|     fallback, which may lead to unwanted results.                           |
|                                                                             |
 -----------------------------------------------------------------------------

 POSCAR, INCAR and KPOINTS ok, starting setup
 FFT: planning ... GRIDC
 FFT: planning ... GRID_SOFT
 FFT: planning ... GRID
 WAVECAR not read
 entering main loop
       N       E                     dE             d eps       ncg     rms          rms(c)
DAV:   1     0.249985806708E+02    0.24999E+02   -0.46136E+03 11666   0.802E+02
DAV:   2    -0.608992723702E+01   -0.31089E+02   -0.29505E+02 10621   0.154E+02
DAV:   3    -0.637597670434E+01   -0.28605E+00   -0.28056E+00 11998   0.145E+01
DAV:   4    -0.637695969261E+01   -0.98299E-03   -0.98293E-03 11401   0.896E-01
DAV:   5    -0.637696713740E+01   -0.74448E-05   -0.74454E-05 11453   0.731E-02    0.868E+00
DAV:   6    -0.601774536576E+01    0.35922E+00   -0.11618E+00 10312   0.930E+00    0.462E+00
DAV:   7    -0.599482492118E+01    0.22920E-01   -0.10154E-01 11062   0.267E+00    0.227E+00
DAV:   8    -0.599273633487E+01    0.20886E-02   -0.29305E-03 10726   0.491E-01    0.449E-01
DAV:   9    -0.599260514591E+01    0.13119E-03   -0.11004E-04 10654   0.992E-02    0.534E-02
DAV:  10    -0.599260682643E+01   -0.16805E-05   -0.33434E-06 11232   0.180E-02    0.871E-03
DAV:  11    -0.599260667876E+01    0.14767E-06   -0.29257E-08  5375   0.205E-03
   1 F= -.59926067E+01 E0= -.59909755E+01  d E =-.489347E-02
Warning: ieee_invalid is signaling
Warning: ieee_divide_by_zero is signaling
Warning: ieee_underflow is signaling
Warning: ieee_inexact is signaling
FORTRAN STOP
