   2   2   0   0
  0.3784348E+02  0.4230000E-09  0.4230000E-09  0.4230000E-09  0.5000000E-15
   1.0000000000000000E-004
  CAR 
 unknown system                          
      9.00619431     -3.27886562  301      0.50909302      1.00000000
     -3.279  0.0000E+00  0.0000E+00
     -3.238  0.0000E+00  0.0000E+00
     -3.197  0.0000E+00  0.0000E+00
     -3.156  0.0000E+00  0.0000E+00
     -3.115  0.0000E+00  0.0000E+00
     -3.074  0.0000E+00  0.0000E+00
     -3.033  0.0000E+00  0.0000E+00
     -2.992  0.7505E-16  0.3073E-17
     -2.951  0.3356E-12  0.1375E-13
     -2.910  0.4064E-09  0.1666E-10
     -2.869  0.1385E-06  0.5689E-08
     -2.828  0.1413E-04  0.5842E-06
     -2.787  0.4786E-03  0.2018E-04
     -2.747  0.6153E-02  0.2721E-03
     -2.706  0.3375E-01  0.1654E-02
     -2.665  0.8614E-01  0.5181E-02
     -2.624  0.1240E+00  0.1026E-01
     -2.583  0.1698E+00  0.1721E-01
     -2.542  0.2211E+00  0.2626E-01
     -2.501  0.1929E+00  0.3416E-01
     -2.460  0.2218E+00  0.4325E-01
     -2.419  0.3016E+00  0.5559E-01
     -2.378  0.2919E+00  0.6755E-01
     -2.337  0.2888E+00  0.7938E-01
     -2.296  0.3314E+00  0.9295E-01
     -2.255  0.2744E+00  0.1042E+00
     -2.214  0.3251E+00  0.1175E+00
     -2.173  0.4330E+00  0.1352E+00
     -2.132  0.4203E+00  0.1524E+00
     -2.091  0.4215E+00  0.1697E+00
     -2.050  0.3461E+00  0.1839E+00
     -2.009  0.2791E+00  0.1953E+00
     -1.968  0.4318E+00  0.2130E+00
     -1.928  0.5612E+00  0.2360E+00
     -1.887  0.4928E+00  0.2561E+00
     -1.846  0.5244E+00  0.2776E+00
     -1.805  0.4551E+00  0.2963E+00
     -1.764  0.3359E+00  0.3100E+00
     -1.723  0.4788E+00  0.3296E+00
     -1.682  0.5856E+00  0.3536E+00
     -1.641  0.5349E+00  0.3755E+00
     -1.600  0.5139E+00  0.3966E+00
     -1.559  0.4824E+00  0.4163E+00
     -1.518  0.5668E+00  0.4395E+00
     -1.477  0.7174E+00  0.4689E+00
     -1.436  0.5925E+00  0.4932E+00
     -1.395  0.5660E+00  0.5163E+00
     -1.354  0.5662E+00  0.5395E+00
     -1.313  0.3789E+00  0.5550E+00
     -1.272  0.4662E+00  0.5741E+00
     -1.231  0.7346E+00  0.6042E+00
     -1.190  0.7401E+00  0.6345E+00
     -1.149  0.7684E+00  0.6660E+00
     -1.109  0.7794E+00  0.6979E+00
     -1.068  0.5968E+00  0.7223E+00
     -1.027  0.5598E+00  0.7453E+00
     -0.986  0.5793E+00  0.7690E+00
     -0.945  0.6030E+00  0.7937E+00
     -0.904  0.7252E+00  0.8234E+00
     -0.863  0.6601E+00  0.8504E+00
     -0.822  0.5817E+00  0.8742E+00
     -0.781  0.8558E+00  0.9093E+00
     -0.740  0.8675E+00  0.9448E+00
     -0.699  0.8125E+00  0.9781E+00
     -0.658  0.7565E+00  0.1009E+01
     -0.617  0.5237E+00  0.1030E+01
     -0.576  0.6308E+00  0.1056E+01
     -0.535  0.9408E+00  0.1095E+01
     -0.494  0.9145E+00  0.1132E+01
     -0.453  0.8055E+00  0.1165E+01
     -0.412  0.6467E+00  0.1192E+01
     -0.371  0.5275E+00  0.1213E+01
     -0.330  0.7661E+00  0.1245E+01
     -0.290  0.8884E+00  0.1281E+01
     -0.249  0.8533E+00  0.1316E+01
     -0.208  0.8813E+00  0.1352E+01
     -0.167  0.8053E+00  0.1385E+01
     -0.126  0.8997E+00  0.1422E+01
     -0.085  0.1242E+01  0.1473E+01
     -0.044  0.9753E+00  0.1513E+01
     -0.003  0.6332E+00  0.1539E+01
      0.038  0.6561E+00  0.1566E+01
      0.079  0.5550E+00  0.1588E+01
      0.120  0.6660E+00  0.1616E+01
      0.161  0.9854E+00  0.1656E+01
      0.202  0.1102E+01  0.1701E+01
      0.243  0.1157E+01  0.1748E+01
      0.284  0.8958E+00  0.1785E+01
      0.325  0.8225E+00  0.1819E+01
      0.366  0.1038E+01  0.1861E+01
      0.407  0.9938E+00  0.1902E+01
      0.448  0.9418E+00  0.1941E+01
      0.489  0.1024E+01  0.1982E+01
      0.530  0.7742E+00  0.2014E+01
      0.570  0.7677E+00  0.2046E+01
      0.611  0.1034E+01  0.2088E+01
      0.652  0.1105E+01  0.2133E+01
      0.693  0.1143E+01  0.2180E+01
      0.734  0.8584E+00  0.2215E+01
      0.775  0.7501E+00  0.2246E+01
      0.816  0.1016E+01  0.2287E+01
      0.857  0.9993E+00  0.2328E+01
      0.898  0.1054E+01  0.2372E+01
      0.939  0.1283E+01  0.2424E+01
      0.980  0.1027E+01  0.2466E+01
      1.021  0.1048E+01  0.2509E+01
      1.062  0.1208E+01  0.2558E+01
      1.103  0.1132E+01  0.2605E+01
      1.144  0.1141E+01  0.2652E+01
      1.185  0.1096E+01  0.2696E+01
      1.226  0.1032E+01  0.2739E+01
      1.267  0.1208E+01  0.2788E+01
      1.308  0.1232E+01  0.2839E+01
      1.349  0.1056E+01  0.2882E+01
      1.389  0.9683E+00  0.2921E+01
      1.430  0.9361E+00  0.2960E+01
      1.471  0.1181E+01  0.3008E+01
      1.512  0.1264E+01  0.3060E+01
      1.553  0.1069E+01  0.3104E+01
      1.594  0.1131E+01  0.3150E+01
      1.635  0.1122E+01  0.3196E+01
      1.676  0.1205E+01  0.3245E+01
      1.717  0.1324E+01  0.3300E+01
      1.758  0.9471E+00  0.3338E+01
      1.799  0.6291E+00  0.3364E+01
      1.840  0.8133E+00  0.3397E+01
      1.881  0.1144E+01  0.3444E+01
      1.922  0.1215E+01  0.3494E+01
      1.963  0.1146E+01  0.3541E+01
      2.004  0.9777E+00  0.3581E+01
      2.045  0.8868E+00  0.3617E+01
      2.086  0.1033E+01  0.3660E+01
      2.127  0.1202E+01  0.3709E+01
      2.168  0.1172E+01  0.3757E+01
      2.208  0.1052E+01  0.3800E+01
      2.249  0.1107E+01  0.3845E+01
      2.290  0.1377E+01  0.3902E+01
      2.331  0.1488E+01  0.3962E+01
      2.372  0.1456E+01  0.4022E+01
      2.413  0.1030E+01  0.4064E+01
      2.454  0.8896E+00  0.4101E+01
      2.495  0.1079E+01  0.4145E+01
      2.536  0.1282E+01  0.4197E+01
      2.577  0.1327E+01  0.4252E+01
      2.618  0.1211E+01  0.4301E+01
      2.659  0.1331E+01  0.4356E+01
      2.700  0.1350E+01  0.4411E+01
      2.741  0.1211E+01  0.4461E+01
      2.782  0.1072E+01  0.4505E+01
      2.823  0.7085E+00  0.4534E+01
      2.864  0.1034E+01  0.4576E+01
      2.905  0.1885E+01  0.4653E+01
      2.946  0.2127E+01  0.4740E+01
      2.987  0.2005E+01  0.4822E+01
      3.027  0.1505E+01  0.4884E+01
      3.068  0.1130E+01  0.4930E+01
      3.109  0.1122E+01  0.4976E+01
      3.150  0.9495E+00  0.5015E+01
      3.191  0.9651E+00  0.5055E+01
      3.232  0.1303E+01  0.5108E+01
      3.273  0.1394E+01  0.5165E+01
      3.314  0.1302E+01  0.5218E+01
      3.355  0.1227E+01  0.5269E+01
      3.396  0.1280E+01  0.5321E+01
      3.437  0.1245E+01  0.5372E+01
      3.478  0.9801E+00  0.5412E+01
      3.519  0.8901E+00  0.5449E+01
      3.560  0.1023E+01  0.5490E+01
      3.601  0.1198E+01  0.5539E+01
      3.642  0.1772E+01  0.5612E+01
      3.683  0.1980E+01  0.5693E+01
      3.724  0.1576E+01  0.5758E+01
      3.765  0.1356E+01  0.5813E+01
      3.806  0.1085E+01  0.5858E+01
      3.846  0.9768E+00  0.5898E+01
      3.887  0.9501E+00  0.5937E+01
      3.928  0.1169E+01  0.5984E+01
      3.969  0.1681E+01  0.6053E+01
      4.010  0.1508E+01  0.6115E+01
      4.051  0.1338E+01  0.6170E+01
      4.092  0.1635E+01  0.6237E+01
      4.133  0.1613E+01  0.6303E+01
      4.174  0.9237E+00  0.6341E+01
      4.215  0.7245E+00  0.6370E+01
      4.256  0.1050E+01  0.6413E+01
      4.297  0.1535E+01  0.6476E+01
      4.338  0.1673E+01  0.6545E+01
      4.379  0.1535E+01  0.6607E+01
      4.420  0.1464E+01  0.6667E+01
      4.461  0.1328E+01  0.6722E+01
      4.502  0.1109E+01  0.6767E+01
      4.543  0.1074E+01  0.6811E+01
      4.584  0.1349E+01  0.6866E+01
      4.625  0.1544E+01  0.6930E+01
      4.665  0.1569E+01  0.6994E+01
      4.706  0.1531E+01  0.7057E+01
      4.747  0.1159E+01  0.7104E+01
      4.788  0.8131E+00  0.7137E+01
      4.829  0.8577E+00  0.7172E+01
      4.870  0.1049E+01  0.7215E+01
      4.911  0.1051E+01  0.7258E+01
      4.952  0.1272E+01  0.7311E+01
      4.993  0.1606E+01  0.7376E+01
      5.034  0.1792E+01  0.7450E+01
      5.075  0.1649E+01  0.7517E+01
      5.116  0.1475E+01  0.7578E+01
      5.157  0.1477E+01  0.7638E+01
      5.198  0.1285E+01  0.7691E+01
      5.239  0.9066E+00  0.7728E+01
      5.280  0.9219E+00  0.7766E+01
      5.321  0.1002E+01  0.7807E+01
      5.362  0.1151E+01  0.7854E+01
      5.403  0.1128E+01  0.7900E+01
      5.444  0.1001E+01  0.7941E+01
      5.484  0.1242E+01  0.7992E+01
      5.525  0.1575E+01  0.8056E+01
      5.566  0.1480E+01  0.8117E+01
      5.607  0.1556E+01  0.8181E+01
      5.648  0.1672E+01  0.8249E+01
      5.689  0.1423E+01  0.8307E+01
      5.730  0.1128E+01  0.8354E+01
      5.771  0.1285E+01  0.8406E+01
      5.812  0.1208E+01  0.8456E+01
      5.853  0.9979E+00  0.8497E+01
      5.894  0.1149E+01  0.8544E+01
      5.935  0.9250E+00  0.8581E+01
      5.976  0.6670E+00  0.8609E+01
      6.017  0.7783E+00  0.8641E+01
      6.058  0.9775E+00  0.8681E+01
      6.099  0.1041E+01  0.8723E+01
      6.140  0.1249E+01  0.8774E+01
      6.181  0.1394E+01  0.8831E+01
      6.222  0.1622E+01  0.8898E+01
      6.263  0.1824E+01  0.8973E+01
      6.303  0.1284E+01  0.9025E+01
      6.344  0.8825E+00  0.9061E+01
      6.385  0.1034E+01  0.9104E+01
      6.426  0.9464E+00  0.9142E+01
      6.467  0.6331E+00  0.9168E+01
      6.508  0.6163E+00  0.9194E+01
      6.549  0.7858E+00  0.9226E+01
      6.590  0.1055E+01  0.9269E+01
      6.631  0.1263E+01  0.9321E+01
      6.672  0.9823E+00  0.9361E+01
      6.713  0.4123E+00  0.9378E+01
      6.754  0.4293E+00  0.9395E+01
      6.795  0.1009E+01  0.9437E+01
      6.836  0.1400E+01  0.9494E+01
      6.877  0.1238E+01  0.9545E+01
      6.918  0.9980E+00  0.9586E+01
      6.959  0.1142E+01  0.9632E+01
      7.000  0.1122E+01  0.9678E+01
      7.041  0.7666E+00  0.9710E+01
      7.082  0.3742E+00  0.9725E+01
      7.122  0.3092E+00  0.9738E+01
      7.163  0.4848E+00  0.9758E+01
      7.204  0.6242E+00  0.9783E+01
      7.245  0.6004E+00  0.9808E+01
      7.286  0.4208E+00  0.9825E+01
      7.327  0.3438E+00  0.9839E+01
      7.368  0.2249E+00  0.9848E+01
      7.409  0.1789E+00  0.9856E+01
      7.450  0.3396E+00  0.9869E+01
      7.491  0.3935E+00  0.9886E+01
      7.532  0.3701E+00  0.9901E+01
      7.573  0.3905E+00  0.9917E+01
      7.614  0.3346E+00  0.9930E+01
      7.655  0.2387E+00  0.9940E+01
      7.696  0.1395E+00  0.9946E+01
      7.737  0.6883E-01  0.9949E+01
      7.778  0.8848E-01  0.9952E+01
      7.819  0.1758E+00  0.9960E+01
      7.860  0.2132E+00  0.9968E+01
      7.901  0.1534E+00  0.9975E+01
      7.941  0.1193E+00  0.9979E+01
      7.982  0.5626E-01  0.9982E+01
      8.023  0.9236E-02  0.9982E+01
      8.064  0.9576E-02  0.9982E+01
      8.105  0.5813E-01  0.9985E+01
      8.146  0.1179E+00  0.9990E+01
      8.187  0.9154E-01  0.9993E+01
      8.228  0.3454E-01  0.9995E+01
      8.269  0.6012E-02  0.9995E+01
      8.310  0.3738E-03  0.9995E+01
      8.351  0.3700E-03  0.9995E+01
      8.392  0.6445E-02  0.9995E+01
      8.433  0.3336E-01  0.9997E+01
      8.474  0.5161E-01  0.9999E+01
      8.515  0.2404E-01  0.1000E+02
      8.556  0.3328E-02  0.1000E+02
      8.597  0.1334E-03  0.1000E+02
      8.638  0.1506E-05  0.1000E+02
      8.679  0.4691E-08  0.1000E+02
      8.720  0.3967E-11  0.1000E+02
      8.760  0.9006E-15  0.1000E+02
      8.801  0.0000E+00  0.1000E+02
      8.842  0.0000E+00  0.1000E+02
      8.883  0.0000E+00  0.1000E+02
      8.924  0.0000E+00  0.1000E+02
      8.965  0.0000E+00  0.1000E+02
      9.006  0.0000E+00  0.1000E+02
